74
Coordinates from ORCA-job R4N+PFHxA-_wb E -2390.124466452395
  N       1.157556     -8.022425      1.073820
  C       2.857659     -3.537233     -3.500582
  C       4.324765     -3.213155     -3.821168
  C       5.114113     -2.614526     -2.644059
  C       2.739558     -4.491842     -2.332999
  C       2.119104     -4.064955     -4.741605
  C       2.428659     -7.162086      1.047465
  C       2.531793     -6.244360     -0.132623
  C       4.455316     -1.370996     -2.079951
  C       2.105719     -4.094809     -1.154751
  C       3.276260     -5.783530     -2.392010
  C       6.559495     -2.326213     -3.068485
  C       1.200233     -8.855266      2.322177
  C       1.103679     -8.928550     -0.118432
  C      -0.070857     -7.162196      1.102070
  C       2.012791     -4.950519     -0.063518
  C       3.173065     -6.648437     -1.308956
  C       0.616165     -4.206402     -4.517763
  C       4.089550     -1.306393     -0.732636
  C       4.204476     -0.255495     -2.888351
  C       3.486029     -0.166180     -0.203602
  C       3.606558      0.887035     -2.363582
  C       3.242990      0.936378     -1.018170
  H       2.367373     -2.599786     -3.203937
  H       4.348785     -2.512192     -4.666799
  H       4.838102     -4.125474     -4.155233
  H       5.138852     -3.361315     -1.838371
  H       2.550355     -5.030210     -5.040168
  H       2.302422     -3.369184     -5.571040
  H       3.259510     -7.873029      1.071822
  H       2.410735     -6.594426      1.982397
  H       1.698627     -3.090698     -1.086218
  H       3.787791     -6.116900     -3.291714
  H       7.044922     -3.242073     -3.424572
  H       7.145563     -1.931056     -2.231754
  H       6.588444     -1.590433     -3.880625
  H       2.096076     -9.478821      2.297453
  H       0.305601     -9.479953      2.352352
  H       1.224954     -8.188914      3.186791
  H       0.219477     -9.562312     -0.025483
  H       2.007584     -9.540855     -0.136018
  H       1.034393     -8.324431     -1.023976
  H      -0.136418     -6.607327      0.165927
  H      -0.000082     -6.479035      1.950945
  H      -0.939803     -7.814643      1.209680
  H       1.536621     -4.609578      0.852160
  H       3.601706     -7.645939     -1.371313
  H       0.112553     -4.563531     -5.422451
  H       0.172926     -3.240767     -4.244973
  H       0.395347     -4.914642     -3.710589
  H       4.274284     -2.165171     -0.090801
  H       4.478563     -0.279100     -3.940678
  H       3.205134     -0.141868      0.846261
  H       3.420107      1.742113     -3.008261
  H       2.770995      1.826299     -0.610703
  F       0.217116     -1.706502      0.470553
  F      -1.627684     -0.632204      1.002828
  F      -3.016970     -3.095936      0.433863
  F      -1.032523     -4.038097      0.319611
  F      -2.711921     -0.975607     -1.323555
  F      -1.327181     -2.580181     -1.907764
  F      -2.632956     -2.308688      2.921070
  F      -2.127033     -4.425994      2.660082
  F      -1.042111      0.003897     -3.061392
  F      -0.359461      0.707667     -1.115228
  F       0.700919     -0.901963     -2.135661
  O      -0.102799     -1.769640      3.535123
  O       0.487747     -3.893271      3.017621
  C      -1.129234     -1.674020      0.300340
  C      -1.725738     -3.005191      0.855041
  C      -1.443027     -1.423876     -1.215054
  C      -1.692922     -3.151234      2.407798
  C      -0.502711     -0.373155     -1.895188
  C      -0.283896     -2.911007      3.063399
74
Coordinates from ORCA-job R4N+PFHxA-_wb E -2390.127201355770
  N       1.150267     -8.015319      1.070657
  C       2.856441     -3.538802     -3.493844
  C       4.319062     -3.205128     -3.813539
  C       5.114150     -2.602586     -2.645364
  C       2.738385     -4.493927     -2.327059
  C       2.122856     -4.064769     -4.734183
  C       2.410354     -7.161532      1.044113
  C       2.521431     -6.242604     -0.134295
  C       4.463034     -1.357598     -2.076704
  C       2.104718     -4.098305     -1.154068
  C       3.271695     -5.782126     -2.383923
  C       6.554860     -2.320911     -3.076125
  C       1.196952     -8.838913      2.311421
  C       1.095053     -8.920566     -0.109383
  C      -0.074639     -7.166489      1.100799
  C       2.008469     -4.951883     -0.066396
  C       3.163915     -6.644830     -1.304741
  C       0.622575     -4.215834     -4.518003
  C       4.106139     -1.294498     -0.731783
  C       4.207251     -0.244315     -2.878942
  C       3.502417     -0.160870     -0.200037
  C       3.609189      0.891916     -2.352145
  C       3.250693      0.937472     -1.009790
  H       2.362065     -2.608762     -3.197966
  H       4.336636     -2.507776     -4.657486
  H       4.834295     -4.111298     -4.149127
  H       5.143465     -3.343887     -1.840834
  H       2.558272     -5.023367     -5.034808
  H       2.303984     -3.368314     -5.558333
  H       3.236391     -7.870739      1.071841
  H       2.390828     -6.597516      1.975686
  H       1.696678     -3.097621     -1.087671
  H       3.782580     -6.115943     -3.280397
  H       7.034406     -3.235997     -3.431614
  H       7.145074     -1.927878     -2.245545
  H       6.583469     -1.588777     -3.887332
  H       2.091153     -9.457652      2.285588
  H       0.306848     -9.462909      2.343852
  H       1.221847     -8.172135      3.170517
  H       0.216067     -9.553485     -0.009888
  H       1.997134     -9.528239     -0.126518
  H       1.020610     -8.323152     -1.013962
  H      -0.147569     -6.615079      0.167663
  H      -0.006104     -6.484485      1.945660
  H      -0.935630     -7.821787      1.211822
  H       1.532938     -4.610832      0.846222
  H       3.588855     -7.640692     -1.366913
  H       0.126610     -4.570888     -5.423677
  H       0.172371     -3.257948     -4.243460
  H       0.402464     -4.927474     -3.718133
  H       4.293363     -2.152056     -0.094243
  H       4.472942     -0.266473     -3.930488
  H       3.222068     -0.141188      0.847021
  H       3.414376      1.743444     -2.994054
  H       2.771415      1.819617     -0.601999
  F       0.214535     -1.710664      0.456019
  F      -1.612122     -0.642630      0.989386
  F      -2.999137     -3.097810      0.444084
  F      -1.033840     -4.034689      0.320706
  F      -2.702296     -0.990610     -1.321551
  F      -1.331444     -2.584271     -1.903484
  F      -2.604672     -2.311680      2.916675
  F      -2.119065     -4.414172      2.653672
  F      -1.046269     -0.021294     -3.061627
  F      -0.359284      0.688522     -1.138601
  F       0.685931     -0.915184     -2.145321
  O      -0.082850     -1.794472      3.530594
  O       0.486123     -3.909144      3.018268
  C      -1.122843     -1.680765      0.292502
  C      -1.715251     -3.005776      0.854721
  C      -1.441131     -1.434551     -1.217094
  C      -1.677823     -3.152757      2.402980
  C      -0.507883     -0.390427     -1.903507
  C      -0.272059     -2.926328      3.059374
74
Coordinates from ORCA-job R4N+PFHxA-_wb E -2390.127296861235
  N       1.148763     -8.018590      1.072016
  C       2.857944     -3.536462     -3.490323
  C       4.319637     -3.203625     -3.808463
  C       5.114217     -2.599710     -2.642884
  C       2.738045     -4.493601     -2.324842
  C       2.125390     -4.057265     -4.732139
  C       2.404874     -7.165001      1.042461
  C       2.517619     -6.244289     -0.135498
  C       4.465111     -1.350745     -2.080666
  C       2.104720     -4.099264     -1.152350
  C       3.269847     -5.781331     -2.382408
  C       6.556549     -2.326509     -3.070328
  C       1.198451     -8.839633      2.313335
  C       1.091643     -8.925242     -0.105311
  C      -0.076039     -7.173253      1.102951
  C       2.005891     -4.954325     -0.067011
  C       3.160337     -6.644905     -1.305136
  C       0.624684     -4.204235     -4.521972
  C       4.100499     -1.283758     -0.739044
  C       4.215339     -0.239895     -2.886437
  C       3.497320     -0.147960     -0.213477
  C       3.617637      0.898455     -2.366273
  C       3.252938      0.948404     -1.026624
  H       2.363768     -2.606922     -3.192151
  H       4.337654     -2.508142     -4.653878
  H       4.835303     -4.110163     -4.142234
  H       5.138818     -3.337073     -1.834706
  H       2.558352     -5.016357     -5.034520
  H       2.310913     -3.360156     -5.554499
  H       3.232808     -7.871783      1.070270
  H       2.388131     -6.600386      1.973577
  H       1.695605     -3.099065     -1.084963
  H       3.781548     -6.114568     -3.278696
  H       7.033314     -3.244680     -3.421045
  H       7.146487     -1.933672     -2.239669
  H       6.592129     -1.597424     -3.883926
  H       2.092818     -9.457934      2.288184
  H       0.309608     -9.464921      2.349337
  H       1.224076     -8.172683      3.172119
  H       0.214697     -9.560228     -0.002748
  H       1.994329     -9.531717     -0.125217
  H       1.012465     -8.330978     -1.011488
  H      -0.153366     -6.623942      0.169394
  H      -0.007837     -6.489255      1.945743
  H      -0.936035     -7.829019      1.217495
  H       1.528780     -4.614181      0.844992
  H       3.584735     -7.640920     -1.368622
  H       0.131183     -4.555131     -5.430386
  H       0.175755     -3.246188     -4.246381
  H       0.398638     -4.917618     -3.725474
  H       4.282635     -2.139987     -0.098149
  H       4.486359     -0.265270     -3.936635
  H       3.212455     -0.124731      0.832129
  H       3.428658      1.748870     -3.011337
  H       2.773983      1.832808     -0.623447
  F       0.214619     -1.716156      0.457495
  F      -1.608642     -0.648068      0.994128
  F      -2.998128     -3.099439      0.450346
  F      -1.036418     -4.037590      0.320201
  F      -2.702469     -0.993671     -1.315088
  F      -1.333834     -2.584667     -1.900637
  F      -2.597452     -2.314414      2.919921
  F      -2.121970     -4.416812      2.653981
  F      -1.048037     -0.028318     -3.058060
  F      -0.365032      0.687509     -1.138365
  F       0.683844     -0.915656     -2.138497
  O      -0.072570     -1.805460      3.523356
  O       0.485479     -3.921629      3.017743
  C      -1.121022     -1.684167      0.296208
  C      -1.714816     -3.010157      0.856246
  C      -1.442777     -1.437583     -1.213448
  C      -1.677377     -3.158990      2.405371
  C      -0.509600     -0.392122     -1.900156
  C      -0.270185     -2.938865      3.062496
74
Coordinates from ORCA-job R4N+PFHxA-_wb E -2390.126829194090
  N       1.145288     -8.022393      1.072595
  C       2.859746     -3.533099     -3.486659
  C       4.320572     -3.201228     -3.800578
  C       5.113263     -2.596021     -2.637333
  C       2.735871     -4.491839     -2.322147
  C       2.130436     -4.048259     -4.730925
  C       2.393254     -7.165643      1.042404
  C       2.508834     -6.242960     -0.135427
  C       4.465441     -1.342573     -2.083184
  C       2.101918     -4.097753     -1.151157
  C       3.265234     -5.779283     -2.379019
  C       6.558094     -2.333527     -3.058264
  C       1.197868     -8.841045      2.314362
  C       1.091471     -8.930408     -0.102098
  C      -0.081913     -7.184999      1.101887
  C       1.998465     -4.953686     -0.067838
  C       3.152479     -6.642873     -1.303361
  C       0.629171     -4.191739     -4.530607
  C       4.087991     -1.272366     -0.746460
  C       4.225676     -0.233399     -2.892260
  C       3.484431     -0.134427     -0.228431
  C       3.627347      0.907085     -2.380327
  C       3.251512      0.960703     -1.044858
  H       2.364842     -2.604356     -3.186405
  H       4.340073     -2.508015     -4.647905
  H       4.837374     -4.108048     -4.132173
  H       5.131151     -3.328491     -1.824436
  H       2.561539     -5.007687     -5.035191
  H       2.321841     -3.350377     -5.551140
  H       3.226565     -7.865981      1.072750
  H       2.377247     -6.599144      1.972403
  H       1.691678     -3.097958     -1.083861
  H       3.778416     -6.112978     -3.274474
  H       7.031951     -3.255448     -3.402667
  H       7.146775     -1.941505     -2.226436
  H       6.604442     -1.607970     -3.874530
  H       2.094178     -9.456571      2.292491
  H       0.312334     -9.470697      2.352508
  H       1.220292     -8.174794      3.173725
  H       0.219156     -9.571427      0.001547
  H       1.996947     -9.532566     -0.124448
  H       1.006021     -8.340265     -1.010474
  H      -0.164405     -6.637440      0.168121
  H      -0.018397     -6.498960      1.942809
  H      -0.939677     -7.843284      1.218243
  H       1.518412     -4.613302      0.843165
  H       3.575765     -7.639416     -1.367579
  H       0.140649     -4.538414     -5.443174
  H       0.179868     -3.233996     -4.254827
  H       0.394823     -4.907312     -3.738492
  H       4.262059     -2.127784     -0.102012
  H       4.506277     -0.261194     -3.940074
  H       3.191271     -0.108241      0.814730
  H       3.447743      1.757154     -3.028561
  H       2.772491      1.847654     -0.647268
  F       0.217861     -1.718645      0.448131
  F      -1.598890     -0.647817      0.991824
  F      -2.996902     -3.093945      0.471303
  F      -1.041684     -4.038216      0.318801
  F      -2.707668     -1.000742     -1.309206
  F      -1.342018     -2.589097     -1.899766
  F      -2.555857     -2.302329      2.934851
  F      -2.112061     -4.409305      2.661957
  F      -1.060790     -0.047716     -3.067936
  F      -0.381835      0.688187     -1.156999
  F       0.675050     -0.916986     -2.141571
  O      -0.036710     -1.840253      3.543688
  O       0.482679     -3.964905      3.047574
  C      -1.116041     -1.684248      0.294982
  C      -1.710431     -3.009856      0.859164
  C      -1.448950     -1.443260     -1.214868
  C      -1.657583     -3.159441      2.409423
  C      -0.519205     -0.396735     -1.908976
  C      -0.237325     -2.956552      3.046833
74
Coordinates from ORCA-job R4N+PFHxA-_wb E -2390.127332851549
  N       1.148515     -8.020327      1.073058
  C       2.858585     -3.534900     -3.489174
  C       4.320323     -3.203111     -3.805890
  C       5.115191     -2.598681     -2.641438
  C       2.736679     -4.492591     -2.324041
  C       2.126685     -4.053614     -4.731689
  C       2.401082     -7.164620      1.043362
  C       2.513799     -6.243575     -0.135028
  C       4.467297     -1.347471     -2.082220
  C       2.102176     -4.098391     -1.152201
  C       3.267542     -5.780567     -2.381308
  C       6.558488     -2.330264     -3.067154
  C       1.199127     -8.840808      2.314732
  C       1.093951     -8.927716     -0.103681
  C      -0.078031     -7.178155      1.102745
  C       2.001585     -4.953847     -0.067330
  C       3.156893     -6.644217     -1.304316
  C       0.625697     -4.198721     -4.524617
  C       4.099053     -1.278385     -0.741779
  C       4.222036     -0.236850     -2.889459
  C       3.496847     -0.140897     -0.218883
  C       3.624939      0.903107     -2.372301
  C       3.256739      0.955064     -1.033710
  H       2.364346     -2.605556     -3.189910
  H       4.338980     -2.508699     -4.652337
  H       4.835941     -4.110037     -4.139255
  H       5.137513     -3.333870     -1.830957
  H       2.558451     -5.013174     -5.034886
  H       2.314392     -3.356430     -5.553639
  H       3.232341     -7.867691      1.072293
  H       2.384773     -6.598473      1.973739
  H       1.692051     -3.098512     -1.084829
  H       3.779789     -6.114109     -3.277289
  H       7.033717     -3.250247     -3.415414
  H       7.148671     -1.937751     -2.236392
  H       6.598470     -1.602778     -3.882131
  H       2.094580     -9.457766      2.291347
  H       0.311750     -9.468287      2.351114
  H       1.222788     -8.174285      3.174018
  H       0.219318     -9.566060     -0.001320
  H       1.998327     -9.531806     -0.124524
  H       1.012060     -8.335031     -1.010808
  H      -0.157262     -6.629781      0.168712
  H      -0.012319     -6.492779      1.944713
  H      -0.937360     -7.834856      1.217915
  H       1.522472     -4.613673      0.843781
  H       3.581050     -7.640410     -1.368070
  H       0.133588     -4.548545     -5.434289
  H       0.176908     -3.240388     -4.249503
  H       0.396324     -4.912305     -3.729070
  H       4.278012     -2.134175     -0.099288
  H       4.496264     -0.263506     -3.938900
  H       3.209505     -0.116040      0.826067
  H       3.439728      1.753375     -3.018744
  H       2.778771      1.841001     -0.632523
  F       0.214673     -1.719219      0.454594
  F      -1.605552     -0.648086      0.995393
  F      -3.000959     -3.097384      0.457388
  F      -1.041074     -4.038720      0.318983
  F      -2.707034     -0.993969     -1.309894
  F      -1.341298     -2.585840     -1.899883
  F      -2.587069     -2.311602      2.926094
  F      -2.124102     -4.416630      2.655976
  F      -1.055649     -0.034764     -3.061302
  F      -0.371977      0.688228     -1.144437
  F       0.678491     -0.916786     -2.140226
  O      -0.059296     -1.817571      3.523996
  O       0.483020     -3.939201      3.024653
  C      -1.120743     -1.684779      0.297094
  C      -1.716068     -3.010976      0.857625
  C      -1.447699     -1.439127     -1.212645
  C      -1.674664     -3.161324      2.407683
  C      -0.515222     -0.393595     -1.902785
  C      -0.263128     -2.948882      3.060280
74
Coordinates from ORCA-job R4N+PFHxA-_wb E -2390.127336393023
  N       1.150569     -8.018290      1.074752
  C       2.858334     -3.534258     -3.490847
  C       4.320050     -3.203405     -3.808503
  C       5.116512     -2.601050     -2.644119
  C       2.736483     -4.491316     -2.325127
  C       2.125542     -4.053238     -4.732731
  C       2.402201     -7.161490      1.044322
  C       2.513904     -6.241190     -0.134865
  C       4.468547     -1.351555     -2.081153
  C       2.101169     -4.096813     -1.153712
  C       3.268170     -5.779080     -2.381355
  C       6.558928     -2.330860     -3.071587
  C       1.201617     -8.837687      2.317142
  C       1.096827     -8.926903     -0.101179
  C      -0.076757     -7.177006      1.103547
  C       2.000556     -4.951732     -0.068263
  C       3.157759     -6.642138     -1.303744
  C       0.624468     -4.196587     -4.525167
  C       4.102779     -1.285631     -0.739780
  C       4.220994     -0.239281     -2.885563
  C       3.501410     -0.149349     -0.213110
  C       3.624558      0.899433     -2.364685
  C       3.259523      0.948516     -1.025008
  H       2.364645     -2.604594     -3.191486
  H       4.338387     -2.508012     -4.654206
  H       4.834618     -4.110242     -4.143794
  H       5.140742     -3.337834     -1.835097
  H       2.556177     -5.013509     -5.035381
  H       2.313726     -3.356996     -5.555419
  H       3.234624     -7.863195      1.073704
  H       2.385962     -6.594347      1.974121
  H       1.690377     -3.097167     -1.086861
  H       3.780861     -6.112953     -3.276961
  H       7.034234     -3.249841     -3.422463
  H       7.150303     -1.939736     -2.240984
  H       6.597500     -1.601729     -3.885192
  H       2.097489     -9.454097      2.294462
  H       0.314664     -9.465769      2.354024
  H       1.224760     -8.170460      3.175926
  H       0.222914     -9.566177      0.001787
  H       2.001821     -9.530105     -0.121721
  H       1.014103     -8.335247     -1.008910
  H      -0.156571     -6.629766      0.168840
  H      -0.011570     -6.490522      1.944690
  H      -0.935719     -7.834069      1.219576
  H       1.520230     -4.611290      0.842184
  H       3.582762     -7.638014     -1.366795
  H       0.131851     -4.547375     -5.434223
  H       0.176613     -3.237359     -4.251576
  H       0.394317     -4.908621     -3.728425
  H       4.283429     -2.142700     -0.099450
  H       4.493176     -0.263495     -3.935598
  H       3.216644     -0.126703      0.832572
  H       3.437852      1.751077     -3.008880
  H       2.783000      1.833790     -0.620650
  F       0.212951     -1.720093      0.452181
  F      -1.606197     -0.647627      0.994166
  F      -3.003585     -3.096575      0.454896
  F      -1.043755     -4.038462      0.316201
  F      -2.709291     -0.991782     -1.310510
  F      -1.345123     -2.584658     -1.902100
  F      -2.590594     -2.312630      2.923957
  F      -2.127054     -4.417572      2.652665
  F      -1.057816     -0.034489     -3.063565
  F      -0.374397      0.689141     -1.146643
  F       0.676502     -0.916119     -2.141909
  O      -0.063216     -1.817223      3.521398
  O       0.480364     -3.938907      3.022387
  C      -1.122516     -1.684553      0.295312
  C      -1.718564     -3.010729      0.855363
  C      -1.450176     -1.438132     -1.214276
  C      -1.677745     -3.161935      2.405383
  C      -0.517470     -0.392970     -1.904652
  C      -0.266595     -2.949126      3.058554
74
Coordinates from ORCA-job R4N+PFHxA-_wb E -2390.127342714580
  N       1.153068     -8.015190      1.077590
  C       2.858287     -3.533274     -3.492657
  C       4.319794     -3.203746     -3.812642
  C       5.119717     -2.603696     -2.649428
  C       2.736690     -4.489047     -2.325700
  C       2.123734     -4.053312     -4.733000
  C       2.402648     -7.156211      1.046949
  C       2.513529     -6.236880     -0.133338
  C       4.472425     -1.356370     -2.080723
  C       2.098953     -4.094274     -1.155570
  C       3.270306     -5.776196     -2.379587
  C       6.560372     -2.331231     -3.080932
  C       1.204647     -8.833689      2.320545
  C       1.101510     -8.924863     -0.097684
  C      -0.075936     -7.176022      1.105113
  C       1.997826     -4.948127     -0.069109
  C       3.159949     -6.638086     -1.300867
  C       0.622401     -4.192270     -4.524519
  C       4.109694     -1.295661     -0.738194
  C       4.223244     -0.240830     -2.880246
  C       3.509503     -0.161366     -0.205701
  C       3.628300      0.896100     -2.353490
  C       3.266434      0.940040     -1.012621
  H       2.365301     -2.603188     -3.193426
  H       4.337064     -2.507426     -4.657683
  H       4.832571     -4.110589     -4.150750
  H       5.147553     -3.342297     -1.842167
  H       2.551747     -5.015398     -5.033733
  H       2.313287     -3.359667     -5.557632
  H       3.237318     -7.855235      1.077554
  H       2.385814     -6.587557      1.975858
  H       1.686554     -3.095231     -1.089859
  H       3.784510     -6.110595     -3.274137
  H       7.035294     -3.248881     -3.435941
  H       7.154458     -1.942157     -2.251256
  H       6.596429     -1.599854     -3.892669
  H       2.101379     -9.448939      2.298898
  H       0.318548     -9.462994      2.357519
  H       1.226486     -8.165932      3.178992
  H       0.229122     -9.566227      0.005561
  H       2.007853     -9.526074     -0.118005
  H       1.017304     -8.334219     -1.005963
  H      -0.156731     -6.630262      0.169569
  H      -0.012156     -6.488130      1.945316
  H      -0.933977     -7.834191      1.221962
  H       1.514479     -4.607169      0.839590
  H       3.586802     -7.633268     -1.362379
  H       0.128707     -4.545642     -5.432030
  H       0.176830     -3.230792     -4.254948
  H       0.390309     -4.900323     -3.724760
  H       4.291391     -2.155271     -0.101589
  H       4.493034     -0.260952     -3.930984
  H       3.227298     -0.142724      0.840760
  H       3.440425      1.750311     -2.993929
  H       2.792438      1.824398     -0.603323
  F       0.209296     -1.723573      0.447881
  F      -1.607103     -0.647881      0.992770
  F      -3.009501     -3.095094      0.452192
  F      -1.050534     -4.039056      0.311213
  F      -2.714460     -0.988313     -1.310064
  F      -1.354255     -2.583508     -1.905411
  F      -2.594642     -2.314365      2.921722
  F      -2.133224     -4.419688      2.647765
  F      -1.062650     -0.036815     -3.067759
  F      -0.381188      0.690049     -1.151069
  F       0.671794     -0.915985     -2.143328
  O      -0.065894     -1.819890      3.514681
  O       0.474546     -3.943610      3.019506
  C      -1.126269     -1.685378      0.292685
  C      -1.723925     -3.011112      0.852071
  C      -1.455937     -1.437398     -1.216400
  C      -1.682710     -3.164119      2.401912
  C      -0.522948     -0.393260     -1.907542
  C      -0.271138     -2.952739      3.054457
74
Coordinates from ORCA-job R4N+PFHxA-_wb E -2390.127345127964
  N       1.151606     -8.018120      1.076649
  C       2.859146     -3.532771     -3.490397
  C       4.321058     -3.203997     -3.808882
  C       5.118842     -2.602013     -2.645218
  C       2.736303     -4.489493     -2.324369
  C       2.124789     -4.051560     -4.731355
  C       2.400845     -7.159023      1.046503
  C       2.511585     -6.238885     -0.133300
  C       4.472295     -1.351234     -2.083193
  C       2.097551     -4.095668     -1.154541
  C       3.269944     -5.776627     -2.378733
  C       6.561334     -2.333946     -3.073174
  C       1.203549     -8.838004      2.318673
  C       1.099743     -8.926509     -0.099639
  C      -0.077522     -7.179073      1.105489
  C       1.995675     -4.950209     -0.068662
  C       3.158730     -6.639301     -1.300712
  C       0.623080     -4.187991     -4.523855
  C       4.102651     -1.285367     -0.742725
  C       4.230418     -0.237500     -2.887443
  C       3.503449     -0.147449     -0.216753
  C       3.636785      0.903085     -2.367156
  C       3.268476      0.952435     -1.028195
  H       2.366503     -2.602683     -3.190641
  H       4.339855     -2.509030     -4.655032
  H       4.834251     -4.111506     -4.144599
  H       5.142483     -3.337742     -1.835201
  H       2.551433     -5.014330     -5.031858
  H       2.315983     -3.358218     -5.555880
  H       3.235950     -7.857567      1.076503
  H       2.384400     -6.590829      1.975716
  H       1.685494     -3.096574     -1.088045
  H       3.784932     -6.110409     -3.273070
  H       7.035452     -3.253736     -3.423749
  H       7.153792     -1.943505     -2.242963
  H       6.601727     -1.605317     -3.887185
  H       2.100197     -9.453356      2.296052
  H       0.317378     -9.467226      2.355296
  H       1.225827     -8.171215      3.177873
  H       0.227601     -9.568264      0.003251
  H       2.006223     -9.527472     -0.121149
  H       1.014903     -8.334900     -1.007240
  H      -0.158914     -6.632759      0.170323
  H      -0.013350     -6.491711      1.946133
  H      -0.935484     -7.837339      1.222366
  H       1.511520     -4.609514      0.839690
  H       3.585853     -7.634336     -1.362674
  H       0.129431     -4.541039     -5.431525
  H       0.178825     -3.225645     -4.255069
  H       0.389140     -4.895250     -3.723923
  H       4.278206     -2.143592     -0.102552
  H       4.505338     -0.261783     -3.936775
  H       3.215772     -0.124763      0.828179
  H       3.455082      1.755945     -3.011164
  H       2.796230      1.839972     -0.623802
  F       0.210218     -1.728358      0.448865
  F      -1.603576     -0.649822      0.996619
  F      -3.010895     -3.094661      0.458709
  F      -1.053741     -4.041675      0.312676
  F      -2.715667     -0.988999     -1.304256
  F      -1.357876     -2.585219     -1.902593
  F      -2.588321     -2.315470      2.927961
  F      -2.132588     -4.421773      2.651537
  F      -1.064363     -0.041614     -3.066227
  F      -0.385175      0.688989     -1.150093
  F       0.670675     -0.917151     -2.139213
  O      -0.055568     -1.826056      3.511325
  O       0.475972     -3.953127      3.020677
  C      -1.125506     -1.688070      0.295724
  C      -1.724230     -3.012997      0.855807
  C      -1.457367     -1.439377     -1.212839
  C      -1.679640     -3.167119      2.405427
  C      -0.524992     -0.395603     -1.904990
  C      -0.265936     -2.959393      3.054474
74
Coordinates from ORCA-job R4N+PFHxA-_wb E -2390.127345877317
  N       1.151559     -8.017368      1.076356
  C       2.859048     -3.532835     -3.490751
  C       4.320905     -3.203932     -3.809221
  C       5.118617     -2.602592     -2.645166
  C       2.736352     -4.489265     -2.324533
  C       2.124678     -4.052023     -4.731607
  C       2.400630     -7.157799      1.046815
  C       2.511695     -6.237859     -0.133044
  C       4.472145     -1.352115     -2.082434
  C       2.097358     -4.095179     -1.154997
  C       3.270481     -5.776177     -2.378338
  C       6.561110     -2.334244     -3.073092
  C       1.203454     -8.837257      2.318391
  C       1.100514     -8.925658     -0.100022
  C      -0.077881     -7.178836      1.104802
  C       1.995440     -4.949365     -0.068910
  C       3.159245     -6.638463     -1.300092
  C       0.622965     -4.188414     -4.524032
  C       4.103508     -1.286462     -0.741734
  C       4.229357     -0.238442     -2.886425
  C       3.505044     -0.148525     -0.215081
  C       3.636063      0.901991     -2.365529
  C       3.269223      0.951316     -1.026234
  H       2.366413     -2.602636     -3.191265
  H       4.339713     -2.508462     -4.654903
  H       4.834085     -4.111275     -4.145344
  H       5.142254     -3.338888     -1.835679
  H       2.551371     -5.014876     -5.031675
  H       2.315806     -3.358923     -5.556314
  H       3.235623     -7.856431      1.077310
  H       2.383174     -6.589703      1.976044
  H       1.684935     -3.096178     -1.089106
  H       3.785907     -6.110047     -3.272382
  H       7.035186     -3.253835     -3.424186
  H       7.153567     -1.944176     -2.242721
  H       6.601227     -1.605210     -3.886723
  H       2.100370     -9.452199      2.295925
  H       0.317509     -9.466796      2.354675
  H       1.225227     -8.170398      3.177532
  H       0.228489     -9.567599      0.002516
  H       2.007210     -9.526293     -0.121008
  H       1.016001     -8.333921     -1.007561
  H      -0.158986     -6.632368      0.169726
  H      -0.014310     -6.491737      1.945623
  H      -0.935481     -7.837644      1.221115
  H       1.511137     -4.608418      0.839264
  H       3.586655     -7.633402     -1.361552
  H       0.129309     -4.541907     -5.431508
  H       0.178769     -3.225967     -4.255687
  H       0.389195     -4.895332     -3.723768
  H       4.279991     -2.144628     -0.101737
  H       4.503332     -0.262652     -3.936004
  H       3.218380     -0.125898      0.830110
  H       3.453754      1.754917     -3.009282
  H       2.797322      1.838809     -0.621352
  F       0.210316     -1.728301      0.447178
  F      -1.602997     -0.649465      0.995944
  F      -3.010947     -3.093862      0.459739
  F      -1.054498     -4.041671      0.312513
  F      -2.716576     -0.989107     -1.304030
  F      -1.359342     -2.585487     -1.902824
  F      -2.586375     -2.314390      2.928620
  F      -2.132378     -4.420816      2.651934
  F      -1.066338     -0.043180     -3.067748
  F      -0.386879      0.689241     -1.152527
  F       0.669231     -0.917197     -2.140831
  O      -0.053128     -1.827295      3.511522
  O       0.476382     -3.954586      3.020394
  C      -1.125526     -1.687945      0.295011
  C      -1.724080     -3.012571      0.855967
  C      -1.458249     -1.439483     -1.213313
  C      -1.678545     -3.166588      2.405533
  C      -0.526471     -0.395991     -1.906520
  C      -0.264457     -2.960136      3.054121
74
Coordinates from ORCA-job R4N+PFHxA-_wb E -2390.127346799117
  N       1.151361     -8.017382      1.075460
  C       2.858680     -3.532759     -3.490830
  C       4.320792     -3.204115     -3.808230
  C       5.116946     -2.603286     -2.642793
  C       2.735540     -4.489089     -2.324671
  C       2.124561     -4.051818     -4.732005
  C       2.399779     -7.156283      1.047185
  C       2.511077     -6.236600     -0.132686
  C       4.471491     -1.351188     -2.082566
  C       2.095866     -4.094840     -1.155699
  C       3.270522     -5.775591     -2.377725
  C       6.560881     -2.337601     -3.067812
  C       1.203625     -8.837518      2.317347
  C       1.102228     -8.925336     -0.101231
  C      -0.079084     -7.180436      1.103312
  C       1.993829     -4.948590     -0.069377
  C       3.159359     -6.637315     -1.299163
  C       0.622664     -4.187276     -4.524870
  C       4.099082     -1.283608     -0.743123
  C       4.234110     -0.237547     -2.888103
  C       3.502722     -0.143476     -0.218990
  C       3.642719      0.904936     -2.369721
  C       3.272430      0.956366     -1.031594
  H       2.366364     -2.602254     -3.191729
  H       4.340722     -2.508293     -4.653496
  H       4.834134     -4.111530     -4.143746
  H       5.137445     -3.339224     -1.832941
  H       2.550907     -5.014986     -5.031381
  H       2.316289     -3.358947     -5.556704
  H       3.234798     -7.854799      1.078546
  H       2.380071     -6.588510      1.976512
  H       1.682812     -3.096020     -1.090788
  H       3.786869     -6.109405     -3.271248
  H       7.034150     -3.258280     -3.417019
  H       7.152039     -1.947599     -2.236516
  H       6.603494     -1.609442     -3.882041
  H       2.101337     -9.451254      2.294964
  H       0.318402     -9.468080      2.352896
  H       1.224172     -8.170678      3.176495
  H       0.230745     -9.568065      0.000642
  H       2.009638     -9.524892     -0.121374
  H       1.017985     -8.333257     -1.008536
  H      -0.159811     -6.633373      0.168588
  H      -0.017081     -6.494078      1.944724
  H      -0.935643     -7.840799      1.218220
  H       1.509124     -4.607347      0.838469
  H       3.587465     -7.632002     -1.359801
  H       0.129081     -4.540963     -5.432275
  H       0.179111     -3.224443     -4.257116
  H       0.388546     -4.893732     -3.724329
  H       4.271678     -2.141709     -0.101977
  H       4.511134     -0.263318     -3.936830
  H       3.213162     -0.119240      0.825336
  H       3.464882      1.758027     -3.014507
  H       2.802141      1.845600     -0.628676
  F       0.210634     -1.730578      0.445187
  F      -1.600725     -0.650464      0.997681
  F      -3.011853     -3.092570      0.465258
  F      -1.057612     -4.043443      0.313222
  F      -2.719042     -0.989350     -1.299997
  F      -1.363907     -2.586270     -1.901589
  F      -2.579993     -2.313448      2.933046
  F      -2.131703     -4.420581      2.654851
  F      -1.071745     -0.046522     -3.067977
  F      -0.391000      0.688975     -1.154587
  F       0.665345     -0.917692     -2.142233
  O      -0.044463     -1.832948      3.511327
  O       0.478008     -3.961662      3.020114
  C      -1.125504     -1.689310      0.295798
  C      -1.724084     -3.013188      0.858406
  C      -1.460782     -1.440352     -1.211734
  C      -1.675230     -3.167535      2.407742
  C      -0.530362     -0.397289     -1.907089
  C      -0.259535     -2.964936      3.053986
74
Coordinates from ORCA-job R4N+PFHxA-_wb E -2390.127347512393
  N       1.150906     -8.017557      1.075853
  C       2.859191     -3.532797     -3.490630
  C       4.321235     -3.203915     -3.808444
  C       5.118043     -2.602478     -2.643754
  C       2.736038     -4.489280     -2.324529
  C       2.125195     -4.051814     -4.731815
  C       2.399859     -7.157289      1.046873
  C       2.511113     -6.237484     -0.132946
  C       4.471997     -1.351147     -2.082490
  C       2.096427     -4.095235     -1.155369
  C       3.270416     -5.776055     -2.378071
  C       6.561255     -2.335349     -3.070238
  C       1.202916     -8.837391      2.317945
  C       1.100659     -8.925844     -0.100556
  C      -0.078904     -7.179649      1.103880
  C       1.994261     -4.949265     -0.069231
  C       3.159124     -6.638091     -1.299696
  C       0.623294     -4.187305     -4.524851
  C       4.102106     -1.284079     -0.742285
  C       4.231304     -0.237861     -2.887591
  C       3.504581     -0.145025     -0.217068
  C       3.638942      0.903674     -2.368111
  C       3.271004      0.954503     -1.029239
  H       2.366698     -2.602428     -3.191469
  H       4.340609     -2.508376     -4.654004
  H       4.834657     -4.111285     -4.144025
  H       5.140217     -3.338504     -1.834017
  H       2.551582     -5.014969     -5.031273
  H       2.317055     -3.358910     -5.556488
  H       3.234641     -7.856121      1.077803
  H       2.381174     -6.589442      1.976195
  H       1.683715     -3.096332     -1.090054
  H       3.786334     -6.109864     -3.271847
  H       7.035068     -3.255535     -3.420052
  H       7.152915     -1.944898     -2.239501
  H       6.602396     -1.607016     -3.884418
  H       2.100147     -9.451848      2.295563
  H       0.317241     -9.467307      2.353964
  H       1.224172     -8.170385      3.176963
  H       0.228733     -9.567930      0.001752
  H       2.007576     -9.526150     -0.120967
  H       1.016485     -8.334019     -1.008041
  H      -0.159561     -6.632824      0.168995
  H      -0.016094     -6.492977      1.945065
  H      -0.936067     -7.839165      1.219317
  H       1.509636     -4.608228      0.838742
  H       3.586891     -7.632904     -1.360690
  H       0.129811     -4.540822     -5.432391
  H       0.179695     -3.224478     -4.256992
  H       0.389013     -4.893879     -3.724447
  H       4.277028     -2.141987     -0.101521
  H       4.506329     -0.263207     -3.936856
  H       3.216994     -0.121249      0.827836
  H       3.458396      1.756414     -3.012609
  H       2.800147      1.843023     -0.625404
  F       0.210439     -1.730355      0.446047
  F      -1.601548     -0.650406      0.996868
  F      -3.011967     -3.092940      0.463934
  F      -1.057112     -4.043254      0.313148
  F      -2.718182     -0.990301     -1.301825
  F      -1.361800     -2.586836     -1.901967
  F      -2.581696     -2.313227      2.931663
  F      -2.131614     -4.420373      2.654598
  F      -1.069650     -0.046387     -3.068277
  F      -0.390413      0.688759     -1.154106
  F       0.667037     -0.917553     -2.141151
  O      -0.046665     -1.830164      3.510050
  O       0.477988     -3.958699      3.019639
  C      -1.125580     -1.689267      0.295484
  C      -1.724333     -3.013174      0.857728
  C      -1.459800     -1.440793     -1.212410
  C      -1.676140     -3.166977      2.407144
  C      -0.529042     -0.397367     -1.906977
  C      -0.260728     -2.962759      3.053531
74
Coordinates from ORCA-job R4N+PFHxA-_wb E -2390.127346780542
  N       1.150835     -8.017252      1.075818
  C       2.859391     -3.532670     -3.490675
  C       4.321448     -3.204015     -3.808644
  C       5.118493     -2.602667     -2.644091
  C       2.736178     -4.489039     -2.324493
  C       2.125349     -4.051726     -4.731805
  C       2.399784     -7.156969      1.046985
  C       2.511167     -6.237187     -0.132826
  C       4.472466     -1.351481     -2.082501
  C       2.096423     -4.094982     -1.155395
  C       3.270798     -5.775724     -2.377859
  C       6.561596     -2.335394     -3.070846
  C       1.202658     -8.837056      2.317933
  C       1.100783     -8.925547     -0.100589
  C      -0.078978     -7.179328      1.103641
  C       1.994165     -4.948990     -0.069227
  C       3.159465     -6.637735     -1.299453
  C       0.623393     -4.186758     -4.524943
  C       4.102863     -1.284745     -0.742199
  C       4.231162     -0.238142     -2.887377
  C       3.504917     -0.146034     -0.216686
  C       3.638535      0.903134     -2.367580
  C       3.270881      0.953608     -1.028601
  H       2.367045     -2.602200     -3.191574
  H       4.340783     -2.508502     -4.654241
  H       4.834718     -4.111451     -4.144293
  H       5.140905     -3.338803     -1.834447
  H       2.551491     -5.015068     -5.031035
  H       2.317485     -3.359045     -5.556608
  H       3.234587     -7.855770      1.078053
  H       2.380962     -6.589094      1.976300
  H       1.683673     -3.096093     -1.090196
  H       3.786829     -6.109528     -3.271572
  H       7.035404     -3.255520     -3.420836
  H       7.153384     -1.944963     -2.240190
  H       6.602493     -1.606965     -3.884963
  H       2.099866     -9.451558      2.295711
  H       0.316962     -9.466955      2.353856
  H       1.223796     -8.170054      3.176964
  H       0.228823     -9.567624      0.001534
  H       2.007679     -9.525895     -0.120875
  H       1.016785     -8.333725     -1.008100
  H      -0.159462     -6.632421      0.168791
  H      -0.016368     -6.492707      1.944908
  H      -0.936202     -7.838813      1.218841
  H       1.509363     -4.608003      0.838677
  H       3.587338     -7.632514     -1.360328
  H       0.129899     -4.540354     -5.432449
  H       0.180052     -3.223721     -4.257371
  H       0.388841     -4.893071     -3.724384
  H       4.278087     -2.142758     -0.101653
  H       4.505865     -0.263254     -3.936732
  H       3.217537     -0.122537      0.828288
  H       3.457515      1.755908     -3.011898
  H       2.800001      1.841978     -0.624467
  F       0.210126     -1.730638      0.445934
  F      -1.601761     -0.650448      0.996685
  F      -3.012536     -3.092836      0.464606
  F      -1.057863     -4.043494      0.313336
  F      -2.718695     -0.991081     -1.301970
  F      -1.361890     -2.587430     -1.901849
  F      -2.581518     -2.312943      2.932083
  F      -2.131580     -4.420188      2.655205
  F      -1.070116     -0.047356     -3.068735
  F      -0.391737      0.688702     -1.154571
  F       0.666745     -0.917452     -2.140762
  O      -0.046322     -1.829870      3.509714
  O       0.478242     -3.958457      3.019191
  C      -1.125903     -1.689476      0.295469
  C      -1.724745     -3.013247      0.857992
  C      -1.460212     -1.441304     -1.212463
  C      -1.676156     -3.166834      2.407447
  C      -0.529660     -0.397723     -1.907150
  C      -0.260539     -2.962551      3.053426
74
Coordinates from ORCA-job R4N+PFHxA-_wb E -2390.127347561498
  N       1.151317     -8.015378      1.076373
  C       2.859713     -3.532276     -3.492001
  C       4.321793     -3.204155     -3.810473
  C       5.119659     -2.603869     -2.646035
  C       2.736350     -4.488089     -2.325388
  C       2.125586     -4.051687     -4.732876
  C       2.400116     -7.154806      1.047212
  C       2.511400     -6.235600     -0.132993
  C       4.473709     -1.353639     -2.082273
  C       2.096132     -4.093833     -1.156504
  C       3.271665     -5.774532     -2.378020
  C       6.562403     -2.335774     -3.073475
  C       1.202984     -8.834281      2.319075
  C       1.101830     -8.924450     -0.099450
  C      -0.078685     -7.177665      1.103248
  C       1.993803     -4.947506     -0.070015
  C       3.160321     -6.636236     -1.299310
  C       0.623440     -4.185109     -4.526354
  C       4.103671     -1.289835     -0.741936
  C       4.232458     -0.238507     -2.884778
  C       3.504933     -0.152564     -0.214164
  C       3.639511      0.901604     -2.362639
  C       3.271271      0.949001     -1.023634
  H       2.367717     -2.601481     -3.193247
  H       4.340882     -2.508216     -4.655782
  H       4.834586     -4.111576     -4.146942
  H       5.142932     -3.340989     -1.837281
  H       2.550910     -5.015723     -5.031148
  H       2.318702     -3.359899     -5.558221
  H       3.235092     -7.853372      1.078800
  H       2.381067     -6.586421      1.976247
  H       1.683236     -3.094979     -1.091863
  H       3.787970     -6.108495     -3.271517
  H       7.036227     -3.255442     -3.424691
  H       7.154581     -1.945970     -2.242804
  H       6.602452     -1.606438     -3.886860
  H       2.100208     -9.448804      2.297550
  H       0.317334     -9.464255      2.355322
  H       1.223845     -8.166753      3.177724
  H       0.229906     -9.566605      0.002645
  H       2.008762     -9.524787     -0.119150
  H       1.018107     -8.333232     -1.007411
  H      -0.158898     -6.631033      0.168216
  H      -0.016777     -6.490716      1.944350
  H      -0.935959     -7.837156      1.218203
  H       1.508514     -4.606555      0.837663
  H       3.588608     -7.630887     -1.359576
  H       0.129885     -4.538943     -5.433749
  H       0.181027     -3.221343     -4.259722
  H       0.387961     -4.890542     -3.725277
  H       4.278437     -2.149398     -0.103328
  H       4.507372     -0.261272     -3.934139
  H       3.217284     -0.131400      0.830785
  H       3.458504      1.755771     -3.005116
  H       2.800696      1.836640     -0.617549
  F       0.208687     -1.731846      0.445178
  F      -1.602759     -0.650653      0.995673
  F      -3.015024     -3.092379      0.466763
  F      -1.061128     -4.044457      0.313721
  F      -2.720749     -0.993824     -1.302880
  F      -1.362494     -2.589547     -1.901847
  F      -2.581731     -2.312216      2.933223
  F      -2.131610     -4.419647      2.657069
  F      -1.072149     -0.050589     -3.070548
  F      -0.396313      0.688320     -1.156440
  F       0.665355     -0.917281     -2.140087
  O      -0.046746     -1.828647      3.509716
  O       0.479217     -3.956504      3.016681
  C      -1.127369     -1.690323      0.295066
  C      -1.726656     -3.013532      0.858663
  C      -1.461940     -1.443155     -1.213018
  C      -1.676719     -3.166308      2.408277
  C      -0.532069     -0.399037     -1.908109
  C      -0.260567     -2.961327      3.053059
74
Coordinates from ORCA-job R4N+PFHxA-_wb E -2390.127348399056
  N       1.151091     -8.015521      1.076158
  C       2.859673     -3.532420     -3.491932
  C       4.321743     -3.203957     -3.810210
  C       5.119472     -2.603588     -2.645654
  C       2.736307     -4.488315     -2.325380
  C       2.125650     -4.051886     -4.732891
  C       2.399895     -7.154877      1.047222
  C       2.511271     -6.235691     -0.133005
  C       4.473483     -1.353332     -2.082012
  C       2.096045     -4.094019     -1.156583
  C       3.271383     -5.774852     -2.378068
  C       6.562221     -2.335431     -3.073099
  C       1.202664     -8.834507      2.318802
  C       1.101769     -8.924517     -0.099724
  C      -0.078954     -7.177918      1.102958
  C       1.993749     -4.947608     -0.070081
  C       3.160035     -6.636479     -1.299327
  C       0.623589     -4.186136     -4.526232
  C       4.103914     -1.289063     -0.741567
  C       4.231891     -0.238564     -2.884855
  C       3.505636     -0.151497     -0.213950
  C       3.639044      0.901668     -2.362957
  C       3.271373      0.949607     -1.023850
  H       2.367481     -2.601734     -3.193203
  H       4.340798     -2.507929     -4.655423
  H       4.834722     -4.111267     -4.146673
  H       5.142720     -3.340683     -1.836895
  H       2.551426     -5.015622     -5.031415
  H       2.318305     -3.359793     -5.558075
  H       3.234820     -7.853505      1.078889
  H       2.380626     -6.586554      1.976270
  H       1.683134     -3.095161     -1.092014
  H       3.787720     -6.108847     -3.271535
  H       7.036076     -3.255070     -3.424310
  H       7.154376     -1.945597     -2.242428
  H       6.602230     -1.606124     -3.886492
  H       2.099956     -9.448918      2.297310
  H       0.317067     -9.464556      2.354869
  H       1.223369     -8.167008      3.177467
  H       0.229836     -9.566666      0.002262
  H       2.008727     -9.524810     -0.119281
  H       1.018169     -8.333238     -1.007639
  H      -0.159022     -6.631172      0.167977
  H      -0.017182     -6.491095      1.944144
  H      -0.936149     -7.837541      1.217703
  H       1.508638     -4.606550      0.837643
  H       3.588262     -7.631152     -1.359553
  H       0.130110     -4.540033     -5.433636
  H       0.180698     -3.222690     -4.259333
  H       0.388603     -4.891868     -3.725282
  H       4.279186     -2.148280     -0.102646
  H       4.506451     -0.261733     -3.934298
  H       3.218351     -0.129939      0.831094
  H       3.457768      1.755571     -3.005707
  H       2.800631      1.837278     -0.618020
  F       0.208816     -1.731623      0.445265
  F      -1.602731     -0.650678      0.995757
  F      -3.014688     -3.092334      0.466875
  F      -1.060844     -4.044437      0.313882
  F      -2.720498     -0.993565     -1.302785
  F      -1.362504     -2.589352     -1.901825
  F      -2.581041     -2.311750      2.933208
  F      -2.131342     -4.419262      2.657362
  F      -1.072217     -0.050248     -3.070331
  F      -0.395465      0.688220     -1.156458
  F       0.665267     -0.917583     -2.140767
  O      -0.045744     -1.828701      3.509328
  O       0.479305     -3.956859      3.017053
  C      -1.127224     -1.690236      0.295072
  C      -1.726349     -3.013446      0.858726
  C      -1.461739     -1.442970     -1.212979
  C      -1.676232     -3.166056      2.408302
  C      -0.531852     -0.399010     -1.908183
  C      -0.259973     -2.961329      3.052849
74
Coordinates from ORCA-job R4N+PFHxA-_wb E -2390.127348193770
  N       1.149951     -8.016124      1.075404
  C       2.860089     -3.532910     -3.491545
  C       4.322072     -3.203607     -3.809394
  C       5.119117     -2.602419     -2.644721
  C       2.736789     -4.489007     -2.325153
  C       2.126402     -4.052492     -4.732704
  C       2.399115     -7.155937      1.046879
  C       2.511067     -6.236532     -0.133129
  C       4.472306     -1.352275     -2.081753
  C       2.096898     -4.094548     -1.156236
  C       3.270838     -5.775952     -2.378264
  C       6.561767     -2.333501     -3.072087
  C       1.201146     -8.835545      2.317776
  C       1.100380     -8.924751     -0.100758
  C      -0.079782     -7.178139      1.102362
  C       1.994467     -4.948165     -0.069855
  C       3.159186     -6.637637     -1.299650
  C       0.624537     -4.188641     -4.525815
  C       4.103680     -1.286874     -0.741103
  C       4.229529     -0.238530     -2.885561
  C       3.505534     -0.148957     -0.214169
  C       3.636501      0.901866     -2.364396
  C       3.269853      0.951042     -1.025115
  H       2.367331     -2.602520     -3.192829
  H       4.340983     -2.507719     -4.654686
  H       4.835700     -4.110692     -4.145421
  H       5.142622     -3.339210     -1.835725
  H       2.553233     -5.015536     -5.031859
  H       2.318064     -3.359678     -5.557502
  H       3.233659     -7.855029      1.078479
  H       2.379892     -6.587890      1.976058
  H       1.684317     -3.095548     -1.091532
  H       3.786816     -6.110120     -3.271869
  H       7.036237     -3.252943     -3.422937
  H       7.153580     -1.943031     -2.241472
  H       6.601439     -1.604489     -3.885727
  H       2.098283     -9.450161      2.296112
  H       0.315371     -9.465344      2.353522
  H       1.221987     -8.168301      3.176618
  H       0.228187     -9.566562      0.001020
  H       2.007127     -9.525343     -0.120318
  H       1.017095     -8.333170     -1.008480
  H      -0.159403     -6.631018      0.167569
  H      -0.017853     -6.491703      1.943822
  H      -0.937155     -7.837577      1.216683
  H       1.509980     -4.606885      0.838109
  H       3.586704     -7.632586     -1.360155
  H       0.131269     -4.542504     -5.433336
  H       0.180534     -3.225953     -4.258140
  H       0.390588     -4.895198     -3.725303
  H       4.280287     -2.145181     -0.101340
  H       4.503472     -0.262597     -3.935142
  H       3.219020     -0.126458      0.831065
  H       3.454360      1.755020     -3.007892
  H       2.798574      1.838745     -0.619964
  F       0.210020     -1.730645      0.445735
  F      -1.601981     -0.650120      0.995553
  F      -3.012968     -3.092080      0.467409
  F      -1.059109     -4.043955      0.315038
  F      -2.719125     -0.994141     -1.302944
  F      -1.360773     -2.589729     -1.901196
  F      -2.579186     -2.310239      2.933637
  F      -2.130239     -4.417883      2.658540
  F      -1.071293     -0.050497     -3.070263
  F      -0.393584      0.687936     -1.156832
  F       0.666209     -0.918258     -2.141494
  O      -0.043507     -1.828375      3.510006
  O       0.480199     -3.956843      3.018320
  C      -1.126008     -1.689753      0.295301
  C      -1.724771     -3.012847      0.859413
  C      -1.460276     -1.443103     -1.212831
  C      -1.674650     -3.164950      2.408992
  C      -0.530593     -0.399322     -1.908378
  C      -0.258320     -2.960783      3.053441
74
Coordinates from ORCA-job R4N+PFHxA-_wb E -2390.127347613717
  N       1.150170     -8.015346      1.075592
  C       2.860125     -3.532849     -3.492119
  C       4.322073     -3.203629     -3.810182
  C       5.119467     -2.602865     -2.645552
  C       2.736884     -4.488695     -2.325512
  C       2.126386     -4.052638     -4.733146
  C       2.399189     -7.154978      1.047085
  C       2.511163     -6.235821     -0.133122
  C       4.472701     -1.353150     -2.081587
  C       2.096797     -4.094086     -1.156741
  C       3.271339     -5.775499     -2.378206
  C       6.561929     -2.333543     -3.073280
  C       1.201205     -8.834416      2.318193
  C       1.100982     -8.924287     -0.100340
  C      -0.079682     -7.177499      1.102061
  C       1.994295     -4.947512     -0.070198
  C       3.159649     -6.637009     -1.299430
  C       0.624480     -4.188379     -4.526293
  C       4.104258     -1.288939     -0.740828
  C       4.229685     -0.238707     -2.884394
  C       3.506016     -0.151575     -0.212800
  C       3.636624      0.901199     -2.362129
  C       3.270171      0.949159     -1.022726
  H       2.367409     -2.602404     -3.193540
  H       4.340828     -2.507532     -4.655324
  H       4.835550     -4.110668     -4.146599
  H       5.143392     -3.340068     -1.836928
  H       2.553012     -5.015877     -5.032006
  H       2.318258     -3.360127     -5.558153
  H       3.233894     -7.853869      1.078996
  H       2.379759     -6.586692      1.976128
  H       1.684086     -3.095133     -1.092316
  H       3.787519     -6.109748     -3.271667
  H       7.036401     -3.252749     -3.424767
  H       7.153976     -1.943426     -2.242664
  H       6.601231     -1.604084     -3.886552
  H       2.098388     -9.448984      2.296905
  H       0.315476     -9.464284      2.353969
  H       1.221817     -8.166958      3.176881
  H       0.228862     -9.566214      0.001388
  H       2.007806     -9.524781     -0.119602
  H       1.017791     -8.332963     -1.008251
  H      -0.159106     -6.630494      0.167174
  H      -0.018118     -6.490927      1.943452
  H      -0.937068     -7.836961      1.216212
  H       1.509536     -4.606197      0.837615
  H       3.587393     -7.631884     -1.359631
  H       0.131188     -4.542442     -5.433727
  H       0.180685     -3.225473     -4.258989
  H       0.390302     -4.894599     -3.725547
  H       4.280885     -2.147853     -0.101883
  H       4.503415     -0.261836     -3.934052
  H       3.219674     -0.130026      0.832501
  H       3.454265      1.754885     -3.004857
  H       2.799031      1.836527     -0.616685
  F       0.209518     -1.731164      0.445337
  F      -1.602207     -0.650157      0.995145
  F      -3.013929     -3.091806      0.468062
  F      -1.060378     -4.044310      0.315102
  F      -2.719819     -0.994785     -1.303260
  F      -1.361228     -2.590325     -1.901344
  F      -2.579267     -2.309799      2.933894
  F      -2.130431     -4.417559      2.659147
  F      -1.071936     -0.051535     -3.070974
  F      -0.394901      0.687768     -1.157598
  F       0.665713     -0.918369     -2.141458
  O      -0.043526     -1.827850      3.509555
  O       0.480343     -3.956254      3.017484
  C      -1.126514     -1.690037      0.295055
  C      -1.725520     -3.012904      0.859543
  C      -1.460911     -1.443625     -1.213113
  C      -1.674923     -3.164675      2.409175
  C      -0.531361     -0.399786     -1.908817
  C      -0.258376     -2.960332      3.053125
74
Coordinates from ORCA-job R4N+PFHxA-_wb E -2390.127347944800
  N       1.150368     -8.015103      1.075607
  C       2.860008     -3.532696     -3.492405
  C       4.321995     -3.203617     -3.810287
  C       5.119338     -2.603171     -2.645479
  C       2.736685     -4.488609     -2.325867
  C       2.126324     -4.052355     -4.733524
  C       2.399291     -7.154663      1.046945
  C       2.511117     -6.235642     -0.133390
  C       4.472848     -1.353309     -2.081452
  C       2.096475     -4.094042     -1.157172
  C       3.271568     -5.775241     -2.378375
  C       6.561939     -2.334216     -3.072902
  C       1.201387     -8.833863      2.318414
  C       1.101239     -8.924323     -0.100120
  C      -0.079511     -7.177266      1.101853
  C       1.994026     -4.947419     -0.070581
  C       3.159929     -6.636733     -1.299554
  C       0.624421     -4.188200     -4.526739
  C       4.104017     -1.289266     -0.740794
  C       4.230392     -0.238616     -2.884105
  C       3.505725     -0.151934     -0.212742
  C       3.637323      0.901287     -2.361790
  C       3.270436      0.949064     -1.022489
  H       2.367346     -2.602260     -3.193735
  H       4.340970     -2.507391     -4.655309
  H       4.835370     -4.110685     -4.146818
  H       5.142895     -3.340454     -1.836907
  H       2.553004     -5.015535     -5.032524
  H       2.318174     -3.359721     -5.558429
  H       3.234118     -7.853405      1.078935
  H       2.379871     -6.586230      1.975907
  H       1.683622     -3.095154     -1.092804
  H       3.788027     -6.109383     -3.271718
  H       7.036189     -3.253497     -3.424504
  H       7.153981     -1.944474     -2.242104
  H       6.601655     -1.604586     -3.886007
  H       2.098586     -9.448420      2.297320
  H       0.315674     -9.463743      2.354338
  H       1.221968     -8.166189      3.176937
  H       0.229170     -9.566296      0.001769
  H       2.008111     -9.524753     -0.119262
  H       1.017972     -8.333222     -1.008175
  H      -0.158877     -6.630447      0.166845
  H      -0.017985     -6.490522      1.943105
  H      -0.936917     -7.836689      1.216081
  H       1.509092     -4.606125      0.837149
  H       3.588001     -7.631476     -1.359625
  H       0.131188     -4.542194     -5.434234
  H       0.180538     -3.225358     -4.259347
  H       0.390234     -4.894533     -3.726093
  H       4.280085     -2.148414     -0.102008
  H       4.504455     -0.261588     -3.933681
  H       3.218994     -0.130576      0.832458
  H       3.455335      1.755137     -3.004407
  H       2.799390      1.836463     -0.616416
  F       0.209424     -1.731875      0.444966
  F      -1.601811     -0.650281      0.995232
  F      -3.014446     -3.091600      0.468788
  F      -1.061193     -4.044682      0.315304
  F      -2.720262     -0.994837     -1.302819
  F      -1.362020     -2.590577     -1.901291
  F      -2.578983     -2.309613      2.934378
  F      -2.130499     -4.417458      2.659683
  F      -1.072524     -0.051966     -3.071021
  F      -0.395341      0.687485     -1.157736
  F       0.665227     -0.918709     -2.141544
  O      -0.043067     -1.827829      3.509224
  O       0.480500     -3.956362      3.017275
  C      -1.126639     -1.690372      0.295091
  C      -1.725880     -3.013027      0.859866
  C      -1.461386     -1.443883     -1.212994
  C      -1.674881     -3.164657      2.409493
  C      -0.531855     -0.400122     -1.908855
  C      -0.258153     -2.960386      3.053058
74
Coordinates from ORCA-job R4N+PFHxA-_wb E -2390.127347605598
  N       1.150110     -8.015191      1.075411
  C       2.860082     -3.532789     -3.492374
  C       4.322044     -3.203606     -3.810147
  C       5.119211     -2.602954     -2.645320
  C       2.736788     -4.488678     -2.325817
  C       2.126489     -4.052513     -4.733516
  C       2.398982     -7.154697      1.046943
  C       2.510999     -6.235669     -0.133378
  C       4.472592     -1.353072     -2.081436
  C       2.096555     -4.094054     -1.157174
  C       3.271619     -5.775325     -2.378308
  C       6.561814     -2.333894     -3.072666
  C       1.201021     -8.833951      2.318227
  C       1.101226     -8.924428     -0.100314
  C      -0.079858     -7.177468      1.101474
  C       1.994014     -4.947413     -0.070588
  C       3.159826     -6.636825     -1.299503
  C       0.624595     -4.188540     -4.526821
  C       4.104032     -1.288769     -0.740711
  C       4.229884     -0.238585     -2.884294
  C       3.505774     -0.151373     -0.212770
  C       3.636807      0.901362     -2.362082
  C       3.270259      0.949436     -1.022695
  H       2.367329     -2.602399     -3.193739
  H       4.341056     -2.507475     -4.655245
  H       4.835535     -4.110665     -4.146510
  H       5.142787     -3.340141     -1.836672
  H       2.553302     -5.015627     -5.032536
  H       2.318289     -3.359846     -5.558401
  H       3.233841     -7.853395      1.079062
  H       2.379415     -6.586266      1.975898
  H       1.683732     -3.095161     -1.092831
  H       3.788116     -6.109488     -3.271623
  H       7.036168     -3.253134     -3.424237
  H       7.153791     -1.944108     -2.241840
  H       6.601547     -1.604272     -3.885776
  H       2.098288     -9.448411      2.297262
  H       0.315361     -9.463916      2.354016
  H       1.221420     -8.166272      3.176745
  H       0.229240     -9.566521      0.001514
  H       2.008191     -9.524719     -0.119348
  H       1.017952     -8.333351     -1.008383
  H      -0.159150     -6.630718      0.166414
  H      -0.018491     -6.490663      1.942681
  H      -0.937204     -7.836979      1.215646
  H       1.509048     -4.606075      0.837100
  H       3.587815     -7.631602     -1.359578
  H       0.131466     -4.542569     -5.434358
  H       0.180553     -3.225774     -4.259423
  H       0.390434     -4.894933     -3.726221
  H       4.280331     -2.147754     -0.101768
  H       4.503770     -0.261753     -3.933910
  H       3.219200     -0.129853      0.832471
  H       3.454618      1.755062     -3.004847
  H       2.799207      1.836876     -0.616722
  F       0.209766     -1.732163      0.444953
  F      -1.601247     -0.650228      0.995254
  F      -3.014337     -3.091327      0.469253
  F      -1.061294     -4.044818      0.315705
  F      -2.719976     -0.994905     -1.302643
  F      -1.361902     -2.590756     -1.901145
  F      -2.578274     -2.308925      2.934719
  F      -2.130569     -4.416958      2.660275
  F      -1.072335     -0.052234     -3.070995
  F      -0.394930      0.687271     -1.157830
  F       0.665429     -0.919051     -2.141656
  O      -0.041953     -1.827889      3.508824
  O       0.480512     -3.956854      3.017647
  C      -1.126299     -1.690473      0.295182
  C      -1.725724     -3.012946      0.860186
  C      -1.461122     -1.444027     -1.212890
  C      -1.674547     -3.164356      2.409823
  C      -0.531591     -0.400365     -1.908862
  C      -0.257644     -2.960506      3.053108
