53
Coordinates from ORCA-job R4N+PFOA-_0.15M E -133.635099897230
  C           3.96147399804897     -4.85046589104231     -3.66160303524672
  C           7.28547220500642      0.65698544792198      0.70371619928296
  F           4.87420673038300     -3.66709265908291     -0.70065506227553
  F           5.13953860040581     -1.54074733868199     -0.87302605560700
  F           7.25817048197215     -4.18619317509483     -0.46737625589384
  F           7.90929475975451     -2.83570793121192     -1.99397104461618
  F           4.05739363282351     -2.27733337207859     -2.98806605566792
  F           6.09738723116917     -1.95163323634411     -3.53051337973893
  F           6.67787097403445     -1.89806119312758      1.17159282833747
  F           8.74390847210459     -2.38684009303605      0.70828102019039
  F           5.96018158250263     -4.13094198384835     -4.65962485149768
  F           6.11714907812185     -5.03044428442553     -2.70564322193307
  F           7.24689398505465     -0.34928560665527     -1.58031134035006
  F           9.17228930572780     -0.34956385356354     -0.60754757479146
  F           3.30548359218707     -4.22635581439916     -4.63306316016629
  F           3.21398900854198     -4.79534271381003     -2.56773152657327
  F           4.09373197646223     -6.12130010086446     -4.01215672585775
  O           8.05600233286355      0.86226914430529      1.62373847566753
  O           6.19474097337601      1.09266964240584      0.39002996501754
  C           5.61803032615247     -2.72026434118460     -1.30182342243754
  C           7.11453121831727     -2.92532133683548     -0.90349853619609
  C           5.30326941733879     -2.77178737455157     -2.83389330819459
  C           7.59889533358085     -1.91620271111630      0.17973430581753
  C           5.36906085963165     -4.20450965882100     -3.45482370036703
  C           7.84289287580350     -0.48917727698809     -0.35594966216188
  N           1.43783763324644      1.45017356536837     -2.17954362082988
  C           0.88255431395657      1.03402031247469     -0.85622633699418
  C           1.53582683337408      0.29400210034874     -3.08282689043308
  C           0.52714449147472      2.44555767731489     -2.76953786364727
  C           2.76929107106205      2.05382315932727     -2.01268404055470
  C           1.70701052679700      0.00592126377190     -0.12141981471704
  C           1.46780047010977     -1.35224950765123     -0.30341639298072
  C           2.69376145810266      0.40043705022032      0.77587184661055
  C           2.20709105335262     -2.29556202916417      0.38814750006058
  C           3.43169521427220     -0.54236425438675      1.46902016734706
  C           3.19093563686240     -1.89278888845112      1.27683783053708
  H          -0.11504314135786      0.62774255089818     -1.02867029530845
  H           0.80369244494397      1.92593411252331     -0.23370740861352
  H           0.55788091037017     -0.16239677610348     -3.21098121905192
  H           2.22285661382929     -0.44478087165996     -2.67680621094857
  H           1.90871705618295      0.61518817002773     -4.05189307708177
  H          -0.45932926878374      2.01179089205708     -2.91154396926095
  H           0.91256944364510      2.76978994833973     -3.73276547536195
  H           0.44379897028904      3.31071873928371     -2.11685875416604
  H           3.46634774806001      1.34561696449025     -1.56659382737649
  H           2.70924130388762      2.92506879626738     -1.36544995109988
  H           3.16081248625685      2.35893180750658     -2.97962936814930
  H           0.69660659938443     -1.68813918084231     -0.97890017742653
  H           2.90580122425153      1.44409867508368      0.94762745055742
  H           2.03000942212619     -3.34977823881510      0.23492341052882
  H           4.21402954468890     -0.23036176237161      2.14605999838824
  H           3.78527680538026     -2.62469877885360      1.80855049163772
  Cl          7.54852526276945     -4.80519568857394      2.82489757509421
