53
Coordinates from ORCA-job R4N+PFOA-_0.15M E -133.578273993590
  C           7.52753254519973     -6.33698169353093      0.51003751074095
  C           4.83103028438833      1.22154543432456     -2.69287418359030
  F           6.00134501888313     -2.39941721624524      1.14583359615607
  F           4.76723345827506     -2.45319438785572     -0.64513178053105
  F           8.15335627154209     -1.82455337132773     -0.07938440270169
  F           7.47106882705961     -2.44796345885435     -2.01824175092508
  F           5.19816849935069     -4.88839014370634      0.36876240955781
  F           6.09561071149054     -4.63353296742746     -1.57360729436565
  F           5.77694508484041     -0.02228464720202     -0.13493159710546
  F           7.65483939859609      0.40486982030649     -1.08726382751252
  F           8.53791051073497     -4.52027793974763     -0.60463439968402
  F           7.87921737947184     -4.20019766673891      1.42906243826824
  F           5.28852543549472     -1.37308706995763     -2.91735940935579
  F           6.88119215675085      0.00286966397971     -3.43243973471951
  F           6.84514890218299     -6.63584038424331      1.60708840454551
  F           8.76509938062405     -6.79088419100140      0.66463941205445
  F           6.98276893008217     -6.98563196134860     -0.51109256968938
  O           5.30205680676772      2.11611901383723     -2.03747501193317
  O           4.14742535780011      1.07584519182733     -3.67098490020801
  C           5.98622522069211     -2.72828705171179     -0.15683146508420
  C           7.06406476900944     -1.86277509588132     -0.87677284469492
  C           6.19852223179644     -4.26749126215793     -0.28370769044453
  C           6.57675179029692     -0.40541867770814     -1.15505520808453
  C           7.55478517840782     -4.79496220839869      0.26979425917112
  C           5.87869133957861     -0.20065371614594     -2.51305606631129
  N           2.65595102378946      1.56952348809609     -1.16808480052098
  C           2.82251116110459      0.08912240021882     -1.33664954391028
  C           1.26724335792441      1.61554280404066     -0.55837461792729
  C           3.48722744618529      2.09290448329111     -0.05848957753975
  C           2.51418282641229      2.54169858663373     -2.27768009131623
  C           1.71418053811716     -0.61966504539224     -2.07982158266069
  C           0.85759330770673     -1.45073053183331     -1.36304128033534
  C           1.55989956053995     -0.52237758188378     -3.45826129067810
  C          -0.15477206299404     -2.14025955555447     -2.00634819879906
  C           0.54021101542928     -1.20702837837567     -4.09836909833029
  C          -0.32519545225592     -2.00856028571376     -3.37453680618945
  H           2.86818091362938     -0.32712810696691     -0.32524801929989
  H           3.76057939659863     -0.17707400737253     -1.79474429298104
  H           1.19130518014277      0.89929038390260      0.25660892997449
  H           0.52873890390851      1.36297175609862     -1.31408097888728
  H           1.06511703350826      2.60709724736340     -0.16473108910670
  H           3.34804793134803      1.46738862549457      0.82105965318345
  H           3.17532205573517      3.11077456010201      0.15814008261808
  H           4.54357773312744      2.10687550620592     -0.29016124934422
  H           2.06493168849424      2.05769238334898     -3.13830930069812
  H           3.45949927370265      2.98598135871063     -2.56463323814054
  H           1.86716866597959      3.34706056076470     -1.94047377301208
  H           1.00742846970446     -1.57851159933590     -0.30005505621855
  H           2.25807493238630      0.05956036941204     -4.03788895333270
  H          -0.80531259075010     -2.78388537144480     -1.43426255195943
  H           0.43245729365879     -1.11946497471982     -5.16830391901863
  H          -1.11780979967406     -2.54272857863049     -3.87497845854922
  Cl          2.90274578712385     -1.86764241324467      1.92564166092660
