53
Coordinates from ORCA-job R4N+PFOA-_0.15M E -133.630456062740
  C           4.16840866621573     -3.29650739558299     -2.29612858088027
  C           9.89210079291173     -0.38937847643745      0.75760690397943
  F           5.22007961186907     -1.32304254174510     -0.49667805168384
  F           6.85830458853958      0.00395268032697     -1.01966843250037
  F           7.39399580696652     -1.68816577707592      1.05487456695511
  F           6.78230674678280     -3.38658874830099     -0.11446545715117
  F           5.36433113527832     -0.67454076980537     -3.03101143006578
  F           7.33846748873484     -1.48588602595283     -3.27511862307031
  F           9.36224619281500     -3.34277004708265      0.16254959257210
  F           8.79686109985530     -3.01882017999219     -1.88019717049747
  F           5.42819989181919     -3.01599860600744     -4.25223041303292
  F           6.39373494833975     -4.00995105704422     -2.60154949918056
  F           9.31675384115982     -0.35069758455628     -1.68562803069477
  F          10.98000133235626     -1.60151346274901     -1.10321351065635
  F           3.36188269653676     -2.24428347510106     -2.33493465324510
  F           4.25838525807161     -3.72644697641511     -1.04913494865494
  F           3.58326357108263     -4.25385274683610     -3.01007458499709
  O          10.20875395153289     -1.14251532548837      1.66306837531818
  O           9.67885558311773      0.80498785741935      0.67531970209564
  C           6.44804891518171     -1.27007144042411     -1.05577736374483
  C           7.38236235159260     -2.17017311770453     -0.19673520172582
  C           6.21158417706592     -1.61569611160284     -2.56052525883944
  C           8.84100069123497     -2.41087147598622     -0.65899475368115
  C           5.57371306796479     -2.99550525891313     -2.91108369281457
  C           9.74659782151005     -1.17637324678844     -0.69021536718737
  N           0.79678047023457      0.93860221637353     -2.27466228300080
  C           0.32323326220102      0.58713330168122     -0.90212102822131
  C           0.46495395435494     -0.13138303486042     -3.22739277248600
  C           0.12462339805957      2.18024685284039     -2.69211333354977
  C           2.25173531280920      1.15357067742807     -2.27387750890788
  C           0.88368302443405     -0.70147545211099     -0.35496862422841
  C           0.21107139357986     -1.90197894985306     -0.56334740671003
  C           2.05153618179067     -0.70664802944427      0.40006725556078
  C           0.70328201527740     -3.08505765489768     -0.04298374238630
  C           2.53870813152630     -1.89056296985532      0.92684168551467
  C           1.87018451108704     -3.08250747284309      0.70401985509183
  H          -0.76503640765473      0.51445716706779     -0.93646822668377
  H           0.60814701795209      1.39965236568051     -0.23234678607664
  H          -0.60753127843922     -0.30747178308549     -3.22722139783258
  H           0.98280552487677     -1.04628161515017     -2.95122076339803
  H           0.77975843704808      0.15961675397400     -4.22610217874289
  H          -0.95185148738957      2.03118458442885     -2.71907722567052
  H           0.46910341430935      2.46878001933137     -3.68190256024023
  H           0.35494800608103      2.98275087486852     -1.99581348449205
  H           2.77211170596341      0.25220256329714     -1.95840842338207
  H           2.52174579614775      1.95085407193948     -1.58508157147347
  H           2.59201634971606      1.41877978245001     -3.27137012798924
  H          -0.71093612143373     -1.91831112086650     -1.12318893582969
  H           2.60770794724630      0.19719118046295      0.60508570150964
  H           0.17696545455305     -4.01184155790142     -0.21119157435623
  H           3.45095825505708     -1.86344204107615      1.50652615672540
  H           2.26322856384729     -4.00064156020028      1.11464280591971
  Cl          5.50042801812852      0.81114223646705      1.74191883021944
