53
Coordinates from ORCA-job R4N+PFOA-_0.15M E -133.638337510350
  C           5.33096781818749     -5.49245236155715     -2.19723814926314
  C           6.32215202961461      1.22068240679527      0.39269880359422
  F           6.10796034176377     -3.64823010801917     -0.25378292868528
  F           5.45260321703680     -1.58281209106764     -0.44200679441644
  F           8.45298461694781     -3.10704641884760     -0.45483274297893
  F           8.20997370981042     -1.90939988470992     -2.21015740460812
  F           4.29409495776061     -2.76336184584227     -2.32713513299291
  F           5.99740871020439     -1.96437052022135     -3.32765695138517
  F           7.71426867648992     -1.03759693777777      1.15620930285158
  F           9.37419860191440     -0.65397974512495     -0.14838877205450
  F           5.74609636799202     -4.33501104822430     -4.21374951796151
  F           7.36201672669405     -4.43931927493279     -2.79218390879338
  F           6.69391379320674      0.18080091044600     -1.83715776534763
  F           8.32534955978938      1.34251924685979     -1.04248265310914
  F           4.22653501272783     -5.15929938432353     -1.54587537567021
  F           6.16415737830225     -6.08704296644586     -1.35620673978752
  F           4.98680003082478     -6.38886767807581     -3.11800063793985
  O           6.88895166752907      1.62747899669799      1.38836088729263
  O           5.17910758036553      1.28489170927223     -0.02292976364557
  C           6.23052953552556     -2.52561448466413     -0.98639192702235
  C           7.73048938455369     -2.09004376247578     -0.96148774321692
  C           5.63328477719664     -2.85696584091309     -2.39438945598843
  C           8.02469156301332     -0.80587039040053     -0.13212693674050
  C           6.03158115695570     -4.27682639199797     -2.90129045651341
  C           7.34695679934650      0.46916729419540     -0.67045111738292
  N           1.99094268422764      1.33456735228928     -2.12744835246765
  C           1.63289101583804      1.10293104553554     -0.69526745982661
  C           0.83383937574172      1.09891902983837     -3.00353470944437
  C           2.43194405616108      2.73194042811307     -2.26410510928509
  C           3.09380093586130      0.44731926355372     -2.52481696794919
  C           1.31223678798852     -0.33166713800625     -0.36592507969951
  C           0.03774396589135     -0.85599702557272     -0.55418429447295
  C           2.30584754843086     -1.14795619629361      0.16342762724907
  C          -0.22362212382580     -2.18182603220872     -0.25482409136411
  C           2.04409206497585     -2.47264173950906      0.46530550742338
  C           0.77995601818523     -2.99516914932250      0.24515590391457
  H           0.77942781424631      1.73981830139679     -0.45750002522230
  H           2.49269679868886      1.40332163794591     -0.09209162551157
  H           0.01552453219876      1.75513908895081     -2.71857159799828
  H           0.51509187795913      0.06342163764226     -2.92099951024884
  H           1.11265337886713      1.30153510252825     -4.03445282580037
  H           1.64552349924266      3.40620752836657     -1.93437365319291
  H           2.67727877918094      2.94093048558518     -3.30225136721305
  H           3.31958970665872      2.89411139260216     -1.65482375840511
  H           2.78367269336754     -0.59288020372003     -2.46086657932628
  H           3.94371068278082      0.58721633994826     -1.85740840323376
  H           3.40456679745591      0.67161762389590     -3.54173080928773
  H          -0.76195244822926     -0.22820640471756     -0.91522394599959
  H           3.29204491407303     -0.75259211893195      0.36437787642713
  H          -1.21369653179621     -2.58345116321208     -0.40406030646708
  H           2.83496309165297     -3.07781408980224      0.88824213433345
  H           0.58208125926163     -4.02953901250743      0.48145828494076
  Cl          5.36467789106152     -2.61283331673310      2.51344347139333
