53
Coordinates from ORCA-job R4N+PFOA-_0.15M E -133.632689823100
  C           4.26720880899853     -3.62299757795344     -2.37261455101385
  C           9.41902338181395      0.16691909540801      0.64996911128798
  F           5.05258228590203     -1.32467494044473     -0.80720024936626
  F           6.68386997399876     -0.01826933859221     -1.39074015909265
  F           7.01605268341405     -1.43110598449952      0.97404049817745
  F           6.70143377797876     -3.27871295323378     -0.06932102641482
  F           5.40442807029091     -1.04684258481859     -3.39133942240020
  F           7.42422942411451     -1.78364434474741     -3.33976630299395
  F           9.22959728779506     -2.91398453501158      0.52255614233861
  F           8.86205976061919     -2.95845434857731     -1.59087390311443
  F           5.64414491355673     -3.50905734910930     -4.26594270792408
  F           6.54543104214303     -4.23356894072694     -2.44860349409605
  F           9.18702453356065     -0.28667746576368     -1.80806874583036
  F          10.83438512120692     -1.24470461195740     -0.79088613676184
  F           3.41888780763644     -2.62265101065671     -2.57167078341917
  F           4.29547032991602     -3.90626559779809     -1.08094458275854
  F           3.77460298673484     -4.68237486349411     -3.00632871359012
  O           9.54666366105558     -0.40039900465945      1.72283034261685
  O           9.26189812934533      1.32399041304378      0.31090891139775
  C           6.32147042367935     -1.30118420384930     -1.26674707910595
  C           7.20617366986459     -2.02410748212026     -0.21211168561367
  C           6.23826966410917     -1.87012128610742     -2.71959442059515
  C           8.72300816799687     -2.17325433898050     -0.48238592547504
  C           5.69448877128263     -3.31674859000172     -2.93160581240785
  C           9.52557190326381     -0.87625886393073     -0.62739182737289
  N           1.00505196458301      0.97792161223635     -2.13913773871902
  C           0.62062591686651      0.65834218556842     -0.73132480996845
  C           0.30213455244674      0.09757920176531     -3.08414157242737
  C           0.63413949430287      2.37572811452398     -2.41216144815671
  C           2.45670431942772      0.81727245270569     -2.31702042548912
  C           0.98439936738822     -0.73529627920429     -0.28703915921680
  C           0.10239584773628     -1.79349473880721     -0.48314694595709
  C           2.19259183669606     -0.97120683312580      0.36110483348472
  C           0.43096415947713     -3.07010606595672     -0.06355878167472
  C           2.51406027910348     -2.24857210241771      0.78765312225499
  C           1.64081811704819     -3.30131543512715      0.56975215660421
  H          -0.45811793099669      0.79751191746600     -0.64236611630781
  H           1.13267179340639      1.36712290054822     -0.07832220001991
  H          -0.77232342505857      0.21131282014027     -2.96520299231869
  H           0.58162737598284     -0.93696436666903     -2.90250011791808
  H           0.58021092633441      0.36063779586724     -4.10137939090638
  H          -0.43367948634679      2.51455070764535     -2.26221481885526
  H           0.88805401571774      2.62957081327167     -3.43825399018917
  H           1.17753547014896      3.04128030839189     -1.74549008953449
  H           2.74217624743431     -0.22238841214892     -2.17917541949680
  H           3.00938375167910      1.40501653326928     -1.58497124127340
  H           2.74982268243595      1.13291973867950     -3.31468119216299
  H          -0.85434245681670     -1.62360326305989     -0.95190270532231
  H           2.89782815602797     -0.17264508216989      0.54839013399590
  H          -0.25667677472784     -3.88614280541435     -0.22219379158149
  H           3.45869926816323     -2.41109018714585      1.28817511661920
  H           1.90735308002064     -4.29365488492773      0.90114014139457
  Cl          5.34251595114073      1.23271615897774      1.08209841817060
