53
Coordinates from ORCA-job R4N+PFOA-_0.15M E -133.635744242140
  C           7.83680235887513     -6.78756356141433     -1.58834162290911
  C           6.37993654402709      0.79911451866780      0.12776083723809
  F           5.80271001212314     -4.47802362250804     -0.30863639566159
  F           5.04972702592781     -3.09369396000228     -1.76416484160052
  F           8.43182015175484     -3.59435881296523     -0.90145140113332
  F           7.64298330688959     -2.41103955235535     -2.49745016677933
  F           5.19593845349176     -5.71569138441268     -2.51085575723610
  F           6.11342562154114     -4.22617832849446     -3.75924073447854
  F           5.99728654449928     -1.99931055360411      0.48697620092479
  F           8.13471452245949     -1.64011624866021      0.56782749630559
  F           7.33103915119913     -6.49407945972647     -3.87156846112796
  F           8.60886212033838     -5.01819781732399     -2.98690224780140
  F           5.97197977254985     -0.49251446626459     -1.95926488547755
  F           8.04226105099943      0.01430741107522     -1.54750406363548
  F           6.83000478808674     -6.89665495613254     -0.73508004330219
  F           8.95178459476914     -6.46070374416699     -0.96408080652739
  F           8.02305574557760     -8.00007754520580     -2.11705435930197
  O           7.19850943369624      1.02665038505362      0.99906250512458
  O           5.27580847929860      1.24419574559860     -0.13004921103157
  C           6.12735170792435     -3.84700741602667     -1.43884227543604
  C           7.34677662405343     -2.90043281266874     -1.26886644828625
  C           6.25812475133001     -4.88973942725885     -2.59401074220036
  C           7.08650082236802     -1.72166769352043     -0.26819586153351
  C           7.52905512235328     -5.77479632247117     -2.74488647123978
  C           6.87509583556766     -0.35611934985003     -0.94677626457243
  N           1.22702219037554      2.69291667209929     -1.71244931024745
  C           1.17888212513386      2.06757349873929     -0.35602964343415
  C          -0.01681128123855      2.42959063512687     -2.45070380816356
  C           1.39231372789820      4.14558275050126     -1.54415189299028
  C           2.36966494006650      2.16178106706744     -2.47306398635199
  C           1.08352272670359      0.56292603568432     -0.36655866715622
  C          -0.15330781581285     -0.07310798783746     -0.39329178555729
  C           2.24050545369181     -0.20824792089483     -0.30805980111972
  C          -0.23170072897546     -1.45465456629351     -0.38572827524717
  C           2.16002366646056     -1.59033206536112     -0.29562523872349
  C           0.92459437484271     -2.21600247960527     -0.34159556692339
  H           0.31836279433133      2.48165289161275      0.17182308909112
  H           2.09384996485405      2.34484807680763      0.17085287174222
  H          -0.86419568216784      2.83851066640442     -1.90635658090914
  H          -0.15344028789958      1.35876170471045     -2.57684584982146
  H           0.03556417081535      2.89587423702231     -3.43126850448093
  H           0.57142646544434      4.55029145140502     -0.95731545924657
  H           1.40720213361997      4.62934381173148     -2.51769341793388
  H           2.32985397434967      4.35634886630550     -1.03486613492182
  H           2.23374629547547      1.10116776535590     -2.67006741631266
  H           3.29362511238640      2.27413025166088     -1.90703846459040
  H           2.46395494108011      2.69129361070934     -3.41744265427810
  H          -1.06368268304977      0.50595854188357     -0.40242019646628
  H           3.21423476426641      0.25762067352691     -0.25640816244513
  H          -1.19376648904057     -1.94246136807450     -0.40637503598607
  H           3.06895441652337     -2.17406950584791     -0.24139619567875
  H           0.87165484578203     -3.29439421041045     -0.32954593380677
  Cl          8.01099242228177     -5.06135203309206      1.69951449513846
