53
Coordinates from ORCA-job R4N+PFOA-_0.15M E -133.636536338340
  C           4.53044532365041     -3.74818538218363     -2.99452170849800
  C           8.72401071459085      0.53246877759638      0.67909068874025
  F           4.98299811102607     -1.27988775209760     -1.59410518744413
  F           6.78229308892190     -0.10368598201781     -1.86333602536797
  F           6.27183881255690     -1.26681463901034      0.67223188197551
  F           6.35622023455836     -3.19984981910196     -0.23534964473243
  F           6.11628716876302     -1.36928020550864     -3.99628353069361
  F           7.95726100622417     -2.17599078984227     -3.22282140925306
  F           8.55611430849153     -2.54212539042211      1.12449653733920
  F           8.83824842643372     -2.99465688439714     -0.95509984686232
  F           6.34272618611553     -3.90483871992143     -4.47099612981808
  F           6.71512891577613     -4.44270968586304     -2.42022211596623
  F           9.27421566478027     -0.42240046371352     -1.57716472745716
  F          10.48261315854958     -1.07104998926634      0.09063855906758
  F           3.82655205503883     -2.75437491959679     -3.52063276089325
  F           4.20867538411565     -3.85645793712724     -1.71492204301226
  F           4.14827689543557     -4.86728207872353     -3.60023435871978
  O           8.36917597939000      0.18541409692329      1.79418071148822
  O           8.84590219667534      1.60543012298675      0.11960200905057
  C           6.32736275814806     -1.34956592879317     -1.67729876640210
  C           6.84666105476530     -1.93406814112417     -0.33402510100856
  C           6.63459807014276     -2.12024875586029     -3.00149536804303
  C           8.37496831096697     -2.02834394270606     -0.10846355493709
  C           6.06775272077523     -3.56056601613108     -3.19595851222185
  C           9.19749411934746     -0.74328238682718     -0.25531683925981
  N           1.04358279408851      1.00050516707363     -1.92519778698208
  C           0.94473836210710      0.69922336139533     -0.46549015565110
  C          -0.01207340717038      0.30963135336222     -2.67885748046071
  C           0.89828183123896      2.45404485057829     -2.10155222214965
  C           2.36207240571633      0.58824244620214     -2.43290929142276
  C           1.18688699886286     -0.74540807014131     -0.11319577064828
  C           0.15146900688898     -1.67400879034871     -0.12813315041373
  C           2.46044968899378     -1.15429723401738      0.26994010865622
  C           0.39123991754672     -2.99674252558981      0.20135785835059
  C           2.69530228590772     -2.47630953038723      0.60616620482974
  C           1.66522487768388     -3.40185359613793      0.56204577264298
  H          -0.04866011981536      1.00045657630749     -0.12875842863422
  H           1.70269472234684      1.29914788429280      0.04304593265160
  H          -0.98827776890824      0.62675306243971     -2.32065654596025
  H           0.08979439232567     -0.76506809264714     -2.55496625160244
  H           0.07866853778020      0.55185972065782     -3.73460520175194
  H          -0.04658536074674      2.78958444109951     -1.68126457670893
  H           0.93157761361937      2.70128213027334     -3.15960464202238
  H           1.71633682693683      2.96626479375187     -1.59880434738031
  H           2.46592160914187     -0.49289505860746     -2.38834370273521
  H           3.16124121064507      1.01919498538370     -1.82681952121167
  H           2.48461762923621      0.91621078494224     -3.46126130879343
  H          -0.85138946862111     -1.36614768784619     -0.38041847824282
  H           3.27124269175945     -0.43987378429432      0.31496385286248
  H          -0.41554004650894     -3.71273183639158      0.18433014164072
  H           3.68945117819300     -2.77908900972839      0.90483668821263
  H           1.86114931694635     -4.43117052362133      0.82053074848023
  Cl          5.18736268846509      1.54339909102754      0.06992524887403
