53
Coordinates from ORCA-job R4N+PFOA-_0.15M E -133.636785800390
  C           4.08297277427146     -4.94846375121669     -3.75889989174979
  C           7.38275476965069      0.76971900092955      0.68983455402726
  F           4.81607049226161     -3.67106802757454     -0.75755970116712
  F           5.00439567176075     -1.53672272770763     -0.96302968174360
  F           7.23645154080972     -4.09342546263617     -0.48296768428293
  F           7.83854938054120     -2.71985701504614     -2.00509305308008
  F           3.99690166195265     -2.37932639809432     -3.07992329410836
  F           6.02361371365794     -1.92409398049382     -3.57250358001485
  F           6.50066480357706     -1.72819924578739      1.09726095788571
  F           8.57617666433878     -2.27218187786523      0.76271022598711
  F           6.07473827010202     -4.11661087863678     -4.68262777782297
  F           6.20469653333541     -5.00134056786312     -2.72054546381901
  F           7.07468296731808     -0.22507639958121     -1.57855998003210
  F           9.07599312945959     -0.36523742275100     -0.78035888485981
  F           3.42910846751364     -4.36754899541107     -4.75823462622055
  F           3.29327105423989     -4.93433742556188     -2.69381174305829
  F           4.30356091537760     -6.21031472692549     -4.09757158088077
  O           8.24646612043725      0.92731310583369      1.53379426662605
  O           6.29317558764542      1.26768371450971      0.48037423585692
  C           5.53940692818519     -2.70666314585755     -1.35238250902931
  C           7.03417233710520     -2.84300040107726     -0.92204748808696
  C           5.26748404781377     -2.79301118249288     -2.89167472191590
  C           7.46708230471617     -1.80513691261374      0.15713440652959
  C           5.44113344633283     -4.22062549488759     -3.50163799345604
  C           7.76664628207913     -0.40363076991558     -0.41209132556247
  N           1.48762120148377      1.41378433166054     -2.13323903055418
  C           0.94193271613909      1.03361835134820     -0.79498845272121
  C           1.52955481170600      0.24373490252233     -3.02277960035642
  C           0.60131966777954      2.43265515658751     -2.72026779138940
  C           2.84190164044726      1.97262549903767     -1.99771385822674
  C           1.74667243541438     -0.00983535127742     -0.06010535668467
  C           1.46515730355210     -1.36252420065080     -0.22117031581130
  C           2.75995908317343      0.36587738347903      0.81537653898156
  C           2.19103959302601     -2.31926888872372      0.46637874872885
  C           3.48274151300209     -0.59042668372691      1.50595469132117
  C           3.20302086795843     -1.93600129471795      1.33187354934538
  H          -0.07068264860625      0.65679301341580     -0.94508686373372
  H           0.90257582158146      1.93583069544521     -0.18374206064651
  H           0.53398334842758     -0.17886901495278     -3.12917321127697
  H           2.19622154193457     -0.51392553978703     -2.61768307201215
  H           1.89807465365463      0.53912369670210     -4.00166214428974
  H          -0.40204007014943      2.03163680137539     -2.83809898681940
  H           0.97996894892785      2.73050542848473     -3.69462101385626
  H           0.56055323945344      3.30857233338630     -2.07801379422112
  H           3.52220188479637      1.24509706494523     -1.55708145018147
  H           2.82546373872434      2.85123361841126     -1.35794803596403
  H           3.22554474334981      2.25440951045067     -2.97480813906096
  H           0.67178939818850     -1.68362999321341     -0.87802011765137
  H           3.00680663674336      1.40455024623167      0.97119389756557
  H           1.98295552882760     -3.36989230636148      0.32811377342642
  H           4.28566192304948     -0.29423177511314      2.16596074286718
  H           3.78984007313122     -2.67852959820386      1.85753648774555
  Cl          6.72459161969993     -4.56390430173101      2.69252365095427
