53
Coordinates from ORCA-job R4N+PFOA-_0.15M E -133.639044883190
  C           4.75722154324968     -4.69396661794980     -2.64966252078498
  C           6.75732167789804      1.62562368486512     -0.68233394512427
  F           5.38932948960442     -3.14216611986748     -0.44843986235408
  F           5.44630549006221     -1.18480195872933     -1.31440017221518
  F           6.96815550899375     -2.22222437824584      1.17511874274963
  F           8.26354081098581     -3.02641720466725     -0.29343944686001
  F           5.98933190885096     -2.21804957978974     -3.42967694768965
  F           7.94301688711839     -2.70552643397798     -2.68784632169972
  F           8.28834902340541     -0.17240101997860      1.12197029921155
  F           9.50002059885532     -1.05170241763790     -0.40392370095338
  F           6.88806566209862     -4.85164368243254     -3.66337802584799
  F           6.81749988291918     -5.06054176412621     -1.52292152254930
  F           7.47464786368010     -0.16347091445464     -2.30767052519940
  F           8.99280420222804      1.08304537198559     -1.42751203816796
  F           3.99919976749292     -3.60452074117212     -2.65267284159597
  F           4.37308001731340     -5.45845411466891     -1.63839394833309
  F           4.50090087332927     -5.35294286733761     -3.77340817754727
  O           7.21328461209010      2.32846748129452      0.19997628391719
  O           5.76675997249772      1.67025119289082     -1.38361148606101
  C           6.20436298333030     -2.24401062163501     -1.05623688047220
  C           7.39243703578265     -2.00155047024393     -0.07505787473799
  C           6.63200501778999     -2.85922685351718     -2.43935801417467
  C           8.21542262080824     -0.66897326750374     -0.12558115839920
  C           6.29391773143265     -4.37888202761496     -2.55380587635775
  C           7.82555555639340      0.42862546750814     -1.12471912717176
  N           1.88603358025784      1.15279617904142     -1.76421731332348
  C           1.78298787194928      0.61712116526656     -0.37352734527090
  C           0.56462183105551      1.19179783062701     -2.40943247590486
  C           2.43345484451362      2.51694799706333     -1.69345808034640
  C           2.79736684863491      0.32602018764101     -2.56791413382894
  C           1.29477123402757     -0.80591366103698     -0.28980212526156
  C          -0.06166527283657     -1.11464247089432     -0.30704652499106
  C           2.21898502208688     -1.83511008770300     -0.14940383440404
  C          -0.48135406005629     -2.43147810215891     -0.22846333749633
  C           1.79875057760975     -3.15129705652512     -0.06603633036448
  C           0.44741083611766     -3.45260187989006     -0.11884059209552
  H           1.11168901399197      1.27206305571307      0.18470558571184
  H           2.77757822100799      0.66529763579945      0.07992895377946
  H          -0.11922361972343      1.78919226739757     -1.81196702975975
  H           0.17573933916571      0.18230435436582     -2.51066794538190
  H           0.65834834006181      1.63788084977598     -3.39619272483084
  H           1.80586923808413      3.14298689412142     -1.06454249935622
  H           2.49186836392788      2.94100596607084     -2.69246849348980
  H           3.44083681077957      2.48869334083741     -1.27721828676313
  H           2.46365477291020     -0.70849943381283     -2.57669212998529
  H           3.79938117892389      0.36423365943596     -2.14299467674842
  H           2.84098503335839      0.70824695083373     -3.58389741291865
  H          -0.79759446872071     -0.32773016426500     -0.35959591445093
  H           3.26738325821809     -1.59079070012919     -0.06556902034735
  H          -1.53512523162555     -2.66169627786537     -0.24379942388747
  H           2.53362036802864     -3.93489775521926      0.05222540018208
  H           0.12354787150539     -4.47994322417887     -0.05482134728799
  Cl          5.24214253843488      0.04132443299492      1.22699059874033
