53
Coordinates from ORCA-job R4N+PFOA-_0.15M E -133.642528130560
  C           6.26608685220187     -5.81372141396573     -2.34047323527726
  C           5.64102669347535      0.45029349897874     -0.23107729582979
  F           7.39907261156765     -4.17364261680529     -0.45906432806386
  F           6.08467124589298     -2.93907095751725      0.69677199340940
  F           8.72776219600494     -2.41642396716306     -1.36172823993794
  F           7.08642233335288     -1.24805119852334     -2.01751045777068
  F           4.50806916952987     -4.02061664959201     -0.87195556823327
  F           4.91264777012552     -2.33236081135028     -2.10903040385050
  F           7.59436326680441     -1.17133227352007      1.40496088392423
  F           9.26641542201562     -0.61989387300852      0.14803177472993
  F           5.05961861130517     -4.27778063174502     -3.66322035830007
  F           7.11078354092911     -3.79008077132597     -3.23955254014860
  F           7.78799750956758      1.11969262327149     -1.24388725426861
  F           7.59994626249249      1.42213824226993      0.88809772760869
  F           5.81931951181855     -6.16345036664039     -1.14155977150322
  F           7.55928581104577     -6.08861425844538     -2.41046501391368
  F           5.64553012515790     -6.59158404011182     -3.22471338541115
  O           5.04358338412095      1.50361386255514     -0.34969846301110
  O           5.24898107123961     -0.71361359489655     -0.19591423864769
  C           6.63735031770562     -3.05398757410004     -0.51170651655620
  C           7.58017617942256     -1.86915416936194     -0.91862751275281
  C           5.49503627386672     -3.39209742636242     -1.53575188658459
  C           7.92323117247861     -0.79109097455336      0.15858709194756
  C           5.99658272148889     -4.30966193721014     -2.69656945985890
  C           7.24923863520990      0.57074683638389     -0.11719059747690
  N           2.01511932429224      1.59956922166767     -2.09210425697887
  C           1.77737324209647      1.14703590611311     -0.68901352975218
  C           0.73775544152688      1.76377527552305     -2.80514643577544
  C           2.71014816235819      2.89631106718577     -2.04648914201706
  C           2.84610171200156      0.62734183881960     -2.81587343865746
  C           1.12336936985387     -0.20587933638832     -0.57689427657184
  C          -0.26241954697959     -0.32883124266583     -0.56136192563921
  C           1.90472347540481     -1.35040122043933     -0.45328017029901
  C          -0.85538389575797     -1.57464204325707     -0.45306093844862
  C           1.31035396715435     -2.59614039140597     -0.34337178524388
  C          -0.07041935941895     -2.71096538667984     -0.35126459632051
  H           1.15345526332914      1.89778065393531     -0.20154818059490
  H           2.74840795275996      1.11680867752812     -0.19037880212934
  H           0.11645674817301      2.48941187357213     -2.28661443763510
  H           0.21603021751444      0.81165858155092     -2.85467567445938
  H           0.92864652666917      2.11659788419485     -3.81540067254957
  H           2.10261210252458      3.62569888908952     -1.51727774743860
  H           2.89888733624689      3.24831174969969     -3.05720574019655
  H           3.66070591612858      2.78586194382764     -1.52757107374243
  H           2.33379168334125     -0.32863236440427     -2.88864360901140
  H           3.78495156944910      0.46712565549837     -2.28987927107532
  H           3.06498847634666      0.99845760921022     -3.81339593721879
  H          -0.88542195904190      0.55030742149669     -0.61644062420038
  H           2.98212822541937     -1.27021540462386     -0.42340162335450
  H          -1.93068060868070     -1.66077902064015     -0.44160715155262
  H           1.93374495796434     -3.47313540543634     -0.24352429315737
  H          -0.52844704844286     -3.68424827052370     -0.26449872095457
  Cl          9.79442313884620     -3.63058762340850      1.60146756225172
