53
Coordinates from ORCA-job R4N+PFOA-_0.15M E -133.638638818370
  C           5.86581882288043     -5.88944829414998     -2.32350448740167
  C           7.03822544573666      1.43794376019911      0.28714352051676
  F           5.04313920668785     -3.45285819998018     -0.95642094359690
  F           5.06291017256362     -1.54368513177410     -1.94796634541224
  F           7.63284431451136     -3.45194196378081     -0.51163975896333
  F           8.04882214026206     -2.05482804950461     -2.07127450655045
  F           4.61159820173634     -3.48737458312857     -3.60088692051859
  F           6.50510184940222     -2.57538420602413     -4.02016060037135
  F           5.87070723828376     -1.03315657392757      0.43145238881187
  F           7.95372088400416     -1.41530832635029      0.93500663581444
  F           6.49189019776382     -5.17888026181618     -4.47393990879530
  F           7.83573079864612     -4.69725773253954     -2.86155627966131
  F           6.94819727363998      0.32385902717557     -1.93466307928338
  F           8.85876238226224      0.20402901855614     -0.91515374778943
  F           4.54293061826844     -5.78232573315298     -2.30913131575637
  F           6.31862771444234     -5.88045304148322     -1.08050910840517
  F           6.15826327617373     -7.07578710319510     -2.85125513215891
  O           7.87154268283321      1.75385658837178      1.11560078042113
  O           5.90904031215028      1.82145730906878      0.02867468860640
  C           5.78266792380051     -2.66427030832710     -1.74759031158709
  C           7.15726927760072     -2.33933750903901     -1.09105344154816
  C           5.87289916633828     -3.36820493223436     -3.13836409400937
  C           7.11169458859592     -1.14644504991305     -0.08042282836235
  C           6.53609439568072     -4.77420142349371     -3.18779727476829
  C           7.51618517049431      0.20634152006731     -0.69736655647228
  N           1.68033362372257      1.66188573335671     -1.89648464206502
  C           1.41974980133530      1.40086529087941     -0.44947088942105
  C           0.62009873050751      1.07649441875262     -2.73036250599965
  C           1.70703609681256      3.11962434249580     -2.10185056020578
  C           2.98091840368544      1.10003716013700     -2.29333528308058
  C           1.39980063906262     -0.06033198953264     -0.08213098595472
  C           0.21945068529836     -0.79368863608249     -0.14423413261008
  C           2.56410244037944     -0.68647663100941      0.35080246192185
  C           0.20987303317798     -2.13571177747800      0.19224594196689
  C           2.55312894321862     -2.02791563712189      0.69372029009199
  C           1.37751845019608     -2.75616425767385      0.60450546711141
  H           0.45806792335872      1.85103743441368     -0.19809677123859
  H           2.20992551869697      1.88995321120125      0.12290434597186
  H          -0.34279344933367      1.49692568320738     -2.45182746148920
  H           0.59533556583599     -0.00170900496463     -2.59593302336618
  H           0.81735742571566      1.29577669477371     -3.77650274022144
  H           0.76207378748153      3.55818953346423     -1.79109416157759
  H           1.87585307988285      3.33928554041562     -3.15296069701246
  H           2.51417423150894      3.56042391417616     -1.52112837035257
  H           2.98027735642352      0.01842502590190     -2.18450061809843
  H           3.78330081924976      1.49089709718738     -1.66777430476641
  H           3.19376057369277      1.35071356108256     -3.32884145391039
  H          -0.70189957863525     -0.31771043418359     -0.44186457066691
  H           3.49130575056865     -0.13666517338879      0.43686922596993
  H          -0.70732508573705     -2.70130535999210      0.14024355793411
  H           3.46328907520719     -2.50016501670481      1.03656863680319
  H           1.38460953565060     -3.80251528455636      0.87129077592268
  Cl          5.80059364817683     -3.60866214208117      2.00031754708432
