53
Coordinates from ORCA-job R4N+PFOA-_0.15M E -133.577806197880
  C           7.44591740762634     -6.37827935092599      0.58367466660050
  C           4.82909789135855      1.25971692053625     -2.72553473995717
  F           5.85059837228977     -2.41886888703632      1.14545034178360
  F           4.69642838376937     -2.45464142386841     -0.66154435913834
  F           8.06371304721181     -1.81256958642167      0.02136094135655
  F           7.46425044365885     -2.39636267455541     -1.95858494396223
  F           4.98819008839718     -4.89580397213513      0.06241015889346
  F           6.19166746407434     -4.56386514902899     -1.65664899385103
  F           5.61953296286004     -0.07304603806710     -0.09760245994792
  F           7.53832242608823      0.43536803791683     -0.91899512806480
  F           8.39455151703519     -4.60290701872436     -0.61317721071358
  F           7.81901535919640     -4.15081002254267      1.38111631748355
  F           5.26824302977937     -1.33726819499484     -2.89623134882122
  F           6.91424280258500      0.01423384828872     -3.33504441875976
  F           6.26997720377162     -6.97658279341411      0.56644488434193
  F           8.07198410713528     -6.65572759720105      1.71371538601796
  F           8.15831465777444     -6.96012358838352     -0.39517199487630
  O           5.28641511329270      2.17328161852217     -2.09319418705743
  O           4.16476481423558      1.06061709141779     -3.70530388505047
  C           5.91040050995860     -2.75413180388826     -0.15175174216292
  C           7.00491152849515     -1.86103738340026     -0.81371581919527
  C           6.10956978330599     -4.28963316459302     -0.33092933990230
  C           6.49631024339632     -0.40523093882299     -1.07569739505865
  C           7.42160093673669     -4.83682721913224      0.30928472177594
  C           5.86755906059005     -0.17805442325940     -2.46378713357560
  N           2.63397210630033      1.69407979843941     -1.25251325437386
  C           2.77028903332378      0.20414188712500     -1.34447063863752
  C           1.24145993551959      1.81956819101775     -0.66141217007116
  C           3.47123208105894      2.25859191284784     -0.16643906033675
  C           2.51548194115527      2.59641367494522     -2.42417446530663
  C           1.64736330554363     -0.51314486812222     -2.05887501845560
  C           0.71378169002435     -1.23168488427190     -1.31750622464696
  C           1.55811187844882     -0.52978214354174     -3.44620522536869
  C          -0.30593099550052     -1.92297460727444     -1.94664023556516
  C           0.53236509785009     -1.21628326598588     -4.07423393942828
  C          -0.40646350129583     -1.90699794216006     -3.32762645313170
  H           2.81086338659524     -0.15153338657504     -0.31229228900171
  H           3.69972410064009     -0.10549165676207     -1.79520480848992
  H           1.12061223397713      1.14567281978062      0.18177146224056
  H           0.49975480680209      1.56913284088632     -1.41482127395918
  H           1.07949967579178      2.83601149206114     -0.31482813480459
  H           3.18593493131210      1.81059911387865      0.78179250288724
  H           3.31037234750441      3.33245273909209     -0.12950370259951
  H           4.52979110732557      2.08697536036636     -0.30666741871872
  H           2.08116025117496      2.05974900919714     -3.26131874276793
  H           3.46500229538314      3.02127199543432     -2.72496803393346
  H           1.86487997877744      3.42394166047473     -2.15442693309021
  H           0.79259310293120     -1.27107469262431     -0.24146316722871
  H           2.30912413435359     -0.03318959523461     -4.03916176751991
  H          -1.01805648274532     -2.47878178385999     -1.35681749753325
  H           0.47733883278423     -1.21855153416228     -5.15178337267618
  H          -1.20231907054545     -2.44395936670024     -3.81972142944559
  Cl          5.63108372078591     -5.15874695825811      2.82726542530472
