53
Coordinates from ORCA-job R4N+PFOA-_0.15M E -133.634515515460
  C           3.64445625125953     -3.96541616475721     -2.43038008245624
  C           7.73741723330511     -0.68643887955681      1.63116092903305
  F           6.15263964845676     -4.28058347163100     -0.68110947214508
  F           5.94924407660311     -2.35107101173752      0.28375896502246
  F           8.51065888647719     -3.63757679875384      0.11466978574643
  F           8.37297300464242     -3.44980477815447     -2.02116209944481
  F           4.73528703249634     -1.55436432177799     -1.69260580219705
  F           6.53799481254772     -1.70230231461729     -2.83863908548995
  F           9.92644712571001     -1.64488260440765     -0.30550694668573
  F           8.86746246817512     -1.03592157996509     -2.06255641730465
  F           4.83382362984541     -2.95915925282931     -4.16954784976767
  F           5.84472451052896     -4.55663515095303     -3.14627825078556
  F           6.78640137372015     -0.08977270008307     -0.61729320912521
  F           8.69932235666680      0.76226528260191     -0.10491228052433
  F           2.73864693328146     -3.03217253421563     -2.71166214810538
  F           3.60794643668328     -4.18132363379511     -1.12607000167851
  F           3.27135243808883     -5.07649832380147     -3.05186074486194
  O           8.62593929088016     -1.37625379090623      2.10197476509026
  O           6.75089621139578     -0.13493198485904      2.08153363500746
  C           6.44562513621572     -2.96768413526087     -0.79116478669034
  C           7.99861312646803     -2.86477316067168     -0.85121108299188
  C           5.70491337573809     -2.41067936845903     -2.05752740552049
  C           8.67995841850566     -1.46568774651378     -0.78203922337355
  C           5.04199454474162     -3.50439628938275     -2.95321046983018
  C           7.95741355230377     -0.38082013780853      0.02307037493858
  N           1.08188333185859      1.13668516063257     -2.65491381308930
  C           0.77482858520876      1.09550087935562     -1.19295888657529
  C           0.72593657829951     -0.13965316200675     -3.29267841159576
  C           0.28516788088243      2.21544016509891     -3.26329217294525
  C           2.51034281439516      1.40831764633680     -2.87404375219948
  C           1.55211031431373      0.05985709197002     -0.41878070608669
  C           1.05887250649576     -1.23174830459044     -0.27038246371646
  C           2.75928017676130      0.39236203188791      0.18764088562475
  C           1.76910429352990     -2.17525665435221      0.45116657173055
  C           3.46878282061331     -0.54908256821851      0.91278875278393
  C           2.97777190747118     -1.83907127285782      1.03909116451644
  H          -0.29141589065205      0.89399645965269     -1.08267452894215
  H           0.99731300945609      2.07878993381330     -0.77722970415806
  H          -0.32905051820888     -0.35035133719211     -3.13897529377939
  H           1.31661813836067     -0.94877364786603     -2.87051612069964
  H           0.92544108592897     -0.08471765002404     -4.35966235171438
  H          -0.77493555318219      2.02651142311657     -3.11531096357444
  H           0.48938061447386      2.26595753287083     -4.32972593223573
  H           0.54020182990053      3.17108909919135     -2.81252430966736
  H           3.12011143157845      0.62689193802421     -2.42423962438709
  H           2.78492979090259      2.35981534419771     -2.42572136750508
  H           2.71925301772908      1.44567690205332     -3.94007652714151
  H           0.11108850912376     -1.51078367150070     -0.70353051115087
  H           3.16045933388136      1.39129780799724      0.11256012849825
  H           1.38960541000149     -3.17981130548014      0.56401828746467
  H           4.41185590037968     -0.29532304874678      1.37681031550466
  H           3.54845524432899     -2.57344977724240      1.59316343816611
  Cl          6.34905664133025     -4.52543006752466      2.50686325251486
