53
Coordinates from ORCA-job R4N+PFOA-_0.15M E -133.630399934980
  C           4.13908257677205     -3.49725354480853     -2.46779464037474
  C           9.59717500955044     -0.70748359017858      1.01948896783501
  F           5.23523980264251     -2.20981407526539     -0.11142930094710
  F           6.59891023215175     -0.52551456176894     -0.26145525380169
  F           7.54840267513481     -2.92456957389709      0.92117182050883
  F           7.13078254725051     -3.94814512215628     -0.91195215221395
  F           4.94434612352029     -0.63574136855203     -2.22740870643168
  F           6.93677411273003     -1.01242125731250     -2.93435566268761
  F           9.72650979779050     -3.41202228679198     -0.52271109845333
  F           8.85502751347829     -2.59008737591323     -2.30358739760909
  F           5.01792006810176     -2.27013294114307     -4.24170951685693
  F           6.35547203540452     -3.66680857210354     -3.29480505889583
  F           8.87247331664976     -0.10085701138430     -1.30617293635852
  F          10.79007210587681     -1.06701723210132     -1.09722407109612
  F           3.19237365514795     -2.62416995262919     -2.14635483905836
  F           4.40906696157924     -4.25432919138979     -1.41821178507611
  F           3.63151904932600     -4.28460951071919     -3.41234261668937
  O           9.91906309810923     -1.67389997185487      1.69218071501538
  O           9.37602767386516      0.46398405895370      1.25731786622611
  C           6.34312341153181     -1.75264952808843     -0.73199421227767
  C           7.49713039944558     -2.73867788492446     -0.40119220713735
  C           5.93399444858836     -1.55497176073426     -2.22719591281039
  C           8.91138572610373     -2.42744732994278     -0.94761445960872
  C           5.39443580711145     -2.77007640980762     -3.04339430526219
  C           9.51605737177386     -1.06512200813943     -0.59123514093872
  N           0.71996959538757      0.90126104669501     -2.48624999761100
  C           0.22590164246437      0.67393789666265     -1.09420817971876
  C           0.63245858632725     -0.33864550957941     -3.27204563374667
  C          -0.12862195645136      1.92853072400433     -3.11406516990247
  C           2.11239733949594      1.37183666156887     -2.47211362578835
  C           0.97634241328050     -0.39173787649523     -0.33636284037957
  C           0.54283829737022     -1.71233076297279     -0.36623115467073
  C           2.09556812994887     -0.06601350976182      0.42322392615623
  C           1.22878589393059     -2.69155880792635      0.32994310318977
  C           2.78226022496618     -1.04367608382567      1.12180278630658
  C           2.35300025447608     -2.36022425023667      1.06717222943799
  H          -0.82510244889337      0.38904886167803     -1.15819124959165
  H           0.30830214716533      1.61654864141638     -0.55193110948940
  H          -0.39551031487268     -0.69071447152589     -3.29635441158946
  H           1.26294184724934     -1.10512110229625     -2.82841740165633
  H           0.97002370349219     -0.15286802741086     -4.28836918480738
  H          -1.16076955405478      1.58977345464005     -3.15114734719472
  H           0.21663794646303      2.12149706271689     -4.12654174418314
  H          -0.08004371090162      2.85392343431720     -2.54582102616170
  H           2.76160412682325      0.63216961005789     -2.00908880517590
  H           2.19115903858499      2.29992729989199     -1.91152899688951
  H           2.45610465662198      1.54358938693340     -3.48880702795290
  H          -0.33962592497786     -1.98489892485184     -0.92364035709416
  H           2.44357394408540      0.95381259966338      0.49169963128047
  H           0.89074797978844     -3.71620944706271      0.30253199772952
  H           3.65989227150447     -0.79310972051746      1.70188745757943
  H           2.90893580807008     -3.11364595160496      1.60655380529680
  Cl          6.17246362291887     -0.84741213522510      2.72457868312711
