53
Coordinates from ORCA-job R4N+PFOA-_0.15M E -133.634080735650
  C           4.54030133858412     -3.53110143487610     -2.23470865797410
  C           9.86693465861406     -0.10114695892150      0.84020907384577
  F           5.45022104558778     -1.44702601235458     -0.35814438107495
  F           6.98783638693282     -0.01497491657316     -0.92364828082886
  F           7.60358798070611     -1.64410623312071      1.13180963780954
  F           7.17433225025264     -3.39761117920372     -0.03282817275769
  F           5.49715513076006     -0.80121789635454     -2.94255336510306
  F           7.53800418828997     -1.43866436959320     -3.17758260434578
  F           9.73989681814181     -3.09470388246551      0.26908740305405
  F           9.16353794687771     -2.85101262168650     -1.78515176727443
  F           5.79330128751382     -3.13049881290608     -4.17182881407638
  F           6.82783702472039     -4.02651867060167     -2.50752380619011
  F           9.45898227056937     -0.15647336168214     -1.63729813965976
  F          11.20511759625238     -1.21594731719781     -0.92851354478457
  F           3.62114082517362     -2.58391527615324     -2.34708486438734
  F           4.64230071165985     -3.88399807520861     -0.96298289047337
  F           4.09719220686862     -4.58875971799116     -2.90820020464550
  O          10.41257305269106     -0.72172911215697      1.73625340741099
  O           9.29129716762982      0.96945773579412      0.77210806764191
  C           6.64755007172376     -1.30839485047678     -0.96883860637269
  C           7.65792450695245     -2.13439582662542     -0.12109856968989
  C           6.41817938025711     -1.66348774582262     -2.46959558135412
  C           9.13611511159321     -2.23097851714774     -0.57162064562414
  C           5.91641012125405     -3.09596411406855     -2.82960969617322
  C           9.91488613304464     -0.91122253798791     -0.59834831444348
  N           0.74471673919995      0.96131970857831     -2.21582525925878
  C           0.53659864978754      0.68161753494948     -0.76377552278816
  C          -0.21840304278362      0.21644745751148     -3.03875732503690
  C           0.55974535560030      2.40469427316644     -2.43353729776046
  C           2.11487334827520      0.59080964111083     -2.60448425866443
  C           0.77945836868486     -0.75036026588583     -0.36280418416183
  C          -0.23725441857817     -1.69750228245411     -0.42802922701271
  C           2.02653976161340     -1.12633177901326      0.12547735960477
  C          -0.00417036875221     -3.00482315493839     -0.03856355064592
  C           2.25263723721303     -2.43126223993006      0.52860848372871
  C           1.24259830832731     -3.37522034845381      0.43702866816551
  H          -0.48681195641626      0.96499818330451     -0.51234491885457
  H           1.23691898816898      1.30846058103593     -0.20725669513406
  H          -1.23225028289948      0.50003959128628     -2.76754435683762
  H          -0.08617358121101     -0.85123103381333     -2.88536911522577
  H          -0.05141329116508      0.44445066535234     -4.08835632118714
  H          -0.43137710674016      2.70887454211996     -2.10619515356390
  H           0.67790690797576      2.63568653108362     -3.48919200548794
  H           1.30821626535778      2.95839993151267     -1.87023333525240
  H           2.25303814763861     -0.48433410054721     -2.52851892202993
  H           2.84435687015849      1.06303646808824     -1.94477248815485
  H           2.31150931239491      0.90542593610246     -3.62542619557479
  H          -1.22209193675694     -1.41567903591496     -0.76686081988606
  H           2.82417764248598     -0.40072182310306      0.20538114032564
  H          -0.79603052728503     -3.73533368135209     -0.09554297184704
  H           3.22490998958510     -2.70235102528255      0.91600484064042
  H           1.43028197151761     -4.39179461582882      0.74861260646498
  Cl          4.64947851585154      1.64492814299697      0.17826659440630
