53
Coordinates from ORCA-job R4N+PFOA-_0.15M E -133.630853147270
  C           4.08305378059645     -3.45570198944219     -2.35028062646122
  C           9.36623503539586     -0.02102678768100      0.69024357635674
  F           5.04736420270825     -1.38744708820629     -0.61199720541502
  F           6.69745839407182     -0.08509226775183     -1.13596013527715
  F           7.02799578988052     -1.94129138313038      1.01934088899185
  F           6.74132255406681     -3.53004124292826     -0.38238734556730
  F           5.27168278988408     -0.79867417162574     -3.16249889273380
  F           7.24782157526542     -1.63625671530657     -3.32384128464140
  F           9.29499972286508     -3.11702513926980      0.29889955408337
  F           8.82984839086474     -2.96701796043665     -1.79201684859296
  F           5.23819866462230     -3.08361992767544     -4.34669845487939
  F           6.30992363316335     -4.12502946571655     -2.79737570070945
  F           9.11974571770575     -0.31247071593474     -1.79614164865984
  F          10.79398187730654     -1.29091657162346     -0.84946920691613
  F           3.24820066587510     -2.42480643463320     -2.39787179438498
  F           4.20836088371636     -3.84758993625071     -1.09375629840389
  F           3.51095518612035     -4.44705484634482     -3.02614047539693
  O           9.41487296653007     -0.67556410998891      1.71943879646011
  O           9.30933784406534      1.16576034416380      0.43390032116388
  C           6.28697746142421     -1.35950097480547     -1.14391312534174
  C           7.20573212155907     -2.25412322171471     -0.26718261310272
  C           6.09384509404220     -1.73926948722962     -2.64869305344470
  C           8.71625090110429     -2.30123520810862     -0.60369109494159
  C           5.45560736904977     -3.11640738161163     -3.01401102370978
  C           9.47475891223783     -0.97082168604805     -0.65747501841764
  N           1.01501040952830      0.93590832957571     -2.23773858835903
  C           0.51654597596378      0.62596562037743     -0.86362988430251
  C           0.61166886800112     -0.11442836846975     -3.18467626059609
  C           0.42954729646070      2.21772063880818     -2.66418317282416
  C           2.48077427007537      1.05066546341041     -2.23420123625486
  C           1.01219187304226     -0.68048027229710     -0.29639164274423
  C           0.29486029649583     -1.85447727050859     -0.50650747185779
  C           2.16686474727698     -0.72636474894809      0.47753123826715
  C           0.73312377029365     -3.05267662850197      0.02730647041777
  C           2.59925469273370     -1.92513830426854      1.01865950901478
  C           1.88885384475268     -3.09150855852965      0.79053560543992
  H          -0.57373460690666      0.60655231319203     -0.90445245387441
  H           0.83759855250980      1.43225248713023     -0.20272950321266
  H          -0.47061651662446     -0.21400071696062     -3.18676050003087
  H           1.06356720312583     -1.06133415368652     -2.90161816610306
  H           0.94918789179706      0.14730148624166     -4.18401580381748
  H          -0.65471524524543      2.14303319973079     -2.68831641221573
  H           0.79182089948034      2.47398360940361     -3.65648887918900
  H           0.71635863951698      3.00813680950094     -1.97501000907128
  H           2.93464412930023      0.12046821115808     -1.90136879750920
  H           2.80493959884708      1.83715279742790     -1.55623555930100
  H           2.84350313228122      1.27500907412040     -3.23378796567529
  H          -0.61937472885263     -1.83769969933707     -1.07881392538015
  H           2.75578704002021      0.15692814161717      0.68121619383176
  H           0.17337210132703     -3.95912525711835     -0.14367503552317
  H           3.50360153450926     -1.93063121459355      1.61148093730623
  H           2.23993356664348     -4.02236681108694      1.21022646397893
  Cl          5.81550030942425      0.77923028821306      1.66152001102707
