53
Coordinates from ORCA-job R4N+PFOA-_0.15M E -133.632184241090
  C           4.13929706263451     -3.69033995291891     -2.88473557901080
  C           9.23277466159307     -1.40774091183101      1.45855461132613
  F           5.08154876546299     -3.13506464854431     -0.20881678301870
  F           6.10845424595019     -1.28323045206609      0.28644057175675
  F           7.54396238358812     -3.78157261562543      0.40546460646859
  F           7.20951919747631     -3.98055867116145     -1.69845679787718
  F           4.35884873465821     -0.95985842685959     -1.59133392304176
  F           6.33672735950975     -0.66307922908174     -2.35958548352220
  F           9.67567813984280     -3.18733405287100     -1.04604819111992
  F           8.56563666750247     -1.89148865788696     -2.34551025472489
  F           4.48619283893145     -1.68354657596758     -4.01159719652284
  F           6.20950050631483     -2.95392435790556     -3.78252865962793
  F           8.19504949859076     -0.07124375756717     -0.40418691168369
  F          10.26114148900204     -0.64492253929541     -0.62812813592523
  F           3.07482620234962     -3.27874919005444     -2.20623370430684
  F           4.69742930527160     -4.70544649732342     -2.24832999226705
  F           3.69880599999941     -4.13966144022456     -4.05730293743777
  O           9.71488643277888     -2.50917064908152      1.66842784787728
  O           8.91284169432782     -0.46661616530385      2.15901071803100
  C           6.03749036743317     -2.27112914351949     -0.61274489737288
  C           7.37491621601609     -3.06004703778983     -0.70455686993078
  C           5.49399553775209     -1.61233541751404     -1.92086002539483
  C           8.67405613994453     -2.28642998610328     -1.04099502275065
  C           5.12194434216724     -2.50577604672131     -3.14585822453099
  C           9.05560871584762     -1.09696508857452     -0.15382087473103
  N           0.73908108266339      0.74210923209023     -2.65463814879652
  C           0.30674227535044      0.66900705192788     -1.22561363474254
  C           0.94260076481330     -0.60774668137708     -3.20003849398961
  C          -0.31988906113378      1.41776920353668     -3.42358017302586
  C           1.98701735412997      1.50957860821168     -2.77833317361951
  C           1.30362416602425      0.00178672915025     -0.31208329842451
  C           1.25224130582110     -1.37032661067635     -0.09287319914701
  C           2.27903427693645      0.75106661301305      0.33711452110205
  C           2.16842327185388     -1.98273312353014      0.74359973703108
  C           3.19519027305129      0.13753833983784      1.17294298263112
  C           3.14504524964625     -1.23205264942650      1.37770086794237
  H          -0.63167624986579      0.11471801773185     -1.18970931405074
  H           0.13437445551956      1.68777166663866     -0.87702927547246
  H           0.01783871366053     -1.17600896341487     -3.14514169854021
  H           1.70971432083902     -1.12682824921566     -2.63095653759818
  H           1.26089459025187     -0.54284803530502     -4.23747043680098
  H          -1.25143763685122      0.86329819050752     -3.34551599732153
  H          -0.03229414938294      1.47744539956923     -4.47012145083240
  H          -0.47482137367711      2.42439412628008     -3.04390327631591
  H           2.78491804699034      1.02317492217252     -2.22187683349495
  H           1.84817220646884      2.51446480201136     -2.38787192005503
  H           2.27931539261766      1.57181514658116     -3.82350804313693
  H           0.49260178956168     -1.97453819660324     -0.56349695362056
  H           2.32927320032749      1.82109527002817      0.20631915694130
  H           2.13902082128578     -3.04957303016080      0.90700307786745
  H           3.96577286596136      0.71131659307915      1.66832639286501
  H           3.87292917137305     -1.70984349444170      2.01906420839369
  Cl          6.14976145071747     -2.78176727012352      2.90371947504952
