53
Coordinates from ORCA-job R4N+PFOA-_0.15M E -133.638434965060
  C           6.23936246163500     -6.29806450952814     -1.10281856449900
  C           5.82894988825406      1.07636921513380     -1.75098927165547
  F           5.71702596996730     -3.14349917410559      0.23207595552934
  F           5.39135124748289     -1.83731055012909     -1.45203255516078
  F           7.80093696156070     -2.03937996734102      0.86631248573173
  F           8.63294828127685     -2.65548503845297     -0.99849897794331
  F           5.31161239010467     -4.16601596641877     -2.32145620167063
  F           7.23871660147484     -3.45390804113119     -2.92462393199276
  F           7.94438496671238      0.36357676099423      0.23525610060199
  F           9.29440347970048     -0.45090942150423     -1.18521146971531
  F           8.26449272935728     -5.43463807470111     -1.92182683267229
  F           7.64896636924596     -4.81369578761254      0.04751201912341
  F           7.02852470245608     -0.75384548200475     -2.97882569661852
  F           8.08414952731151      1.08944026816855     -2.61153063669985
  F           5.12954779796388     -6.01680465178935     -0.43423587535995
  F           6.85182250195529     -7.29419215815273     -0.47396614458120
  F           5.90370331651874     -6.73379493063834     -2.31063240183229
  O           6.02994585164241      2.10357206956895     -1.12948236079060
  O           4.84927707821988      0.61946273827855     -2.31011299762755
  C           6.29725062583129     -2.61584161392174     -0.86345515127241
  C           7.63106998451874     -1.90202299665883     -0.45689527389659
  C           6.52587086892144     -3.81669148049672     -1.84903002726226
  C           7.96372551026030     -0.41939731976018     -0.85103238367099
  C           7.19660156659138     -5.06932287888646     -1.19274627066156
  C           7.20726356176781      0.21237525455595     -2.02543046994829
  N           1.70369913411393      1.79944040887232     -1.12574172610677
  C           2.06793816531220      0.54104239034138     -0.41207925958488
  C           0.29587921210959      2.14270270069866     -0.86364606084009
  C           2.56547103412273      2.88132620066533     -0.62640877967070
  C           1.89434061763002      1.65559445963484     -2.57651738074552
  C           1.39911658511678     -0.69831801386421     -0.94206833756480
  C           0.16267706740359     -1.11415400308376     -0.46038097987623
  C           2.05052234162559     -1.47466984211552     -1.89488735893961
  C          -0.42232248060200     -2.27400871959051     -0.93967507069262
  C           1.46943881136204     -2.63947654494793     -2.36510110693636
  C           0.22838642420804     -3.03701214664911     -1.89401492402726
  H           1.82797555938866      0.67083880782714      0.64477828981459
  H           3.14962344515375      0.40596080983447     -0.48396825150668
  H           0.13944523903756      2.27018662214739      0.20449795730171
  H          -0.34686351862035      1.34683054100079     -1.23082030495933
  H           0.04855347856177      3.06997191027304     -1.37437444358589
  H           2.44110525962588      2.99297568631680      0.44798303847321
  H           2.31581223446689      3.81423681103661     -1.12530880965864
  H           3.61365166296887      2.64784712409963     -0.81545442012658
  H           1.22954491815275      0.88795476830444     -2.96347440693816
  H           2.92229945073387      1.36092462259081     -2.77975086073743
  H           1.68937414274952      2.60425439596081     -3.06537912859558
  H          -0.33608070940399     -0.54589398005994      0.30974254125862
  H           3.02742485687514     -1.17145242764286     -2.24369284199862
  H          -1.38143516248323     -2.58872108183408     -0.55891577804361
  H           1.99756474762672     -3.23965886983224     -3.09115382267015
  H          -0.22028569592305     -3.94697927544917     -2.26140968017130
  Cl          5.30984001785510     -0.29386752170152      0.88919529317370
