53
Coordinates from ORCA-job R4N+PFOA-_0.15M E -133.632702397550
  C           3.64787961439668     -3.97268159534560     -2.14804701168297
  C           7.54439871443453     -0.56715123634394      1.71915754815163
  F           6.09794299115997     -4.24405234788716     -0.31311883294082
  F           5.93958717917489     -2.25933376366051      0.45189716426402
  F           8.44513068466617     -3.61002349859439      0.48490012985675
  F           8.44019696330579     -3.52725872217512     -1.68632921358991
  F           4.83892270314013     -1.56686457500399     -1.60958903492928
  F           6.65399149343536     -1.88773609857035     -2.70112551900712
  F           9.90535194504080     -1.65181152626292      0.06292397487130
  F           8.99782505334741     -1.15760330669572     -1.81913257076929
  F           4.87080661861755     -3.14422834464965     -3.95459252356473
  F           5.81148238574150     -4.71902337382669     -2.82711888486313
  F           6.84900477460572     -0.06239094069954     -0.62552347775784
  F           8.73602513880538      0.76645658084880      0.01585405743463
  F           2.78304997322255     -3.02408620265644     -2.50244706353392
  F           3.60530972716397     -4.06694534844255     -0.82759893119063
  F           3.21509008801644     -5.11240058860280     -2.66547104001494
  O           8.16679144167150     -1.47350787079155      2.24888779991590
  O           6.68969903750350      0.21017814185371      2.09781366041890
  C           6.45737326989347     -2.97172346391875     -0.56429555241125
  C           8.01338488161149     -2.90027130257232     -0.56607320710552
  C           5.77477746942870     -2.49507639939176     -1.88922437460745
  C           8.70690289897406     -1.49997882424828     -0.53362397222769
  C           5.06435781989540     -3.62034762059316     -2.70488738122930
  C           7.94920521495915     -0.34473041853163      0.13500209144404
  N           1.00207962384205      1.13810215417269     -2.78423244175644
  C           0.72800863561667      1.21844034288954     -1.31779281532739
  C           0.63179568894375     -0.18580215308786     -3.30723185443166
  C           0.19349482954409      2.16555619367492     -3.46160772860163
  C           2.42600007684351      1.38594719949279     -3.05645163476212
  C           1.51144408661592      0.23769292604509     -0.48170576681121
  C           1.00330941955585     -1.02944686241655     -0.21802058533529
  C           2.73769483519248      0.59979444639241      0.06639334477046
  C           1.71662163132015     -1.92168462998166      0.56262297409638
  C           3.45070351097049     -0.28992314157408      0.85081192007060
  C           2.94191106900783     -1.55539315603607      1.09449478463071
  H          -0.33772330332887      1.04007312749389     -1.16873029409062
  H           0.96959802761233      2.22953625873450     -0.98799336975022
  H          -0.41855147470030     -0.38331989234773     -3.10992552353448
  H           1.23591225897388     -0.95930418842398     -2.83884852759402
  H           0.80280415639333     -0.21741437438822     -4.38016408811438
  H          -0.86347961040621      1.99212855306563     -3.27656640486389
  H           0.37433568882001      2.12846594315150     -4.53283584492922
  H           0.45905728916984      3.15420953178274     -3.09612671584282
  H           3.04408754583649      0.63593023897080     -2.56619315310365
  H           2.71365513919924      2.36725410307108     -2.68764438350230
  H           2.60983213857272      1.34268087393867     -4.12691131329049
  H           0.04177333705308     -1.32651382951264     -0.60636711420966
  H           3.14909004234926      1.58319561820318     -0.10027964919968
  H           1.32300264573548     -2.90656271907593      0.76397335310675
  H           4.40482524759633     -0.00778081679241      1.27290695984941
  H           3.50798721891844     -2.24915121472774      1.70010961976339
  Cl          8.29084324243929     -6.66626578965230     -0.84562513066794
