53
Coordinates from ORCA-job R4N+PFOA-_0.15M E -133.640766722010
  C           5.79625943295587     -5.87013027122973     -1.92220004926361
  C           5.84260615257398      0.52704378628529     -1.82761315714722
  F           6.22797267226994     -3.71672902381744      0.31963380059445
  F           5.29673268483425     -1.89040753634992     -0.33379339021693
  F           8.21263014415387     -2.42607528132622      0.88837311051466
  F           8.60888514251237     -2.31453698338671     -1.19859058914935
  F           4.94279881769328     -3.36528072292434     -2.32012159909168
  F           6.83346978623200     -2.54125216730747     -2.91563824086518
  F           6.77581797959116      0.02293586611704      0.73311771873207
  F           8.89234641803524     -0.05532455616508      0.33158465774904
  F           7.42176470282450     -4.88544253525350     -3.28588927381404
  F           7.83841571709633     -4.91907164588324     -1.17782830385502
  F           8.11705103148292     -0.19660301623486     -2.51067147003349
  F           7.98966541232306      1.60609773942422     -1.32868151834480
  F           4.94469362104000     -5.66609545938752     -0.92735893163797
  F           6.40540705678293     -7.02988665472780     -1.71048068227450
  F           5.09049991881455     -5.98608033369331     -3.04238436888832
  O           5.34068210242332      1.55169325778252     -1.40007132595522
  O           5.37903302531556     -0.40982683757651     -2.46155941293866
  C           6.35003827211521     -2.68596581209468     -0.54055437645750
  C           7.69938878459823     -1.95350507401258     -0.25941180060283
  C           6.24242986873332     -3.29673635033934     -1.98302608386679
  C           7.67499410462502     -0.40002288328358     -0.17315896216989
  C           6.85600892528274     -4.73411062124995     -2.07449209780237
  C           7.42796233253871      0.37300210439191     -1.48352325103587
  N           1.79163646934438      1.73390011283804     -1.57344071863378
  C           2.14395301896137      0.75319536161446     -0.50444287616080
  C           0.33621787809192      1.95138025476560     -1.61018980488134
  C           2.46209802247708      3.00928977894293     -1.27279956025019
  C           2.23974391172560      1.25156159162806     -2.88728899740876
  C           1.53906881752535     -0.61316827586199     -0.69465152620876
  C           0.30819146809983     -0.92877401750659     -0.12858653439754
  C           2.22238998096493     -1.58876097745943     -1.41216651126347
  C          -0.23721745765003     -2.19004759828382     -0.29137925605833
  C           1.67806126735166     -2.85165451452960     -1.57049726950845
  C           0.44541311756836     -3.15297610717256     -1.01523643576508
  H           1.81538000013009      1.16606702961880      0.45069088592943
  H           3.23229148781194      0.66029590038690     -0.47817071731587
  H          -0.00486056801342      2.32632996915714     -0.64868764806737
  H          -0.17184735360647      1.01602735155609     -1.83020400437757
  H           0.09874774905366      2.67880282834086     -2.38212456912975
  H           2.14328499780659      3.37882570420458     -0.30169636900244
  H           2.21753177778125      3.74107193073016     -2.03822925612641
  H           3.54070903597928      2.86103616131117     -1.25200964540929
  H           1.72507368491970      0.32911759847539     -3.14333520770161
  H           3.30940292246063      1.05143827640187     -2.86315653528343
  H           2.03774171547024      2.00600795387831     -3.64294757390944
  H          -0.22038287976507     -0.19426342361929      0.45924915215160
  H           3.19389805596483     -1.37046078953412     -1.83070773977616
  H          -1.19064638146468     -2.42568258563959      0.15494708542711
  H           2.23066446510085     -3.59904009511226     -2.12029379243454
  H           0.02793728432441     -4.14050203128328     -1.13680523947449
  Cl          5.73256448463674     -1.97885427930500      2.80679671435762
