53
Coordinates from ORCA-job R4N+PFOA-_0.15M E -133.638917252220
  C           6.46789879559786     -6.19165640125763     -2.64133515387445
  C           6.11095405501740      1.25752631103019     -0.23606688640801
  F           7.03022132133615     -4.67724351999661     -0.39392418517709
  F           5.53122138170006     -3.12551349907528     -0.23098532077938
  F           8.61671181485682     -3.04361845629926      0.49994650467333
  F           8.65239020835119     -2.25727555323460     -1.47746449479706
  F           5.09697948108338     -3.65120475796233     -2.57472209896051
  F           6.82202362756685     -2.48740027260392     -3.05738075969483
  F           6.56138801253933     -1.20210231949799      1.17825173603535
  F           8.50624017127417     -0.46267512958793      0.57600374295302
  F           7.10777497815626     -4.66201449779434     -4.32393581455987
  F           8.41820435957674     -4.83207160100130     -2.62637161959374
  F           5.69372553527714     -0.82444570832576     -1.51987193628594
  F           7.59310631144232      0.14675594637741     -1.90358850865589
  F           5.38862054600780     -6.08147363165376     -1.87624554987715
  F           7.33777060958694     -6.98146187320914     -2.03161494357284
  F           6.08918210325386     -6.79829400864844     -3.76170260669018
  O           6.91253159054030      1.83717212996049      0.46891148406673
  O           4.96361026203151      1.48314317139039     -0.57507907007741
  C           6.69109021089089     -3.44245012102528     -0.81849614584261
  C           7.83244452836057     -2.45540291917777     -0.41563201331506
  C           6.42095097973859     -3.56348291050242     -2.36340776259393
  C           7.38288800308335     -1.05904129655216      0.11903063419595
  C           7.12470530409313     -4.80817831885131     -2.98731552724424
  C           6.70515337372767     -0.14017314597373     -0.90813316542855
  N           1.48897969276511      1.94083506199719     -2.05098475343634
  C           1.55212850006880      1.56874428717780     -0.60519055243454
  C           0.12871567058259      1.76476823573502     -2.57960985340533
  C           1.88353860741554      3.35313315519678     -2.17329176565258
  C           2.42879913191104      1.11481854305925     -2.82389909492666
  C           1.26937546143881      0.11557400600788     -0.32318305876271
  C          -0.02851734603335     -0.33844172293108     -0.11362266492190
  C           2.32393060531608     -0.78682745605446     -0.22724884383431
  C          -0.26742500972289     -1.67367752525346      0.16131987948887
  C           2.08621718418426     -2.12120878134177      0.05331598930335
  C           0.78764105012834     -2.56752775679569      0.24053831186413
  H           0.83513962679222      2.19145390682004     -0.06823644624367
  H           2.56215464121178      1.79246875996684     -0.25417910698120
  H          -0.56795275920109      2.38626134537896     -2.02285704355467
  H          -0.16917186469230      0.72312542671262     -2.49329304093726
  H           0.10576562855362      2.05361490485466     -3.62736733990666
  H           1.22080114212901      3.97993901847098     -1.58197250583000
  H           1.83537180586541      3.66056735546723     -3.21491094175650
  H           2.90337330418207      3.47928305199684     -1.81460554006858
  H           2.13167174237688      0.06971863023421     -2.78777041568120
  H           3.42807260109668      1.19486314387733     -2.39781437778459
  H           2.45156509150350      1.44914931907675     -3.85764198805691
  H          -0.85799821808299      0.35083111267896     -0.14402938921123
  H           3.34229276817155     -0.44804049432094     -0.35239609435687
  H          -1.27619005424478     -2.01980187576897      0.32384296405905
  H           2.92183214089788     -2.80257987819020      0.13783645111704
  H           0.60872847415374     -3.60864127685268      0.46278069815659
  Cl          6.66797389604160     -4.18196801742772      2.65389643675905
