53
Coordinates from ORCA-job R4N+PFOA-_0.15M E -133.629774534590
  C           7.57317670479322     -6.33180364523363      0.46838585865197
  C           5.11147285454189      1.16289606989686     -2.73906397780965
  F           5.96216584895202     -2.31787803322023      1.40417177091011
  F           4.75809112138625     -2.38829935721124     -0.36845237581213
  F           8.10406357581296     -1.63486763090936      0.23018793061539
  F           7.52017268565236     -2.38155757078164     -1.71410017186261
  F           5.16261148962416     -4.76619252345093      0.63114946272698
  F           6.06045348243873     -4.54321790986775     -1.32157917646409
  F           5.57459010568299      0.01523480502534     -0.08310072176693
  F           7.53294902779134      0.53309945423414     -0.81498501279064
  F           8.54550724649690     -4.25453886040642     -0.17340357261524
  F           7.64528605749163     -4.35370353168368      1.80987602790094
  F           5.24839716877253     -1.34228478967311     -2.71049618779675
  F           7.05189962345717     -0.25556160534931     -3.26089150586039
  F           6.45972266341818     -6.81291980710177     -0.11134614728321
  F           7.61358720934727     -6.87105898306166      1.67212080945628
  F           8.57484559805659     -6.76165058795665     -0.27375556385389
  O           5.34384429300918      2.06593705766115     -1.95927266877794
  O           4.46447352019854      1.06321909097411     -3.76191950894369
  C           5.99266634122530     -2.65546229646270      0.10400630983171
  C           7.05820738248259     -1.76958039735269     -0.60894232381062
  C           6.19091381531083     -4.19772160883576     -0.02988712854863
  C           6.52412658533630     -0.34227519682189     -0.97583261926445
  C           7.53040005406799     -4.76369028944445      0.53863442484925
  C           5.98062189732467     -0.22754290626047     -2.41401524444251
  N           2.08103383187406      1.75844788625470     -1.18630202395792
  C           2.43976064340786      0.31484569798493     -1.26731286787598
  C           0.70563759284040      1.85436924161139     -0.64071384560266
  C           2.96739477873706      2.45024403079432     -0.23581317891954
  C           2.07586826210345      2.44601216480063     -2.48350450785514
  C           1.50752625669999     -0.51920703521025     -2.11015326529902
  C           0.45533281082193     -1.21040533823747     -1.51789871998052
  C           1.71059890035907     -0.64036454223647     -3.48038328821585
  C          -0.39358094171699     -1.98852576648180     -2.28499718421578
  C           0.85939449271791     -1.41913406354841     -4.24616902631426
  C          -0.19715845075674     -2.08893000707528     -3.65213186192169
  H           2.45556825495358     -0.07742368961114     -0.24869216654372
  H           3.44711238454010      0.22896418172451     -1.66476865140418
  H           0.65678026169122      1.36574406177036      0.32868897233219
  H           0.00307257414834      1.37540481369081     -1.31751725127003
  H           0.43199629182297      2.89941731901106     -0.52401327872742
  H           2.94361896153076      1.95072940817127      0.72900155221348
  H           2.63869109521093      3.47952558733798     -0.12042210051862
  H           3.99225193825588      2.45539241696450     -0.59477485127132
  H           1.40424047358952      1.93548174915590     -3.16881761817354
  H           3.06666350143016      2.46217442793010     -2.92395045142995
  H           1.74411894886873      3.47110610228414     -2.34285558188548
  H           0.30442987806646     -1.15420628640100     -0.45102417914807
  H           2.54795587735968     -0.14244746285644     -3.94587448215964
  H          -1.20502094891536     -2.52172024342497     -1.81483827797075
  H           1.03044851801402     -1.50684398842373     -5.30811861337034
  H          -0.85649575442325     -2.69694156085595     -4.25202230409401
  Cl         10.45311429399600     -5.73243595553011      1.82618681784035
