53
Coordinates from ORCA-job R4N+PFOA-_0.15M E -133.630076131720
  C           4.26251183470531     -4.32256652324303     -2.39776229189122
  C           9.15274876792907     -0.36233077967817      0.98131731459725
  F           5.13711735700612     -2.92025968687855      0.01369107173919
  F           5.94336736932093     -0.90698926684025     -0.10308164808628
  F           7.62978249198333     -3.03906350918834      0.80181675461328
  F           7.35322584086663     -3.98253929782856     -1.09913046759684
  F           4.23117127800442     -1.35439386176685     -1.95215163762178
  F           6.17882515495154     -1.09827739506601     -2.79990754114475
  F           9.72047914971263     -2.79888886177769     -0.84118858346283
  F           8.49509492808613     -2.08411997181799     -2.44973644725418
  F           4.56146996565329     -2.74782738557204     -4.09272057340772
  F           6.33418505491656     -3.75599597017178     -3.40260199497285
  F           7.93897786965465      0.21331152040010     -1.14449629569535
  F          10.04980399685501     -0.20046734794386     -1.29140103184001
  F           3.14449820451371     -3.80223154085194     -1.90827660520676
  F           4.85550693442697     -5.04020679217100     -1.45688730552698
  F           3.91425222131081     -5.15157341280099     -3.37776099130268
  O           9.70588828224867     -1.31182311189848      1.51224683892716
  O           8.79825907572514      0.73892218880724      1.35481615334219
  C           6.00732614059599     -2.12732057985830     -0.64745658022296
  C           7.41663230173508     -2.76446500163154     -0.48745957347364
  C           5.43095310638157     -1.95887082194329     -2.08981846565717
  C           8.64067232592140     -2.03340879130683     -1.09087991858116
  C           5.18514928728362     -3.21062912344161     -2.98629928160167
  C           8.91037717157797     -0.59515771651243     -0.63675605862051
  N           1.08635670140053      1.09033506873388     -2.49069045830733
  C           0.49331992904688      0.84222980857960     -1.14132363568730
  C           1.08901502331693     -0.14571305703670     -3.28792383163018
  C           0.26407691397147      2.10257983254732     -3.17582834907395
  C           2.46150999269776      1.59491231648123     -2.36727933448266
  C           1.15636278919406     -0.26875892525038     -0.36725582693849
  C           0.66210550529223     -1.56600340978552     -0.44902787414590
  C           2.24949794548362     -0.01362859825864      0.45428453440476
  C           1.25769335717929     -2.59114159521139      0.26270350666514
  C           2.85001592124247     -1.03951947087862      1.16385623349842
  C           2.35567050767289     -2.33018004498076      1.06479431544257
  H          -0.55851507735546      0.59087361840937     -1.28361200899827
  H           0.56582861439820      1.76746126206705     -0.56859628915532
  H           0.07661563941590     -0.52950387851908     -3.38052219318386
  H           1.71263043214726     -0.89759140678425     -2.80966502037359
  H           1.48636085422081      0.05796899322290     -4.27889102368336
  H          -0.74912978658284      1.73288344983093     -3.31034916954483
  H           0.69136445566954      2.32458788610057     -4.15037191467037
  H           0.23272203661808      3.01801795528765     -2.59049570495695
  H           3.08614726449904      0.87210853430150     -1.84800019481608
  H           2.47215092413690      2.52751304544250     -1.80839727054754
  H           2.88256961095339      1.76966626542762     -3.35411428787712
  H          -0.19927149306757     -1.78399554221649     -1.06054198199283
  H           2.64413365410713      0.98550774568917      0.56410709393208
  H           0.87181582378218     -3.59618935330188      0.19520805469447
  H           3.71266364362076     -0.84751298969083      1.78749917983534
  H           2.84312728685955     -3.11889068053944      1.61954602662996
  Cl          6.15948649861186     -1.31299169238519      2.84106903641142
