53
Coordinates from ORCA-job R4N+PFOA-_0.15M E -133.629560694360
  C           4.08555017533171     -3.79742339400839     -2.35808066887524
  C           9.28921714271121     -0.22082969407486      0.74964666387245
  F           5.06072512779795     -2.11024814944846     -0.24244002130007
  F           6.36353070270561     -0.42069599169043     -0.62419655899552
  F           7.35813814763037     -2.57211585906904      0.96086435926014
  F           7.06098933913286     -3.87606677975452     -0.70897179510209
  F           4.81027815565431     -0.90652036957602     -2.60022513577949
  F           6.83255225731003     -1.34607914908610     -3.17293251813176
  F           9.61658102254018     -3.14314175812020     -0.29018470156767
  F           8.79231893695750     -2.69027412027848     -2.21975543353710
  F           4.97035598404400     -2.85532133110555     -4.29973402914493
  F           6.32428115554409     -4.03146520151580     -3.10906202834689
  F           8.64175902823810     -0.06950043461161     -1.67225315338412
  F          10.59162732863464     -0.87733732101692     -1.22428941721608
  F           3.12497935954977     -2.90314434138481     -2.16100982437773
  F           4.36876773213036     -4.39121846373898     -1.21059098519735
  F           3.59453149445060     -4.72094685079278     -3.17898069186319
  O           9.62616439175708     -1.03677619111597      1.59243352740318
  O           9.00649706674911      0.96105392473334      0.76698875948975
  C           6.17581421744908     -1.71850494707504     -0.89482814034422
  C           7.35361216014907     -2.58727175398554     -0.37488755903081
  C           5.81727217436404     -1.78707820371369     -2.41544461746051
  C           8.77576970390194     -2.29374779287885     -0.91159313868760
  C           5.33146665637920     -3.13748659232554     -3.02825947019978
  C           9.29638039212564     -0.85893736684500     -0.77551385102854
  N           1.03618533853073      1.00937014563228     -2.34968080989480
  C           0.36774048549193      0.67603585714052     -1.05483327893177
  C           1.03273530728545     -0.15775886268439     -3.24442985958350
  C           0.28585631041436      2.10506510187748     -2.98704140333184
  C           2.42079091874854      1.44646844182612     -2.12210278472164
  C           0.98090423205663     -0.49125214356987     -0.32398994060914
  C           0.48677608883323     -1.77720318188820     -0.51510211751040
  C           2.03173914157685     -0.29975017969992      0.56638513271871
  C           1.04817290350358     -2.85040872651738      0.15259895722129
  C           2.59907117381784     -1.37312965032282      1.23124846706160
  C           2.11206096350230     -2.65226724849935      1.01737174817323
  H          -0.67706884982321      0.44919771396943     -1.27139584589652
  H           0.41842310565782      1.55859128280691     -0.41606467319063
  H           0.01175889766308     -0.48595805979589     -3.42007632530902
  H           1.59922550677955     -0.97123830361784     -2.79801890134178
  H           1.49298983269477      0.10670361777703     -4.19278314207599
  H          -0.73462597691903      1.79053022120849     -3.18984574214104
  H           0.76431416547835      2.38102072666106     -3.92325027968195
  H           0.26660937657703      2.97477722135768     -2.33516465101081
  H           2.99698203626321      0.66148777642758     -1.63772046743785
  H           2.44035872281215      2.32853994494319     -1.48670765365440
  H           2.89782209178480      1.68266347591805     -3.06971298696061
  H          -0.34512659710399     -1.94806137111177     -1.18021621727639
  H           2.42930980399655      0.68456196751543      0.76504931249971
  H           0.66137913606155     -3.84634441384013     -0.00020816422866
  H           3.43572046235223     -1.20586784353887      1.89493756062981
  H           2.56953589637913     -3.48603855751495      1.52989902567180
  Cl          5.95580075224553     -0.30080472368070      2.40245192185772
