53
Coordinates from ORCA-job R4N+PFOA-_0.15M E -133.633449543090
  C           3.87564465450692     -4.80656790196665     -3.56830366719948
  C           7.20308135781409      0.54992910186299      0.69466314383287
  F           4.92686617068346     -3.68996823383031     -0.63540873873522
  F           5.24441191295962     -1.57149737544611     -0.78749438677830
  F           7.28729132607228     -4.26635463069475     -0.44551216457277
  F           7.94744256056887     -2.94798566235165     -2.00043367611393
  F           4.08535157553951     -2.24097787440589     -2.88783522713113
  F           6.12044984414282     -1.98895563386789     -3.48753007667788
  F           6.84773528415073     -2.04661989696838      1.22402658557634
  F           8.89249526957328     -2.47784770535635      0.63018160347090
  F           5.87018830473339     -4.15581075170725     -4.62077095425342
  F           6.04958860377115     -5.06824318140541     -2.67405739328557
  F           7.37480083014345     -0.45293000468099     -1.58892471004600
  F           9.22468540209642     -0.32843759229356     -0.48632465656161
  F           3.21053086784558     -4.14860895400287     -4.51057393420511
  F           3.16682863092819     -4.73827889239096     -2.44968120867856
  F           3.95116209795052     -6.07712312527222     -3.93605569775427
  O           7.87621087052664      0.75229939046750      1.68829067204415
  O           6.14045927727032      0.97091781004699      0.28258615487267
  C           5.67674296669284     -2.75529109879377     -1.24966368131348
  C           7.17764270623894     -3.00422117982094     -0.89271827668669
  C           5.31598145424349     -2.78134908722718     -2.77165881829627
  C           7.71325643616215     -2.01105241995486      0.18056564390662
  C           5.31127766989169     -4.21299205288673     -3.40016678785568
  C           7.89459727297411     -0.56363044578021     -0.32668713886402
  N           1.39165130850748      1.49988157030896     -2.21429452819544
  C           0.81218227107142      1.02905915513561     -0.92014681833801
  C           1.58138761509515      0.36866084120749     -3.13450635546904
  C           0.45233469244366      2.45956840801505     -2.81825296679152
  C           2.68379695342474      2.16663061262310     -1.98825954148683
  C           1.66010796192485      0.02601599257988     -0.17758203467637
  C           1.48783378891959     -1.33779350705196     -0.38976091185370
  C           2.60018175834505      0.44796543583363      0.75647669811607
  C           2.24581989736760     -2.25961866429941      0.31035101698922
  C           3.35910199458879     -0.47304014955649      1.45615755343163
  C           3.18298818560843     -1.82891473107723      1.23555157509557
  H          -0.15774535421144      0.57873909541569     -1.13572773386360
  H           0.66770959967254      1.90263460102195     -0.28347536438855
  H           0.63336936747812     -0.13352207769852     -3.30827469676070
  H           2.28945822406069     -0.34324255402216     -2.71656773036143
  H           1.97290806770042      0.72788169144723     -4.08265095442818
  H          -0.50523288395796      1.97955092725805     -3.00308014059400
  H           0.85361001238269      2.82156112445846     -3.76135635821121
  H           0.30247338555142      3.30643581107904     -2.15353893797205
  H           3.40222960715340      1.48349591225773     -1.53687199621180
  H           2.55630624478177      3.01749501363086     -1.32389887288232
  H           3.08983764965683      2.51549359006866     -2.93422263510759
  H           0.75442770140785     -1.69546777457397     -1.09544526625748
  H           2.75590083488594      1.49713275011392      0.95287758952857
  H           2.11863258015061     -3.31771625809858      0.13538626387006
  H           4.10500658006428     -0.13888697510566      2.16280549620543
  H           3.78966784205130     -2.54408480726366      1.77559535189746
  Cl          8.38393184629393     -5.07646553868028      2.85049614152167
