53
Coordinates from ORCA-job R4N+PFOA-_0.15M E -133.636117896770
  C           4.27594729566560     -4.27284376713077     -2.67407928787776
  C           7.28850345561746      1.52690560877532     -0.29758533558008
  F           5.30188923434039     -2.98493865722859     -0.44421249762159
  F           5.56249909696036     -0.96640301154778     -1.11332378430728
  F           7.17829183074746     -2.57643095671496      1.04426271737515
  F           8.19679986379623     -3.25061796938033     -0.68393772044251
  F           5.65624061669332     -1.84468350843968     -3.35247593964053
  F           7.62444381546734     -2.59420482462647     -2.95051958348450
  F           8.66496961007529     -0.64589653212462      1.14602443200325
  F           9.67516935827318     -1.45767954468733     -0.55104315389034
  F           6.25296311122131     -4.52285726784664     -3.94468340014256
  F           6.39449959220511     -4.93850147747703     -1.83788481940444
  F           7.63330718384482     -0.11189423572806     -2.17966854292685
  F           9.37050675620548      0.81871143631905     -1.31411212542228
  F           3.63114486684733     -3.12224628183919     -2.52447195017713
  F           3.92711860282732     -5.07451652828679     -1.68076139272613
  F           3.83724011437127     -4.81651681619273     -3.80395046788286
  O           7.89071492530877      2.04345233377316      0.62572012927187
  O           6.26220298050579      1.77922551206788     -0.89732775703598
  C           6.17559889315420     -2.14269922484847     -1.04781624560052
  C           7.48640252734092     -2.19212209234008     -0.20051825835366
  C           6.35117161256971     -2.64778991009856     -2.52861243708687
  C           8.46292373148276     -0.96758312343492     -0.14305489774551
  C           5.83815851468466     -4.10877725636514     -2.73412894456386
  C           8.15438008428611      0.28189952088509     -0.97704022303513
  N           1.72741901912191      1.12625159387403     -1.85938017895017
  C           1.47053282852069      0.69317913782966     -0.45267970267674
  C           0.57771940092522      0.82016013212378     -2.72388937176095
  C           1.95847148784498      2.57998030453382     -1.85816164392717
  C           2.92570186458859      0.45648933669712     -2.38748313189319
  C           1.27541316552031     -0.79152803961156     -0.28116993106898
  C           0.03261119701183     -1.38187421463156     -0.49077932528087
  C           2.33943451669109     -1.58468104634508      0.13552117504505
  C          -0.13358563988304     -2.74585431762772     -0.32884335137236
  C           2.16733833592046     -2.94802422853986      0.30832644723662
  C           0.93636580498312     -3.53331431040681      0.06193333529252
  H           0.58406084221309      1.22332297788106     -0.09942251933293
  H           2.33196899184896      0.99324549382398      0.14862890976738
  H          -0.31480401206960      1.30296914440467     -2.33421101547388
  H           0.42384622291793     -0.25451608128456     -2.76542803584969
  H           0.77304364561402      1.18748821604041     -3.72803045126982
  H           1.09859476953304      3.09608299786421     -1.43829957544946
  H           2.12861172777957      2.92536036999633     -2.87474468484446
  H           2.84182019127364      2.81390404584532     -1.26593879231221
  H           2.79255574902073     -0.62249400396576     -2.37797181111297
  H           3.80042016653693      0.69193545939480     -1.78065827550928
  H           3.11909677020781      0.78568450929993     -3.40455656449632
  H          -0.81767503622671     -0.77625333993069     -0.76219720002731
  H           3.30121773328686     -1.13976372676624      0.35508749303918
  H          -1.09939561271949     -3.19544023908146     -0.49807433454933
  H           3.00416139987738     -3.54483882399082      0.64145108844916
  H           0.81516103584081     -4.59774711908423      0.19243626030783
  Cl          5.70140683922727     -0.17286355752518      1.57203312581836
