53
Coordinates from ORCA-job R4N+PFOA-_0.15M E -133.631668789090
  C           4.14341787568139     -4.04496285611751     -2.81301899688333
  C           8.68690310200544     -0.95535672324765      1.42916596531056
  F           5.12272571954145     -3.38087742352350     -0.22924510052041
  F           5.91089448866718     -1.41862965180312      0.26530054800782
  F           7.65813384386496     -3.68499448516695      0.40537093781748
  F           7.36603624808159     -3.95227822944493     -1.70022657003111
  F           4.18857493983809     -1.23755026859975     -1.62557949992899
  F           6.12206784251949     -0.85279717332001     -2.45755014339887
  F           9.70658841927503     -2.77632875821322     -0.90418348591100
  F           8.50293883126756     -1.77089137187515     -2.36957079039671
  F           4.31398574228710     -2.05293801236781     -4.01488576880582
  F           6.13061507585239     -3.18315945731265     -3.77733303030872
  F           7.73180099245695      0.10630137526961     -0.63277330111209
  F           9.86813441541091     -0.17968341060714     -0.58115857625297
  F           3.09045111109124     -3.70937844486514     -2.07789875950523
  F           4.82119814605243     -5.00548947229196     -2.20675149869946
  F           3.67602819268491     -4.54057207311257     -3.95633472513122
  O           9.40428741868031     -1.87602440233781      1.78621640563302
  O           8.01811362469477     -0.11696701165444      2.00192896088807
  C           5.96438891734879     -2.40719072363035     -0.63556640825729
  C           7.39411103173093     -3.00947052541414     -0.71636901784639
  C           5.35373041503627     -1.83206157087303     -1.95300312245987
  C           8.57523095924856     -2.05708288320647     -1.03549417282034
  C           5.02191170683436     -2.79676920342854     -3.13557312359183
  C           8.68735166680782     -0.76870063865088     -0.21216362927857
  N           0.98816856405591      0.86681006117392     -2.65016631299327
  C           0.50497270743050      0.79846035214690     -1.23688652243183
  C           1.09063022339254     -0.48299963783629     -3.22424628076834
  C           0.01547946018943      1.64856080215562     -3.43287207183352
  C           2.29921531152717      1.52830471146827     -2.71690058423848
  C           1.39852941237543      0.00623486198975     -0.31615898254743
  C           1.19840336895622     -1.35873699596698     -0.14227714037039
  C           2.42712263685776      0.63016145653064      0.38204770471281
  C           2.02246498835144     -2.08859911818940      0.69583265568001
  C           3.25130656857142     -0.10021746215126      1.21994335658927
  C           3.05389010350427     -1.46304137391162      1.37692161659765
  H          -0.48551522232189      0.34232100852292     -1.24612606934825
  H           0.42607059641535      1.81924742273969     -0.86167305519371
  H           0.11869671386619     -0.96885385691830     -3.20789451653905
  H           1.79396902551759     -1.08053092053561     -2.64965267072003
  H           1.44281764933639     -0.42226406316484     -4.25088852285599
  H          -0.96009472852236      1.17037876549009     -3.40304603298270
  H           0.34453889439166      1.71370102098691     -4.46679730454095
  H          -0.07063848816572      2.65348124411239     -3.02768985407042
  H           3.03246448840876      0.97211487741100     -2.13788850567483
  H           2.23014116749842      2.53682950668825     -2.31721101849652
  H           2.63575422350662      1.57765120070339     -3.74937615568035
  H           0.39346367552071     -1.86560644732232     -0.65097319879743
  H           2.59316825764241      1.69236387305492      0.28765313170058
  H           1.87669718830475     -3.15068918221231      0.82242856612482
  H           4.06767257972942      0.37307696346558      1.74822937921086
  H           3.71478725493213     -2.03080888838528      2.01780292960114
  Cl          5.99080373166703     -3.19564468995098      2.92285881484959
