53
Coordinates from ORCA-job R4N+PFOA-_0.15M E -133.630658573110
  C           4.19863899410270     -4.16031074984164     -2.73314540346045
  C           8.74998383324077     -0.66226457336313      1.30945476590396
  F           4.92830362166668     -3.02411187211777     -0.20907133686675
  F           5.74501657274255     -1.04341843702947     -0.02668939794077
  F           7.35741484995921     -2.99854155643487      0.92000270781032
  F           7.26603919860127     -4.06398760909009     -0.97944912605875
  F           4.28848258831061     -1.23264166664544     -2.10777807381421
  F           6.31700841738915     -1.03677803605415     -2.74867616012258
  F           9.59162443502812     -2.89456227244914     -0.54734636423334
  F           8.54497727436342     -2.12852196250150     -2.26180483323148
  F           4.83634002086018     -2.54844940679730     -4.30736452557103
  F           6.42381270420204     -3.69973767867658     -3.41222921316444
  F           7.84542872818076      0.13637830063038     -0.88919819351719
  F           9.96750574230868     -0.25988787049605     -0.82788009834317
  F           3.12094178392798     -3.59009620510540     -2.20381061669431
  F           4.68575784155065     -5.05677122085258     -1.89687836158300
  F           3.79284134462837     -4.79898180667610     -3.82905771370005
  O           9.77120958605743     -1.11076339007647      1.79814807057465
  O           7.71878980296511     -0.19764275848331      1.75957805923759
  C           5.87676116121131     -2.19833097723510     -0.69777387854858
  C           7.26472478673911     -2.83618046253084     -0.41007241989282
  C           5.46390801924974     -1.89469881566753     -2.16851693781858
  C           8.54867642973946     -2.11424878943519     -0.89712288533675
  C           5.26155614922106     -3.09149644636290     -3.14493604984741
  C           8.77135904245431     -0.70364667672403     -0.34432857842530
  N           0.91781278567907      0.92308127351955     -2.61170989085338
  C           0.45948909378566      0.82502758957473     -1.19287503338094
  C           1.03586755684178     -0.41606622428889     -3.20788281546443
  C          -0.08135507855410      1.69896300924407     -3.36595056970828
  C           2.21679517646991      1.60762736039818     -2.68865338252774
  C           1.39946397936949      0.07558712852927     -0.28192457701098
  C           1.27319272712741     -1.29872275986837     -0.11013187438867
  C           2.38852174741643      0.75438890972054      0.42224482340640
  C           2.12542460224583     -1.98112013315988      0.74014375085090
  C           3.24086194907612      0.07328161199868      1.27333222590823
  C           3.10931301206094     -1.29636752133549      1.43406505142807
  H          -0.50880420734179      0.32319142157093     -1.18993771308445
  H           0.33684252542133      1.83965346314639     -0.81213956309460
  H           0.07559316532072     -0.92418966597384     -3.17666527474268
  H           1.76736315140644     -1.00788665292317     -2.66258797567767
  H           1.35964984978079     -0.33170609912365     -4.24206863343149
  H          -1.05002827198630      1.20807823998269     -3.31969960513652
  H           0.22362303655539      1.77739563099615     -4.40632753691955
  H          -0.17126605114929      2.69932408321679     -2.95039614229979
  H           2.97394289157636      1.04257701242978     -2.14981402605417
  H           2.14231920678606      2.60122262307719     -2.25427904368674
  H           2.52513469429617      1.69695715144658     -3.72713513003850
  H           0.50456485251160     -1.85109151604074     -0.62735182904915
  H           2.49959731416186      1.82287463386064      0.32234899977715
  H           2.04071498254459     -3.05088204374772      0.86322876798865
  H           4.02279453153345      0.59514891216303      1.80496319304177
  H           3.78388939148090     -1.83384756596928      2.08793021432451
  Cl          5.90617953678199     -5.74495483612801      1.52351660596847
