53
Coordinates from ORCA-job R4N+PFOA-_0.15M E -133.588253996280
  C           9.99588124329394     -4.81105286981869      0.59641458457797
  C           4.16647733535974     -0.34877986056844     -3.34890499478612
  F           5.78971651951005     -5.34053163265757      0.68729281478076
  F           5.38510536049267     -4.15051721342817     -1.03743303614082
  F           5.00757273959938     -3.50463351974478      2.01573575868449
  F           6.90173491168545     -2.55667569582686      1.65469129982577
  F           7.71222676069191     -4.83611721944130     -1.55384527722181
  F           8.19671145788979     -3.05820779656288     -0.44184246726050
  F           3.86281528750756     -2.27690770623288     -0.10991658367132
  F           4.67293274113905     -0.99870869149653      1.41692179696299
  F           8.08634752217471     -4.82795394138702      1.94168365769895
  F           8.20397802561883     -6.42472802562562      0.52663619335892
  F           6.19648710656901     -1.81894552848057     -1.68453830994514
  F           6.92880570448790     -0.48171434278498     -0.06656216847258
  F          10.42088024758454     -4.49767640111596     -0.61289667178525
  F          10.72471669624601     -5.79358715053841      1.09661333421292
  F          10.23118409372251     -3.73655297451270      1.36759915728080
  O           4.84234863903504      0.25242100908829     -4.05381257231398
  O           3.56560676899809     -1.12306466535765     -2.75224899505972
  C           6.13933714593386     -4.18756127262161      0.07445784055339
  C           5.79301037491424     -3.00420843325730      1.02714180055594
  C           7.64461877065727     -4.28090679830610     -0.33534110402028
  C           5.04212600409086     -1.79741166591537      0.37345107571823
  C           8.47187872184616     -5.12752005056683      0.67645420917718
  C           5.71859318041696     -0.91445694648142     -0.68162503451690
  N           2.70197304789819      1.66359862436879     -2.35764283935781
  C           1.97962370567815      0.78787913138812     -1.37221727305728
  C           2.15859878399922      3.04926862050705     -2.15850984306303
  C           4.11768783401082      1.79619677032929     -1.94577564726956
  C           2.34995671225693      1.39102332010144     -3.77026666305450
  C           0.54254823841732      0.50953934184868     -1.73297079661350
  C          -0.48144997317875      1.33994633506017     -1.28922185746899
  C           0.21921741590844     -0.61660630420342     -2.48307750844207
  C          -1.79826313987584      1.06997951191071     -1.62076574483718
  C          -1.09730206604415     -0.88590123514574     -2.81370566431351
  C          -2.10786142937911     -0.03725423852748     -2.39210938056508
  H           2.02652963371580      1.28918385743155     -0.40457731932998
  H           2.50439268183521     -0.15964734992235     -1.26785139701353
  H           2.32303832473652      3.38498210604255     -1.13846405677297
  H           1.09105723919519      3.06899494658288     -2.35832837152180
  H           2.66457695628626      3.73033648585091     -2.83775986709911
  H           4.16563566295225      2.44021145899049     -1.07034599090486
  H           4.70691217289242      2.24914912159367     -2.73876628262528
  H           4.58714621693251      0.86085259871751     -1.63289767857182
  H           2.26778119088784      0.33772765991849     -4.01089833874399
  H           3.07478957390922      1.86109903349279     -4.43018762631459
  H           1.36808667652482      1.81627485980525     -3.96910557904421
  H          -0.25973754779786      2.18798212287222     -0.65999057578205
  H           0.99749673957549     -1.30164281011800     -2.78625250504765
  H          -2.58465734227816      1.72008615209914     -1.26998767179085
  H          -1.33431006597619     -1.76496113940098     -3.39350792707218
  H          -3.13385929423549     -0.24988528662940     -2.65019467626983
  Cl         10.10389977158706     -7.27456220502315     -1.58245077474673
