53
Coordinates from ORCA-job R4N+PFOA-_0.15M E -133.640865762270
  C           6.32858699790514     -5.72891261261531     -3.30481963974224
  C           6.22914837078087      1.40655300093850     -0.05594676438454
  F           6.26870219869753     -4.48163105173240     -0.82849522447586
  F           5.09799492980057     -2.66631082104362     -0.93838670658171
  F           7.80895588188873     -3.29393208874372      0.65160514860363
  F           8.53365342848081     -2.31552966763322     -1.09335658976829
  F           5.34256741022995     -3.01542081569020     -3.34596760135855
  F           7.26426910540725     -2.10594248548024     -3.14964946814205
  F           5.92873593371086     -1.16492780341350      1.00786969290007
  F           8.05013752560145     -0.75350027354009      1.10438429571382
  F           7.68587663523709     -4.20436767499741     -4.49393430750156
  F           8.31649931427578     -4.70917476276040     -2.49901565260489
  F           6.03741377784094     -0.37950896788122     -1.76233580869193
  F           8.05821106207927      0.30164772981137     -1.36872964811869
  F           5.07520007266161     -5.50213148772360     -2.93297771223892
  F           6.82851874910609     -6.68402058214071     -2.53611726649070
  F           6.28674960148130     -6.19338706232265     -4.54929656307413
  O           6.97872926959781      1.93373445384315      0.74164945030816
  O           5.10432809517755      1.64876317685218     -0.45596505422579
  C           6.30954687515466     -3.17990998360697     -1.17964018168275
  C           7.41968648999286     -2.47399063991856     -0.33589152526204
  C           6.53219376875109     -3.15169031223090     -2.73655225289798
  C           7.04582416358071     -1.08115797407937      0.26051073506311
  C           7.23431326838453     -4.44681791405153     -3.25088596131687
  C           6.86489712351290      0.04952677450371     -0.76361956371930
  N           1.68913383927753      1.47097639864019     -2.17905848090841
  C           1.70086575345052      1.48614585370585     -0.68523632075338
  C           0.35140377251368      1.13935447593532     -2.69009039418070
  C           2.07337498062481      2.81232482122332     -2.64747885894177
  C           2.66585963248179      0.49444488215002     -2.68303446125721
  C           1.37873084267612      0.15750176905958     -0.05229063803733
  C           0.06562427616599     -0.19938722108731      0.23596634632006
  C           2.40580341211454     -0.71858744030666      0.28276716448369
  C          -0.21506602127713     -1.41892690188427      0.82650023116402
  C           2.12658070121765     -1.93781248341042      0.87564540299974
  C           0.81331491001679     -2.29155489113476      1.14177893340492
  H           0.97781811113581      2.23288487249280     -0.35401292539155
  H           2.70277159620388      1.78435122304378     -0.36731820185443
  H          -0.37221237658587      1.86525258813872     -2.32834554872689
  H           0.06360870298446      0.14633060041881     -2.35485601465809
  H           0.36322804287083      1.15655809913062     -3.77691068332788
  H           1.37007465070492      3.55332321304820     -2.27616822759925
  H           2.08113289251903      2.83482137219270     -3.73424620941275
  H           3.06965318743161      3.05387250873379     -2.28181678612441
  H           2.39644319618095     -0.51201916812334     -2.37172610032140
  H           3.65317777663781      0.71378589300519     -2.27920829932187
  H           2.70724192219868      0.53619461565924     -3.76799121937263
  H          -0.74317939112842      0.48033576680077      0.01707604869983
  H           3.43750302161191     -0.45059650912838      0.10149078126679
  H          -1.23509166905975     -1.69072346009402      1.04940449898330
  H           2.93975890401415     -2.60090800480939      1.13653510746176
  H           0.60605324584315     -3.24363663539228      1.60729813872743
  Cl          5.15025311773665     -4.04441429605143      2.00918733786840
