53
Coordinates from ORCA-job R4N+PFOA-_0.15M E -133.632651575060
  C           4.21097963885492     -3.78155993062773     -2.32214050845043
  C           8.93292260212798      0.51234742034106      0.49795236255431
  F           4.94531798651394     -1.52064239864419     -0.76035152522916
  F           6.45951900671480     -0.10444654745789     -1.37608537222390
  F           6.86561800461590     -1.74402319200488      0.97060202432234
  F           6.87656635650435     -3.44473349812831     -0.32236568585734
  F           5.25734165601980     -1.12614399361229     -3.37691776451896
  F           7.28753089844679     -1.84463091367128     -3.34991237502184
  F           9.30944729882311     -2.59186329645299      0.49711028216679
  F           8.97095718667765     -2.75278158905013     -1.61764880485063
  F           5.39845288452730     -3.50382468245624     -4.31714799816885
  F           6.49232947864251     -4.31988156723911     -2.65345271718160
  F           8.90512784218063     -0.10999102592266     -1.94279723057159
  F          10.62016872235130     -0.71651272823035     -0.78208472018026
  F           3.31079773772383     -2.81633107654287     -2.46376689707582
  F           4.33699582501926     -4.06584934650660     -1.03623590604210
  F           3.72478666711698     -4.86046129949104     -2.92674082431718
  O           8.96123026431767     -0.01009853264132      1.60089929429564
  O           8.78036423986637      1.64786394714547      0.09282430669004
  C           6.19100207161072     -1.41123240987078     -1.26388866143074
  C           7.16436857712484     -2.11327607299750     -0.27824404362330
  C           6.10388044290448     -1.95423522232475     -2.72827400232227
  C           8.68638224956308     -1.97849777845194     -0.52836176533837
  C           5.57423759413270     -3.40109160316071     -2.98223219374088
  C           9.25878513145062     -0.56833830781518     -0.70936220078070
  N           1.24142847982645      0.99127538438411     -2.07146309632755
  C           0.77877594600405      0.65736388462949     -0.69018324980694
  C           0.50918201131904      0.20050819391573     -3.07189849191035
  C           0.99239104524832      2.42228214856075     -2.30794112669882
  C           2.68090859032783      0.71996669047411     -2.20204543313831
  C           1.04421583965463     -0.76658150485386     -0.27312442846744
  C           0.12319366916539     -1.77166561660749     -0.55223152804706
  C           2.20228215274303     -1.08456600693949      0.42893725572108
  C           0.36781139820747     -3.07688941941872     -0.16484612939970
  C           2.44016392483787     -2.39081648319529      0.82201236952814
  C           1.53097939185773     -3.39055320533641      0.51873086033417
  H          -0.29281232236900      0.85822409119396     -0.64190089462360
  H           1.30329164992963      1.31680498581169      0.00335977648582
  H          -0.55673470320077      0.39650191805576     -2.98859932072742
  H           0.69972064590527     -0.85819110346953     -2.91614475701689
  H           0.84725693866602      0.47281052792943     -4.06832917384416
  H          -0.06501353229005      2.64255771091159     -2.18387464451894
  H           1.29855428073926      2.68645184191909     -3.31702719961553
  H           1.56702133105441      3.02033014620061     -1.60436224818635
  H           2.87223032948815     -0.34392782595881     -2.09117411310064
  H           3.25125477309126      1.23628899038551     -1.43031992100861
  H           3.03858509502925      1.04240747237412     -3.17630606764096
  H          -0.79883944322841     -1.53783355762479     -1.06116739699727
  H           2.93456927620324     -0.32894779513695      0.68077630466283
  H          -0.34915235235403     -3.85127895394990     -0.38886203292697
  H           3.34929532463624     -2.61614532337680      1.36203511991251
  H           1.73154980283231     -4.40667488279780      0.82385737983566
  Cl          5.48738117274341      0.95838543403408      1.27901156592002
