53
Coordinates from ORCA-job R4N+PFOA-_0.15M E -133.638631453550
  C           6.14021366659489     -6.13274218199800     -2.12145032714223
  C           6.71722448318497      1.13221365207021      0.64776342594977
  F           5.27852717075852     -3.74342973860010     -0.55502385611442
  F           4.85292197493127     -1.88946896785885     -1.57036769964313
  F           7.94904421191151     -3.45013701517433     -0.94243002749139
  F           7.66193977522086     -1.87368082906170     -2.35465524446517
  F           4.23781547336970     -3.96896101541760     -3.00723952951977
  F           5.81251996902255     -2.81347811989517     -3.89153114582712
  F           6.14574753621764     -1.53934528498841      0.75488482923417
  F           8.31735381297795     -1.53831426275458      0.64180368794568
  F           5.99702400564728     -5.41473037220320     -4.35449453869852
  F           7.67205924972314     -4.69008476081265     -3.21577868885408
  F           6.34307371287600      0.23732431485617     -1.63614202085875
  F           8.41891637675725      0.41560082288808     -1.04840311136827
  F           4.88300233362954     -6.18384156556281     -1.69469746647618
  F           6.95643159181194     -6.04035392255899     -1.08791791459801
  F           6.39120040361539     -7.28771340552177     -2.73544464372011
  O           7.58456279193433      1.32240676726783      1.47982248363534
  O           5.57014408001785      1.52156012887262      0.51102181307729
  C           5.71536052032674     -2.92587561057077     -1.52169939360959
  C           7.15134642256087     -2.40890215817172     -1.22015677948019
  C           5.54623036806166     -3.66556503047564     -2.88522781799701
  C           7.19535618061862     -1.34516494763814     -0.07369555116149
  C           6.36146114883807     -4.96537320444245     -3.13490329470841
  C           7.18109156333817      0.11479947840360     -0.56681182792258
  N           1.61819819392417      1.92050552240689     -1.97976653426691
  C           1.29293239906692      1.56533385238272     -0.56536862382210
  C           0.68101671774329      1.27306018298252     -2.90921651854377
  C           1.51082814070338      3.38115883315831     -2.12432402615016
  C           2.99242497980962      1.50185522212481     -2.30200008010515
  C           1.43525721653582      0.09954495767450     -0.24111572538509
  C           0.37239953713759     -0.77685105136523     -0.43558220002207
  C           2.62368622175110     -0.38637380205416      0.29579455563919
  C           0.50425736349009     -2.12003322604527     -0.13098119171637
  C           2.74722822002288     -1.72785891230908      0.61703861084658
  C           1.69418287457806     -2.59932830055767      0.39108028832342
  H           0.26636598091752      1.88006568406678     -0.37083841197284
  H           1.97195791444793      2.12328962451047      0.08125198821899
  H          -0.33615091288510      1.58483015568425     -2.68591158074749
  H           0.75603696644533      0.19260117123984     -2.81901396959045
  H           0.92576927002272      1.55688418728313     -3.92960198783941
  H           0.50823807839986      3.70951372777085     -1.86177636583334
  H           1.72196478104586      3.66489190460577     -3.15225377274762
  H           2.22900596416054      3.87324316818536     -1.47288211817020
  H           3.08750675426669      0.41923790168466     -2.25395330384974
  H           3.70363621811703      1.91760568719331     -1.58970983137202
  H           3.25910125852801      1.83524574842314     -3.30110969839645
  H          -0.57082539927407     -0.41389976565003     -0.81313490778917
  H           3.46386020636721      0.27019553575442      0.47592333108044
  H          -0.32033581093551     -2.79678909465903     -0.29128968518758
  H           3.67138158062099     -2.09347458611522      1.04563341809739
  H           1.81146733009907     -3.64528855167343      0.63415119628505
  Cl          7.15264021084586     -4.45805645105435      1.91002823633092
