53
Coordinates from ORCA-job R4N+PFOA-_0.15M E -133.574323759320
  C           7.46063543757180     -6.35140646924689      0.47511031341821
  C           4.83368640348202      1.24881908440936     -2.71829956780610
  F           5.98793659935779     -2.41099633756464      1.14402891486186
  F           4.74925385375766     -2.42080912184442     -0.63539810813243
  F           8.11948240235461     -1.80042295757173     -0.01565226845571
  F           7.51016501627788     -2.39660340447665     -1.98573378604013
  F           5.14591555192980     -4.94181064839607      0.14446650332038
  F           6.22491789874389     -4.54541007358864     -1.66473088071761
  F           5.72314041845735     -0.02271760616011     -0.12079002038811
  F           7.62002636601504      0.43757669662256     -1.01789988768383
  F           8.54135814975358     -4.49971659174243     -0.50324323733391
  F           7.75171381557621     -4.24790314413947      1.48892654395455
  F           5.29716022168730     -1.35277029949220     -2.90386701429134
  F           6.91097157775236      0.01467127182754     -3.39459717630103
  F           6.70903400863382     -6.69993600025567      1.50909997051721
  F           8.68892721318628     -6.80807973486602      0.69595482093575
  F           6.99581467963118     -6.96155680555043     -0.60831399777292
  O           5.29307471648015      2.15268131172938     -2.07228729424718
  O           4.16078446785027      1.06722775276378     -3.69572738032965
  C           5.96699374913209     -2.72797558709220     -0.15979014726311
  C           7.05582865775999     -1.84283751636064     -0.84760213331089
  C           6.18904235014296     -4.25903659206186     -0.34602716036875
  C           6.55795741691339     -0.38829590210532     -1.12190464441295
  C           7.49971249758564     -4.80336142301445      0.29430430443215
  C           5.88934524329310     -0.18130805434356     -2.49440176671872
  N           2.64966694213732      1.65170555514942     -1.22003985540251
  C           2.82833751930751      0.16709911955292     -1.32133539398979
  C           1.25227571029052      1.72626194789943     -0.63321276389544
  C           3.47015185045426      2.22696913381488     -0.12708539578921
  C           2.51707563529189      2.57557241605815     -2.37269109893854
  C           1.72462447574544     -0.58526196902506     -2.02812457197159
  C           0.88060146273020     -1.40170333358860     -1.28082268269858
  C           1.56680584159159     -0.53994183195650     -3.40900563365692
  C          -0.12408662648533     -2.12651147327510     -1.89689910057294
  C           0.55481791546277     -1.25907946007217     -4.02211903640442
  C          -0.29929022151747     -2.04516496874282     -3.26811941770132
  H           2.88412422603241     -0.19899728435629     -0.29251884950800
  H           3.76528063249271     -0.11493600114600     -1.77357475986949
  H           1.14894049506233      1.03318648190684      0.19744870811891
  H           0.52240980263389      1.46314340397903     -1.39393840052659
  H           1.05654203599668      2.73096539347006     -0.27031035856298
  H           3.24024049828626      1.71836707463538      0.80587709610216
  H           3.23505648464852      3.28404666221112     -0.03878351745223
  H           4.53396342314441      2.13395588409852     -0.30052012168484
  H           2.07877841345966      2.05532246742877     -3.21753798913604
  H           3.46291352630573      3.01183812099365     -2.66919610492815
  H           1.86300220649217      3.39184967546435     -2.07796898725443
  H           1.02899682868145     -1.50092895867499     -0.21463817469759
  H           2.25827225185623      0.02728644866788     -4.01078614485390
  H          -0.76233882716093     -2.76050498199584     -1.30088310599291
  H           0.44458553915630     -1.21235456569799     -5.09426926685320
  H          -1.08536036089970     -2.60762221886138     -3.74725322967030
  Cl          3.27533468537657     -3.48473248911719      2.17097970942490
