53
Coordinates from ORCA-job R4N+PFOA-_0.15M E -133.634564805330
  C           4.38354353961024     -5.35079396368266     -3.65648199760780
  C           7.02024682016118      0.50406693608664      0.55253326252388
  F           4.76271085858051     -3.78084315264387     -0.61057539896721
  F           5.23232638347603     -1.72893709888079     -1.00232873803320
  F           6.99750777774440     -4.39786439678740      0.11901040094218
  F           7.99988510054773     -3.36438888164785     -1.50608376154619
  F           4.39242552940729     -2.76566684268569     -3.14199604686731
  F           6.49832230181401     -2.50589641484113     -3.40752086964312
  F           6.38532915501328     -1.97206322870850      1.29761750192196
  F           8.44805204020629     -2.55299592632649      1.26273616817951
  F           6.62710628198782     -4.84544497707522     -4.14757085359539
  F           6.16415058722800     -5.49148041288772     -2.13254272403904
  F           7.58332643552570     -0.80042486864620     -1.51149591520944
  F           9.17970643908685     -0.58790833205301     -0.06225190498890
  F           3.98832246612007     -4.78122680082795     -4.78763711504571
  F           3.41524335280438     -5.19966992294958     -2.76100397077390
  F           4.53151975491089     -6.64751434089467     -3.88491543695112
  O           7.44711109808200      0.75653973025798      1.66350862769073
  O           6.12748821137837      0.95009259523856     -0.13871382667882
  C           5.67219074996997     -2.98258011739010     -1.20296766583533
  C           7.07184053915384     -3.22871188854747     -0.54570080845770
  C           5.59605001895089     -3.23323473176057     -2.74226880954430
  C           7.45822840438179     -2.11324122114094      0.46852479950659
  C           5.72982941432219     -4.73617520995269     -3.15588940761663
  C           7.83408379657093     -0.76075877823826     -0.16588379643687
  N           1.18145578414171      1.79622660022002     -2.16334738904529
  C           0.68465669736875      1.32629795107826     -0.83504861907640
  C           1.32037426847489      0.66398599115780     -3.09166992202983
  C           0.20327237208241      2.75141466249201     -2.70994616197387
  C           2.48283388369436      2.46797289045788     -2.01872142632825
  C           1.56520923870872      0.30335434559826     -0.16143169375671
  C           1.34667536478825     -1.05495395520933     -0.36597144314170
  C           2.58349745576156      0.69981101156274      0.69892054281978
  C           2.13391660705025     -1.99727570675816      0.27116884182415
  C           3.37184049614007     -0.24197665063156      1.33579453041999
  C           3.14594957115112     -1.59190565373933      1.12552403567970
  H          -0.30513743395704      0.89313564917461     -0.98599295316495
  H           0.59801902505008      2.19780713945032     -0.18511455707046
  H           0.36859059222260      0.15017721105258     -3.19856124630640
  H           2.06485471431622     -0.03782134623959     -2.72138868277100
  H           1.64135314370751      1.02479371174197     -4.06557137872022
  H          -0.76024045269972      2.26585864227626     -2.84207504267763
  H           0.54776917736366      3.11906334030964     -3.67315571289805
  H           0.08607849440028      3.59525957591356     -2.03485425508014
  H           3.23044779893603      1.78616106499849     -1.61524581380867
  H           2.39352670526595      3.31888312965240     -1.34815713157900
  H           2.82757404753805      2.81794339241882     -2.98842584024504
  H           0.55326289723769     -1.39060463424732     -1.01538569390714
  H           2.77476727322181      1.74465589867886      0.88769356872780
  H           1.96837652960321     -3.05114531766957      0.10418552268704
  H           4.17534447971387      0.07052932052386      1.98737704947599
  H           3.76700483652655     -2.32249201494166      1.62448588024400
  Cl         10.35678045505603     -5.07018190603634     -0.17689026972452
