53
Coordinates from ORCA-job R4N+PFOA-_0.15M E -133.631192632630
  C           4.33418307434306     -3.08975824141144     -3.73217598142660
  C           7.97287752192217     -1.44397378246081      1.88163108065424
  F           4.62417207480542     -2.32352489668214     -1.00273804009415
  F           6.10358042072458     -0.91271708005276     -0.34990712109298
  F           6.10449157021989     -3.79865091716064      0.38427175672631
  F           6.69830429012348     -4.14117959125274     -1.63004946791948
  F           5.37867874446146     -0.40414367324393     -2.70436341627202
  F           7.41223030548207     -1.12620893618622     -2.77864773655106
  F           8.68635600580400     -4.17771116905035      0.24852969876601
  F           8.88166303320233     -3.00357186589498     -1.54261197055816
  F           5.74782697367084     -1.62973293091658     -4.87520488734304
  F           6.66943013057934     -3.37346751829080     -4.01305968183024
  F           8.60251486041859     -0.72547612962696     -0.36077802983852
  F          10.08707535893811     -1.91746220686751      0.63911428953321
  F           3.39978357837192     -2.19959263990009     -3.41738123839093
  F           4.26698994768242     -4.09122775785759     -2.86857442333952
  F           4.02845165399366     -3.56586161846231     -4.93314739016341
  O           8.56449615151010     -0.62250656095517      2.55623093136251
  O           6.87233224315804     -1.97135960059259      1.97502212459065
  C           5.93290720427687     -1.99825592497791     -1.11260001072140
  C           6.76104764465943     -3.21941165538158     -0.62475253379216
  C           6.14422601770624     -1.51271552427831     -2.58449445779437
  C           8.27267691906949     -3.03194913357022     -0.31473656695990
  C           5.74755355517526     -2.43087456277538     -3.78653151734928
  C           8.74430981820900     -1.80661816359458      0.48531409148040
  N           0.48787965133500      0.58901248226979     -2.48569431992451
  C           0.43980363901660      0.94574502805170     -1.03517755263686
  C           0.37553530111968     -0.86648136011131     -2.66100483106862
  C          -0.64556645405028      1.24441194734585     -3.15949303001557
  C           1.74412908753901      1.05565583795715     -3.09118979383739
  C           1.56133605903322      0.36625831679892     -0.20921079672699
  C           1.43063592518676     -0.88212650009338      0.38953470413827
  C           2.73268120326402      1.08860119940179     -0.00609424145144
  C           2.45692281914764     -1.40660919567166      1.15624373585391
  C           3.75527441634901      0.56715275738652      0.76678955528792
  C           3.62443869048954     -0.68523623004799      1.34613810341550
  H          -0.51139851239734      0.59081937968860     -0.63671209158736
  H           0.47406577639498      2.03305322625430     -0.95796588858172
  H          -0.55513325898409     -1.22366442606128     -2.22781799234277
  H           1.21071205760245     -1.36789105792502     -2.17811555580402
  H           0.39203444991294     -1.11137337556057     -3.71976729854876
  H          -1.58431274693916      0.90937879659018     -2.72587295120817
  H          -0.63802355130875      0.99503662796910     -4.21743745338595
  H          -0.57303267484724      2.32373180754018     -3.05331376924102
  H           2.59705790590823      0.57520003990425     -2.61670140886596
  H           1.83807790696108      2.13225006846966     -2.97562676177285
  H           1.75589668550846      0.81037975299524     -4.14986953268117
  H           0.52284501002727     -1.45358062548215      0.27460364912017
  H           2.85634936807843      2.06954756086657     -0.43814806620843
  H           2.35921391562791     -2.38071401912415      1.61108369671156
  H           4.67030071777677      1.12172901457247      0.91950707619607
  H           4.43953038586779     -1.09743902668763      1.92770151474392
  Cl          9.59918820777183     -3.80704384955353      3.25354825024608
