53
Coordinates from ORCA-job R4N+PFOA-_0.15M E -133.635783031940
  C           4.41497179061483     -4.06747322341341     -2.32821752537418
  C           8.46779998092892      0.95279173234775      0.30160093386261
  F           4.90267517462362     -1.71733178180557     -0.86808713936554
  F           6.22116575667416     -0.15162972639407     -1.56036593858425
  F           6.76821558462585     -1.60407289122955      0.89351249780925
  F           7.08514731001590     -3.33628182437248     -0.31651206068764
  F           5.27177659391106     -1.39832238054498     -3.53098520815353
  F           7.35207699377963     -1.93573248930702     -3.37426291968522
  F           9.32096704165515     -2.04563576146517      0.55721654919348
  F           9.11331973214437     -2.40907281435621     -1.54940173608423
  F           5.63940540641985     -3.80721172178026     -4.30644497192444
  F           6.74280050477238     -4.42226117953233     -2.56488551935030
  F           8.64711654308955      0.15648172016550     -2.08350203148540
  F          10.37870192256553     -0.08306076647662     -0.81795614827045
  F           3.44640836750131     -3.18199958356013     -2.52495246685319
  F           4.54076956079352     -4.28761277241080     -1.02866609418956
  F           4.02789479101886     -5.20668577984126     -2.89202510555828
  O           8.50459305526864      0.51414792104948      1.44047607750282
  O           8.18733623697146      2.02674135073855     -0.19247968793475
  C           6.12966436353214     -1.47312867804010     -1.36820039998395
  C           7.16628369477280     -1.97644347793675     -0.32726638426364
  C           6.15315967648668     -2.10926557262186     -2.79683012018707
  C           8.65770347992206     -1.61635540133032     -0.53494349288480
  C           5.75973422422930     -3.60956025544828     -2.97659625440341
  C           9.00891407334380     -0.14901622856223     -0.80563186599638
  N           1.45181092141785      1.00015700412717     -1.87382380454259
  C           0.99429816973691      0.60606388499762     -0.50665039597846
  C           0.53620149177358      0.48602021354633     -2.90245502436229
  C           1.48494026717540      2.46959118905765     -1.93891788154706
  C           2.80477515130760      0.47832851765201     -2.11832751111842
  C           1.03341977855467     -0.87734969687947     -0.24674874923082
  C          -0.03670331161551     -1.69884120920439     -0.58560069441618
  C           2.14840400015468     -1.43352292724200      0.37157238624064
  C           0.02155993789683     -3.06027541769259     -0.34405378787601
  C           2.20191765925091     -2.79513530135976      0.61554805003747
  C           1.14481529960272     -3.61215669399881      0.24879351547644
  H          -0.02215040697987      0.98072781348541     -0.37518748745500
  H           1.66064036526542      1.08975071839688      0.21089320226180
  H          -0.46304462717837      0.88029332772232     -2.73569823821516
  H           0.51273783779115     -0.59974851034311     -2.86403973937253
  H           0.88469615407657      0.79451563992512     -3.88469397167822
  H           0.50536685250537      2.87676029122839     -1.70086451646487
  H           1.77699548548420      2.78750230217212     -2.93667579178576
  H           2.21523237831383      2.85083739713419     -1.22761661163316
  H           2.78609244028602     -0.60818483852771     -2.15166859587944
  H           3.48431718488175      0.77830249119030     -1.31817559291013
  H           3.18993516428521      0.85750489907163     -3.06124775526334
  H          -0.92789771135850     -1.27816832114216     -1.02476669257880
  H           2.97795737827148     -0.80521268473932      0.66614373452623
  H          -0.81013383266351     -3.69272495007367     -0.61258573180651
  H           3.07879232719800     -3.21069536978263      1.09174668177692
  H           1.19717286386402     -4.67382666488788      0.43812329443191
  Cl          5.11385000093985      0.96533057859445      0.96068117371528
