53
Coordinates from ORCA-job R4N+PFOA-_0.15M E -133.577331827010
  C           8.35116164173549     -6.39470925633788      0.45228791851161
  C           4.78374624304132      1.06484479399486     -2.72196814212801
  F           5.82234178422477     -2.88670263426581      1.35378271333807
  F           4.79049946788545     -3.10194707718906     -0.52269638501012
  F           7.93584093635094     -1.82419500492688      0.32374303719251
  F           7.48510076205200     -2.44907061336746     -1.69094734428650
  F           5.57586328964321     -5.42107620082962      0.33921171902710
  F           6.62144167694983     -4.88476619653137     -1.45126052445455
  F           5.11479159255382     -0.60514002380161      0.07884159664854
  F           6.99390955394521      0.32077280912851     -0.39466385227198
  F           8.83123479148540     -4.24467306680968     -0.31322620646520
  F           8.09237856803187     -4.33349880058661      1.68427177237020
  F           5.08127074933296     -1.56557575948240     -2.67553370900854
  F           6.84091028581797     -0.30286385559197     -2.97824119516271
  F           7.34973856716862     -7.24902586548910      0.36195991351549
  F           9.12918996554240     -6.70738974890066      1.47189402233511
  F           9.08654005506668     -6.58817333248761     -0.65631893753674
  O           5.29383165244945      2.01451878612908     -2.20141924059779
  O           4.13549311021962      0.76711031906919     -3.68309275327400
  C           6.01075549696347     -3.15022951917223      0.05001413044966
  C           6.92226087821239     -2.03440091180669     -0.54206412944137
  C           6.53098697567639     -4.61121188312023     -0.12857555538897
  C           6.16774675791996     -0.67630519006697     -0.77153557528351
  C           7.93460337729130     -4.88582272465975      0.48271154934116
  C           5.69854981528442     -0.42504320310865     -2.21506539636062
  N           2.56975977512291      1.78750954068124     -1.39793605606032
  C           2.47322879815175      0.28818699249215     -1.41547153744229
  C           1.22325076591713      2.17479530918049     -0.81967111388774
  C           3.50469910706714      2.25605165060189     -0.34537898597803
  C           2.56855564947786      2.59208565555341     -2.64658908836321
  C           1.27604753573443     -0.26975458469064     -2.15040665217082
  C           0.16413152652869     -0.70845308024430     -1.43706025307971
  C           1.28551148122638     -0.41503208275935     -3.53334350215389
  C          -0.92735251396854     -1.24791409393499     -2.09385744490722
  C           0.18947874458365     -0.94935811140807     -4.19000481372190
  C          -0.92216477575900     -1.35926425480186     -3.47412851913036
  H           2.42119873889922     -0.01498334476691     -0.36730011479387
  H           3.35947665786180     -0.18068905055790     -1.81962274420367
  H           1.00286006316370      1.58619367666824      0.06629335397973
  H           0.44259107797713      2.00005294074062     -1.55500183121663
  H           1.23704865588197      3.22562440807538     -0.54423414234031
  H           3.04168557136623      2.13763073837784      0.63087712550067
  H           3.73816602229817      3.30304480854823     -0.51672065571252
  H           4.43861015227628      1.70946285518595     -0.32483485399570
  H           2.08670008503291      2.02856262370931     -3.43952476744756
  H           3.55934230462460      2.88256396815735     -2.97054203794591
  H           2.01169523622427      3.50813158717569     -2.46984739024644
  H           0.15320161985237     -0.64794790456316     -0.35962436123145
  H           2.16295915133960     -0.13779278843861     -4.09593814993248
  H          -1.78003254144150     -1.58676420262233     -1.52642125063185
  H           0.21309048306455     -1.05472836023215     -5.26370771215957
  H          -1.77310683320391     -1.77845706328285     -3.98818861242053
  Cl          6.55378054575470     -6.33633157633435      3.03437313713466
