53
Coordinates from ORCA-job R4N+PFOA-_0.15M E -133.639396340020
  C           5.91642633860573     -5.94480566371813     -2.32001906987379
  C           6.82955876700958      1.26117095809460      0.58080741996735
  F           5.12488009670865     -3.59796225349296     -0.75194412959834
  F           4.92077724303766     -1.66321515867990     -1.67596610554556
  F           7.77715453159087     -3.47321803317041     -0.71352295640972
  F           7.85844755791643     -1.92710050107791     -2.18392925738638
  F           4.35124293144604     -3.58422665604195     -3.31770334448686
  F           6.11442236089074     -2.54089862565648     -3.94480934277934
  F           5.99724240065866     -1.32353308413255      0.69013414612735
  F           8.15740297222094     -1.53163696685727      0.84395018499768
  F           6.17114721568950     -5.12568633413134     -4.50747985826641
  F           7.71139222783464     -4.60921796892000     -3.09493681797869
  F           6.63317683104727      0.31517603413820     -1.70631593896415
  F           8.64003772569471      0.33469692365460     -0.89031004099907
  F           4.60611133379189     -5.91773337127655     -2.10659117198726
  F           6.55089160785971     -5.95207814050691     -1.16026744531396
  F           6.18908140681975     -7.09199521146196     -2.93809955037742
  O           7.66386276370151      1.50805887869986      1.43134010967681
  O           5.68632465414544      1.63432753140488      0.37671834413224
  C           5.71365800757684     -2.75069397136016     -1.60604488590992
  C           7.14153846259771     -2.36442947218188     -1.12065830922192
  C           5.65484486025935     -3.40404667802580     -3.02235119457839
  C           7.15011348883580     -1.26611533689033     -0.00784027239140
  C           6.38457893435518     -4.76176064591741     -3.22573402398469
  C           7.33487141720349      0.16662171522438     -0.54432053787713
  N           1.66975539348203      1.72965914438449     -2.00421369019558
  C           1.41858761051235      1.47094765339554     -0.55434533296877
  C           0.64842585753544      1.07859456183280     -2.83742285379320
  C           1.61953460485300      3.18392346326917     -2.22644729956002
  C           3.00132919816130      1.22993988256467     -2.38275845330790
  C           1.48784595081870      0.01751639461960     -0.15969022469208
  C           0.35886656479993     -0.79192297788676     -0.23613647090973
  C           2.67620401164853     -0.52161011635885      0.32383060786570
  C           0.42287698511320     -2.12374967170993      0.13291497281260
  C           2.73486011462180     -1.85153472563750      0.70652291472340
  C           1.61268274756521     -2.65718370265162      0.59960269841328
  H           0.42950586039139      1.86352470174144     -0.31275835364658
  H           2.17398628366449      2.01503957085528      0.01523162540302
  H          -0.33787726960602      1.44919071996359     -2.57030067654956
  H           0.68128384044818      0.00213958701732     -2.69143965279126
  H           0.84067571080811      1.29650288647019     -3.88485593204252
  H           0.64939738431345      3.57390996501480     -1.92863070440673
  H           1.78429768000813      3.40050243919627     -3.27888351503930
  H           2.39521952731382      3.67541983984411     -1.64397104166789
  H           3.05077998699468      0.14909415120231     -2.27445578046464
  H           3.77244770872605      1.65374841933837     -1.74050226052640
  H           3.21856983306004      1.49292793427336     -3.41433083440089
  H          -0.58202943385631     -0.38368824303991     -0.57069826176787
  H           3.56704558306928      0.08506398975774      0.41647000078330
  H          -0.45385041537007     -2.74868715471352      0.06614249534890
  H           3.65935717541688     -2.26043366318782      1.09279473347791
  H           1.67902762007421     -3.69430853817904      0.89354038426816
  Cl          6.39660882783367     -4.10637238279285      2.01898140616346
