53
Coordinates from ORCA-job R4N+PFOA-_0.15M E -133.639351614350
  C           5.68385039508750     -6.39785263060460     -1.24627406182290
  C           6.10872311345292      1.25571479661303      0.33910672795140
  F           8.74631037522377     -4.20443474722772     -0.70178913261506
  F           8.11675090107099     -2.95700249270357      0.95815960247346
  F           8.82040896583878     -2.15031799620698     -2.07404007943368
  F           6.68955381673080     -2.26753406707548     -2.09319198449231
  F           6.65704949572828     -5.06164078795330      0.79446128243295
  F           5.45417845593001     -3.38590459589110      0.20752673191057
  F           8.69188445840087     -0.46050316078361      0.18558986243696
  F           7.75335217331114      0.16864123614143     -1.66135051591184
  F           4.95887352523822     -4.30506169936269     -2.01251989522481
  F           6.99809233507802     -4.85965362460361     -2.44498792931611
  F           6.33333098165371     -1.03401917711851      1.32629080418053
  F           5.28059890202857     -0.88679709865656     -0.56161504299053
  F           6.73661623786575     -7.10513458998509     -0.86253843291869
  F           5.21893917456341     -6.93501811021639     -2.36816270751609
  F           4.73469186211873     -6.51282878382763     -0.32542344992467
  O           6.99395622025201      1.79792236831940      0.96894932499794
  O           5.07381400190036      1.63699397843459     -0.17694675477364
  C           7.80631218076691     -3.33607987885997     -0.29079604495064
  C           7.75389406426955     -2.11765332595072     -1.26182017251400
  C           6.47563004953419     -4.15685508878219     -0.18898987471849
  C           7.64583244846872     -0.69869773639267     -0.61664972269229
  C           6.04702429203501     -4.90107024145984     -1.49740793899016
  C           6.34006298611923     -0.37913186339832      0.12967361195431
  N           1.63110581160541      2.10724915233176     -1.74639524139899
  C           1.52877070869413      0.98563150441960     -0.76469205615715
  C           0.33518295368401      2.36398501520931     -2.38988310780147
  C           2.06749728266974      3.30905836226047     -1.01656366521789
  C           2.63876431168887      1.78839353900488     -2.76892003588697
  C           1.12506756097521     -0.33591899633486     -1.36732730626665
  C          -0.21701052272602     -0.68189731984007     -1.49091201541381
  C           2.09615762315207     -1.24566384005341     -1.77260276149420
  C          -0.58022363798416     -1.90315067908663     -2.03117080454220
  C           1.73220922753359     -2.46974408794566     -2.30773945434697
  C           0.39319374532848     -2.79750262208266     -2.44481881909193
  H           0.80091649437012      1.27522129279919     -0.00504406817408
  H           2.50905064451492      0.87835536304447     -0.29386066758981
  H          -0.40981611618070      2.60801184644859     -1.63689477825247
  H           0.01532622636653      1.48399165862612     -2.94190546819121
  H           0.43026573955487      3.19979531756379     -3.07838924773843
  H           1.35150819516682      3.55715380194374     -0.23729182987080
  H           2.15502553723161      4.14640076153141     -1.70404378895861
  H           3.04068247902680      3.12794432491898     -0.56067215346057
  H           2.34908935754663      0.89546492350811     -3.31698316971150
  H           3.60156999994664      1.61042680371575     -2.29059879889694
  H           2.73876698943786      2.62117103398452     -3.46007150991488
  H          -0.98552784161928     -0.00572202657814     -1.14997196578911
  H           3.14341051219835     -1.01347484259127     -1.65270240582527
  H          -1.62338871327712     -2.16260439350714     -2.12298812533936
  H           2.50316034366845     -3.16511778953230     -2.60608521737251
  H           0.11306643342986     -3.75278897581819     -2.86144075573155
  Cl         11.25104832122818     -2.55289771408831      0.13301146240318
