53
Coordinates from ORCA-job R4N+PFOA-_0.15M E -133.640604620770
  C           5.63426482069624     -5.85200098350141     -1.54339181579475
  C           5.87036769895287      0.50771811753749     -2.22517448758522
  F           5.96982056548247     -3.44892511774039      0.44412499229329
  F           5.14114119277610     -1.70056376721707     -0.49251201922015
  F           7.94263930320696     -2.13787737533348      1.00058472680595
  F           8.49506962043987     -2.29231946523267     -1.04760102502735
  F           4.89271318600653     -3.39945335797364     -2.31340074722609
  F           6.84768177415389     -2.69497073556820     -2.85355714953777
  F           6.57917780194211      0.29631171955722      0.43074553731929
  F           8.71935303086322      0.13697801957013      0.22830425330772
  F           7.38392202679315     -5.08153170073975     -2.89193987882524
  F           7.64727771599243     -4.86099524275476     -0.77048798262023
  F           8.16892515113324     -0.34489098017046     -2.63916574006268
  F           8.01157969667123      1.59259861349941     -1.69731482494955
  F           4.72657179039017     -5.50962755425352     -0.64063883319649
  F           6.19107621593943     -6.99203569854728     -1.15389848630064
  F           5.00140614036802     -6.08529003085896     -2.68825497663628
  O           5.37204726457012      1.58677880252877     -1.95800832358447
  O           5.42549731317281     -0.49289378442742     -2.76715303378348
  C           6.18336891641610     -2.53573749007440     -0.52430443801865
  C           7.52965205684161     -1.80055133755014     -0.23253681895584
  C           6.16408150154528     -3.31711297206474     -1.88586178972229
  C           7.54148412140886     -0.24781958766593     -0.33607023176182
  C           6.73772546902391     -4.76785195324454     -1.75429606054792
  C           7.42351326943029      0.36303922496875     -1.74677888630957
  N           1.89193649514475      1.69365287338732     -1.39024639481911
  C           2.37581025277655      0.54658597686510     -0.56705071612251
  C           0.44814274584440      1.89620215148188     -1.18650081167270
  C           2.61256335689528      2.90677928713260     -0.97198023243450
  C           2.14893776552788      1.45210510212089     -2.81702591968801
  C           1.71899702507811     -0.77011033038252     -0.88890643145453
  C           0.57794671884339     -1.17825260638571     -0.20615914786105
  C           2.26873808197164     -1.61293872157754     -1.84846676402419
  C          -0.01197377719589     -2.39764806656847     -0.48918444147799
  C           1.68106784795720     -2.83515422529722     -2.12681918883416
  C           0.53689723050722     -3.22729267783410     -1.45230553087481
  H           2.20903925666542      0.78631717766731      0.48460566995177
  H           3.45337269745763      0.45126343127188     -0.71582739472951
  H           0.24800231409862      2.08757776761254     -0.13541521402998
  H          -0.09680642589999      1.00879084987404     -1.49798762334081
  H           0.11616945697066      2.74770429222728     -1.77488971108816
  H           2.45364993085196      3.09012859856364      0.08754014159047
  H           2.25904231918932      3.75844540962161     -1.54727346543958
  H           3.67964366048587      2.77765385554557     -1.14555822465735
  H           1.61268707628548      0.56703057317626     -3.14902352737118
  H           3.21449166811280      1.29443042724844     -2.97402579372035
  H           1.82990476574838      2.31479849316763     -3.39582213917583
  H           0.15919840431438     -0.55234858114467      0.56678516877629
  H           3.17624821778486     -1.32720759058244     -2.35976027873210
  H          -0.89389000806909     -2.70553720858505      0.05051458109158
  H           2.13274593433297     -3.48246301462957     -2.86323624182697
  H           0.08483836092123     -4.18283192187304     -1.66835126548393
  Cl          5.36684206308146     -1.41080458854663      2.67925538888930
