53
Coordinates from ORCA-job R4N+PFOA-_0.15M E -133.636946213490
  C           4.36551322825210     -4.30372615688811     -2.58567352485628
  C           7.36887917696877      1.48752549491685     -0.54401360299568
  F           5.36435522307521     -2.84782475594108     -0.31921558252876
  F           5.64551338398317     -0.93435474634601     -1.25209097309310
  F           7.13302923656367     -1.76724031959386      1.14586697157387
  F           8.08566278522676     -3.21069900596261     -0.10720325127577
  F           5.95135898716163     -2.08598176740223     -3.38044818131102
  F           7.82230546856534     -2.87001467430723     -2.66837458213540
  F           9.22873651990592     -0.58831453925483      0.67798926458741
  F           9.60382390039966     -1.64505914075847     -1.14968484365488
  F           6.45564204117958     -4.85280145082629     -3.54004381765884
  F           6.31735743021198     -4.97151955558347     -1.39784430370195
  F           7.69627471732900     -0.12904446179451     -2.46326095494396
  F           9.44296855626724      0.86508538673029     -1.67407309398608
  F           3.78866746652519     -3.11717697410229     -2.43869141599617
  F           3.85547092602274     -5.12638814570733     -1.68352884013370
  F           4.02499144692496     -4.75592746317648     -3.78666599900303
  O           7.88228880647234      1.84345038563854      0.50102480225470
  O           6.41526142525889      1.84382663823170     -1.20309158049324
  C           6.25078647185859     -2.09442136188569     -1.01346135184946
  C           7.51891006562611     -1.97323702898003     -0.11921311102439
  C           6.50986780411624     -2.80156764244911     -2.39076416180513
  C           8.63826007302984     -0.95034024340135     -0.47855579733351
  C           5.93008480053454     -4.24920144249618     -2.45963326135757
  C           8.25865505102392      0.29085392074026     -1.28926459900429
  N           1.70655857533367      1.16143229670510     -1.70899216921964
  C           1.39045339309242      0.61543061075683     -0.35417310901906
  C           0.57897810925047      0.97003081064485     -2.63292177838373
  C           1.98282992618971      2.59990584474034     -1.56965048598598
  C           2.90209319442902      0.50013377113660     -2.25153848814073
  C           1.15875369063361     -0.87303602812033     -0.31864495451408
  C          -0.08358425102200     -1.42373123907176     -0.61677561197014
  C           2.19748176403639     -1.71360140062863      0.06719873063113
  C          -0.27210741963976     -2.79418212413753     -0.56972426912407
  C           2.00254768794505     -3.08291143543653      0.12670378894341
  C           0.77269380570384     -3.62703015111144     -0.20609885956807
  H           0.50614807008981      1.13714220247543      0.01577043852704
  H           2.24017859838778      0.83619272164678      0.29790733212758
  H          -0.31002388972609      1.45038057665259     -2.23218419644722
  H           0.39150132582658     -0.09140574818639     -2.76941481203511
  H           0.82200287296094      1.41272069482358     -3.59549285625440
  H           1.12550521356206      3.10592571315977     -1.13271179230582
  H           2.20345853084941      3.02856199680793     -2.54397176084848
  H           2.85056951405587      2.74661850093180     -0.92796351860056
  H           2.73113500453280     -0.56854193247302     -2.35519527138032
  H           3.75204371859820      0.64169052734994     -1.58386650215140
  H           3.15834353263830      0.92320336930041     -3.21874464236104
  H          -0.91591428226587     -0.78497236518606     -0.86756905298577
  H           3.15162257014957     -1.29064202434223      0.34965052756011
  H          -1.23714701709427     -3.21386556932369     -0.80704023083993
  H           2.81832660913487     -3.71865011293511      0.44061063389238
  H           0.63151345727596     -4.69625325645376     -0.16397214959891
  Cl          5.04397378248788      0.31140489717404      1.38701730327894
