53
Coordinates from ORCA-job R4N+PFOA-_0.15M E -133.627669367250
  C           7.00195144463349     -6.28616206082776      0.23018378076809
  C           5.32228710785343      1.06513529247246     -2.73018138931977
  F           6.07972694335934     -3.24214498181678      1.22381396468874
  F           4.79432595556353     -2.35237671984727     -0.26798206677155
  F           7.78208579866244     -1.50876972329588      0.88533185833033
  F           8.03679172546260     -2.13435484505596     -1.14605191042697
  F           5.11062074253207     -4.79924594838086     -0.88292958992799
  F           6.41970489822195     -3.77380232562470     -2.23250853256347
  F           5.56322410301868      0.12177238631855     -0.02365590187468
  F           7.59945161493062      0.56956620014199     -0.58397765377463
  F           8.19115498178551     -5.30101721114569     -1.53667387255741
  F           8.26319070777721     -4.29936325162618      0.36783417630122
  F           5.48772794422265     -1.41412560194665     -2.56396093328953
  F           7.32731354939186     -0.35335263185403     -3.00962425779606
  F           6.15345179416072     -6.06979094623208      1.22548756613277
  F           8.06441361125755     -6.90900218057781      0.72489607117236
  F           6.42476976740155     -7.10570905939321     -0.64023432013312
  O           5.59429239036952      2.06118104533204     -2.08804451384359
  O           4.62667277567120      0.84754499198003     -3.70323019508225
  C           6.03650340846782     -2.80720918339687     -0.04692175702335
  C           7.10830950289210     -1.68949146469865     -0.26130034573525
  C           6.24740123349033     -4.07744516512002     -0.94036297105458
  C           6.58939972152729     -0.30881287773868     -0.77360405468516
  C           7.44796209061689     -4.96467314029859     -0.46889976445698
  C           6.18728704865721     -0.28089998989777     -2.26164170561764
  N           2.32231434334974      1.63090019896791     -1.10864329630173
  C           2.68277041668277      0.18835364503087     -1.18395456394481
  C           0.99268759803283      1.73124507991532     -0.46096836366666
  C           3.27008533080327      2.35856693685595     -0.24876585756842
  C           2.21548219503872      2.27680879193022     -2.42386064155151
  C           1.69914726442427     -0.66882212010225     -1.93879283882158
  C           0.70092881115307     -1.35977722782720     -1.26001723957290
  C           1.80645991285427     -0.81333996837033     -3.31788712182661
  C          -0.19337858720697     -2.15809839480712     -1.95172373799648
  C           0.90956520600781     -1.61151143103287     -4.00779138195619
  C          -0.09589150365724     -2.27842157081042     -3.32795896391452
  H           2.79434672439355     -0.18304180904416     -0.16202213427684
  H           3.65547186954552      0.10390866288587     -1.65753227790332
  H           1.03983311439680      1.29902576700103      0.53565044802708
  H           0.25191868945168      1.19610868006259     -1.04929764537483
  H           0.70389211466674      2.77578857003999     -0.38203793925572
  H           3.42129540906122      1.82293398220536      0.68676316867403
  H           2.88207651014779      3.35209257192994     -0.04188420057246
  H           4.23764979800687      2.45732506944779     -0.73101463646709
  H           1.45604542607976      1.77444474257172     -3.01728988052455
  H           3.15898334497872      2.23015102428599     -2.95771345340069
  H           1.94602625192677      3.32026574058116     -2.28566427735606
  H           0.63669280489655     -1.28716401293483     -0.18482687312995
  H           2.60859083604008     -0.31857355034156     -3.84497570440481
  H          -0.96186879550336     -2.69054852818874     -1.41348724106444
  H           1.00513849139095     -1.71656862042984     -5.07729138870677
  H          -0.79223838596641     -2.90114891480643     -3.86750639487850
  Cl          5.04055502697625     -0.90050182618579      2.82302920777665
