53
Coordinates from ORCA-job R4N+PFOA-_0.15M E -133.638024947800
  C           4.71221497222004     -4.84636412555308     -2.53563116787276
  C           6.38332581382738      1.22629223030546      0.25346599799773
  F           5.76353381463824     -3.50855744862240     -0.34692484357485
  F           5.42007277528016     -1.42332829937089     -0.72745567882103
  F           7.84877889613766     -2.87883751664139      0.75131028202897
  F           8.56166181937059     -2.85268875204889     -1.23815139965328
  F           5.16384288604604     -2.05524156707982     -3.03050469033073
  F           7.29029193903443     -2.19183104132543     -3.16219934147795
  F           8.63648333640026     -0.56779838451506      1.07069911465496
  F           9.48244208397530     -0.74918825033773     -0.87897533781249
  F           6.35578715619316     -4.35400783888320     -4.16139756032090
  F           7.06177945418949     -4.90769667082110     -2.20494421786532
  F           6.91706849013708      0.10609672541230     -1.93606381610230
  F           8.39490998609204      1.40676037884693     -1.06944596145319
  F           3.81466421221395     -3.96550989759718     -2.11243465247017
  F           4.82477837631200     -5.79851455292680     -1.62235344765228
  F           4.21956950133333     -5.40176011884530     -3.63785495948023
  O           6.92255439944412      1.74963118260396      1.20865049357512
  O           5.25812723404606      1.25635016629125     -0.21008140284209
  C           6.27595987913067     -2.41383133952438     -0.95624239299572
  C           7.71723531968886     -2.19677680903693     -0.39226326019976
  C           6.22841958100777     -2.68727564502265     -2.50736387917839
  C           8.28413259635107     -0.74517947932149     -0.21167902345941
  C           6.11400312571556     -4.20651618375586     -2.84647484890595
  C           7.47233440876059      0.44892676161912     -0.73170000205932
  N           1.93548981586793      1.16732290393891     -2.05667757719518
  C           1.65291024304222      0.89254537462544     -0.61512356700188
  C           0.72772443125753      0.99408139442095     -2.87635862723011
  C           2.40992483407281      2.55579142245904     -2.16747118932335
  C           2.99238874990509      0.26768152762045     -2.54148310152118
  C           1.28277756770066     -0.53744458103957     -0.31806901145956
  C          -0.02405035511651     -0.99323684931837     -0.46093463998727
  C           2.25836804611666     -1.41705589328071      0.13913964801727
  C          -0.33922992210866     -2.31353431867311     -0.19113457105790
  C           1.94153458847613     -2.73702247088525      0.40951730167098
  C           0.64462291495942     -3.19087879258824      0.23366662782489
  H           0.84748087253237      1.55850222293483     -0.30075964726588
  H           2.56092251503768      1.13176300238702     -0.05583006399727
  H          -0.05833092481957      1.65478135414075     -2.51966724164946
  H           0.39045240408041     -0.03725265041090     -2.82082542658891
  H           0.95587227318575      1.23607121624400     -3.91122604321878
  H           1.66104711754358      3.24028008368594     -1.77702748808168
  H           2.61233662231859      2.79348426241963     -3.20866122519235
  H           3.33100784928506      2.67060645421207     -1.59723752721523
  H           2.67054617787895     -0.76850351618361     -2.47764647635922
  H           3.88609803367892      0.37998345898924     -1.92842316713140
  H           3.24149780564572      0.50594506040081     -3.57153412434769
  H          -0.80651969578691     -0.31486084179815     -0.76319124316948
  H           3.26799505944350     -1.07044649495841      0.31027357402529
  H          -1.35452396275337     -2.65961461179704     -0.30532031556337
  H           2.71925768830817     -3.39746867314500      0.76745261884740
  H           0.40403898506080     -4.22133866718452      0.44562346922979
  Cl          5.91898928754075     -1.21548280476567      2.03324148271282
