53
Coordinates from ORCA-job R4N+PFOA-_0.15M E -133.576527338880
  C           7.11584131316128     -6.28208487843108      0.77331950893788
  C           4.81999158389201      1.35527728694919     -2.75380120928959
  F           5.75763151165177     -2.25888117422415      0.91076182828226
  F           4.68985992479667     -2.34993420680438     -0.94410621129973
  F           8.06611533733170     -1.84738905584965     -0.14901365364943
  F           7.47282387986476     -2.37102906404121     -2.14606237909189
  F           4.84414429070292     -4.76870465733863     -0.22243956847906
  F           6.27519300617409     -4.52945265444611     -1.76619494745741
  F           5.78022911139662      0.03752999601539     -0.23721269600048
  F           7.69664037029166      0.42789269039693     -1.12482246876940
  F           8.29965563993264     -4.69107953392598     -0.47887748440376
  F           7.56497901468324     -4.02312785520820      1.39863504330763
  F           5.35883883013493     -1.20888396718293     -3.10384556901200
  F           6.94496248553542      0.22273070708479     -3.49220631480560
  F           5.91841906580585     -6.82300577345578      0.65269108820432
  F           7.56304213735797     -6.46721018685584      2.00334843712237
  F           7.91709855065909     -6.99764654432356     -0.03203106704238
  O           5.27182516876505      2.24944927579833     -2.09201415462285
  O           4.12541833818040      1.17833522704950     -3.71567253543404
  C           5.86716948169043     -2.66135050753908     -0.36307902403631
  C           7.02039120631987     -1.82769957290566     -1.00314809644933
  C           6.02859346948186     -4.20823736137385     -0.47112120771114
  C           6.59704707656855     -0.34300908255398     -1.24975210744638
  C           7.22562867345573     -4.77746321338785      0.35235952445834
  C           5.92836829147203     -0.05916801075436     -2.60961998137465
  N           2.67454532397030      1.63357691619242     -1.17372183512218
  C           2.88538417740816      0.15988694604724     -1.33283965553070
  C           1.29884665090773      1.65737842302539     -0.53260296030897
  C           3.51787910520843      2.20248511684559     -0.09474385758794
  C           2.47111210137154      2.58033093174424     -2.29755149242040
  C           1.77388453239168     -0.59416703261568     -2.02672398690814
  C           0.93248214911062     -1.41047513810625     -1.27649745590763
  C           1.60978805345580     -0.54912165362976     -3.40658122871808
  C          -0.07239884317529     -2.13885781311982     -1.88745817062075
  C           0.59828709300069     -1.27265999941441     -4.01564077523410
  C          -0.25011288433616     -2.06196421862680     -3.25857717915804
  H           2.99136279210485     -0.23356951852687     -0.31911657767644
  H           3.80808913159776     -0.07892355240065     -1.83650193433221
  H           1.24472548522539      0.94334676266742      0.28421241764521
  H           0.54629289468161      1.39630266809376     -1.27153488357514
  H           1.09316968040229      2.64776347813519     -0.13734098576552
  H           3.31608842409839      1.68156832898388      0.83759826671715
  H           3.27515718218468      3.25604855526255      0.01239129856628
  H           4.57793784701243      2.12387782672684     -0.29360092372326
  H           2.02959824073971      2.06316036916957     -3.14301555587733
  H           3.38929799686495      3.06193805223265     -2.61051953370752
  H           1.79456840384171      3.36329629606209     -1.96562552069255
  H           1.07512348241331     -1.49867510751487     -0.20963908435216
  H           2.29353029028768      0.02487229069694     -4.01085198280732
  H          -0.71116555943912     -2.77136527957416     -1.29082386937039
  H           0.48398954731468     -1.22625166651263     -5.08744670927341
  H          -1.03473404912382     -2.62800590427930     -3.73581691012862
  Cl          5.09196407107291     -4.68980186395666      2.58277278343262
