53
Coordinates from ORCA-job R4N+PFOA-_0.15M E -133.639630989830
  C           6.84011546845945     -5.90350869335518     -2.12604009123731
  C           5.65231844830760      0.52670743244337     -0.48493054475483
  F           7.16190745203061     -4.14592332328470      0.04063680477703
  F           5.67043454303701     -2.71699737866588      0.59266616603157
  F           8.55901903671883     -2.69370591284671     -1.30770444784841
  F           7.00584271953828     -1.48343981413953     -2.10479587016903
  F           4.55637726005390     -4.43501331249870     -0.90141014245064
  F           4.80400900485510     -2.73091973485050     -2.16985846965652
  F           7.44901295893540     -1.19750075814753      1.31148424511262
  F           9.18541084514096     -0.82310516869906      0.08280857403946
  F           5.20369535142230     -4.91116968019471     -3.49476700627738
  F           7.07864928353925     -3.87256337368131     -3.30190004495561
  F           7.87186793473861      0.90679215851695     -1.47064253918411
  F           7.67765095631976      1.37521788191075      0.63360704508411
  F           6.24067577654222     -6.42318280206549     -1.06290528241058
  F           8.12379124025267     -5.71782826132370     -1.86048515435369
  F           6.76040448527027     -6.80744043906788     -3.10053571071809
  O           5.15924748022405      1.63881246569628     -0.49420175318027
  O           5.15686217194967     -0.58900627837275     -0.60109603433167
  C           6.43770109658533     -3.10722774228911     -0.43087277510000
  C           7.44311482096849     -2.02502667571997     -0.94792142584471
  C           5.48774541418793     -3.68751864987548     -1.52801231319927
  C           7.83410230790120     -0.89658580096520      0.05599816493182
  C           6.16774546770589     -4.57832753039810     -2.61250687140386
  C           7.26808723215211      0.49108853421008     -0.31826644805415
  N           1.91197443180185      1.77033469557590     -2.03240559453753
  C           1.77012468472497      1.20869935993185     -0.65586447546440
  C           0.59054432190293      1.98832887160974     -2.64215660719210
  C           2.61643210400049      3.05909033639923     -1.93328962907856
  C           2.68932232074510      0.85594207745202     -2.88086075747409
  C           1.10504455420579     -0.14281804890747     -0.60245758895013
  C          -0.27739784929873     -0.25243575663339     -0.49043817951580
  C           1.87521710345102     -1.30129028472556     -0.62948566022237
  C          -0.88037723261283     -1.49686140756591     -0.43339726079955
  C           1.27063617116384     -2.54546804470508     -0.56898115296521
  C          -0.10824331219532     -2.64562535274446     -0.47822819265370
  H           1.19544109784711      1.92352281654434     -0.06481024966362
  H           2.77402816874582      1.12848529212024     -0.23338235129405
  H           0.00889706519759      2.67126980153698     -2.02838390082206
  H           0.06219593058958      1.04252033195295     -2.72932900089599
  H           0.71440058796843      2.41841539182569     -3.63271950999605
  H           2.04878668231259      3.74731224839651     -1.31251993055235
  H           2.74201006793760      3.48697792333552     -2.92438634762570
  H           3.59822480315009      2.91022166111025     -1.48604607747979
  H           2.16802350422737     -0.09162871008133     -2.99115119101087
  H           3.65909042051917      0.65740412045729     -2.42866559390703
  H           2.84413210104111      1.30170771826611     -3.85973595277285
  H          -0.88881750729662      0.63454842516967     -0.43052717061197
  H           2.95240610413235     -1.23496152211311     -0.68058629693451
  H          -1.95302692973378     -1.57256579367700     -0.34657400652601
  H           1.88414891812224     -3.43507034372539     -0.58401160404082
  H          -0.57426505700340     -3.61782990240840     -0.43015843464125
  Cl         10.25985906741628     -4.04300095043310      1.75050109428168
