53
Coordinates from ORCA-job R4N+PFOA-_0.15M E -133.632344251110
  C           3.58914912377108     -4.26203161437773     -2.23121061792076
  C           7.17810163927196     -0.39242631226776      1.58637480151729
  F           6.06766059724233     -4.25566893605809     -0.38107996144487
  F           5.71289695829225     -2.29197955124266      0.37975827073021
  F           8.35035548387249     -3.37238973404737      0.37113543779847
  F           8.28699857284714     -3.31700203396143     -1.79922617310307
  F           4.50152943694748     -1.74621551640796     -1.66399393020204
  F           6.32765618021065     -1.84439802520676     -2.77453834133310
  F           9.58464847841561     -1.27042926848044     -0.08720517397205
  F           8.61244667004888     -0.90811816350744     -1.96693577976522
  F           4.73849910726919     -3.31455227639350     -4.02958604034498
  F           5.83088865268136     -4.76893833648778     -2.87565998734903
  F           6.35950520180262     -0.03028337019191     -0.74353175897644
  F           8.16080571648889      1.01620008407474     -0.18800126483514
  F           2.63317973910719     -3.40628024629962     -2.58495338921331
  F           3.55343667159946     -4.36972952359873     -0.91100024581337
  F           3.28440522771126     -5.43835378155235     -2.75766321503097
  O           7.83937286864739     -1.28593870109546      2.09178020351280
  O           6.32772784964983      0.37064493468635      2.00154277061629
  C           6.28568575743207     -2.95248011725153     -0.64085429346253
  C           7.82598678579118     -2.72106677964130     -0.67414261645213
  C           5.53682253675061     -2.55708200519586     -1.95733924097436
  C           8.37127664677990     -1.25577013006766     -0.67271402351562
  C           4.96444017268028     -3.75820423335425     -2.77434365823075
  C           7.50706444292241     -0.17071182551767     -0.01378944585604
  N           1.41028345103921      1.27140777194945     -2.64715187586116
  C           0.86107969418188      1.14598823579606     -1.26358252649789
  C           1.22262041615557      0.01596026086829     -3.39062385107953
  C           0.68351889610421      2.35152681057192     -3.33550938318019
  C           2.84271151482022      1.60265790846833     -2.60795301288213
  C           1.50841359713823      0.06485090624293     -0.43601192510352
  C           0.98763973607609     -1.22441416209411     -0.42724218190559
  C           2.61954264727583      0.34800296751143      0.35067553830659
  C           1.57891832925440     -2.21353412799019      0.33799869759607
  C           3.21291328155600     -0.64103687891831      1.11483747136994
  C           2.69675048928639     -1.92647067533527      1.10382014643125
  H          -0.20631386175324      0.93781284508717     -1.34792990857995
  H           1.00017826070940      2.10386656168891     -0.76104611183003
  H           0.16730982287400     -0.24103243380075     -3.42675062780754
  H           1.76953935881759     -0.79286742859188     -2.91098532315265
  H           1.59500578012721      0.13080110587360     -4.40525813484705
  H          -0.37643631734038      2.11610213110709     -3.38582043814084
  H           1.06732298307516      2.46716332489389     -4.34590885439199
  H           0.81346141508578      3.28991417571148     -2.80250247809105
  H           3.40513915262903      0.81680322464517     -2.10668989901015
  H           2.99891456839269      2.53532193066733     -2.07175426265692
  H           3.22513782124348      1.70912705094642     -3.61986938256739
  H           0.11150800956303     -1.46545215317540     -1.00839178322758
  H           3.03735306480227      1.34217499929852      0.38726316323041
  H           1.17341263851135     -3.21400554934145      0.34248418334406
  H           4.08598115322116     -0.41258488031802      1.70874026247687
  H           3.17196573631434     -2.69912527120776      1.69139659481715
  Cl          8.76018892250522     -6.49790109081061     -0.80075997163862
