53
Coordinates from ORCA-job R4N+PFOA-_0.15M E -133.630381100240
  C           4.09856760541738     -3.26436716777825     -2.31652233129220
  C           9.77053995556571     -0.53539801839196      0.81354864966947
  F           5.23510043006159     -1.58785795943385     -0.30004607065042
  F           6.83230008750368     -0.17221109102039     -0.69962205172257
  F           7.42851630624357     -2.25418415761713      1.06040205036173
  F           6.87997986839639     -3.68251580894051     -0.44324008116075
  F           5.25609438763203     -0.54476448888975     -2.71764279636861
  F           7.21093966425412     -1.30914456323516     -3.17753501756645
  F           9.49866316824094     -3.48121134120782     -0.11121714148853
  F           8.82030573134754     -2.95291492422760     -2.07718631244501
  F           5.20272828261857     -2.63881122104009     -4.27785189862282
  F           6.30124271399696     -3.89250063995396     -2.91397684154018
  F           9.20878558839570     -0.32638899846371     -1.62347362968053
  F          10.94882656509706     -1.50362933995928     -1.12471978040142
  F           3.28583238587668     -2.22330243053351     -2.18786844729746
  F           4.25196173311824     -3.84541301168237     -1.13948442129602
  F           3.48283945958730     -4.13193443566094     -3.11511650921876
  O          10.05112071552005     -1.36051103488624      1.66768664167885
  O           9.57607471634327      0.66469321110562      0.81622386237292
  C           6.42978493989151     -1.43217320409628     -0.90883672873269
  C           7.41696925098417     -2.44493035447312     -0.26403290758078
  C           6.11909442239943     -1.54521039678588     -2.43608988592501
  C           8.87218630810181     -2.50029310108333     -0.78944570983416
  C           5.45720486526228     -2.85400639519577     -2.96900881455091
  C           9.68327384821682     -1.20412975317781     -0.69575855922481
  N           0.74640157854125      0.90417288277523     -2.37637350793969
  C           0.20573275604572      0.56070218758825     -1.02640614971128
  C           0.58495280638019     -0.23046214990299     -3.29782414114617
  C          -0.01015247364751      2.05566852634125     -2.89681700854823
  C           2.16959464678374      1.26272195942431     -2.28936338747310
  C           0.89219684179108     -0.60366385854358     -0.35841265544332
  C           0.42461816808781     -1.90083179020630     -0.54139787044925
  C           1.98489466860580     -0.39428974536736      0.47562270780237
  C           1.05172331073910     -2.96606893171586      0.07978336991715
  C           2.61066922881415     -1.45813801934068      1.10175077527283
  C           2.14861410201508     -2.74797395935383      0.89793867662051
  H          -0.85438225889962      0.33103506020132     -1.14325709023488
  H           0.31375538536483      1.43959382806667     -0.38969899600997
  H          -0.46539410704853     -0.49946787381431     -3.37349120162315
  H           1.15130626245130     -1.08411591440979     -2.93575367472029
  H           0.95600471701011      0.04193475054420     -4.28238490764464
  H          -1.06465285050788      1.80439894939227     -2.97743960321167
  H           0.36599908534273      2.32790419721015     -3.87967087543450
  H           0.10109158405743      2.90897134970398     -2.23252788212964
  H           2.75298231600948      0.42956551109765     -1.90346046121755
  H           2.30733302432394      2.11117789613747     -1.62363499384155
  H           2.54970035611492      1.52192382294868     -3.27401313598576
  H          -0.43915798130081     -2.08773497358938     -1.16018767628850
  H           2.37112561193041      0.59672945540860      0.66190920569159
  H           0.68790790157806     -3.97137655912733     -0.06895944785149
  H           3.46808359742521     -1.26957168756971      1.73238017955332
  H           2.64937390514351     -3.57534010611105      1.37938694079643
  Cl          5.87534589667542      0.13349791514118      2.27141399526752
