53
Coordinates from ORCA-job R4N+PFOA-_0.15M E -133.637885881600
  C           6.55945252160029     -6.44947806670314     -2.03007884538490
  C           6.08206341354847      1.16529409321931     -0.30656734933863
  F           7.57263916506170     -4.64913630776358     -0.18904212390657
  F           6.03003264734612     -3.20020970855384      0.26451755118183
  F           9.17308982439904     -2.81577497156856      0.05216950613646
  F           8.56665340666590     -2.25666164721836     -1.90998356175311
  F           5.00916277963165     -4.02321828900436     -1.79540792599529
  F           6.39970124662291     -2.80350769326449     -2.86327525127241
  F           7.24143508745030     -1.06265912688536      1.14622769212139
  F           8.82166863449426     -0.24744308723267     -0.09363538075681
  F           6.53433893948968     -5.08138689117322     -3.95585693378416
  F           8.28255157555512     -4.95894512574005     -2.70847046718413
  F           5.58581585334900     -1.08918294721465     -1.20395621644151
  F           7.16773175133366     -0.00642627458826     -2.21079535722088
  F           5.72538382096980     -6.33166549513081     -1.00407797796683
  F           7.64213472885397     -7.09247330447275     -1.62250185457084
  F           5.95510682490080     -7.21215717586200     -2.93579203988045
  O           6.91553778117947      1.76763388537190      0.33984611889482
  O           4.91899732634117      1.38119133618783     -0.59545972143990
  C           7.00359529076355     -3.49878248204807     -0.60496929824702
  C           8.10602024743243     -2.39240665035852     -0.64153191236129
  C           6.32284692814656     -3.81681663138975     -1.98720199583446
  C           7.68612490279171     -0.98072327342152     -0.12225083502559
  C           6.94473812513552     -5.07122651035623     -2.67509106036351
  C           6.63878469988773     -0.25007492354989     -0.97510803253696
  N           1.42901186701003      2.16361118474296     -1.88008552762748
  C           1.47241294448286      1.49341306356227     -0.54524913484726
  C           0.06584766896602      2.15222229552219     -2.42982497553874
  C           1.87497045826973      3.55477992751243     -1.70356757790019
  C           2.34242685912879      1.48614735023958     -2.81253242431689
  C           1.12680364144269      0.02687494559814     -0.57456043737891
  C          -0.18995006511487     -0.40606527736189     -0.45899568922817
  C           2.14206865455386     -0.91838667343181     -0.67909176837408
  C          -0.48626233078515     -1.75804941600017     -0.47379356694253
  C           1.84624809823983     -2.27052164368960     -0.68999640849152
  C           0.52950574345021     -2.69181190364981     -0.59486180375495
  H           0.78172993649065      2.01938864698121      0.11548915672332
  H           2.49002007021410      1.59731515075854     -0.16126504254289
  H          -0.61120194261981      2.66431744954805     -1.75088585540092
  H          -0.26873602165274      1.12731307947355     -2.56709401344320
  H           0.05733267466990      2.65948941122375     -3.39126255755980
  H           1.22947339239839      4.06886422662838     -0.99584117727201
  H           1.84818485285612      4.07464340126122     -2.65797030704447
  H           2.89541382970017      3.56600555971753     -1.32453775657062
  H           2.01084990418845      0.46622210153216     -2.98983478232863
  H           3.34428301456534      1.44988425384396     -2.38612396424581
  H           2.37481725323329      2.02543079618651     -3.75552108648465
  H          -0.98914438806688      0.30846692378253     -0.33731454410216
  H           3.17313596462316     -0.60145262218193     -0.73305115762231
  H          -1.50967958965672     -2.08697478302140     -0.38267458930009
  H           2.65073716925798     -2.98909063241782     -0.76307504248194
  H           0.30348831633703     -3.74716007384240     -0.60098922911094
  Cl          8.03520558076616     -3.84078737749718      2.79110098761855
