53
Coordinates from ORCA-job R4N+PFOA-_0.15M E -133.638883888440
  C           4.49943053259119     -4.57733057034380     -2.55892081978771
  C           6.63160453862320      1.50315227014449     -0.19315921007225
  F           5.47122573545528     -3.22071655460198     -0.35268857092337
  F           5.41644121545825     -1.17472331883581     -0.98486251727558
  F           7.37914615305192     -2.58748480523666      1.03495497418376
  F           8.38733681682514     -3.02028208668078     -0.77146884293385
  F           5.51020751186033     -1.97319826121757     -3.24557413637960
  F           7.57542623404116     -2.46187818270720     -2.97037621276473
  F           8.52577298885787     -0.41828480318851      1.11630593436138
  F           9.52608430446349     -0.99117995314739     -0.68091862064232
  F           6.41258913815893     -4.53743930763212     -3.94710773060120
  F           6.73630739414518     -4.97360067095280     -1.86424501781081
  F           7.23618221461591      0.01663716885811     -2.13834697411219
  F           8.77864026077094      1.23820574852513     -1.26718490748835
  F           3.71854923226835     -3.51748521549214     -2.39113132085682
  F           4.30869476548876     -5.39881756184870     -1.53831917193832
  F           4.08199767236782     -5.19696833949514     -3.65741587387706
  O           7.15683269371747      2.12068328027708      0.71309824313374
  O           5.55745877477334      1.56917978572158     -0.75893373471892
  C           6.18672579013260     -2.25619363873795     -0.97979901650267
  C           7.53618478981623     -2.11673778400528     -0.20784748299785
  C           6.34686480476785     -2.69773983130683     -2.48325804175752
  C           8.28152039039828     -0.73796414939248     -0.16495115396987
  C           6.02061731259903     -4.20837661789833     -2.70343971276108
  C           7.70033851409403      0.46034217512345     -0.92818611314611
  N           1.94309875482834      1.11151292934654     -1.92174763716255
  C           1.73781029788946      0.70066108534489     -0.50001721840946
  C           0.68949683695108      1.02443236717308     -2.68563082105479
  C           2.42367240937240      2.50288010681963     -1.92904825027485
  C           2.96163061395714      0.26215852575019     -2.55500377453310
  C           1.34298482341466     -0.74241672125554     -0.31508495131662
  C           0.02639761627002     -1.16402877569062     -0.47554926588410
  C           2.30608195940165     -1.67102169319896      0.06484467722104
  C          -0.30834386008832     -2.49669967069676     -0.31011220990904
  C           1.96874326456078     -3.00291973466951      0.23550568437421
  C           0.66410041942885     -3.42133929042873      0.03196573368447
  H           0.97255361860104      1.35193524274379     -0.07357794346568
  H           2.68095577667102      0.86598400914233      0.02763994844612
  H          -0.07676467575244      1.62904996495501     -2.20729151182876
  H           0.36168373629035     -0.00995833893382     -2.73754666014116
  H           0.85645605934731      1.39357062130077     -3.69434918714414
  H           1.70998827317630      3.14969220557856     -1.42531695779315
  H           2.56008470816041      2.83778551445594     -2.95396932359426
  H           3.38452749542616      2.56051997907793     -1.41752522237799
  H           2.67047670570405     -0.78412356354582     -2.50517911908994
  H           3.91125148972117      0.37896550502018     -2.03537134484319
  H           3.09522877011977      0.55479857103280     -3.59243699751043
  H          -0.74913158562682     -0.45134383349499     -0.70762918155290
  H           3.31728698256828     -1.34609821833477      0.26424360015483
  H          -1.33082681641379     -2.81495689501438     -0.44000726970917
  H           2.73484106449015     -3.70411311777937      0.53559305407066
  H           0.40809498402506     -4.46162338475179      0.16166726991793
  Cl          5.61004157806289     -0.47725006957503      1.72300736286523
