53
Coordinates from ORCA-job R4N+PFOA-_0.15M E -133.630564313110
  C           3.77639523984563     -3.40985870382436     -2.37942859462143
  C           8.67078174755888      0.38774458932185      0.59894343187111
  F           5.50906600878505     -2.92768333590886     -0.25926876112623
  F           6.20765909645209     -0.90353057454167     -0.55329297934957
  F           7.79238680120512     -2.87019212716385      0.91531430533949
  F           7.96348246745017     -3.94279822072601     -0.93230195095407
  F           5.59762651947530     -1.19803948895824     -2.89043440191359
  F           7.33248149026098     -2.44137840598285     -3.11276408825379
  F          10.07227237453163     -2.28790823857415      0.11601466278111
  F           9.57955523734198     -2.38786343579830     -1.96286179202315
  F           5.31518381992832     -3.64138759247396     -4.15326251846599
  F           5.78088008874511     -4.67099545959989     -2.32096183224210
  F           8.18012601833485     -0.05709045953656     -1.84295598247845
  F          10.25150493847730      0.06927977833516     -1.24743776594890
  F           3.45428839614595     -2.19492124503986     -1.95317408364800
  F           3.48263920394973     -4.28972258040095     -1.43967430009246
  F           2.98652349797607     -3.65772169686990     -3.42082155996019
  O           9.22103976395745     -0.13181840096706      1.55475278151268
  O           7.97116236400936      1.36804266953717      0.43929239957222
  C           6.44129970485532     -2.17295781755934     -0.88686593836232
  C           7.83104717776970     -2.69202579290922     -0.41046301497442
  C           6.18477133325744     -2.31463529517792     -2.42802347266574
  C           9.12786668212229     -1.90958370014018     -0.76730406305334
  C           5.27959052855861     -3.52907419798907     -2.81216502576738
  C           9.03016881367885     -0.38426231134359     -0.82345539828305
  N           1.10016841814515      1.11019987037972     -2.25661647139124
  C           0.51512846244945      0.77160299999364     -0.92396171882016
  C           0.79090816934087      0.05840010189441     -3.23681656847325
  C           0.50616027008996      2.37887554139178     -2.71180258397324
  C           2.55889841557101      1.27129074288873     -2.15812997172285
  C           0.98570929104942     -0.54166931575811     -0.35236551763272
  C           0.27510113477383     -1.71181406841107     -0.60125980046738
  C           2.11640189232566     -0.60048295106839      0.45466513220261
  C           0.69653720715807     -2.91611955024518     -0.06714730568073
  C           2.54077191816697     -1.80523381595040      0.98925503979676
  C           1.83171935016016     -2.96584463238351      0.72607983482562
  H          -0.56958150010193      0.74108376461914     -1.03784153098129
  H           0.78085207691576      1.56977470011667     -0.22983378015560
  H          -0.28552341641518     -0.06893421709861     -3.31658418505379
  H           1.24125612542757     -0.88110242179495     -2.92724661616082
  H           1.19218317364631      0.33413328088398     -4.20854203403625
  H          -0.57088195585498      2.27193435186305     -2.81253782163245
  H           0.92764814004119      2.65687494163471     -3.67441839819542
  H           0.71937405829194      3.16968242517427     -1.99701673120625
  H           3.02748729076406      0.35259361720403     -1.81181343486850
  H           2.80889842710206      2.06186665518591     -1.45475830753279
  H           2.97332899895560      1.52344746604758     -3.13071788270093
  H          -0.61934014515798     -1.68777623461487     -1.20422501012950
  H           2.69044024808361      0.28389705601482      0.69035466193826
  H           0.14335485717171     -3.82125004816816     -0.26542577554852
  H           3.43313839457006     -1.82643853682464      1.59895954065687
  H           2.17370635279367     -3.90259893355781      1.14057570729300
  Cl          5.83095610976224     -1.01815864882513      2.39006792425804
