53
Coordinates from ORCA-job R4N+PFOA-_0.15M E -133.631341238760
  C           3.71407916678625     -3.61066002210753     -2.46177779735084
  C           8.41999664271703      0.18372521801588      1.02224792121217
  F           5.60022549335136     -3.30872071995038     -0.22965194806370
  F           6.05432645975183     -1.19638314069763     -0.18430950455840
  F           7.98148044024796     -3.24034903204722      0.72032324493127
  F           8.08570325897586     -3.84451078926992     -1.33084029981640
  F           5.23617519705653     -1.13290019340495     -2.46414277624499
  F           7.07862030622915     -2.05195144109927     -3.05641421666930
  F          10.06974187725436     -2.16196498024710     -0.05153461947090
  F           9.42382285831014     -1.93437362961886     -2.07877498449724
  F           5.25151655834957     -3.33138315433627     -4.20902917391273
  F           5.85035297880274     -4.60474588475259     -2.57598910554145
  F           7.76783813662082      0.12232663918518     -1.42201891208406
  F           9.85373663375185      0.40305911201896     -0.94918980435648
  F           3.11779144885791     -2.44715823019095     -2.23874820844748
  F           3.55986418918511     -4.38308342125471     -1.40219551351344
  F           3.05742740175551     -4.18233244884092     -3.46943611243953
  O           9.15186382397592     -0.37764921052487      1.81910399652256
  O           7.56496537945576      1.04363366462322      1.09735384701205
  C           6.38149986908969     -2.34841914615535     -0.77093757789174
  C           7.86163001045268     -2.76878446516761     -0.52542425425683
  C           5.99218214749477     -2.22831512559845     -2.28551635349379
  C           9.01631007695263     -1.75731244028224     -0.78754875320999
  C           5.21985930876344     -3.45803961197099     -2.86710815589482
  C           8.73424000620614     -0.27423918234995     -0.54042236094346
  N           1.10849511897329      1.10237314918555     -2.39657951565039
  C           0.71470794480899      0.88751751815419     -0.97199868672736
  C           0.61407941789932      0.00364491158432     -3.23968266074079
  C           0.50838339825426      2.36682853151062     -2.85500127892766
  C           2.57084837920142      1.19106472456365     -2.52138608270325
  C           1.21528995085942     -0.40208519647562     -0.37196008722445
  C           0.43853622111241     -1.55416840850280     -0.43709376439688
  C           2.43810233514873     -0.44988863874930      0.28951610958833
  C           0.88270130367918     -2.73425199194458      0.13180479817989
  C           2.88013219084996     -1.62854809421333      0.86635148542986
  C           2.10473855244412     -2.77400719040836      0.78285787175657
  H          -0.37524859900480      0.89931212689631     -0.92435983261437
  H           1.10719063376545      1.71984314937870     -0.38664476296928
  H          -0.46660816370294     -0.07253186890066     -3.15319174808729
  H           1.06685391028263     -0.93396994161941     -2.92814377856031
  H           0.87685828505232      0.19274966646457     -4.27720439283835
  H          -0.57524350598899      2.31184187215372     -2.78948147016850
  H           0.79235204631775      2.55470674252292     -3.88726715838085
  H           0.85891344453978      3.19248911302820     -2.24087707180308
  H           3.04201805598713      0.27213110424299     -2.18051998833882
  H           2.95514265822616      2.01138863949880     -1.92024002671721
  H           2.84557571685713      1.35716034224741     -3.55956269676615
  H          -0.52603161418910     -1.53449223575619     -0.91982617982538
  H           3.06343400179496      0.42640885818880      0.38180211384033
  H           0.27772000670061     -3.62616610646415      0.07782999967923
  H           3.82615838994077     -1.65457344820361      1.38924499727047
  H           2.46780795440735     -3.68657193919676      1.23256406902237
  Cl          6.09644337528700     -1.92982165686153      2.68932761315275
