53
Coordinates from ORCA-job R4N+PFOA-_0.15M E -133.634566857700
  C           3.68628817803986     -3.87614652918754     -2.48976108822233
  C           7.74322793458463     -0.76166776871589      1.64631936718925
  F           6.19882706021837     -4.21782801028707     -0.75283519391869
  F           6.00682578660055     -2.29715130103766      0.24645120507054
  F           8.54163472204951     -3.63450798270712      0.01926169315646
  F           8.40882067283270     -3.34160041148039     -2.10322784650732
  F           4.76748172906928     -1.47725556852432     -1.70431880597422
  F           6.56863842944681     -1.58935170477085     -2.85600116454673
  F           9.96893523760574     -1.61720278349603     -0.29704163861467
  F           8.92230981317977     -0.93697032733318     -2.03748622465264
  F           4.86831166479057     -2.83153725959280     -4.21335025894562
  F           5.88930999970470     -4.44216905167773     -3.22250391893337
  F           6.84852398964482     -0.02179176430877     -0.58023621150901
  F           8.76273469200178      0.77574424652437      0.01295384298752
  F           2.77289891885097     -2.95196410833710     -2.77953823573423
  F           3.64335594103269     -4.08805149016894     -1.18651851019338
  F           3.32858294998494     -4.99105470677149     -3.11430976949275
  O           8.47576037937866     -1.65978558876914      2.02939674783183
  O           6.88467775440185     -0.07666699123502      2.16892035117478
  C           6.48633115793979     -2.90248630881299     -0.84254688708232
  C           8.04002132034698     -2.80777151989539     -0.90850577657777
  C           5.73904590207979     -2.32095355422950     -2.09128517416031
  C           8.72691647106166     -1.41616334491578     -0.77713163237751
  C           5.08044668798175     -3.39869114243382     -3.00778235115839
  C           8.00311668937020     -0.36023681897756      0.06728905852046
  N           1.08328191888658      1.04631302053767     -2.63931642833218
  C           0.80325872809753      1.09107934604576     -1.17244571459307
  C           0.65006810800800     -0.23672280707255     -3.21148718217333
  C           0.32846148107084      2.13475327679324     -3.28435631133692
  C           2.51793684681686      1.23713906354715     -2.89840097751789
  C           1.56464124927207      0.06822066277757     -0.36840896795020
  C           1.04671966589195     -1.20727420841528     -0.17262311706493
  C           2.78988914542175      0.39413155867822      0.20385110688153
  C           1.75511618520027     -2.14556713410633      0.55649089565370
  C           3.49468004681595     -0.54120878587406      0.94091417121240
  C           2.98257182104796     -1.81801751004032      1.10917595801275
  H          -0.26652386643844      0.93174597609107     -1.03224402659202
  H           1.06779116106189      2.08535537013690     -0.81136868038069
  H          -0.41146248210587     -0.38429054609552     -3.03131694576127
  H           1.20620029328471     -1.05502655923272     -2.76246851603482
  H           0.83326553296567     -0.24105331243532     -4.28275300244921
  H          -0.73609923622774      2.00795435644986     -3.10550781995020
  H           0.51071042576147      2.12316662745434     -4.35584694855235
  H           0.64168241456904      3.09644443928401     -2.88628182455430
  H           3.09920669674429      0.45017652171832     -2.42210909996815
  H           2.84686102974219      2.19423894211453     -2.50172789742377
  H           2.70534753344947      1.21283922104618     -3.96872276328143
  H           0.08295432533462     -1.47709691001896     -0.57552109346753
  H           3.20912721205352      1.38204018130365      0.09031383457952
  H           1.36479455110242     -3.14161940003678      0.70340623067198
  H           4.45129141358279     -0.29339950807708      1.38136910148448
  H           3.54805515104657     -2.55398372446204      1.66300043979544
  Cl          5.32174964524460     -4.49922427066988      2.24647045326287
