53
Coordinates from ORCA-job R4N+PFOA-_0.15M E -133.630248294970
  C           4.15111980797624     -3.73499573420544     -2.80524465609714
  C           9.24224176035553     -1.29717654757942      1.37028181242481
  F           5.15926636032458     -3.21408234998329     -0.15246478340813
  F           6.11225862709990     -1.34684266526570      0.38811621569866
  F           7.70121155954406     -3.62753067320962      0.52593207719895
  F           7.27990127148924     -4.04763590371816     -1.54036872301915
  F           4.35296689870647     -1.02684520887184     -1.50941624181497
  F           6.31143815858518     -0.68011639011234     -2.29612568657450
  F           9.73128282691928     -3.10301815973844     -1.09162896506931
  F           8.52807871577371     -1.90504809000079     -2.40297785072115
  F           4.54843679930922     -1.74926971101590     -3.95791286713548
  F           6.24981979924445     -3.03816892615121     -3.65728278564110
  F           8.13402653811060     -0.03373041446008     -0.49055533380313
  F          10.22255692255506     -0.50862076301757     -0.75713965393682
  F           3.09300915040438     -3.31786944396622     -2.12052036808379
  F           4.70425790003492     -4.75938919687659     -2.17927580122335
  F           3.70242769487762     -4.17077553416528     -3.97963422371409
  O          10.04022418053640     -2.19354936822555      1.58726573734089
  O           8.58118364038001     -0.54830093367763      2.06356390867390
  C           6.07716856481718     -2.30388728573439     -0.54775443525990
  C           7.44640093312665     -3.03520392798675     -0.64608862716202
  C           5.50161122956788     -1.65027103377082     -1.84392650906885
  C           8.69895122420154     -2.23798464177400     -1.08924554162042
  C           5.15037615858107     -2.56275221056206     -3.06162569467731
  C           9.05497416757003     -1.00867356312721     -0.24854891914867
  N           0.70924963107620      0.79525058944106     -2.69085535072990
  C           0.31273208191864      0.71602856397662     -1.25108535182430
  C           0.86330259955373     -0.55448778222529     -3.25379960187777
  C          -0.34852016909957      1.50852140550439     -3.42520121497962
  C           1.97650629728328      1.52735402243799     -2.83375002374748
  C           1.30811604730068      0.01408851568740     -0.35913182862192
  C           1.22255573688192     -1.35743247358464     -0.14522451811812
  C           2.30419603157073      0.73324162586864      0.29351626847965
  C           2.12029990006198     -1.99701703699159      0.69165728994290
  C           3.20194043604904      0.09381053004921      1.13083446872815
  C           3.11332032449849     -1.27440192583944      1.33273075650003
  H          -0.63946935396319      0.18701417550563     -1.19751311036432
  H           0.17501388194027      1.73502071133167     -0.88772904993290
  H          -0.07363639919609     -1.09999933422706     -3.17755550008713
  H           1.63349477326365     -1.09877169966683     -2.71213258443985
  H           1.15262604002269     -0.48777458246668     -4.29955766466732
  H          -1.29273810957958      0.97827633165984     -3.33195850771052
  H          -0.08404291017669      1.57406818145186     -4.47751626810199
  H          -0.46739790022634      2.51402343443079     -3.02979014179998
  H           2.77027698741684      1.01294520250620     -2.29647798493694
  H           1.87521451584747      2.53261872876580     -2.43284035775899
  H           2.25069682597803      1.59007916928513     -3.88380857305540
  H           0.44812814290790     -1.94102411077960     -0.61747118883010
  H           2.38439633719243      1.80179108253915      0.16656488470441
  H           2.05953226948950     -3.06295007029687      0.85239115170188
  H           3.98426145062843      0.64795710021108      1.62959807206575
  H           3.82071040723890     -1.77463529845784      1.98286163339706
  Cl          6.29864431392927     -3.59400428262027      3.30411866340669
