53
Coordinates from ORCA-job R4N+PFOA-_0.15M E -133.629327343970
  C           4.00891252720938     -3.69279168681901     -2.25165781219110
  C           8.93591522837404      0.32548047353232      0.48147608675008
  F           5.00411822521795     -1.81729966516112     -0.44008905488709
  F           6.35162241836734     -0.22648119218159     -0.99350098776038
  F           7.17206583913709     -2.18804848573980      0.96798560391165
  F           7.05098352934118     -3.65879449753075     -0.57915627782130
  F           5.04111798365222     -0.94390568348388     -3.02595340908418
  F           7.03498303258608     -1.69984422168618     -3.30544942606433
  F           9.54853466961207     -2.72022041777794      0.10662095055844
  F           8.96435225201735     -2.70772158753913     -1.95877325361712
  F           5.01042129304015     -3.15946729502427     -4.29422410882700
  F           6.22856331551119     -4.23237473263945     -2.88196808524730
  F           8.66549661274713     -0.05440696714484     -1.99152895161161
  F          10.55228114440510     -0.61915703171819     -1.10913048956650
  F           3.14872297531661     -2.68556941065598     -2.16623726726630
  F           4.24266627718981     -4.17702573925449     -1.04299501162450
  F           3.41578686171942     -4.64908175655954     -2.95927904501240
  O           9.23514698418874     -0.26590002931103      1.50606845442928
  O           8.54548378061931      1.44524407439907      0.21837526927927
  C           6.16568095794583     -1.55014264208831     -1.07146303113959
  C           7.29523561017609     -2.33707373051879     -0.35378687147086
  C           5.91743818268322     -1.86932534532784     -2.58384043249264
  C           8.76288382934049     -2.06505371225016     -0.77033192908774
  C           5.31771056391703     -3.25644859681260     -2.98234688688341
  C           9.20412932161332     -0.60065785933482     -0.86477769828511
  N           1.28515795466872      1.00129824426726     -2.16418712944521
  C           0.62363606227088      0.64656431423413     -0.87126069424009
  C           0.97336279544493     -0.00054218544973     -3.19472949725473
  C           0.77895444210241      2.31308720943302     -2.60056044788911
  C           2.74141222206610      1.07961549924858     -1.98469495251229
  C           1.01096715049256     -0.70343168119023     -0.32152414406218
  C           0.26986431611257     -1.83414524876813     -0.65205437812962
  C           2.08862392809485     -0.83622190368900      0.54739233223982
  C           0.61154937391803     -3.07367709065570     -0.14294030357131
  C           2.42774279079986     -2.07695102386002      1.05957072156847
  C           1.69549843009159     -3.19910803482022      0.71109605861062
  H          -0.45483324022613      0.66881875472085     -1.03555908849235
  H           0.89259898187552      1.40934467240685     -0.13936254272135
  H          -0.10302526777977     -0.06806343102978     -3.32909741712448
  H           1.36354180635294     -0.97062367124801     -2.89824303218912
  H           1.43558234232397      0.28798289727879     -4.13505711748035
  H          -0.29543370495121      2.26442181147930     -2.75883142637868
  H           1.26425134594573      2.60180410619926     -3.52939364084877
  H           0.99431824457496      3.06699459676016     -1.84743990387015
  H           3.12968704464394      0.13095893615397     -1.62247687190039
  H           3.00163584518733      1.84344966331362     -1.25534814914482
  H           3.22787104661808      1.31365040218718     -2.92789832864917
  H          -0.58710678682121     -1.75068020320330     -1.30184794645805
  H           2.69040959443426      0.00938601294108      0.84969401296608
  H           0.03347347489868     -3.94563904961174     -0.40716036456305
  H           3.27911321521347     -2.14683452481173      1.72209009480488
  H           1.97270172681139     -4.16377471017485      1.10976486308047
  Cl          5.68279252880692      0.15623547281666      2.10431941016658
