53
Coordinates from ORCA-job R4N+PFOA-_0.15M E -133.627086207570
  C           7.16976881549106     -6.22249679491045     -0.57314153786097
  C           5.23573599968087      1.10528204557612     -2.78077899363370
  F           5.86633137669144     -2.46374763026429      1.50591486454590
  F           4.70776164391728     -2.00500753086272     -0.22595797945948
  F           7.97817527564929     -1.48454994582002      0.60968144361853
  F           7.71748185456827     -2.30101755190438     -1.36909987618123
  F           4.70396859847232     -4.53302142592141      0.08370220009821
  F           5.88635609914739     -4.05814138406055     -1.64394102562295
  F           5.71442516999604      0.26050193714595     -0.03294189059909
  F           7.70614412817363      0.57844700084996     -0.78392346165746
  F           8.19579353828271     -4.29000387534339      0.26501073820587
  F           6.68861453955167     -5.27064238913247      1.52120183066806
  F           5.44923571157650     -1.38569362343065     -2.58773568368064
  F           7.23480694456776     -0.28235050788944     -3.14395123721674
  F           5.99161840109162     -6.78029567149857     -0.83499311904439
  F           7.90041493517134     -7.11625086980375      0.07838205453896
  F           7.76799810147038     -5.97404024907712     -1.73258445100807
  O           5.46706282459767      2.08561295530653     -2.10029294818880
  O           4.57096128125030      0.89392980777430     -3.77462038081979
  C           5.89432422830025     -2.52165041729637      0.16954517189776
  C           7.07821756404253     -1.65464621458563     -0.37038274443231
  C           5.88419681956307     -4.00826746455971     -0.29898643916074
  C           6.64157765403158     -0.24083962561966     -0.87785377639690
  C           7.01190119670388     -4.91815256429679      0.26938339104726
  C           6.13539294336753     -0.23099347778420     -2.33488455816920
  N           2.21897668475424      1.71296651415569     -1.20623300729396
  C           2.64132992343414      0.28608463692771     -1.16806764590471
  C           0.85736948044484      1.79949558814364     -0.62622452019722
  C           3.10091194848613      2.52907257728950     -0.35593982125402
  C           2.14471481369169      2.27445646133075     -2.56113235448489
  C           1.72785392477165     -0.66495887371034     -1.89964907528298
  C           0.72870839141386     -1.34671818992365     -1.21249111709405
  C           1.90008713367514     -0.90537826566030     -3.25833251361960
  C          -0.10057260780526     -2.23311601301487     -1.87682166228810
  C           1.06853577126476     -1.79224620277081     -3.92120924805636
  C           0.06327414314151     -2.45213125184873     -3.23434507562176
  H           2.70868610873575     -0.01084073599208     -0.11983923188963
  H           3.63903126786780      0.20924312300750     -1.58977393963838
  H           0.86051188751176      1.40266108763844      0.38544944149852
  H           0.15948054141318      1.22714960124349     -1.23154621730082
  H           0.53847814761687      2.83783758362409     -0.59802461095462
  H           3.13147642531145      2.12195081395334      0.65128461390302
  H           2.72840058201705      3.54942235986982     -0.32538691933335
  H           4.11354169895336      2.54307696975202     -0.74805979214798
  H           1.47971132688100      1.67147590214718     -3.17386691983243
  H           3.12168661739023      2.29341122604369     -3.03159975634459
  H           1.76841379704993      3.29223957000710     -2.50520378978099
  H           0.60615275691233     -1.19795465669055     -0.15086778612827
  H           2.69981422981793     -0.41517139332306     -3.79305555369449
  H          -0.87039328996664     -2.75782627506186     -1.33298755557512
  H           1.21535008219264     -1.97167586085600     -4.97507851753477
  H          -0.58093828107746     -3.14443993760185     -3.75373796417397
  Cl          8.58574192864300     -3.42219879497139      3.21428540003728
