53
Coordinates from ORCA-job R4N+PFOA-_0.15M E -133.641458055330
  C           8.70836742094650     -7.15159698035355     -1.11619653527608
  C           6.28361096324992      0.75275386147887     -0.28527980064728
  F           7.32887257642990     -4.51799089594471      0.47647725920716
  F           5.24351273992571     -4.46660819646057      0.01911413351367
  F           7.54630761700935     -3.10137706216963     -2.24408470156099
  F           5.40790061638457     -3.05666471921872     -2.06870594885557
  F           6.02564232555976     -6.74410389936378     -0.62116557629787
  F           5.59589228548456     -5.60212876095788     -2.38951722358705
  F           5.42291957756326     -1.82282486050351      0.24299523304862
  F           7.56278773045167     -1.95350749341222      0.48852607310206
  F           7.33456100192837     -7.22277718959614     -2.99363941154415
  F           8.45547185737424     -5.42708206216371     -2.80755361310250
  F           6.05597106379657     -0.58696561540671     -2.37632355396809
  F           8.06773846188069     -0.40356899654126     -1.58665083359995
  F           8.65907034708792     -6.77562302194657      0.14890721831719
  F           9.95598469641280     -7.20765069118231     -1.53915359620652
  F           8.25293424249369     -8.41745064001535     -1.12912892506367
  O           7.05859575512208      1.00098928004491      0.61988125116189
  O           5.22649002386851      1.23883054109320     -0.64405287520436
  C           6.48165238249680     -4.45499387140165     -0.54748289131793
  C           6.55517949911682     -3.12069101166038     -1.34794833551750
  C           6.51040751493883     -5.75735667524912     -1.40904270616891
  C           6.59791803571787     -1.85382779958131     -0.43954690405827
  C           7.79703884080364     -6.32360481072039     -2.08066744930673
  C           6.76417185331700     -0.53188642662659     -1.21185284957301
  N           1.09287667284563      3.11549831060702     -1.28483149960879
  C           1.13092695423844      1.99103318362951     -0.30071730395622
  C          -0.20000920007013      3.15136734579884     -1.98401013545631
  C           1.28274654243411      4.37683578788512     -0.55110659756119
  C           2.17670726669732      2.96052295809820     -2.26840329399333
  C           1.03010783922643      0.61805945935503     -0.91609886596181
  C          -0.20838748243575      0.02062663511933     -1.12666295372051
  C           2.18572275187935     -0.08607224922235     -1.24150764743159
  C          -0.29090809408231     -1.24789624288002     -1.67349156008590
  C           2.10159476493935     -1.35702438842117     -1.78457342623801
  C           0.86314746481246     -1.93738543321092     -2.00702440955548
  H           0.30855658475570      2.13470207203232      0.40192439086031
  H           2.07891220381119      2.05159804962982      0.23738383680141
  H          -1.00537324129304      3.28932042643380     -1.26706713326601
  H          -0.35515828884028      2.22099571552786     -2.52403440540234
  H          -0.20856767218666      3.97600904452088     -2.69231012376520
  H           0.50876429364008      4.49151941921570      0.20380805007162
  H           1.23446164280351      5.21510758310958     -1.24174586588537
  H           2.25515451243703      4.38082325875754     -0.06382310711955
  H           2.01374053771074      2.07008984421579     -2.87050673195140
  H           3.13716911958563      2.84857158327439     -1.76637254622975
  H           2.21338797082638      3.83114310151341     -2.91800427965379
  H          -1.11540381871878      0.53463507065827     -0.84837224295295
  H           3.16193675192857      0.34108276314633     -1.06156599234416
  H          -1.25461622900188     -1.70570641440981     -1.83372616973581
  H           3.00924874722606     -1.89356818424138     -2.02524592446313
  H           0.80614256345358     -2.92975963182530     -2.42797269834137
  Cl         10.00272049191576     -4.33656897415878     -0.68355234904778
