53
Coordinates from ORCA-job R4N+PFOA-_0.15M E -133.631851101130
  C           3.74868159256594     -3.89036687952454     -2.50175978867828
  C           7.86188799583168      0.31596520281443      1.00832168380672
  F           5.78617468861549     -3.59406969795847     -0.29416206406950
  F           5.86238943501055     -1.43975863565894     -0.12719111622595
  F           8.14698951977516     -3.13204905413344      0.60575814776119
  F           8.28138268574251     -3.62216942431623     -1.47574257646523
  F           5.04393830485395     -1.31224128318561     -2.39364178183205
  F           6.94154589176801     -2.02168531014967     -3.08676097772517
  F           9.95442670891144     -1.62496942678471     -0.12972360290204
  F           9.25930218456204     -1.47773549902309     -2.14922433678451
  F           5.23985748902548     -3.43773313735759     -4.24233105740208
  F           5.96360594780798     -4.70435224473329     -2.65481673282795
  F           7.24517223982403      0.20244325466298     -1.43722035158642
  F           9.23677313054515      0.86889294624826     -0.94521575096701
  F           3.02094617620518     -2.78192467282102     -2.44238604774890
  F           3.64252841028138     -4.53217082143580     -1.35297399187301
  F           3.19918250575690     -4.65798306645125     -3.44080952260248
  O           8.68154018647141     -0.11512946017374      1.80013177484470
  O           6.85228534892528      0.98672874295807      1.09273281166339
  C           6.36144535140068     -2.48098395224356     -0.79544509841215
  C           7.89986220368940     -2.63967030364261     -0.61329359095654
  C           5.90529905121056     -2.33586583124413     -2.28989783281195
  C           8.83672511492605     -1.41818523653602     -0.85238336407628
  C           5.23439442102835     -3.60717014131395     -2.90402455830577
  C           8.27136553037645     -0.02545594086945     -0.56353256808682
  N           1.35603560941524      1.19321988784209     -2.28760420190885
  C           0.89672861692756      0.89493284193955     -0.89842750860599
  C           0.88143727682460      0.16141665816956     -3.22200020533060
  C           0.79985920897798      2.49690787466056     -2.68753553856570
  C           2.82348280591436      1.25969633950220     -2.34134457728736
  C           1.29534110459048     -0.46434578472236     -0.38062522364713
  C           0.44029800203340     -1.54975463322786     -0.54343294044312
  C           2.49035160398638     -0.64493676875461      0.30841132656169
  C           0.77600695042820     -2.79266883855805     -0.03851875748612
  C           2.82335614318772     -1.88794000311621      0.82100564532559
  C           1.96805549314394     -2.96391409661042      0.64590745932690
  H          -0.19190446346219      0.96786599565473     -0.88726430477427
  H           1.31323669041936      1.65585405030672     -0.23723825832769
  H          -0.20245764304290      0.09495215537762     -3.18048166801606
  H           1.31150074110121     -0.80243833067219     -2.96079007454667
  H           1.18563171923319      0.41838806040852     -4.23322127521326
  H          -0.28639322355117      2.45632152544251     -2.68612710586946
  H           1.14456921604407      2.75146562168417     -3.68646273751645
  H           1.12711468086188      3.27090504445794     -1.99792876094049
  H           3.26154015018359      0.31374673224524     -2.03363978568493
  H           3.19646809471692      2.03484308670695     -1.67620450779235
  H           3.14996394960642      1.47824725750315     -3.35443484282472
  H          -0.50275720034708     -1.42769153555096     -1.05266625989147
  H           3.17815935086771      0.17221272934853      0.47524312587022
  H           0.10783849808129     -3.63022628859867     -0.16573540176369
  H           3.74768687397479     -2.01450346676612      1.36798438363251
  H           2.24484319666927     -3.92590247533971      1.05177752742169
  Cl          6.04090551800230     -2.42116167015946      2.70524321406173
