53
Coordinates from ORCA-job R4N+PFOA-_0.15M E -133.632064333370
  C           3.60505603282562     -4.26632426481983     -2.36286904490848
  C           7.29785634868077     -0.57071394625842      1.55590757584944
  F           6.25898177524546     -4.29815812454666     -0.81705008301798
  F           5.80605620571271     -2.49230108365994      0.27821964491693
  F           8.52290996165257     -3.30333232131727     -0.07650087086794
  F           8.24772321693568     -3.06387104393723     -2.19637765516072
  F           4.39892498701886     -1.75106585413820     -1.60840571962999
  F           6.13032143785847     -1.61441253615360     -2.85491453446664
  F           9.56141866734090     -1.07976266807155     -0.44315656738109
  F           8.36841902872373     -0.61173271359147     -2.15869146779602
  F           4.51285130399574     -3.03276372493640     -4.13102972919880
  F           5.80718507510792     -4.51460156319593     -3.26577727789190
  F           6.20298811937769     -0.04836676844417     -0.63349331769062
  F           7.96742070180182      1.08491640493146     -0.14169504893065
  F           2.55070115201606     -3.49693018030188     -2.62127405063026
  F           3.66737800553178     -4.43140589049119     -1.04993033195625
  F           3.38948379013483     -5.44398900540915     -2.93028908742310
  O           8.17758519491674     -1.33417337931143      1.92188852859358
  O           6.36051868747523     -0.02457716088534      2.10701455188660
  C           6.33507009350681     -2.95274418232523     -0.86267230826159
  C           7.84641827301663     -2.59236649286150     -0.98539935986679
  C           5.45009588048247     -2.45691717255769     -2.05955573825538
  C           8.29141676279389     -1.09978078558800     -0.88896276132390
  C           4.88322284328562     -3.59743420373871     -2.96333103600166
  C           7.42527327203228     -0.16511464561832     -0.03466568740252
  N           1.50366278843413      1.24796825650621     -2.57671083901561
  C           0.93226147368204      1.06698604514410     -1.20758874409143
  C           1.34280313907544      0.01757216483797     -3.36663833336794
  C           0.77633921328060      2.34368122251685     -3.23936005550347
  C           2.93082361156914      1.59425875485637     -2.50011781487651
  C           1.56703441659960     -0.04561857730515     -0.41148553112883
  C           1.04315912701826     -1.33291974328000     -0.45733317597656
  C           2.66904807185637      0.20349106957365      0.39941274131293
  C           1.62377883958478     -2.35293225302135      0.27512031707682
  C           3.25286103788104     -0.81686226474702      1.12951470515105
  C           2.73563845536445     -2.10038803165945      1.06176278489235
  H          -0.13291923901516      0.85980947816011     -1.31761444508019
  H           1.06087753850540      2.00440894273013     -0.66533895321398
  H           0.29058601938099     -0.24495544235784     -3.43630123794398
  H           1.88185404251926     -0.80336822381332     -2.89928541916986
  H           1.73906885475679      0.16879313584825     -4.36736101496108
  H          -0.27952478019154      2.09795089709416     -3.31754580744476
  H           1.17731777240307      2.49964162008605     -4.23756561695132
  H           0.88492101871269      3.26358793371123     -2.67063688729125
  H           3.49256936957606      0.80168858037366     -2.00909636380649
  H           3.06507500928871      2.51254151877138     -1.93401734835029
  H           3.33164935854075      1.73429199412798     -3.50077546348389
  H           0.17340158652249     -1.55028342828301     -1.05708906167448
  H           3.08862633124033      1.19433526979270      0.48049919066268
  H           1.21682579801951     -3.35224531163947      0.23683444572812
  H           4.12289270337088     -0.62031710779224      1.73935814063335
  H           3.20977010086766     -2.89749013018048      1.61867249001321
  Cl          7.08892260358560     -5.71785096652375      2.09199512617700
