53
Coordinates from ORCA-job R4N+PFOA-_0.15M E -133.632778883970
  C           4.38271830327229     -2.98053197274715     -3.84876010405644
  C           8.06998785892728     -1.43857973611737      1.88612474817414
  F           4.54517974960054     -2.05011472674583     -1.07792572125412
  F           6.11848527814059     -0.73329493633207     -0.43127676460760
  F           5.91045616288058     -3.49342653356815      0.51149366853335
  F           6.36163396451580     -4.09435808438434     -1.48060411510950
  F           5.36562399249976     -0.33871306281005     -2.83912216596752
  F           7.41430933834163     -0.99739728261665     -2.79225385975709
  F           8.49192262905744     -4.26978392441525      0.04989885537578
  F           8.62599570727170     -2.96742198098703     -1.64287736738715
  F           5.98802188066367     -1.68903359763677     -4.93995987359142
  F           6.71498009023037     -3.40964355934186     -3.86817505499183
  F           8.70680845195351     -0.81321748513194     -0.34984630244880
  F          10.06349659722008     -2.19970071405609      0.59103210764847
  F           3.47646108720896     -2.02149887431163     -3.69606208785380
  F           4.15969580548769     -3.90235531783535     -2.92475727303695
  F           4.17009490530102     -3.53359951307754     -5.03662219593245
  O           8.85902760824636     -0.84741027270268      2.59931602036450
  O           6.86069495412698     -1.61075055909212      1.93395998816819
  C           5.88119071708227     -1.83533325754970     -1.15114984354103
  C           6.58137967244461     -3.09772053283179     -0.57230684651141
  C           6.15424544356477     -1.42082947756668     -2.63492011034498
  C           8.11649225591501     -3.05337078779164     -0.36720608607420
  C           5.83359921213324     -2.40511988694605     -3.80361022269672
  C           8.74012903086866     -1.92648197507917      0.47133480648111
  N           0.54220989334764      0.48946737936588     -2.45518265484070
  C           0.44742663780122      0.86660622335742     -1.01193585033379
  C           0.51651693641339     -0.97264552538685     -2.60678507659105
  C          -0.61422315376442      1.06766510303527     -3.15988358459220
  C           1.78005155840088      1.01758111466920     -3.04773090929723
  C           1.57909008230407      0.35185292390662     -0.15793151770473
  C           1.49202914094962     -0.89042114292243      0.46116088233130
  C           2.71832752588362      1.12412931710657      0.04324059217546
  C           2.53235003668727     -1.36192997997304      1.24300733353476
  C           3.75518239229264      0.65469049744832      0.83023929902399
  C           3.67046784139916     -0.59346942848865      1.42684063710865
  H          -0.49354713161118      0.47263069408796     -0.62616437919454
  H           0.42894278188563      1.95536105169819     -0.95235334185224
  H          -0.40257281565512     -1.37511498660810     -2.18888634676085
  H           1.36622874660754     -1.41764957052856     -2.09450314122046
  H           0.57428589368023     -1.23381119445776     -3.66016783665562
  H          -1.54011894781070      0.68492200230070     -2.73828335278479
  H          -0.57158878124992      0.80334648162280     -4.21331593244746
  H          -0.60600187699649      2.15078604964930     -3.06917919040211
  H           2.65064085597260      0.59466828248472     -2.55158938153088
  H           1.80938756357704      2.09956372784325     -2.95017903495988
  H           1.82590802670013      0.75385208926988     -4.10095647221355
  H           0.60869614648316     -1.49943021313251      0.34790505972147
  H           2.80573889185435      2.10247976063409     -0.40338842887703
  H           2.47131810346376     -2.33269573697260      1.71182882349240
  H           4.64785149085240      1.24520213867845      0.97902170277623
  H           4.49994673320827     -0.96784076714136      2.01217906145978
  Cl          8.76742581026792     -4.04225614357185      2.98556529255246
