53
Coordinates from ORCA-job R4N+PFOA-_0.15M E -133.633660735960
  C           4.38379759480191     -2.84929792457449     -3.93790345266407
  C           8.16292534533186     -1.42561404659745      1.88445070166390
  F           4.51515063481160     -1.74979556170297     -1.17848460578851
  F           6.18067107520413     -0.53600563792092     -0.55721820603711
  F           5.75277840044314     -3.11970692205222      0.59769786279730
  F           6.05289454984247     -3.97627527221039     -1.33319527843958
  F           5.45228437234213     -0.25607725863387     -3.01455442249562
  F           7.47370646441018     -0.96757441052369     -2.86629378295434
  F           8.25080341711118     -4.31040355447619     -0.02677551194199
  F           8.44048071200840     -2.97530484503992     -1.67724781179220
  F           6.17591309692502     -1.80189867740525     -5.00175953257348
  F           6.65542076860950     -3.48221837571181     -3.74117938227451
  F           8.82573024551737     -0.90576205203030     -0.36066375000235
  F          10.00465483153870     -2.46103077805814      0.56819671937741
  F           3.55475164584051     -1.81201175779986     -3.93802817338933
  F           4.00994828497902     -3.65928861472242     -2.95891543079520
  F           4.20946327397568     -3.49073153769558     -5.08691029148198
  O           9.05633800175409     -1.14559865211444      2.66131272688023
  O           6.96064727179902     -1.21055155140979      1.86964306668541
  C           5.86787048224326     -1.65406097078539     -1.22104922311377
  C           6.43067782948337     -2.93404686171297     -0.53515543441792
  C           6.19918087445844     -1.34790049087123     -2.71909346839666
  C           7.96614441584414     -3.05240481661664     -0.38465678230950
  C           5.87519454831170     -2.39818776689909     -3.82657698711495
  C           8.72563676759140     -2.01724027938391      0.45831681784791
  N           0.58893024855638      0.39751279914353     -2.42165703342280
  C           0.46363038825824      0.76985154414035     -0.97927198320961
  C           0.63635360508076     -1.06401364682399     -2.57300309337645
  C          -0.58804702010103      0.91858826220684     -3.13677934895520
  C           1.80453108932113      0.98568887288110     -3.00357413767235
  C           1.60793963262783      0.30227873367604     -0.11510260667110
  C           1.56399626846343     -0.94099846680249      0.50657939655331
  C           2.71654189283062      1.11709282088793      0.08947955481473
  C           2.61697739618584     -1.37137245753784      1.29511073958297
  C           3.76675521160711      0.68787403975989      0.88163824988189
  C           3.72490744152722     -0.56072071211240      1.48158785041004
  H          -0.46331215054901      0.33582483702149     -0.60275133101548
  H           0.39860822410710      1.85682944243658     -0.92023697858829
  H          -0.26480944501221     -1.51153920446689     -2.16186152918845
  H           1.50233914681307     -1.46737496441174     -2.05274010243414
  H           0.71458839010083     -1.32076286118453     -3.62620414405422
  H          -1.49764276589130      0.48856168383120     -2.72542700355678
  H          -0.52129764990689      0.65958147478374     -4.19025938465804
  H          -0.63501549656740      2.00047355904098     -3.04333149355092
  H           2.68956299696645      0.60968604424176     -2.49562583374036
  H           1.77700692588644      2.06807301333909     -2.91103091986072
  H           1.87720341545494      0.71873843070602     -4.05446723249562
  H           0.70521298216427     -1.58355330926125      0.38935053473040
  H           2.76913422136782      2.09707154435505     -0.35913484648099
  H           2.59213325445054     -2.34333253598706      1.76548138882850
  H           4.63849452008993      1.30826761930019      1.03162465032508
  H           4.56534952627766     -0.90385585245767      2.06953534653486
  Cl          7.92146392461154     -4.09762999745697      2.82641137550060
