53
Coordinates from ORCA-job R4N+PFOA-_0.15M E -133.632034991850
  C           3.43821451205416     -4.15570306511751     -2.35959254383967
  C           7.12013332097785     -0.51070148841825      1.55272428725064
  F           5.81616034949623     -4.33149168142096     -0.37691229850639
  F           5.56100905623239     -2.33539917928556      0.33779810590415
  F           8.08378647639977     -3.69422940344064      0.47959513818973
  F           8.11959900491840     -3.64894338781208     -1.68470643320315
  F           4.52873397152716     -1.72297309027473     -1.77652209961308
  F           6.40297714575199     -1.99425834934300     -2.78430075935804
  F           9.53034821394090     -1.67430206405860      0.17078379855769
  F           8.80235127995303     -1.30381740225944     -1.83070570265290
  F           4.78723858592262     -3.38077716130984     -4.10559819047506
  F           5.65760034543212     -4.88115856251374     -2.82472326625003
  F           6.50828891265078     -0.19403015792360     -0.83903665509080
  F           8.34794740952261      0.72832993058386     -0.19575873426933
  F           2.58328332222269     -3.21966625511446     -2.75730511811582
  F           3.32889395566879     -4.26271406484838     -1.04313605944559
  F           3.05892685422916     -5.30304986222029     -2.90267989378681
  O           7.52325050017317     -1.52595380937824      2.09954989210965
  O           6.43363977356457      0.42613145758896      1.91215609944395
  C           6.14571346144241     -3.04578717803928     -0.63379096516006
  C           7.70510001400717     -2.97473729270832     -0.58478547376913
  C           5.51104312903007     -2.61783698600981     -2.00059476678086
  C           8.40435106241404     -1.57978793933468     -0.55837717503080
  C           4.88509327667108     -3.78892253662782     -2.82551112824538
  C           7.58877725835334     -0.39188655029942     -0.02205237338388
  N           1.37051543609690      1.28826552020779     -2.65018310908197
  C           0.86463963816945      1.22037027287776     -1.24663609025967
  C           1.09165219704582      0.03046340593654     -3.35975459394902
  C           0.67612998769388      2.39084151724953     -3.33676237756700
  C           2.81848385610101      1.54542934114413     -2.66787789996951
  C           1.49509722464734      0.13468186437489     -0.41233445242978
  C           0.92918975940392     -1.13437405744656     -0.35993972581355
  C           2.63518804547724      0.39627515325855      0.33974589573519
  C           1.50351268369627     -2.12598284468788      0.41510677487289
  C           3.20949343262991     -0.59450519720275      1.11609258441166
  C           2.64730145072549     -1.86011440077367      1.14958703550121
  H          -0.21286445804107      1.05590212422249     -1.28976146589251
  H           1.06016475153907      2.18365039347373     -0.77411117210449
  H           0.02377539885317     -0.17093663357329     -3.35351906644711
  H           1.61439623331678     -0.79520705097570     -2.88304539074691
  H           1.43250293172807      0.10611428990316     -4.38896541005103
  H          -0.39600463799929      2.21187600089059     -3.34193274895507
  H           1.02663841339884      2.46396361348337     -4.36309416448214
  H           0.87585351783182      3.33253483524382     -2.83183126201582
  H           3.35821009156447      0.74147236242772     -2.17054506432990
  H           3.04192312063602      2.47860225042270     -2.15686776508386
  H           3.16927361296566      1.61361505471432     -3.69444185500124
  H           0.02978973195788     -1.35542838308129     -0.91283596781372
  H           3.08988899143392      1.37494007379775      0.34055433266903
  H           1.06336304738157     -3.11067586533511      0.45319249370566
  H           4.10290259081815     -0.38265340324949      1.68592441166364
  H           3.10713118744257     -2.63231207267468      1.74908029372027
  Cl         11.35399165082822     -4.40528998874258     -0.86306547326443
