53
Coordinates from ORCA-job R4N+PFOA-_0.15M E -133.625387505750
  C           7.81544122089502     -6.54122816556896      0.63624328932828
  C           5.11845523862005      1.08338214246793     -2.56134796667876
  F           6.23648059881638     -2.53000020833323      1.36059160635262
  F           4.85352739672844     -2.74911788561162     -0.26796324709485
  F           8.32156965241722     -2.12296906558041     -0.39444036323346
  F           7.11446812329804     -2.74561364015009     -2.04614589125281
  F           5.48380452827580     -5.04748518204004      0.89032927428437
  F           6.04381255151509     -4.94246926770927     -1.18260002337887
  F           5.70523857301291     -0.32505580599593     -0.03825659477585
  F           7.61297979498894      0.18753946134211     -0.92457441689315
  F           8.63891415881427     -4.72111251631032     -0.60959276884278
  F           8.25063057231275     -4.41304272712940      1.51405887988169
  F           4.98813273586877     -1.40858120152961     -2.63593170925712
  F           6.82182393640914     -0.49624717360064     -3.36919439667606
  F           7.24441609756810     -6.85600243688690      1.79141444267709
  F           9.06565458600659     -6.98225441387922      0.66259494324632
  F           7.17646044999411     -7.19829163404204     -0.32557618468563
  O           5.36791331291488      1.86991608733585     -1.66793571627696
  O           4.50803154809267      1.15451093462919     -3.60989630677048
  C           6.14322142805503     -2.94592464536733      0.09334261013276
  C           7.06258024033470     -2.11594192190226     -0.84824389882613
  C           6.36920848487786     -4.48848325175692      0.04083924108096
  C           6.56076279240484     -0.64205592413830     -1.03529284260166
  C           7.79325419502066     -4.99712201668718      0.39983395390862
  C           5.87288250669033     -0.39455148403106     -2.39342751745387
  N           2.07624665248010      1.68230406655496     -1.03309027551344
  C           2.34352241624155      0.23840556456606     -1.28217542212934
  C           0.68338656599224      1.80787228786303     -0.54010752201417
  C           2.95703192645011      2.18288598927478      0.03548448571307
  C           2.18449663340840      2.52815293734564     -2.22836289049385
  C           1.40191285274162     -0.41421213391191     -2.26360727618607
  C           0.27657388387011     -1.09405080676303     -1.80805116378155
  C           1.66309933714972     -0.37783504164479     -3.62892918619780
  C          -0.58535058502971     -1.70437129303174     -2.70203821035713
  C           0.79885631140667     -0.98915545317454     -4.52177561665086
  C          -0.32943421457529     -1.64717519174516     -4.06176982291328
  H           2.28050434334987     -0.27681506483730     -0.32143486638311
  H           3.36441925922226      0.13323464782719     -1.63814949173719
  H           0.54859651099762      1.19703389254420      0.34850933747232
  H          -0.01224672648108      1.48089993229942     -1.30836997997963
  H           0.47813673452799      2.84496554491920     -0.28937141792703
  H           2.83598386855600      1.58352008648039      0.93404627739791
  H           2.70888684835452      3.21830729770343      0.25255709049054
  H           3.99970375791231      2.13641668941623     -0.26607205416423
  H           1.54828010268962      2.13554435646932     -3.01721857706366
  H           3.20510499873774      2.56110493699731     -2.59315007096599
  H           1.87614676928688      3.53966585995970     -1.97840596526364
  H           0.07809908878299     -1.16028241468746     -0.74952794816546
  H           2.55442692392514      0.11128049395212     -3.99225491380677
  H          -1.45388938486004     -2.22951198100492     -2.33661305919532
  H           1.01604747888626     -0.95494706406194     -5.57829344901931
  H          -0.99905306495001     -2.12362169182609     -4.76082751772703
  Cl          9.18544706689325     -1.42356240870861      2.48846756186757
