53
Coordinates from ORCA-job R4N+PFOA-_0.15M E -133.634098981710
  C           3.74654641051508     -3.85597758654580     -2.79669692754845
  C           7.47102627413405      0.86696333397575      0.60936121124434
  F           5.26401406209724     -3.35894276878995     -0.52676447029176
  F           5.53843500445075     -1.23267992819018     -0.56746380481436
  F           7.43979252127493     -3.47297996107161      0.58778715925768
  F           8.04126024719985     -3.53997514846019     -1.43438146427838
  F           5.15238949974565     -1.34653956704470     -2.94342176666707
  F           7.09537005631165     -2.20259527406039     -3.20056514368516
  F           9.07463487386766     -1.66515478383731      0.95720197076531
  F           9.60460403717122     -1.85473811351754     -1.10107003539856
  F           5.42094886859809     -3.68467817191175     -4.45122767532555
  F           5.93025084876401     -4.77177854390713     -2.66348857262675
  F           7.40765058139420     -0.08310328689328     -1.71906699185005
  F           9.30809151807549      0.54256426062618     -0.92907762984676
  F           3.18966535916291     -2.75014846519637     -2.31750474577898
  F           3.53790071475410     -4.83798403032390     -1.93659414210005
  F           3.09061025361420     -4.15490722552653     -3.91390529796621
  O           8.25498499954700      1.09217045919541      1.51305624732855
  O           6.37080823899193      1.28356498928880      0.30614278821850
  C           6.06816358417881     -2.37366691272106     -0.99654817459966
  C           7.51264008244839     -2.69735489551220     -0.49873509336648
  C           5.92608100836652     -2.37845097036289     -2.56537553099637
  C           8.55338934828108     -1.54715811700439     -0.27413649512333
  C           5.27678036713087     -3.69027998962812     -3.11296907971126
  C           8.14847700693895     -0.09653978309725     -0.56715726539775
  N           1.51734462187459      1.14889041248660     -2.14950750056082
  C           1.01100299292440      0.83166812296600     -0.78048425291985
  C           1.01214746535433      0.17118109736800     -3.12500634385031
  C           1.03894531262274      2.49088499752043     -2.52071676385151
  C           2.98780695930735      1.13756056093008     -2.16914086475294
  C           1.38870219921376     -0.53885662709545     -0.27823215608758
  C           0.55094730853085     -1.62665237535218     -0.50378875782387
  C           2.55990646627069     -0.73010916723495      0.44667060020247
  C           0.88934965011847     -2.88362001120971     -0.03659848980954
  C           2.89291607199061     -1.98649851118316      0.92422966169231
  C           2.06410314973803     -3.06780769175369      0.67423208610949
  H          -0.07676916138529      0.91608287697544     -0.80250836688491
  H           1.41713047331915      1.57614842862475     -0.09456529291943
  H          -0.07467050533789      0.16661485070014     -3.11445262676635
  H           1.38106506254474     -0.82090778464941     -2.87744754247639
  H           1.36087719939056      0.43561069011889     -4.11972337647707
  H          -0.04797149651089      2.51105168218681     -2.52669990224404
  H           1.40666179146849      2.74981006790581     -3.51024991495696
  H           1.40549109664092      3.22761756389969     -1.81030907560979
  H           3.37073565240853      0.15964878187834     -1.88841744489604
  H           3.39504511804715      1.85863718111292     -1.46372750905464
  H           3.35234477760234      1.37654941635893     -3.16430784827834
  H          -0.37730870929857     -1.49594633372689     -1.03774095807758
  H           3.23983019608942      0.08432664049256      0.65587015744390
  H           0.23853988059891     -3.72441703038581     -0.22023624328900
  H           3.81046653205796     -2.10788850540796      1.48391726777119
  H           2.34261758136402     -4.04575712665511      1.03788341207456
  Cl          6.37282762593952     -1.38559963005469      2.15195542835158
