53
Coordinates from ORCA-job R4N+PFOA-_0.15M E -133.632512904790
  C           3.95544821724784     -3.98098790666250     -2.44299509018769
  C           7.70671122921368      0.99336854612912      0.35079061271748
  F           5.51864507872434     -3.09740338013752     -0.28042248260285
  F           5.70892092961106     -0.99162691339780     -0.69591834152854
  F           7.68259503456886     -2.45147112991176      0.93724496346990
  F           8.17375156808347     -3.51605351962820     -0.85249227484514
  F           5.38178911672836     -1.51462210341571     -3.04574899439695
  F           7.31922595992751     -2.43243965030928     -3.09010997441864
  F           9.73382968381123     -1.29235876344274      0.21538052267887
  F           9.44520040434742     -1.68715253992862     -1.86961352000831
  F           5.61924027941259     -4.06147332590943     -4.11457105717718
  F           6.14991001545383     -4.84453185104750     -2.18054142905982
  F           7.46866824876205      0.19191258600563     -2.03581081620540
  F           9.41127965831594      0.89363762193223     -1.40815572171780
  F           3.39117313416053     -2.80726229556173     -2.18667127510184
  F           3.76355121915764     -4.78135162420318     -1.40920962186980
  F           3.30231587456775     -4.49960694930150     -3.47830254869863
  O           8.40826074131709      0.85656519381332      1.33693961510744
  O           6.70332260073959      1.62488647180441      0.08722485901408
  C           6.26612969697233     -2.17814351831088     -0.93381843673703
  C           7.72054974275712     -2.31633056102016     -0.39288747007075
  C           6.12850590789106     -2.47060412701038     -2.47019158546497
  C           8.79625629897116     -1.24875993372142     -0.75123553742802
  C           5.48089508040385     -3.85615606216226     -2.79152003136573
  C           8.32194601477769      0.18906544964992     -0.96711992377502
  N           1.57891844100344      1.14384146645503     -2.00816629488124
  C           1.06549974214977      0.76210740514566     -0.65821537218001
  C           0.81590136065945      0.46206461052517     -3.06472844218579
  C           1.42731229886195      2.59930861382122     -2.16687197158156
  C           3.00055196019131      0.78814801740632     -2.13469738607452
  C           1.17568588703313     -0.70730092689143     -0.33912488915298
  C           0.15449516127764     -1.58700329794572     -0.68614216957977
  C           2.28193997512612     -1.19778319153443      0.34569623160174
  C           0.24905183813345     -2.93208417352409     -0.37736591330129
  C           2.36976241845857     -2.54194057641405      0.66497812379078
  C           1.35909994107971     -3.41426715620287      0.29688752777136
  H           0.01842238651831      1.06546049954014     -0.60466994508138
  H           1.64014915073616      1.31627747617554      0.08564812233591
  H          -0.23758293604575      0.71642170325078     -2.98133348999551
  H           0.93868231421690     -0.61384997144848     -2.97224952855780
  H           1.18452671480129      0.77476304912249     -4.03814495596041
  H           0.38114848152082      2.87829427690138     -2.06840144836789
  H           1.78917249892309      2.90063043928598     -3.14661440813965
  H           2.00873919205313      3.11932587061844     -1.40918987626698
  H           3.13340220649121     -0.28559031188047     -2.03344304992901
  H           3.60012208501582      1.26341652059144     -1.35962315052647
  H           3.38198076231009      1.09816754373688     -3.10364146362822
  H          -0.72956494132617     -1.22268518575684     -1.18567836986143
  H           3.09172868482722     -0.55286937285132      0.65935469676806
  H          -0.54594985587978     -3.60736496330463     -0.65292531043239
  H           3.24114256652912     -2.88548171308105      1.20533544052660
  H           1.44149197373584     -4.46196728690462      0.54445584204561
  Cl          5.48064903557374     -0.98128698278853      2.29692346201653
