53
Coordinates from ORCA-job R4N+PFOA-_0.15M E -133.629827333490
  C           4.14678229618462     -3.81182859842767     -2.65321005246628
  C           9.24217292949239     -1.08788785590012      1.39677931549757
  F           5.05735900576441     -2.95866644583890     -0.03708704063534
  F           6.01758967002333     -1.06169017854658      0.27663449981688
  F           7.53865451641419     -3.22672408134018      0.87949860213062
  F           7.22632036846406     -4.04964353878870     -1.11648472369104
  F           4.38298919243418     -0.97879321114181     -1.72001207989990
  F           6.38332535367725     -0.77611201783933     -2.44801433757311
  F           9.66887726504050     -3.13080863696720     -0.76333066333357
  F           8.55963353494632     -2.07639259964407     -2.27447502067162
  F           4.72623834895905     -2.04411000862773     -4.06233501016397
  F           6.33452442176805     -3.33728347045292     -3.43849241977044
  F           8.16363418209561      0.03988053283400     -0.56544362084992
  F          10.23957578916851     -0.50118552886584     -0.81264857380974
  F           3.08673606745866     -3.25216107139680     -2.07704506015271
  F           4.61303848793611     -4.76916420123824     -1.87427395187141
  F           3.71609597966919     -4.36910132687912     -3.78245512071978
  O          10.31328705502143     -1.57256900610596      1.71170786106218
  O           8.26217089085491     -0.70373028311418      2.00993541262912
  C           6.02080323007572     -2.14161621801204     -0.51825357287096
  C           7.37399307781578     -2.90236387292862     -0.41223943011073
  C           5.52969900179984     -1.66527275827493     -1.91737006570302
  C           8.67631255513003     -2.23182122130708     -0.92308309175562
  C           5.22019967402087     -2.73459397895451     -3.00935345491266
  C           9.07553255107025     -0.92137066680638     -0.23975348926922
  N           0.67866495970376      0.78259811351928     -2.70817554717714
  C           0.29399531311945      0.76960076997537     -1.26431806580152
  C           0.84719274855212     -0.59042142834119     -3.20711361420210
  C          -0.39579378371199      1.44429313033298     -3.46695915687604
  C           1.93330196976741      1.52540897315312     -2.90020066476796
  C           1.31247582835431      0.13468317349951     -0.35043620168113
  C           1.25597924045048     -1.22515205312852     -0.06515314063870
  C           2.30356289929205      0.90715649952959      0.24598000143047
  C           2.17625557544482     -1.80207027048325      0.79231100807684
  C           3.22451148336478      0.33102119322108      1.10291102675296
  C           3.16062792770141     -1.02474970185666      1.37956317054826
  H          -0.64666171985336      0.22485816242518     -1.17547248847617
  H           0.13778636242214      1.80305637297627     -0.95262044954150
  H          -0.07951546263114     -1.14665834915005     -3.09233605572881
  H           1.63360213156177     -1.09737834890042     -2.65251866254435
  H           1.12055700796841     -0.57016751049029     -4.25905254010562
  H          -1.33213186962522      0.90765438404403     -3.33746358117419
  H          -0.14326831506364      1.45957688313405     -4.52414305265233
  H          -0.52376008922007      2.46709872377633     -3.12195533067817
  H           2.74347060371897      1.04134021622580     -2.35938796155315
  H           1.82393168832219      2.54405173564800     -2.53703011863993
  H           2.18787171804554      1.55170908914680     -3.95669533315253
  H           0.48835061850976     -1.84743895703475     -0.49738067859514
  H           2.36011147500139      1.96807683276599      0.05860057004727
  H           2.13912881623313     -2.86025273057877      1.00526914467600
  H           4.00227886038891      0.92654550012567      1.55706122316323
  H           3.88313469869986     -1.47609722144700      2.04644541169513
  Cl          6.69339494809721     -6.26548084122325      1.24937262819093
