53
Coordinates from ORCA-job R4N+PFOA-_0.15M E -133.632712081260
  C           3.64438210465653     -4.03927921507020     -2.27204439080451
  C           7.68710770583824     -0.73300565680100      1.64732501639182
  F           6.28584711426491     -4.35790195362715     -0.73327665328813
  F           5.99272524130755     -2.50544337170432      0.33995626446991
  F           8.61895880409782     -3.57793117292156      0.06675784726243
  F           8.41922618859731     -3.36584754103203     -2.06424336283666
  F           4.72841672668849     -1.61519412503344     -1.58219755718654
  F           6.47803430303451     -1.72552043703274     -2.81183219552592
  F           9.90571632047117     -1.50364456850720     -0.34881634593012
  F           8.77191589404996     -0.92282772658222     -2.06903714487776
  F           4.68485982447354     -2.95708823363917     -4.06375996092041
  F           5.79852900316253     -4.56307721886562     -3.17028749753715
  F           6.67967396288634     -0.12305474499941     -0.56451807685320
  F           8.55079159117081      0.81967327114752     -0.05561877911183
  F           2.68850903432131     -3.14972589407277     -2.52857246235178
  F           3.69336852938660     -4.20878319020298     -0.95994754630342
  F           3.28130164536765     -5.18377263461522     -2.83357660493501
  O           8.60939338585397     -1.39769534439213      2.08894025921402
  O           6.67649498677445     -0.24985239566260      2.12296868253595
  C           6.49699894837679     -3.02578262141829     -0.78422223852608
  C           8.03972968754210     -2.82473347539998     -0.87547600176024
  C           5.69022780069184     -2.45413385503569     -2.00336146640346
  C           8.64065759565255     -1.38875836118127     -0.79474011319468
  C           4.99085262966494     -3.53693982966859     -2.88477973755214
  C           7.87507079656299     -0.36493542194999      0.05017389957103
  N           1.09670112479008      1.17372995433639     -2.70253128208219
  C           0.77331537893621      1.14576737593563     -1.24352999940336
  C           0.76160813982504     -0.11415336982153     -3.32899945234618
  C           0.29747824014644      2.23771973627631     -3.33254693548012
  C           2.52542034074374      1.45570265521959     -2.90737999731441
  C           1.53541218851006      0.11126300564803     -0.45266177382374
  C           1.02543501573400     -1.17235879768794     -0.29206083417458
  C           2.74327086962340      0.43626050011151      0.15684144594562
  C           1.71962573546085     -2.11563224234202      0.44505376242025
  C           3.43796215138685     -0.50550479481850      0.89580216116391
  C           2.92934400124346     -1.78717389303331      1.03456035362158
  H          -0.29519425637451      0.95071150287184     -1.14391700688287
  H           0.99587229292740      2.13142552708244     -0.83340813245407
  H          -0.29283794111685     -0.33434813568048     -3.18510115987219
  H           1.35501665620146     -0.91301211441916     -2.89026182098580
  H           0.97273372712414     -0.06971248707919     -4.39427964569630
  H          -0.76260901950649      2.03912027911875     -3.19758407695280
  H           0.51590698204903      2.27999888149660     -4.39653992427958
  H           0.53626170906233      3.20034185709593     -2.88771673914063
  H           3.13619343119442      0.68408883966994     -2.44214103477149
  H           2.78614481597328      2.41461271499194     -2.46656487722114
  H           2.74738353299455      1.48326793440876     -3.97112334543639
  H           0.07749831304015     -1.44514456096646     -0.72862326877832
  H           3.15573994906577      1.42984281432573      0.07278747889376
  H           1.32483804985469     -3.11315477813980      0.56778845299837
  H           4.38178017390557     -0.25823165488919      1.36093755511396
  H           3.48717203270543     -2.52202164372221      1.60022097625890
  Cl          6.95833761950387     -5.25029729142161      2.38546173863367
