53
Coordinates from ORCA-job R4N+PFOA-_0.15M E -133.626632445880
  C           6.89911503543545     -6.33046929957090      0.20512852421657
  C           5.32069997346346      1.15837146011234     -2.62618835305920
  F           6.09510126246110     -3.14364212382832      1.29480262000451
  F           4.76617869034221     -2.24688132279013     -0.14810747003936
  F           7.99997862360707     -1.67585761665073      0.64226904254381
  F           7.82408676765806     -2.24812317443250     -1.40552931190346
  F           4.90071676056996     -4.77349496810003     -0.52824784266033
  F           5.97247953362059     -3.86669180378779     -2.14308582575544
  F           5.61655230504247      0.08775679724933      0.04431560909134
  F           7.65332490432197      0.53232699406067     -0.53801170780663
  F           7.87947745696766     -5.31934072848593     -1.67530307373340
  F           8.18362523933578     -4.36051597485705      0.23035387044877
  F           5.47354431041394     -1.32719104141142     -2.55353653474194
  F           7.30199870823599     -0.24464710035551     -3.00567486557149
  F           6.23415204349341     -6.11302671986578      1.33149430871790
  F           8.00487813764002     -7.00044726605213      0.50368548548354
  F           6.15746356594280     -7.10618697585846     -0.57602992363570
  O           5.56465103071984      2.11629916822602     -1.91767577428433
  O           4.65872159284015      0.99627373824101     -3.63355729322438
  C           5.99313018993577     -2.77333123327674      0.00911857563299
  C           7.11447030522117     -1.74746285131116     -0.35871582412009
  C           6.02985889801576     -4.09787576267438     -0.82649001127126
  C           6.62471672638706     -0.31388873984242     -0.74860676724890
  C           7.27078017590255     -5.00061058334928     -0.52076029374714
  C           6.18367151423135     -0.20624291227332     -2.22365254170578
  N           2.25589589450191      1.64960335656552     -1.10468267815121
  C           2.67812406882356      0.22330250893296     -1.15127675486519
  C           0.89905431129496      1.70113748643286     -0.50930304289856
  C           3.14141867239981      2.42145183005425     -0.21783635006981
  C           2.17019546474386      2.28213591807590     -2.42794940374372
  C           1.76998714147169     -0.67857883140508     -1.94824029350124
  C           0.76980527595456     -1.40747561728458     -1.31315188350373
  C           1.94967573601239     -0.82624406181952     -3.31932822937666
  C          -0.05398441895733     -2.24902441849910     -2.04014035924819
  C           1.12370662230806     -1.66843005266620     -4.04455225480293
  C           0.11690272760075     -2.37539629818073     -3.40856833981896
  H           2.74820537824969     -0.13778791548948     -0.12275390914834
  H           3.67832047794615      0.17633461048020     -1.57030427684891
  H           0.92105453276746      1.27561788311866      0.49070587345875
  H           0.20324370264078      1.13640716519001     -1.12425105852116
  H           0.56742134762068      2.73401686427202     -0.44758763760774
  H           3.24121575887853      1.92470550709003      0.74469002020773
  H           2.73093207517525      3.41717773941331     -0.07399486356354
  H           4.13638914821315      2.51504421719159     -0.64255921953844
  H           1.45852003648684      1.74184964825271     -3.04671130848018
  H           3.13409609495600      2.27612242301985     -2.92600623354105
  H           1.84749221818065      3.31271566885914     -2.30903672585231
  H           0.64579895289337     -1.32963277459508     -0.24388259337743
  H           2.75125577145152     -0.29772765526299     -3.81324087251774
  H          -0.82480039377275     -2.81043518948298     -1.53585927265996
  H           1.27596835280684     -1.77565931289462     -5.10728148729273
  H          -0.52343410188304     -3.03232887684316     -3.97622645829667
  Cl          6.31876647932871     -0.57614968534109      2.99563144342916
