53
Coordinates from ORCA-job R4N+PFOA-_0.15M E -133.637920682420
  C           4.18218482108718     -4.94251040375558     -3.87165925282892
  C           7.50599242905278      0.88047645081073      0.65527932032513
  F           4.77704953138063     -3.67918220685117     -0.77470206263300
  F           4.88275148932248     -1.53343833706782     -0.94689338312231
  F           7.23800077989398     -3.98686224777693     -0.48919055931407
  F           7.74220069607827     -2.60589197894064     -2.03576704108822
  F           3.89935583840056     -2.43599129155358     -3.06608500627735
  F           5.88061394562484     -1.81111177597014     -3.54920121133340
  F           6.43112847956031     -1.55914253891679      1.05858838125265
  F           8.49693497775671     -2.14386959403658      0.74849287604520
  F           6.16427896042258     -3.97266301704839     -4.67632147402423
  F           6.25142325097951     -4.91398085157889     -2.73828981212916
  F           6.90112920329951     -0.08975786353523     -1.56569838385483
  F           8.97049288957307     -0.33267675565507     -0.98793414747963
  F           3.52102886012060     -4.34873231980957     -4.85868236415623
  F           3.36541156852511     -5.03690180631742     -2.83137679836819
  F           4.49164265943505     -6.16750457595889     -4.27133651818079
  O           8.46066340653872      0.98360025522005      1.40460610914036
  O           6.42916644390205      1.43868700911762      0.56299374037127
  C           5.46451867751353     -2.67820007195257     -1.34676537767632
  C           6.96688526798644     -2.75192020712890     -0.93084199705527
  C           5.19863667784921     -2.75423032307962     -2.88818256584476
  C           7.39346526012617     -1.68422626398366      0.12369745177687
  C           5.48336056598476     -4.14914299053619     -3.53070273867435
  C           7.70714324244091     -0.30311358553000     -0.48233112616661
  N           1.56550142659528      1.32141920506463     -2.11118062398151
  C           1.00053236444309      1.03011665400763     -0.75868420265640
  C           1.49675992387021      0.12763154097525     -2.96647098143053
  C           0.76486253868114      2.39563172121195     -2.72300651723141
  C           2.96408747179521      1.76516862922774     -2.00316326174608
  C           1.74656651408661     -0.03062612659374      0.01076137523836
  C           1.40506771512719     -1.37269142012140     -0.11878570187146
  C           2.77602234245464      0.32129125930500      0.87700743016326
  C           2.09627803939691     -2.34449963268267      0.58311590308724
  C           3.45948419933037     -0.64979490779815      1.58621214228530
  C           3.12810789491082     -1.98656786280315      1.43564926622299
  H          -0.03402313425923      0.71154860150142     -0.89300238984866
  H           1.02061247493293      1.95612988061324     -0.18324830961063
  H           0.46609249177126     -0.20446952610982     -3.05904240419574
  H           2.09316069192751     -0.67517877611382     -2.54029021296735
  H           1.88740713147507      0.35950101090511     -3.95383565861287
  H          -0.27229006223877      2.08288873458503     -2.81215945834842
  H           1.15255500240945      2.62378435792745     -3.71246998112970
  H           0.81431772506385      3.29349134785434     -2.11251091587506
  H           3.58559648039958      0.99310192335589     -1.55200376876426
  H           3.03292775298892      2.65543408735561     -1.38341241813799
  H           3.35902807536488      1.99052399008821     -2.99028099124642
  H           0.59371789456244     -1.67305091257156     -0.76349093782888
  H           3.06767405804063      1.35201118177034      1.00808343423984
  H           1.84713958975621     -3.38874963760333      0.46618953353744
  H           4.27483115888517     -0.37393173843390      2.23987398534321
  H           3.69238946104642     -2.74269582754691      1.96467571646236
  Cl          6.06473393422686     -4.34127836923518      2.39207034169953
