53
Coordinates from ORCA-job R4N+PFOA-_0.15M E -133.632842478780
  C           4.16027878191132     -3.78248814321764     -2.78451631977038
  C           8.39819489792616      1.15487864858918     -0.20695989128575
  F           5.36603494796129     -2.30162479007720     -0.29284434422902
  F           6.22810583053940     -0.57506460219657     -1.24069703130549
  F           7.41200885458716     -1.85598451710131      1.16618866374030
  F           7.89845302231972     -3.48199251357994     -0.13767652778721
  F           5.94280250171973     -1.82821502186019     -3.30977859610426
  F           7.71846944987314     -2.89437515319137     -2.74755440346327
  F           9.79323244328314     -1.43310353102222      0.65555054776496
  F           9.73041805344662     -2.33417587464306     -1.28479082831936
  F           6.22137742354886     -4.79735760070713     -3.26095026043046
  F           5.70815639092239     -4.60100881830111     -1.18434543095882
  F           8.42609752503370     -0.20456614605719     -2.34586667310820
  F          10.32169966667502      0.24066511331979     -1.41267824995570
  F           3.63887931667925     -2.63195725251649     -2.38229367291303
  F           3.41960620668914     -4.76220163320200     -2.28936850402878
  F           4.05433855074039     -3.82172836342882     -4.10817718383678
  O           8.77350861488942      1.09472531804336      0.95155559148324
  O           7.73084689855352      1.93591345829284     -0.85416323861269
  C           6.43847453208102     -1.86726996895020     -0.98599048575013
  C           7.69917534868764     -2.13431693051824     -0.11031323765454
  C           6.46247150823470     -2.62730852627659     -2.36009643559541
  C           9.05795137355646     -1.46675276952422     -0.47352647430159
  C           5.65588156030613     -3.96841837148388     -2.36475452315187
  C           9.02142508694772     -0.08115764686503     -1.12158380555342
  N           1.23449793585460      1.15958280025304     -1.83184234967493
  C           0.90518147891589      0.63790456319201     -0.46996142697654
  C           0.27048551088933      0.66986524668468     -2.82833838647673
  C           1.17813975638548      2.62957110701517     -1.78705616054856
  C           2.59017301971953      0.73855355895043     -2.21927890832265
  C           0.99803142232358     -0.86069617552240     -0.33521366913721
  C          -0.08571636173945     -1.67223079982443     -0.65810413646392
  C           2.16039494992451     -1.44625280572553      0.15654998536235
  C           0.00084238218241     -3.04660780117607     -0.52673218404217
  C           2.23876942342719     -2.82200279525112      0.29780567400018
  C           1.16717043421493     -3.62561168427995     -0.05476371368491
  H          -0.10722016144070      0.96459278236626     -0.22618832020466
  H           1.60855482299628      1.08403371393642      0.23602383273883
  H          -0.73389023559382      0.98225353611881     -2.55403208573173
  H           0.31265461782773     -0.41462005760598     -2.88102356913616
  H           0.51823020844545      1.07921614815521     -3.80437187818113
  H           0.19000893886037      2.95587689457037     -1.47204627539536
  H           1.39499378988608      3.03634837481940     -2.77167486102809
  H           1.91887646802933      3.00865801574028     -1.08616234354599
  H           2.63968524945659     -0.34385349907143     -2.30503445090590
  H           3.32269036951503      1.04111310582008     -1.47090797949384
  H           2.86389775879220      1.18602860216099     -3.17097290047665
  H          -1.01077174192174     -1.23308135711006     -0.99774327812532
  H           3.00985493399750     -0.84272945687741      0.44957801826227
  H          -0.84208147460948     -3.66864900156601     -0.78399600828664
  H           3.14981303538779     -3.25553090602448      0.68587058666451
  H           1.24408123804063     -4.69716417493406      0.04963301719062
  Cl          5.43936452301940      0.39816979796110      1.48391153824787
