53
Coordinates from ORCA-job R4N+PFOA-_0.15M E -133.630212023870
  C           4.41486820581230     -3.22008922154838     -3.44641050552341
  C           8.77533094667909     -1.50513417982967      1.86138888808096
  F           4.78257189019580     -2.44190782213822     -0.67455188499782
  F           6.04785765035572     -0.79942721181887     -0.11252119819142
  F           6.73145896774178     -3.25879645537083      0.83173255571229
  F           6.82398876926612     -4.05232930776523     -1.18120529907362
  F           4.95792841818298     -0.49530959979698     -2.42179745852170
  F           7.08392680986168     -0.67459049521265     -2.64413980341273
  F           9.28889252268445     -3.67131989667354     -0.24181729601915
  F           8.78696457441521     -2.40547882095261     -1.90300445827504
  F           5.70113292247609     -1.68507994640343     -4.64935824235797
  F           6.77574089565185     -3.25443795080839     -3.63286034850393
  F           8.50885607368258     -0.25709544125050     -0.28248996285953
  F          10.39479053406586     -1.27063631281766     -0.01405958917282
  F           3.38320117591817     -2.44203599105253     -3.13544491066562
  F           4.46152950965841     -4.21685865528989     -2.57807761699105
  F           4.16393806342592     -3.73041696511630     -4.64660265043837
  O           9.72285116602912     -1.94177690409748      2.48662386795887
  O           7.65932076287109     -1.11498852773324      2.16311528195736
  C           6.00275585699385     -1.89011302631560     -0.88579584244404
  C           7.05385732714050     -2.94677032470354     -0.42978957154583
  C           5.98119888710370     -1.37868725642268     -2.35829809361241
  C           8.55610594055339     -2.59319677003759     -0.56383863551599
  C           5.74769777356891     -2.40663321641718     -3.50773097051264
  C           9.06214024208188     -1.39267915550963      0.24138517039693
  N           0.40787762682716      0.53860806245408     -2.55357244138459
  C           0.29044128243699      0.85894328528613     -1.09896937788368
  C           0.34717334365139     -0.91475345835160     -2.76722830639818
  C          -0.71710543908240      1.17636975961641     -3.25788855149253
  C           1.67268720473269      1.05724657165189     -3.09587790317840
  C           1.39713366356437      0.29913091669401     -0.24031918427977
  C           1.28378179344866     -0.96504227708962      0.32800483790854
  C           2.53255559803285      1.05681628509516      0.02727622935588
  C           2.29107541766143     -1.46732444358000      1.13373608485094
  C           3.53661283030336      0.55762064299586      0.83798585471667
  C           3.42008759304580     -0.70737637557069      1.39138639537793
  H          -0.66327577025170      0.46350166330002     -0.74717036712478
  H           0.28398801058207      1.94478625162139     -0.99675248297992
  H          -0.58870052295495     -1.31012793754541     -2.38084427395355
  H           1.17730296867841     -1.40428085850349     -2.26388710099860
  H           0.41285841026764     -1.13381617312905     -3.82977036378318
  H          -1.66191354972879      0.80260282611999     -2.87160477433169
  H          -0.65927925279127      0.95364408296932     -4.32022451767325
  H          -0.68214442973981      2.25441146839200     -3.12333612622758
  H           2.52006017561928      0.58776655896037     -2.60090085325103
  H           1.72946305960362      2.13251950277166     -2.94826429195122
  H           1.73258863884561      0.84231364939350     -4.15953210149847
  H           0.40369287667545     -1.56595408278385      0.15994950617314
  H           2.64034478905999      2.04876229514341     -0.38300585378997
  H           2.20567363698971     -2.45322582681115      1.56579160043544
  H           4.42298758039241      1.13995872418611      1.04169029694335
  H           4.21604525632742     -1.09770433901241      2.01243791076533
  Cl          8.03368240128570     -6.03175522289137      1.50473518168180
