53
Coordinates from ORCA-job R4N+PFOA-_0.15M E -133.626744724310
  C           7.16964424722499     -6.23956780417061     -0.39544947339443
  C           5.21895634359921      1.12889877054893     -2.80008973947377
  F           5.83159814601350     -2.44829848407446      1.45645705954096
  F           4.68476550290965     -2.00113723392777     -0.28875858965604
  F           7.92800899261795     -1.47106670003907      0.61635718022451
  F           7.72597203090844     -2.26254559457307     -1.38348872770140
  F           4.69023115293517     -4.52692827515107      0.00215367106097
  F           5.95763206559004     -4.08269936444286     -1.67456544412661
  F           5.68624036369980      0.27231836259921     -0.05709968995328
  F           7.68431802836281      0.60580571283498     -0.78305899561120
  F           8.17378102312275     -4.22539853408901      0.26834204664631
  F           6.65553833499472     -5.09111060974223      1.59945914978509
  F           5.46735710775889     -1.36380146947537     -2.62737226234149
  F           7.24125084625496     -0.22830139256700     -3.15742444450936
  F           5.99214195037395     -6.80840673156550     -0.64327859901349
  F           7.87322332323211     -7.08351926983087      0.34301423649060
  F           7.79474387554512     -6.08910046821925     -1.55831493390869
  O           5.44678233465826      2.10877024596247     -2.11803026165371
  O           4.55041254604418      0.91372489647009     -3.79030721629642
  C           5.86805273039577     -2.50907123163944      0.11658809953356
  C           7.05853327906026     -1.63306098524415     -0.39610853277813
  C           5.88358759727442     -4.00146886411980     -0.33535045152922
  C           6.62465873470609     -0.21644858032278     -0.89708523510607
  C           6.99858013663524     -4.86688138693554      0.32316352151094
  C           6.13346857907514     -0.20018827928364     -2.35932278860463
  N           2.20921772016018      1.70887156214412     -1.20183530323197
  C           2.63049396871711      0.28131869111165     -1.18971768077692
  C           0.85107443299067      1.78646920775454     -0.61246364026599
  C           3.09609377597717      2.51166341006045     -0.34401027555505
  C           2.12788403474760      2.29181100029487     -2.54725539699466
  C           1.71031935233540     -0.65758526856566     -1.92872237119677
  C           0.71601884688183     -1.34949310571574     -1.24472341219046
  C           1.87236910486610     -0.87709937644427     -3.29219960022046
  C          -0.11858764746053     -2.22523451845583     -1.91645855689154
  C           1.03549430244419     -1.75333227356141     -3.96249644148332
  C           0.03509122945568     -2.42342128487991     -3.27838521580992
  H           2.70576056239994     -0.03189636029355     -0.14690646603727
  H           3.62384197421178      0.21035792056371     -1.62234176435285
  H           0.86043464562905      1.37480018567598      0.39320647309447
  H           0.14946550712975      1.22318385770508     -1.22195823613404
  H           0.53183796787194      2.82408956034999     -0.56699511352843
  H           3.14234988945334      2.08199368258524      0.65311942474659
  H           2.71653953733951      3.52819061824926     -0.28521128437652
  H           4.10311226392515      2.54348670713560     -0.74913432748365
  H           1.45976645014332      1.69865188514473     -3.16616235602399
  H           3.10254606346927      2.31857614614451     -3.02219147909816
  H           1.75190593881010      3.30857171491395     -2.47344972099355
  H           0.60095340284014     -1.21697028240380     -0.18015029201402
  H           2.66819464238278     -0.37892917163626     -3.82541310268052
  H          -0.88478246414961     -2.75797976032541     -1.37531460047766
  H           1.17419897445136     -1.91659604344283     -5.02012594365732
  H          -0.61326299501806     -3.10745395178968     -3.80360564526963
  Cl          9.25679032490071     -4.05870938502173      3.10876920126848
