53
Coordinates from ORCA-job R4N+PFOA-_0.15M E -133.639833442230
  C           6.83043393610390     -5.51127301765108     -2.05223501464012
  C           5.85188990347839      1.07288351478871     -0.54649661416305
  F           6.86800086955835     -3.71246254263096      0.24969551555224
  F           5.33928734532623     -2.23850021786570      0.47734749555459
  F           8.40264728449237     -2.43022573179331     -1.16766804331827
  F           6.96151928839256     -1.11480584750190     -2.02798020624435
  F           4.41119068699703     -4.08822588120608     -1.00395017671958
  F           4.74160603514602     -2.37020077987866     -2.23663105808069
  F           7.14127577899626     -0.86370454146009      1.38661141671809
  F           9.05295720998505     -0.77554545267308      0.41916875275428
  F           5.21657145758272     -4.60006019415059     -3.52241080047565
  F           7.04351538261553     -3.48955297520098     -3.26974873767892
  F           8.19021449745815      1.11506042310492     -1.32800862861764
  F           7.87112180679028      1.64746697906094      0.74741134765594
  F           6.10109428312005     -6.05752213361218     -1.08991065629933
  F           8.03180165283482     -5.19574450951748     -1.59210137908519
  F           6.95592808383158     -6.37594778682554     -3.04864991036378
  O           5.52840979974850      2.23682585833645     -0.68804529034290
  O           5.20278883165879      0.03187170019877     -0.60867064543987
  C           6.22078476508928     -2.72435269516275     -0.40429802653870
  C           7.30712213474843     -1.69693070791179     -0.86645688817862
  C           5.38254670595692     -3.34315084493383     -1.56611459099360
  C           7.72526712848239     -0.62854060313673      0.19528938132174
  C           6.13217735822765     -4.22386918996120     -2.60757297320972
  C           7.42466408196758      0.82038839341421     -0.23834144286499
  N           1.98537185277637      1.44960309620989     -2.23160217874392
  C           1.86460022693954      1.17054736574790     -0.76986480180676
  C           0.65561336061694      1.53921918886941     -2.85493773011746
  C           2.68164889946647      2.73649615597816     -2.39582128193093
  C           2.75908713012049      0.38974322198296     -2.89407797190495
  C           1.22032441033246     -0.15199371905489     -0.44493184927688
  C          -0.15854035988207     -0.26340186344330     -0.30124259963314
  C           2.01464780268032     -1.27766787960909     -0.25350425599758
  C          -0.73393358903829     -1.48532796991232      0.00189696403017
  C           1.43843476988209     -2.49939321259793      0.04900283224960
  C           0.06204317940701     -2.60609737908872      0.16969160544012
  H           1.28803554607734      1.98208723023408     -0.32332217180943
  H           2.87375762253165      1.18026220538408     -0.35274422572258
  H           0.07665528624022      2.32697474953968     -2.37978738519007
  H           0.13243209608768      0.59248740910398     -2.74875823433643
  H           0.76495817837956      1.76663139026535     -3.91220442808893
  H           2.11282164559424      3.53150856792681     -1.92065504805864
  H           2.79860307180293      2.96026590225963     -3.45284149512256
  H           3.66903396219532      2.69334903023856     -1.93619274665092
  H           2.23292486211362     -0.55912630678060     -2.82919816293857
  H           3.72720809905122      0.26966073002457     -2.41084093607133
  H           2.91711142674598      0.64406234009455     -3.93838268777747
  H          -0.78848594760840      0.60590542078732     -0.40880084430432
  H           3.08900102296070     -1.19181317682581     -0.32362528154663
  H          -1.80412720840505     -1.56467695731856      0.11253854412796
  H           2.06827120428840     -3.36538094824911      0.19399221717773
  H          -0.38289397604834     -3.56051395329401      0.40618624112540
  Cl          8.35518019600235     -8.17943975800259     -0.82190846192358
