53
Coordinates from ORCA-job R4N+PFOA-_0.15M E -133.576065317790
  C           8.39306551966083     -6.34816803984012      0.21367385194441
  C           4.78788349899484      1.02143304361437     -2.74691198057333
  F           5.84261692861777     -2.90340110823916      1.49215555154950
  F           4.78787922942444     -3.05256013510429     -0.37635491753310
  F           7.86509508533687     -1.71702210994687      0.55154983716686
  F           7.57518076946850     -2.38697586408685     -1.48031276838376
  F           5.57592915612092     -5.39148167014189      0.40130715852217
  F           6.61903065084911     -4.79751017536741     -1.38547009699214
  F           5.07905472523071     -0.56040638006648      0.15206911862941
  F           6.94769815210480      0.38199340439690     -0.32770580387320
  F           8.84015561966448     -4.06874668527548      0.06126054958998
  F           7.91191204945817     -4.66464591816763      1.89145129650552
  F           5.09935317100658     -1.61843662200104     -2.56448522543253
  F           6.85600523429637     -0.35508196443232     -2.88797257590150
  F           7.42208652146433     -7.21158295384065     -0.01372977539090
  F           9.23895630217143     -6.82486839521095      1.10736003090027
  F           9.07509262714226     -6.25548755985334     -0.94145498867059
  O           5.30430097341283      1.99190275885161     -2.27789127488797
  O           4.14411548179265      0.66510116349903     -3.68862545672153
  C           6.01548487000303     -3.11570774644195      0.17595561714921
  C           6.92213099874769     -1.97537427246885     -0.37924294809888
  C           6.53243001050346     -4.57155617577251     -0.05677716235877
  C           6.14566269281815     -0.64387765649538     -0.68045682283329
  C           7.90924816866183     -4.90695734891160      0.58167900531001
  C           5.69955540996916     -0.45343340368158     -2.14024400189055
  N           2.57033217916241      1.81641473968352     -1.47117260352921
  C           2.45741291407161      0.31838105469185     -1.41943126452980
  C           1.22881420860397      2.24698260463042     -0.91348569127597
  C           3.51173555429399      2.32076777982567     -0.44114345255460
  C           2.57872169175216      2.55679904851679     -2.75890482430371
  C           1.25595009093139     -0.25895934807120     -2.13193161020543
  C           0.13276613396848     -0.64371939057278     -1.40527921790679
  C           1.27237773469257     -0.47546064234103     -3.50550140472591
  C          -0.96246938723145     -1.19982440994111     -2.04164329896672
  C           0.17272410506372     -1.02634669196762     -4.14207396966000
  C          -0.94985363149315     -1.38206870382528     -3.41430994351942
  H           2.39943287933754      0.06449526472708     -0.35873565641815
  H           3.33885172372648     -0.17801075447721     -1.80145234155032
  H           1.00169983333367      1.70489148417066      0.00002583903535
  H           0.44594912455479      2.04573856249880     -1.63966414259910
  H           1.25504466791027      3.30986642311571     -0.69004715225193
  H           3.04138478070569      2.26940831197458      0.53742510995891
  H           3.77256663373849      3.35043449396497     -0.66868973139251
  H           4.43119477915169      1.75253922663037     -0.38415043773942
  H           2.09542430411571      1.95681323723741     -3.52382390602278
  H           3.57183457389979      2.82467388446195     -3.09473511918161
  H           2.02728303287847      3.48425175703262     -2.63147603625916
  H           0.11514733347485     -0.52768205998416     -0.33256531809330
  H           2.15776987325031     -0.24103388170891     -4.07518714647905
  H          -1.82421978188262     -1.49616232555247     -1.46419533634442
  H           0.20178921609004     -1.18743984717686     -5.20874633356037
  H          -1.80361129475191     -1.81449319738607     -3.91257246782837
  Cl          6.76862395962930     -7.21055270887348      2.85093769167842
