53
Coordinates from ORCA-job R4N+PFOA-_0.15M E -133.637341774580
  C           6.97755851758773     -6.44400424917658     -1.90497679899963
  C           6.58515425245421      0.99437472630373      0.53216963493984
  F           5.36328538051648     -3.97013950942033     -0.36366800474829
  F           4.78427548043511     -2.37556722059367     -1.67868299814441
  F           8.07847084794957     -3.48034608313082     -1.07642378809720
  F           7.40410215637068     -2.02627554472868     -2.49134286934324
  F           4.47252310709119     -4.92938691331272     -2.59509006225866
  F           5.54544353378789     -3.50795867595056     -3.79744626006849
  F           6.10446767481638     -1.74557748426839      0.70155458506420
  F           8.25849199371105     -1.58241842819197      0.50078138007207
  F           6.36946160118054     -5.93847578281343     -4.12533939407807
  F           7.91541806742196     -4.72637475889974     -3.26789464999240
  F           5.97870200220456     -0.00849461622910     -1.65759399260608
  F           8.09868960888340      0.30265070156079     -1.33324459695701
  F           6.01788719875807     -6.45918370953935     -0.99196776603757
  F           8.16335707367589     -6.31988661012500     -1.34069280110998
  F           6.95096344187462     -7.63550316706810     -2.50780541609813
  O           7.49022574938170      1.12349712367105      1.33534474169826
  O           5.46645352379733      1.46548940755186      0.43074911505682
  C           5.73799230810109     -3.31148967617864     -1.46236582798558
  C           7.10274057714405     -2.58869902758080     -1.29552757079925
  C           5.64581366596187     -4.27239993021611     -2.69092045411957
  C           7.10116019537541     -1.49211651578809     -0.17733594641866
  C           6.75184191465915     -5.32766876675679     -2.98218172439198
  C           6.94546411985196     -0.05138588137981     -0.69806339052435
  N           1.47738992116561      2.26871187765761     -1.87867974990620
  C           1.16081858476706      1.79441974452614     -0.49787202601203
  C           0.53274509437918      1.70178375902717     -2.85219128448245
  C           1.36961030844491      3.73634675831309     -1.89809809760802
  C           2.84879694255676      1.87913831908479     -2.24607420359365
  C           1.30596744162517      0.30678407897367     -0.29749752420547
  C           0.23841797452885     -0.55063609885826     -0.54347113851141
  C           2.50132589406880     -0.22136504597879      0.18080361172689
  C           0.37113706497430     -1.91341741430458     -0.34357936258109
  C           2.62630742024166     -1.58329088135133      0.39661202338643
  C           1.56694294978876     -2.43321917806103      0.12344679079304
  H           0.13499373957812      2.08980308860095     -0.27164588702948
  H           1.84230363932388      2.29757316744918      0.18976992576900
  H          -0.48221863810311      1.99709468471412     -2.59850658963503
  H           0.60464716940571      0.61733838010463     -2.85028792427977
  H           0.77241392590759      2.06627687436313     -3.84784117814210
  H           0.37003835824971      4.04154750509349     -1.59857623012743
  H           1.57025159439253      4.10631574885089     -2.90045043188734
  H           2.09465446611555      4.17171424840676     -1.21470278988102
  H           2.94173816358844      0.79657725352483     -2.29932038712664
  H           3.56479753847870      2.22621569035684     -1.50259036329286
  H           3.10936772237235      2.30278602111175     -3.21214268791238
  H          -0.70923442530572     -0.15885585811280     -0.87896554466572
  H           3.34585797415810      0.41791719448519      0.39649051965349
  H          -0.45808811611171     -2.57427355915529     -0.54228311154519
  H           3.55511244184086     -1.98032355397075      0.78443966537011
  H           1.68219170778997     -3.49486864993552      0.28705931453121
  Cl          7.60637022868560     -4.98290146635479      1.49241596864229
