53
Coordinates from ORCA-job R4N+PFOA-_0.15M E -133.633539145890
  C           4.12659480875639     -4.04391917913591     -2.46353066888573
  C           7.85395544698929      1.24877448979514     -0.05584225668714
  F           5.43400302804598     -2.80533916298226     -0.29330315103650
  F           5.79995228597568     -0.80979044087645     -1.01529896722868
  F           7.46382028273929     -2.03722913069845      1.06297606042283
  F           8.09795261860634     -3.42789375965693     -0.43530177100801
  F           5.66644411217814     -1.72563813627558     -3.26318125992198
  F           7.57964377256083     -2.64841616898001     -2.94687756370641
  F           9.67623827113999     -1.14812947179334      0.42512004974230
  F           9.59711426099917     -1.87352251484263     -1.58748656027176
  F           5.98815106418394     -4.43138048450473     -3.86495909491880
  F           6.24064840388931     -4.86735492247421     -1.77282471284534
  F           7.77931209226736      0.05964274719178     -2.28730187809055
  F           9.70288462302253      0.73857153706412     -1.57805898474818
  F           3.58277740499284     -2.84389951296373     -2.30392943401414
  F           3.78840535036502     -4.80000219702978     -1.43323654944552
  F           3.57520846389616     -4.57314424639617     -3.55032742198785
  O           8.43722054357980      1.23004875631410      1.01367447862057
  O           6.94541550532249      1.89921190622264     -0.53024745732925
  C           6.30706814969672     -2.04085953094530     -0.99137017434755
  C           7.67544911330086     -2.14624905457084     -0.25419025803482
  C           6.32801151367762     -2.57954281604586     -2.46521631864900
  C           8.86031310057611     -1.21525185254468     -0.64548618926319
  C           5.68746817394854     -3.99516788794720     -2.62837772303641
  C           8.52342488807486      0.18924100872962     -1.14740121430405
  N           1.53676174137088      1.14358021015123     -1.85004473791909
  C           1.09976407443116      0.67414603924054     -0.50023790669666
  C           0.60010723650054      0.69137361671559     -2.88972575948107
  C           1.57119725863391      2.61481981734519     -1.83781895752669
  C           2.88203132350033      0.63164246022161     -2.15443114334619
  C           1.08435848304938     -0.82378998846855     -0.33268356894919
  C          -0.03000639268221     -1.57182225659658     -0.70072675419409
  C           2.17523422265937     -1.47042674466998      0.23932025436125
  C          -0.04201226130133     -2.94499290805947     -0.53197563106256
  C           2.15428216400343     -2.84332981801936      0.41926430101538
  C           1.05350189895595     -3.58499044837760      0.02337943809703
  H           0.09988117948429      1.07245373114452     -0.31880181534995
  H           1.79241801163363      1.08721488518842      0.23586099682240
  H          -0.39678969551811      1.06859909562563     -2.67645753833924
  H           0.58020465349294     -0.39458743428720     -2.92090671540487
  H           0.92507126323844      1.06485495325381     -3.85735299786443
  H           0.59100801031166      3.00933434856496     -1.58141020686278
  H           1.86408277201705      2.98348908436328     -2.81768532894885
  H           2.29903421386835      2.96299951152636     -1.10791202014828
  H           2.87012244527969     -0.45366276957675     -2.20910176272645
  H           3.59580821892375      0.91297559910275     -1.38013660603813
  H           3.23182281701736      1.03199299766172     -3.10206695385429
  H          -0.90312760957556     -1.08326869189566     -1.10429283913410
  H           3.04324529232510     -0.91586698132567      0.57101601471616
  H          -0.90831729818481     -3.51775120834646     -0.82396714055060
  H           3.01102639527177     -3.32260323751625      0.87176175659039
  H           1.05286806923104     -4.65564669385300      0.16109258966981
  Cl          5.30354531317635     -0.10164504746639      1.82631650560020
