53
Coordinates from ORCA-job R4N+PFOA-_0.15M E -133.643387976960
  C           5.49024174048602     -5.46933659861033     -2.46018317001970
  C           5.80692504665512      0.61462596808802     -0.58749044928869
  F           7.09111585779957     -4.08241819580134     -0.75088993898887
  F           5.59456306173838     -2.75936714102347      0.01608229887757
  F           8.86579910651774     -2.54815264292659     -0.55852550152448
  F           7.96479877684477     -1.09232103417546     -1.79147902801290
  F           4.52482399803723     -2.74486606328551     -2.14720995556635
  F           6.19568832196986     -1.86401784386303     -3.14560928412317
  F           6.76763819876770     -1.24558930153573      1.48072761495325
  F           8.85907430806555     -0.81430324097759      1.12659703063930
  F           5.60702749645913     -4.03135992123657     -4.32530654214724
  F           7.44426650396660     -4.36194305497835     -3.26257411788297
  F           8.21115478738762      1.15265968611257     -0.63007565315855
  F           7.21957470096233      1.34547373123976      1.27812128521510
  F           4.79772678298552     -5.21740535341128     -1.35466805629308
  F           6.41729085329923     -6.37304242741117     -2.18440509327599
  F           4.64166862924033     -6.01924330958576     -3.32557099850574
  O           5.19351379606843      1.66496767167891     -0.54997797538081
  O           5.51722612342399     -0.47121487322247     -1.09313003411291
  C           6.56103685123772     -2.84233475314789     -0.90219290281647
  C           7.73573367391470     -1.82362654546345     -0.67692124002579
  C           5.85247388133133     -2.85428324571013     -2.31261265576310
  C           7.63980270841319     -0.84518659138213      0.53865828811049
  C           6.12502013916513     -4.18311608301976     -3.09049678092426
  C           7.23832274417261      0.59248556338502      0.14290131603985
  N           1.96839720559080      1.41057660940897     -2.18862341541140
  C           1.90012551749031      1.10660711342821     -0.72790441298630
  C           0.61700591947814      1.45348244374462     -2.76946354465557
  C           2.60889876875755      2.72614653297944     -2.35008474464266
  C           2.76212612706088      0.39484102942700     -2.89519329376815
  C           1.38084797478659     -0.27021681365907     -0.40403580381594
  C           0.01951696791069     -0.49876775498026     -0.22997295616214
  C           2.26868029547703     -1.32874078705683     -0.24248794910200
  C          -0.44523873579572     -1.76623684399796      0.07441440880041
  C           1.80365253560980     -2.59649082729653      0.06192302791783
  C           0.44468601083052     -2.81842033215433      0.21488968454132
  H           1.26181483159934      1.85974219399483     -0.26324457049679
  H           2.91127635911416      1.20615402020143     -0.32729938854497
  H           0.02359732522487      2.21409290795645     -2.26862097606645
  H           0.13559839963859      0.48580997112342     -2.65473591514087
  H           0.68400513158455      1.69333376531777     -3.82752621866582
  H           2.02897570078856      3.48806848479977     -1.83569975042231
  H           2.67869052755257      2.97505435555896     -3.40567275889074
  H           3.61096583919770      2.70171153590178     -1.92366572412457
  H           2.28185355477556     -0.57811833247339     -2.82456219774365
  H           3.75270836898182      0.30927956134585     -2.45196318977719
  H           2.86962585432657      0.67219128475743     -3.94030586588788
  H          -0.68241793451305      0.31630938020045     -0.31385472510075
  H           3.33287925575497     -1.17259817747106     -0.34342695681678
  H          -1.50221786928776     -1.93503072683927      0.20853811571534
  H           2.51543088670243     -3.40075195837733      0.18388177432875
  H           0.08687797797719     -3.80789367038278      0.45476194707868
  Cl          8.17373019437492     -3.94936726889381      2.19446339531592
