53
Coordinates from ORCA-job R4N+PFOA-_0.15M E -133.635833439220
  C           4.10089881086359     -4.23277428495683     -2.66514392029783
  C           7.08288862625416      1.26801107361805      0.19464324504541
  F           5.39704181294310     -3.26492440736315     -0.42437428425114
  F           5.48441150446781     -1.15410605123246     -0.78736790716928
  F           7.47154943783927     -3.00845877002509      0.82812719782202
  F           8.25653676476234     -3.28181052313122     -1.11368088846734
  F           5.30049851467006     -1.65816068065144     -3.13085836349702
  F           7.32218967016043     -2.35571101180983     -3.12724747739801
  F           8.85241739313321     -0.98922017929017      1.07007279203996
  F           9.62692970819413     -1.41812622451313     -0.87185250259990
  F           5.87444189990141     -4.17116748208481     -4.22505387912283
  F           6.33940436638219     -4.90949525384530     -2.25720105741370
  F           7.34092262123832     -0.00607327287322     -1.96045463320350
  F           9.08558897489352      0.93133743017499     -1.11859925070440
  F           3.43743854803514     -3.13375383851524     -2.32620272821067
  F           3.91816101940607     -5.13871046712442     -1.71879001779028
  F           3.53619366205456     -4.69287728540214     -3.77674291400413
  O           7.74610693460545      1.70456313409271      1.11635915100133
  O           5.97936241897496      1.51091998957009     -0.25502903069503
  C           6.14493804055589     -2.28816893436403     -0.99276486464559
  C           7.56633138159120     -2.38481586831652     -0.35159710439116
  C           6.12641624114489     -2.54359959166738     -2.54748865663413
  C           8.46605026661669     -1.10924478622583     -0.21004988499337
  C           5.63191501564900     -3.97890752982201     -2.91572416011920
  C           7.96137570954784      0.22985602247897     -0.76244430480819
  N           1.73793879668888      1.14436751329311     -2.02832993849252
  C           1.35098182205392      0.83083195297032     -0.62001753865652
  C           0.74808102784921      0.60811614098229     -2.97435260736131
  C           1.80399733702750      2.60732803373334     -2.17360039650116
  C           3.05809942825411      0.57062468360867     -2.33197064946988
  C           1.33176234881197     -0.64029592492746     -0.29166202189135
  C           0.20337981027766     -1.41508770438930     -0.54260876054476
  C           2.43796366228638     -1.23413789398620      0.30678279574077
  C           0.19453931377378     -2.76409187288363     -0.23559379231272
  C           2.42217538335663     -2.58119318522251      0.62578247758018
  C           1.30672187322051     -3.35213148543851      0.34362127188467
  H           0.36178805409261      1.25779799127302     -0.44470005445905
  H           2.07616480705764      1.31500634523527      0.03671641129044
  H          -0.23183798678110      1.02657970519375     -2.75916452133705
  H           0.70909793005541     -0.47466602727713     -2.89209946658713
  H           1.03580198875479      0.87280165140676     -3.98848054426738
  H           0.84690695019371      3.05268668842805     -1.91324822139059
  H           2.05393026138700      2.86276246408194     -3.20018771503952
  H           2.57647485030430      3.00905336360404     -1.52105987229303
  H           3.02557915737446     -0.51287069794206     -2.25429476524002
  H           3.81691241688591      0.92557663979431     -1.63378971089296
  H           3.36324124447213      0.84396249744149     -3.33805057142016
  H          -0.68225973344656     -0.96499764342177     -0.96311530392403
  H           3.32285114509706     -0.65887536924978      0.54526974795006
  H          -0.68251553720747     -3.35850734388533     -0.43849663500607
  H           3.29285093723572     -3.01258200506014      1.09993633316464
  H           1.30846067052273     -4.40343348987425      0.58868663013775
  Cl          6.01550377641549     -0.86135413790894      1.96578931534660
