53
Coordinates from ORCA-job R4N+PFOA-_0.15M E -133.631059743640
  C           3.85229057776392     -3.68162713990288     -2.45189649140396
  C           8.28494707586922      0.77429071822450      0.41950402261293
  F           5.45154494407499     -2.87071986869563     -0.31663341738643
  F           5.96304078552349     -0.81519916875256     -0.73949624130484
  F           7.66599690571598     -2.50376406572078      0.92134834619349
  F           8.00844793007706     -3.69211403955437     -0.83004847576848
  F           5.46587647410805     -1.33025896834591     -3.05919603342267
  F           7.32119238326041     -2.40518023354001     -3.14498507160364
  F           9.92157182277911     -1.79474681367029      0.14699551777010
  F           9.50805334806931     -2.06597147402998     -1.93426211891791
  F           5.47785600066906     -3.87654450995266     -4.15185846094450
  F           5.96981223174677     -4.71921299788678     -2.23279377484956
  F           7.90643958435552      0.13609545671584     -1.99971744450791
  F           9.94166393249419      0.48108228202299     -1.36560126364844
  F           3.38752460355995     -2.47881502684493     -2.13809438480809
  F           3.61664250625322     -4.50810374105239     -1.44871331172718
  F           3.13889093925621     -4.10032443794368     -3.49297927764985
  O           8.86003450725040      0.37563398587445      1.41753342047074
  O           7.49514236599691      1.66568683809960      0.18083626539715
  C           6.33003698724480     -2.07549434411486     -0.97086287107381
  C           7.74260771673289     -2.42373074882357     -0.41282449126551
  C           6.14311522896872     -2.34923689603056     -2.50413568864459
  C           8.97842743576549     -1.55506207365790     -0.78517677708085
  C           5.37688345315712     -3.67286464979379     -2.82510498252070
  C           8.75233480724823     -0.05090920387873     -0.94203135170965
  N           1.37319545506689      1.11884266292541     -2.04378495309345
  C           0.77874657931346      0.71858968942497     -0.73277485660653
  C           0.87920792189567      0.24906726863947     -3.12198732149111
  C           0.97715802173947      2.50831241195475     -2.32731613810642
  C           2.84086747335032      1.03709696925027     -1.98935626194323
  C           1.04831308741934     -0.71016799297769     -0.33395384674015
  C           0.16206567979616     -1.72023823364573     -0.69692813427015
  C           2.16081310814561     -1.03648645588488      0.43336398435245
  C           0.39230636917141     -3.02967921718582     -0.31602405178748
  C           2.38832669048009     -2.34669780015303      0.81830373389865
  C           1.50793761117320     -3.34717433255020      0.44210230941610
  H          -0.29953722889457      0.87324125651058     -0.79862855504343
  H           1.19080266867747      1.37511542930546      0.03479699497562
  H          -0.20588369197592      0.29423309179816     -3.16496937535273
  H           1.19203834262534     -0.77617193897074     -2.94153122524942
  H           1.29049500687229      0.57813128411814     -4.07264877084793
  H          -0.10555006142549      2.58173232110091     -2.39219164856009
  H           1.41462260421915      2.82885370209516     -3.26938097940391
  H           1.33273248512400      3.16658125000699     -1.53844593972609
  H           3.16146921040920      0.02265072886146     -1.76580695799937
  H           3.23930656028011      1.68426729170643     -1.21090726493305
  H           3.27090243925006      1.33327720099295     -2.94237424386913
  H          -0.72221535944180     -1.48659782873992     -1.26912821571138
  H           2.87446718377449     -0.29228099724518      0.75876380749926
  H          -0.29923867962799     -3.80668361656685     -0.60281019057761
  H           3.26685225469697     -2.56126663828293      1.41063959718427
  H           1.69712971891904     -4.36672195846587      0.74268437394529
  Cl          5.48689508092470     -0.73488233046735      2.18878493933507
