53
Coordinates from ORCA-job R4N+PFOA-_0.15M E -133.577948984790
  C           7.95617257676877     -6.41761819421690      0.54462816963890
  C           4.80359703213816      1.14806929897079     -2.70584554173872
  F           5.87780454984993     -2.65949187286344      1.26704811853672
  F           4.73836495647524     -2.80991283176886     -0.54895529912364
  F           8.03382025537064     -1.83842495745776      0.11711254161474
  F           7.44006733130058     -2.45491725267318     -1.85829044485885
  F           5.30987168068492     -5.19573808929074      0.25596297856736
  F           6.39036466784135     -4.76804569502613     -1.53104895854650
  F           5.36758777332124     -0.34846463201517      0.00232734226164
  F           7.27448851289535      0.36910925700670     -0.67970308182816
  F           8.64086405739662     -4.46039680615175     -0.53528648995067
  F           8.04025187910345     -4.20924987096183      1.48970140263312
  F           5.12612513891359     -1.47494080871853     -2.76220167454383
  F           6.84453675882006     -0.19960369217791     -3.17933799414849
  F           6.86235337632862     -7.15559713818566      0.54058240235981
  F           8.67951461574704     -6.68787342466036      1.61617978504995
  F           8.67437381876330     -6.83793953743778     -0.51053613048679
  O           5.28794605755451      2.06839668439344     -2.10654403417133
  O           4.15556735329058      0.92799116832564     -3.69118354426358
  C           5.97516226986796     -2.97512696327017     -0.03395827907705
  C           6.96585329185825     -1.97059456673795     -0.69648149021058
  C           6.33833878424082     -4.48204140242784     -0.20722078453593
  C           6.32850295169772     -0.55789273398095     -0.92962341451316
  C           7.72527464264911     -4.87766250679452      0.38087635693263
  C           5.75997391869220     -0.32969113267481     -2.34169386941260
  N           2.59123899488472      1.75276269121252     -1.32133869498905
  C           2.60280722295017      0.25332740074905     -1.37870718363387
  C           1.20817573541703      2.01649854190837     -0.75575566387384
  C           3.46240723473943      2.26297120860745     -0.23466907333227
  C           2.55890969667456      2.61840088373044     -2.52675749074057
  C           1.44283877681804     -0.37589830999645     -2.11657981232784
  C           0.40441786557253     -0.96004051265529     -1.39663686802770
  C           1.41643717393122     -0.44320745366747     -3.50507712598216
  C          -0.65302122932737     -1.56723695857619     -2.04985042432311
  C           0.35372168414811     -1.04546606439167     -4.15772737920784
  C          -0.68694953360704     -1.60124921040250     -3.43375231220994
  H           2.58099728652293     -0.07953120467579     -0.33833663362186
  H           3.51679566301523     -0.14344281289758     -1.79440714084698
  H           1.01556780337235      1.37770789112544      0.10128152973850
  H           0.45677973598833      1.81501090401330     -1.51422005363500
  H           1.13629920620910      3.05240383779140     -0.43701823574023
  H           3.06290588866019      1.95020278628303      0.72660126777209
  H           3.48674434906948      3.34779149036330     -0.28797451268058
  H           4.48210859215062      1.90679896012750     -0.29487884832820
  H           2.10612900921936      2.07908905775348     -3.35264578139255
  H           3.53945347462914      2.96777258874093     -2.82414124864562
  H           1.96088210957830      3.49774368578333     -2.30347625756218
  H           0.42700565076513     -0.95977012606599     -0.31745504372613
  H           2.24222149071520     -0.05245661270060     -4.07778876496245
  H          -1.44773993793727     -2.01869696110504     -1.47671622958056
  H           0.34888475206540     -1.08864526043361     -5.23589423324066
  H          -1.51160585680198     -2.07290367887461     -3.94507280730106
  Cl          6.15340998890656     -5.67442696465136      2.99078340771650
