53
Coordinates from ORCA-job R4N+PFOA-_0.15M E -133.641038103110
  C           5.82755919954680     -5.73455191973174     -2.37058846586185
  C           5.82849616365400      0.57724491443085     -1.38142800595891
  F           6.47060147828162     -3.97897683145501      0.08951094985054
  F           5.39478035840191     -2.13576146591345     -0.16403860443185
  F           8.40859011099791     -2.67961349180693      0.75131657974588
  F           8.65941474903537     -2.22451482117490     -1.30836610447607
  F           4.95212328946296     -3.19079736583032     -2.36946575481812
  F           6.81171461213271     -2.27647479758423     -2.93442506378301
  F           6.81454940111515     -0.30761084789525      1.03767061253446
  F           8.92766693450594     -0.23436562232069      0.61089249719376
  F           7.29715593781712     -4.53713466529754     -3.73935139548804
  F           7.94271057851942     -4.86672671266972     -1.71753003334233
  F           8.09584028495723      0.05986094874128     -2.21548447726134
  F           7.95286643802984      1.63655964368949     -0.74756137020548
  F           5.02705419472814     -5.64730133740249     -1.31744705011198
  F           6.45478237556275     -6.90216215077072     -2.31524039558705
  F           5.06173853230492     -5.74040849380068     -3.45711714516126
  O           5.32082699301548      1.59271332116697     -0.93993707351625
  O           5.35903514950980     -0.36198046264913     -2.01088332116790
  C           6.46729163357055     -2.80994695540343     -0.58480775739653
  C           7.79997764642330     -2.05868056993470     -0.27256352325676
  C           6.26940412198840     -3.17234018093460     -2.10140219109636
  C           7.71808020750046     -0.54183833231213      0.06764074134109
  C           6.86673183479949     -4.57268603295275     -2.46452089402279
  C           7.42092910209461      0.43031632634693     -1.09161811359609
  N           1.75980977769098      1.67097251307799     -1.80688325893917
  C           1.98283712361514      0.92857112625852     -0.53097349739550
  C           0.32128385257553      1.88379241666515     -2.03332717005347
  C           2.43192567465309      2.97633430917347     -1.70124143655549
  C           2.32045792071605      0.92750340765494     -2.94418709663842
  C           1.41325664975465     -0.46591520020573     -0.51875951751379
  C           0.11888008570918     -0.70391207135952     -0.06842030327768
  C           2.19558617044777     -1.54072774612391     -0.92733584062389
  C          -0.38910949867782     -1.99092598015340     -0.04355410441558
  C           1.68838065418181     -2.82809716361746     -0.89726718910321
  C           0.39351418536587     -3.05471418307682     -0.46011404594448
  H           1.53853584287490      1.51304759697033      0.27618867188953
  H           3.06114273297855      0.87135925959347     -0.36406828462794
  H          -0.10221307257839      2.45084728318948     -1.20843906160423
  H          -0.18600042712904      0.92538126114688     -2.10788032221129
  H           0.17822213943742      2.43714354008616     -2.95789102171447
  H           2.01824482140145      3.54244250530644     -0.87074515557912
  H           2.29740408824929      3.53524331289718     -2.62357429079398
  H           3.49681141869254      2.82952107833118     -1.52403787192490
  H           1.79484151096192     -0.01543872507700     -3.07144835970597
  H           3.37194480303582      0.70580586586056     -2.76831837709534
  H           2.23077399593116      1.52063679774834     -3.85032376147646
  H          -0.49118724062986      0.11363066317118      0.28344409646899
  H           3.21256826284543     -1.37722234901403     -1.25193790888835
  H          -1.39279606104726     -2.16734521021053      0.31029085210481
  H           2.31751404167116     -3.65065552276430     -1.20558946014612
  H           0.00459681548657     -4.06095209458590     -0.43305398865123
  Cl          6.11745348372970     -2.68129669117773      2.88448951579086
