53
Coordinates from ORCA-job R4N+PFOA-_0.15M E -133.574791529640
  C           7.10033072167326     -6.32372179540191      0.71448863293272
  C           4.80573999500162      1.34338901021189     -2.76195407200952
  F           5.95194321525226     -2.24229654159711      0.90562058653868
  F           4.77169506204652     -2.38890663516512     -0.88969755661208
  F           8.15495289230745     -1.80453307664299     -0.22912199167100
  F           7.52205699704387     -2.30914237636517     -2.21723049204028
  F           5.03026509990458     -4.84332106611934     -0.36937736204704
  F           6.64367666186421     -4.51450152374976     -1.70814575694832
  F           5.80238871983252      0.03216561522289     -0.25258302776907
  F           7.69144342596169      0.47716566827569     -1.17278642577938
  F           8.47309351070390     -4.59179225612375     -0.04907523598125
  F           7.31564879527637     -4.18523618675140      1.70801022387987
  F           5.33763421935762     -1.22315521677078     -3.08870959761981
  F           6.90876807002024      0.20789123468152     -3.53528940039123
  F           6.03523302967347     -6.67662203803097      1.40690164379734
  F           8.17207208469590     -6.79615465549481      1.34906691344750
  F           7.04421492720644     -6.93723198851182     -0.46776293936738
  O           5.26000700144290      2.23995715341614     -2.10325273420260
  O           4.10339888797871      1.16974789336405     -3.71981333481438
  C           5.98028084487283     -2.66444101992869     -0.36654659925377
  C           7.08499412024601     -1.79839939525131     -1.05532429374476
  C           6.20076649278384     -4.20636195323161     -0.46468048055283
  C           6.61167862423558     -0.32495440300087     -1.27789665014045
  C           7.25781694187672     -4.78749393541415      0.51991042067244
  C           5.91265498699171     -0.06273598654621     -2.62672485328522
  N           2.66750844208526      1.62173137666384     -1.17213265264465
  C           2.87953580511078      0.14775631969332     -1.33443314449671
  C           1.29373663131052      1.64066985667394     -0.52702943021812
  C           3.51444527620678      2.18667794703978     -0.09402757665890
  C           2.46100035479378      2.57487525901701     -2.28994063865726
  C           1.76642688676284     -0.60609288705473     -2.02552501140134
  C           0.94522389445382     -1.44234580909345     -1.27483950819138
  C           1.57978623048457     -0.54082079078949     -3.40185126562083
  C          -0.06315366648759     -2.16972109545175     -1.88142882206074
  C           0.56449556883812     -1.26308495729365     -4.00594411050216
  C          -0.26487334227516     -2.07141879971613     -3.24785548821121
  H           2.98856979925681     -0.24951338322575     -0.32215525319827
  H           3.80188248204609     -0.09074584437696     -1.83876495736351
  H           1.24258196326922      0.92153871528762      0.28574677023502
  H           0.53958382622952      1.38217986160722     -1.26526802103073
  H           1.08799073064502      2.62854867526405     -0.12556347153719
  H           3.32495028425156      1.65418481413184      0.83447243581066
  H           3.26376754705547      3.23702744776115      0.02597130958232
  H           4.57338661081739      2.11855904245754     -0.30314830233261
  H           2.01179482987189      2.06428711497092     -3.13515360314549
  H           3.37967248821223      3.05382510916362     -2.60553257052939
  H           1.78997906581180      3.35848997310334     -1.94850405265049
  H           1.10953702324231     -1.54946685988143     -0.21245048041552
  H           2.25001498988142      0.04703905210565     -4.00792191689821
  H          -0.68487945401229     -2.81831517944475     -1.28390693626613
  H           0.43215733968820     -1.20081443936233     -5.07483015655331
  H          -1.05288910349878     -2.63633043393582     -3.72080235177646
  Cl          4.27961324759768     -4.17018251408926      2.34309004119430
