53
Coordinates from ORCA-job R4N+PFOA-_0.15M E -133.631512564280
  C           3.76036224070358     -3.65634071610808     -2.57903922778678
  C           8.08386514951131      0.60449357239963      0.72891760059526
  F           5.43455789459716     -3.18030037050213     -0.36787244909634
  F           5.81833415333331     -1.06326991454316     -0.48283916089043
  F           7.70108873114740     -2.98454849913629      0.79849321093887
  F           8.02085963827030     -3.73675364627843     -1.17370116380844
  F           5.31966836701039     -1.21893761584493     -2.85612394536995
  F           7.19208626291984     -2.22550230219272     -3.13674975417353
  F           9.80676270988895     -1.85951544055290      0.21344578050279
  F           9.44975304019352     -1.91951906753464     -1.89757537371998
  F           5.35933828161779     -3.57931152295046     -4.31082417306017
  F           5.89511626743314     -4.68275765868826     -2.54078387700452
  F           7.63033655753957      0.13071254473799     -1.71439220226915
  F           9.66586379026175      0.54341026710772     -1.13136836488054
  F           3.27048578607203     -2.49688739540156     -2.15802538432276
  F           3.55177690564897     -4.57162603002113     -1.64975192593588
  F           3.04635901922753     -3.99970705069247     -3.64735734597938
  O           8.83513091932478      0.29747922212582      1.63719226061788
  O           7.13842191259972      1.35706733854191      0.60834103689415
  C           6.24788079284896     -2.24735520952146     -0.91608032677165
  C           7.70090140648376     -2.60552516566890     -0.48296335222259
  C           6.02824042942376     -2.29258570261199     -2.46994751698625
  C           8.86198169108998     -1.59091471387475     -0.70847507545591
  C           5.27881942493644     -3.57138993905433     -2.96682237801157
  C           8.52948895651823     -0.09801865118740     -0.70978604414002
  N           1.35482610460544      1.11495645286035     -2.17250961426496
  C           0.81420595203711      0.77302996436736     -0.82254931586764
  C           0.88983932586696      0.14414662701076     -3.17450356221391
  C           0.86755471631389      2.45510583090289     -2.54004722882172
  C           2.82538572256411      1.12578236060927     -2.15237146143181
  C           1.19393671406077     -0.59971957726661     -0.32800959302880
  C           0.37544869603266     -1.69369843799045     -0.59123396644074
  C           2.34590928333350     -0.78843154109893      0.42755756094503
  C           0.71275556382148     -2.95197652591270     -0.12626837192809
  C           2.68080005380712     -2.04632560774015      0.89952352631136
  C           1.86784265010771     -3.13193629762376      0.61744458040095
  H          -0.27343437571405      0.84422856152222     -0.87429474609368
  H           1.18965974312479      1.51330171045883     -0.11494615144612
  H          -0.19667168407276      0.12633722559435     -3.19586845707581
  H           1.26216976267344     -0.84688703177376     -2.92878854352666
  H           1.26331509977687      0.42516142132706     -4.15565981529836
  H          -0.21883995931677      2.45990746198252     -2.57821686311384
  H           1.25993438335165      2.73304910305099     -3.51487882611301
  H           1.20097134823768      3.18779296223066     -1.80941413861580
  H           3.21433197548329      0.15022789119675     -1.87083907922558
  H           3.19704609866649      1.85057915209985     -1.43175098944863
  H           3.21237159779631      1.37986515300401     -3.13548287823789
  H          -0.53817223139898     -1.56714555636288     -1.15091216114759
  H           3.00607534596133      0.03165888975155      0.67336934675995
  H           0.07525211180560     -3.79686914210916     -0.33646860284507
  H           3.58205469868510     -2.16341504967159      1.48506836906712
  H           2.14310385845246     -4.11045192311045      0.98192170723501
  Cl          5.91944819523425     -1.35281831355596      2.47251487930307
