53
Coordinates from ORCA-job R4N+PFOA-_0.15M E -133.629833025730
  C           4.08393068393188     -3.80110258106502     -2.73310970337858
  C           9.13932717355024     -1.20246930903025      1.49319464131142
  F           4.93531862975527     -2.97858190608528     -0.08617285756564
  F           5.92816444349981     -1.10624689380398      0.26051880839782
  F           7.30685998280255     -3.37494729993361      0.90227592219234
  F           7.07310856676357     -4.12852978315856     -1.11436623076760
  F           4.34531741339428     -0.99186032630537     -1.76791544086635
  F           6.36431613767803     -0.80459168877828     -2.44847654367983
  F           9.57045592360149     -3.26481568996880     -0.69665944337609
  F           8.48174048875324     -2.17139117730224     -2.19165688224890
  F           4.73210990806224     -2.03756638493712     -4.11411855306039
  F           6.29824810812034     -3.37050854976481     -3.46221342955967
  F           8.12161709013233     -0.07871089621639     -0.48734188217328
  F          10.18584730807409     -0.66669037472296     -0.70347718976687
  F           3.01113095454335     -3.22101684050848     -2.20402260368052
  F           4.49905280420584     -4.75452520133894     -1.91714554105688
  F           3.69324579468109     -4.37055555178089     -3.86838076590539
  O          10.27769893594154     -1.41071445170064      1.86770399441084
  O           8.06642803445397     -1.05982298173123      2.05683466573379
  C           5.93404360136657     -2.18113377419298     -0.53626301388814
  C           7.25277992261315     -2.99973214696946     -0.38160666676900
  C           5.49057277694333     -1.68871931552474     -1.94656294008343
  C           8.58813644704960     -2.35962015320104     -0.83767640996169
  C           5.18871570345969     -2.74443940959902     -3.05541951757892
  C           9.00835564157884     -1.06103884157145     -0.14379425102617
  N           0.66617264784560      0.83358535367815     -2.71907017132131
  C           0.28491395755489      0.83873242281019     -1.27436658232309
  C           0.80095738162960     -0.54627107068742     -3.20934873161737
  C          -0.39467251701602      1.51509531344205     -3.47951033751519
  C           1.93725467001412      1.54543798333813     -2.91927974285940
  C           1.28995662294063      0.18536401247132     -0.35888223455711
  C           1.20066871520488     -1.17050288488803     -0.06368217420236
  C           2.30043199041017      0.93753008668608      0.23096043846065
  C           2.10695469334692     -1.76326948562050      0.79782402464784
  C           3.20765724326938      0.34512153480849      1.09135682110554
  C           3.11072519150291     -1.00640897005400      1.37889299122832
  H          -0.66858315027689      0.31759329563772     -1.18051513694869
  H           0.15384835330152      1.87746384445729     -0.96858855211007
  H          -0.13834090972434     -1.07938088693297     -3.08788233963018
  H           1.57795382324488     -1.06705054925867     -2.65460167955636
  H           1.07061734827641     -0.53886033429732     -4.26240590608110
  H          -1.34290942475867      1.00123309434608     -3.34420791183868
  H          -0.14472196690916      1.51793237606681     -4.53742078547008
  H          -0.49819469533973      2.54291189980240     -3.14116245144064
  H           2.73745491134090      1.04676012805602     -2.37685590016985
  H           1.85287642881754      2.56911707071444     -2.56356253159080
  H           2.19026240873101      1.55842991301558     -3.97640195538807
  H           0.41683075818787     -1.77571254546691     -0.49094049842578
  H           2.38255057450851      1.99547311318853      0.03594958486749
  H           2.03972993841238     -2.81760351897458      1.01971316182036
  H           4.00035908519870      0.92498119544172      1.54020131001370
  H           3.82357233320461     -1.46587398217027      2.05010634945491
  Cl          9.31375219202456     -5.87464478411872      1.21782922729441
