53
Coordinates from ORCA-job R4N+PFOA-_0.15M E -133.637525474950
  C           5.63722212763529     -6.43472514967384     -1.28242562689357
  C           5.94030728625975      1.03690851384933      0.08331279543057
  F           8.91841733941032     -4.32171062865616     -0.61972564264144
  F           8.20886798023020     -3.06000456977144      1.00189132723709
  F           9.14407293406589     -2.22784586346111     -1.87926491163249
  F           7.04314734112696     -2.44342483803576     -2.20634420432974
  F           6.86492292949089     -5.26508934836051      0.73913124625963
  F           5.60730647324330     -3.59025796569795      0.27773632084733
  F           8.67452969170531     -0.54304952447196      0.27618757322464
  F           7.89215951567777      0.03324847883125     -1.65743380929746
  F           5.20389143837612     -4.27589686866044     -2.08146347697250
  F           7.18743163356954     -5.06998350903395     -2.41215233125813
  F           6.28299268815443     -1.15492328783364      1.22725661157314
  F           5.38949811304395     -1.23784962920678     -0.74779137077409
  F           6.59655191782031     -7.28074086623911     -0.93711966403034
  F           5.08164260100813     -6.88472144651533     -2.40125496577924
  F           4.70258871093302     -6.44423835368805     -0.33978942522429
  O           6.77966991924605      1.69954127798730      0.65876374451561
  O           4.86973887114723      1.28918651824823     -0.43616020940240
  C           7.95306385207923     -3.45928175227849     -0.25440679278467
  C           7.96597216855758     -2.24622036165559     -1.23371969580461
  C           6.63806844508711     -4.30859594428049     -0.18588366697561
  C           7.71929585775836     -0.83076098332838     -0.62070685753452
  C           6.18966879283587     -4.99313229343171     -1.51709174463438
  C           6.33010727672722     -0.58103635057461     -0.01041684578402
  N           1.44648940671574      2.27216240738931     -1.76147295120732
  C           1.41470521231456      1.17213046087778     -0.75113546720164
  C           0.13046162280996      2.44225806461564     -2.39331661828634
  C           1.82411196743578      3.51411607395701     -1.06842520759341
  C           2.45559444297136      1.97932591215369     -2.79065028613976
  C           1.10854381434795     -0.18891104436677     -1.32146993583574
  C          -0.20146386861521     -0.64110360638321     -1.44123244664099
  C           2.15063275485719     -1.02985873639662     -1.69762395435300
  C          -0.46320529688409     -1.90212883974087     -1.94831109493829
  C           1.88900783540234     -2.29353886482590     -2.19839969470407
  C           0.58026123396383     -2.72886175475325     -2.33094618685288
  H           0.66671140050910      1.43086456676813     -0.00015517988585
  H           2.40002414024829      1.13594777570761     -0.28022279642521
  H          -0.61628180212494      2.67293776393150     -1.63775039178136
  H          -0.15166666576001      1.52921349159832     -2.91113991053058
  H           0.17368780126511      3.25785443371158     -3.11069712437811
  H           1.10668289340195      3.74021863406968     -0.28354692431038
  H           1.85276310680433      4.33825513860851     -1.77678435662466
  H           2.81127449115372      3.39903831521165     -0.62351594763919
  H           2.18547853837118      1.07832128763108     -3.33534388931925
  H           3.42541278547994      1.82169682050969     -2.31974064986243
  H           2.52821831147427      2.81318385382391     -3.48390474148534
  H          -1.02316637178214     -0.01838936005130     -1.12300218142701
  H           3.17421537022254     -0.70838356350643     -1.58055756950808
  H          -1.48193847785041     -2.24596242393949     -2.03784984646240
  H           2.71481984910453     -2.93444165848287     -2.47235026350790
  H           0.37865682263983     -3.71512908832223     -2.72017236818734
  Cl         11.55343385623268     -2.97835921755693      0.59688605925410
