53
Coordinates from ORCA-job R4N+PFOA-_0.15M E -133.635421726360
  C           4.57286140955512     -3.59223369624037     -2.86056601458373
  C           9.29714730406785      0.25200128338016      0.80494255954919
  F           5.14611241572895     -1.18899464555920     -1.38822145645045
  F           6.91344662154323      0.01670067214313     -1.75566373305731
  F           6.76650153869609     -1.00862078661477      0.74809124592672
  F           6.43135757323294     -2.98850264437105     -0.01660065306888
  F           6.08743396284452     -1.22315480362693     -3.86686570426340
  F           7.98783818403280     -2.02493449685502     -3.26209844579612
  F           8.82491653828676     -2.75644485807742      0.97978958723103
  F           8.88757965514815     -3.07950889089016     -1.13934399449632
  F           6.38864428135947     -3.81793871599602     -4.33308340880244
  F           6.74096518379628     -4.28269867192896     -2.25857013247305
  F           9.44998668856437     -0.44313522311583     -1.59705533289335
  F          10.81979376039214     -1.40255659530306     -0.22659146154258
  F           3.86625220059018     -2.57363418367444     -3.32960169713230
  F           4.28127965731371     -3.75099729674575     -1.57913511993658
  F           4.16510444412079     -4.68226818896051     -3.50244293693682
  O           9.34520511760479     -0.18042334147142      1.94411016250603
  O           9.12000733136506      1.35283211344761      0.31786221139321
  C           6.48314675468844     -1.23774812662620     -1.56951498644766
  C           7.09148464150971     -1.82832180346750     -0.26443108894658
  C           6.68950723307657     -1.98175610279426     -2.92659051424771
  C           8.60761927307859     -2.13480104164175     -0.19630681738788
  C           6.11201249965882     -3.42256892101362     -3.07479375400748
  C           9.54114715749498     -0.92747336785603     -0.32648390874888
  N           0.88111482979005      0.97168182834980     -2.00294177178586
  C           0.77320265355955      0.68565176523651     -0.54086537925964
  C          -0.16089012783777      0.26063992798868     -2.75680800090941
  C           0.72171185908399      2.42136922584211     -2.19755395196866
  C           2.20858614723876      0.56763733664154     -2.49410369559112
  C           1.01088394242055     -0.75554114049687     -0.17160367891426
  C          -0.03015668455307     -1.67788077116324     -0.16492153236388
  C           2.28494248336567     -1.16667933904838      0.20760982965584
  C           0.20362375755723     -2.99606706058925      0.18641665592832
  C           2.51418095179313     -2.48371326359824      0.56674432576759
  C           1.47730131821270     -3.40265252824476      0.54693358127755
  H          -0.22182226546334      0.99116530429215     -0.21310308982886
  H           1.52810867998246      1.29049987950782     -0.03328616212625
  H          -1.14334980987944      0.57372981976012     -2.41239190287249
  H          -0.05125056843499     -0.81130978858721     -2.61615202911675
  H          -0.06238787242692      0.48863713739907     -3.81503849673911
  H          -0.23265987566667      2.75056348756105     -1.79410146337173
  H           0.76643435534035      2.65733159108858     -3.25777780118946
  H           1.52625912975982      2.94895936356878     -1.68899871484364
  H           2.32334676453978     -0.51180382552827     -2.43792347669349
  H           2.99634966433960      1.01328593620466     -1.88439840608038
  H           2.33801431073114      0.88641429626400     -3.52450475364594
  H          -1.03244636873641     -1.36825990548544     -0.41748996168577
  H           3.09998068148755     -0.45662523066383      0.23460200465215
  H          -0.60770849778213     -3.70716614976708      0.18691250089988
  H           3.50907959325669     -2.78772934577913      0.86134091571630
  H           1.66748211377278     -4.42830906615480      0.82391333092851
  Cl          4.94931848669827      1.57120494556092      0.12695297027376
