53
Coordinates from ORCA-job R4N+PFOA-_0.15M E -133.575879852720
  C           7.42125964167331     -6.31532044608137      0.53368388320854
  C           4.83165078805404      1.25606156316576     -2.71684730034135
  F           5.97838925268154     -2.33821084234588      1.12073336797226
  F           4.75164132107270     -2.37739173521114     -0.67343952820226
  F           8.14127063152158     -1.81907088521809     -0.08535379839245
  F           7.47163325392312     -2.44072608737916     -2.02930407061286
  F           5.11929550146378     -4.85144786390962      0.30753128040890
  F           6.08535995984116     -4.58509136959831     -1.59664318898731
  F           5.79861478301006      0.01652059206355     -0.16581673742598
  F           7.68332323275641      0.41212299459597     -1.11740149511455
  F           8.48621341888934     -4.51678934780593     -0.55659880761251
  F           7.78375885959574     -4.18262465370720      1.45828744146901
  F           5.30674818383809     -1.34587147423836     -2.95107614636455
  F           6.89884361608114      0.03639891150715     -3.46092434328553
  F           6.71447927770462     -6.60723263138019      1.61656816970129
  F           8.65002096894781     -6.78647250052429      0.71309311591283
  F           6.89118068902939     -6.95705180291901     -0.49974384759260
  O           5.29727106837856      2.14439747610639     -2.05332314299568
  O           4.14820369467486      1.09981392007477     -3.69133148399764
  C           5.95843981182509     -2.68751155345818     -0.17596043448949
  C           7.05985330158767     -1.84737498213048     -0.89443644781537
  C           6.14367503802768     -4.22961110050318     -0.29841895072652
  C           6.59564020818714     -0.38463381683656     -1.18374841288732
  C           7.47642677483109     -4.77503703292895      0.29369141336683
  C           5.89754029116900     -0.17421743445072     -2.54123440149463
  N           2.66255378214648      1.60748313288258     -1.18434532579116
  C           2.85659109151105      0.12860170587148     -1.32896348450086
  C           1.26877336497244      1.64393249397542     -0.58591845708881
  C           3.48377306961683      2.16136732194556     -0.08127718430812
  C           2.51398088845461      2.56773616564505     -2.30441263950018
  C           1.75726105243198     -0.61814600795276     -2.04815297788064
  C           0.95540624842931     -1.49036345358648     -1.31720795950990
  C           1.56190379594752     -0.51508523338757     -3.42112997712083
  C          -0.04653218756719     -2.21291201243902     -1.94063182000275
  C           0.55238337479243     -1.23240826754378     -4.04045659157777
  C          -0.26135373066131     -2.07359793459924     -3.30156706021515
  H           2.92090364379874     -0.26969039738645     -0.31214509211237
  H           3.79393204093925     -0.12877446788662     -1.79391152109316
  H           1.18424969174060      0.92516812535531      0.22539224182994
  H           0.53797877288730      1.38886423631734     -1.34847907352617
  H           1.05827749962063      2.63423999078624     -0.19322188679650
  H           3.30706421695777      1.58765168405404      0.82533793441229
  H           3.19766323267893      3.19775016248819      0.07555691861597
  H           4.54484267871893      2.13407435372845     -0.29019597175017
  H           2.06610166346184      2.07514856769840     -3.16050979741204
  H           3.45575805186272      3.01557450785663     -2.59684946440304
  H           1.86194681027194      3.37179577658447     -1.97362948469779
  H           1.14002152969251     -1.63512099961218     -0.26153201114399
  H           2.22282762913855      0.09561508551122     -4.01458113444644
  H          -0.65167011716809     -2.88983814854147     -1.35715775299688
  H           0.41221221480638     -1.14011194843386     -5.10615177887410
  H          -1.04622909848217     -2.63393425030474     -3.78524418671942
  Cl          2.95324630013460     -2.82079598961344      1.90769585640881
