53
Coordinates from ORCA-job R4N+PFOA-_0.15M E -133.633986559020
  C           3.58929559344905     -4.24146461887365     -2.44845691774088
  C           7.34808146161558     -0.57250226764837      1.54556884524817
  F           6.20954040009416     -4.28486987945986     -0.83184176537251
  F           5.78432183874740     -2.44992309272096      0.24007664041127
  F           8.48983859190434     -3.33806587817915     -0.10140405709936
  F           8.22178507895907     -3.09175927974007     -2.21902402301141
  F           4.38272555089742     -1.73725535937674     -1.65375694060243
  F           6.12896621207234     -1.59505574142803     -2.87754367287842
  F           9.57416914407051     -1.13441269494844     -0.47758864464058
  F           8.37837775216282     -0.64009427697380     -2.18210057946120
  F           4.55147125775332     -3.01397820378372     -4.18986367746590
  F           5.81228762468373     -4.50317320625713     -3.28847313504689
  F           6.23120844573724     -0.04524634902839     -0.63914792059890
  F           8.01778611901139      1.06050259911280     -0.16732818623979
  F           2.55061091877343     -3.44993950692411     -2.70355369756586
  F           3.62643074779423     -4.44820736076740     -1.14157405768434
  F           3.36625954280078     -5.39931928084165     -3.05466820824079
  O           8.25857169093999     -1.29589140041825      1.91620613787608
  O           6.39854491152420     -0.04604908421418      2.09512509766034
  C           6.30852329064240     -2.94098704014536     -0.88767191721024
  C           7.82672065626341     -2.61161028129946     -1.00870934302463
  C           5.43901349910810     -2.44190172166210     -2.09439356113809
  C           8.30006128816606     -1.12910775953607     -0.91220812213687
  C           4.88700634840932     -3.57871988427102     -3.01159338781603
  C           7.45662456188611     -0.18133917030855     -0.05098484314671
  N           1.51520018051088      1.22425837403647     -2.54196903616393
  C           0.93973942087168      1.02560082312431     -1.17687949921996
  C           1.37207218673161     -0.00131516805336     -3.34240742657750
  C           0.77745242701308      2.31647242858847     -3.19911847359588
  C           2.93751911026264      1.58744248034300     -2.45652104089585
  C           1.58435393285019     -0.08591001095078     -0.38721185661591
  C           1.07575369159541     -1.37882140553389     -0.44496091027564
  C           2.68184812809642      0.16888245636998      0.42807119391688
  C           1.66784251657596     -2.39881454859172      0.27846308171910
  C           3.27715228030207     -0.85147021600802      1.14879466271581
  C           2.77662198815537     -2.14097938259063      1.06792670482661
  H          -0.12230750835810      0.80649376665747     -1.29349375864611
  H           1.05512190956437      1.95992873012173     -0.62644967866322
  H           0.32318654283025     -0.27439153967384     -3.42032586604914
  H           1.91641164243133     -0.81990508704098     -2.87746872180149
  H           1.77296044416084      0.16162203416945     -4.33940359035267
  H          -0.27497275798249      2.05855987330741     -3.28377321600755
  H           1.18088692322521      2.48510780294217     -4.19425327753671
  H           0.87246272094182      3.23303102990654     -2.62264379136319
  H           3.50630273243149      0.79883976544137     -1.96730093373194
  H           3.05791643350936      2.50363398518769     -1.88396632311621
  H           3.34129853478260      1.73848933191233     -3.45435990669194
  H           0.20935566688647     -1.60109766772182     -1.04786637123867
  H           3.08969862666656      1.16378992782755      0.51941587252922
  H           1.27373722806520     -3.40291624851706      0.23114996217150
  H           4.14532081828089     -0.65283585510239      1.76098341793415
  H           3.26433811959530     -2.93712461725158      1.61518040681905
  Cl          6.49910461243680     -4.95834822690621      2.29359476433699
