53
Coordinates from ORCA-job R4N+PFOA-_0.15M E -133.635275340680
  C           4.31269279178787     -4.70947253280545     -2.60282918004099
  C           6.75097035119810      0.90901289756752      0.57737773435818
  F           5.62955211619220     -3.62853847410537     -0.41417622882128
  F           5.48184108206607     -1.48768152954301     -0.56618780353248
  F           7.88123967048867     -3.36708968641177      0.47144979236657
  F           8.40072755631262     -3.09199268396511     -1.56038510263102
  F           4.90041548873951     -1.90842571552575     -2.86275565027792
  F           6.98326908069582     -2.15344359643780     -3.24852779307653
  F           8.82791735311103     -1.16449216569763      1.05857449197293
  F           9.58538810893104     -1.19180076374812     -0.93307515106199
  F           5.82629958235319     -4.14825777615660     -4.32774642677549
  F           6.67097529263170     -4.93557358020362     -2.51060071746848
  F           7.04881568277170      0.00136499185552     -1.75438863818018
  F           8.69262004783180      1.06057993112343     -0.85784099157079
  F           3.48798740467734     -3.81075042900979     -2.08153768040610
  F           4.44102041561946     -5.70901107352335     -1.74462431535005
  F           3.71970527509766     -5.18952240264657     -3.69191737644766
  O           7.38970244597048      1.24552779303655      1.55603609819416
  O           5.61173951881388      1.10181272641397      0.19591408767206
  C           6.19766404757538     -2.53261455374868     -0.96906937689890
  C           7.70214910703462     -2.51279786711906     -0.54331255575100
  C           5.96915587053111     -2.64980761195553     -2.52319784354860
  C           8.41549714104142     -1.15420093800989     -0.21745645401332
  C           5.71800441781484     -4.11923281776525     -2.98680616367581
  C           7.70153155185205      0.15971507283474     -0.56102762738954
  N           1.65963323503038      1.32441063529112     -2.14862999842089
  C           1.28545119133378      1.05559707741995     -0.72768640233456
  C           0.71298260319163      0.67354130185204     -3.06656594251003
  C           1.62294454465370      2.77922051582963     -2.36772991945849
  C           3.01774049085994      0.82718142753803     -2.41967615911304
  C           1.38268486404415     -0.39330547399261     -0.32347379670230
  C           0.30673185379423     -1.25796845851763     -0.49738015293599
  C           2.54696183845004     -0.87382116516146      0.26662797728466
  C           0.40400094866699     -2.58424204405991     -0.11582884091710
  C           2.63871480013179     -2.19837848960595      0.65871578711520
  C           1.57152360845829     -3.05847275464696      0.45896232836607
  H           0.26314295109336      1.40803096535081     -0.58027285547511
  H           1.96300137019218      1.62847742654437     -0.09241856520015
  H          -0.29168380055275      1.04782217001741     -2.88701958944414
  H           0.73235662643876     -0.40223771446711     -2.91388867913136
  H           0.99743623427171      0.88746745069897     -4.09353743763542
  H           0.63507758531532      3.16716540880330     -2.13177088784232
  H           1.85685674161748      3.00005116008608     -3.40610983560024
  H           2.35908953267584      3.26810740911364     -1.73382397568067
  H           3.04980554234936     -0.25641812498585     -2.33895602008316
  H           3.73442446976478      1.22182980301591     -1.69976996326767
  H           3.32836331972451      1.11628251267361     -3.41979802338320
  H          -0.61972126512674     -0.89648487467596     -0.91599102437712
  H           3.40021347948212     -0.23090928326676      0.43697888559798
  H          -0.43266478173089     -3.25058232661825     -0.25645285648181
  H           3.55137490758254     -2.54091735747736      1.12839247128566
  H           1.65569938432350     -4.09072966390758      0.76441734430078
  Cl          6.17557740272403     -1.76617265100495      2.15909345589861
