53
Coordinates from ORCA-job R4N+PFOA-_0.15M E -133.631360319050
  C           3.60637688322628     -3.91956132458199     -2.17588753454600
  C           7.51879459587376     -0.59637852258442      1.70888067463065
  F           6.07082674010609     -4.27628575207855     -0.35625016303390
  F           5.89985595968190     -2.30324573599291      0.44658360402380
  F           8.38032313296837     -3.65982845882588      0.50974268061689
  F           8.40443654564723     -3.59333576131313     -1.66570882249003
  F           4.85027139495200     -1.54816570586330     -1.62391429512918
  F           6.66546980258319     -1.90799411686299     -2.70722413368728
  F           9.89365902390755     -1.72780974494843      0.10213101915901
  F           9.02707878626348     -1.23219597562221     -1.80092909723810
  F           4.86776159740898     -3.13040128394613     -3.97736445293302
  F           5.75400133402609     -4.72405986593346     -2.82916650788428
  F           6.87107136575942     -0.10254463137911     -0.64771474943124
  F           8.75768799137695      0.71024083787904      0.01652360620363
  F           2.76587440153353     -2.94925582263546     -2.52397683275711
  F           3.56386818656489     -4.02547789620871     -0.85593167880658
  F           3.14899138471761     -5.04640714228258     -2.70102943551295
  O           8.10915287090788     -1.51395920455967      2.25529865475038
  O           6.67353580431443      0.20130638513544      2.06568441867594
  C           6.43032777516096     -2.99395662339447     -0.57459039248414
  C           7.98784229161975     -2.94520936604734     -0.55300979267206
  C           5.76708293238549     -2.49480975892083     -1.90211646999542
  C           8.70985842945025     -1.56125368988914     -0.51803238390385
  C           5.03496595077080     -3.60245840343558     -2.72471455083715
  C           7.95745947715061     -0.39096456169327      0.13092207627110
  N           0.98049079132348      1.15297180333355     -2.78341341258036
  C           0.72225976605610      1.24657143959052     -1.31495947984262
  C           0.57953416594552     -0.16628603791451     -3.29524616314390
  C           0.18529192654938      2.19209769769992     -3.45884803239250
  C           2.40616456405106      1.37179712147520     -3.07093305320244
  C           1.49782481845369      0.25818347329970     -0.48060520615579
  C           0.97243446774630     -0.99927573673876     -0.20460205967972
  C           2.73446041579117      0.60440873446037      0.05429550311094
  C           1.67866675701753     -1.89767214161441      0.57544623993607
  C           3.44029454445561     -0.29133421784815      0.83836665452415
  C           2.91395775593188     -1.54708354952545      1.09478771507771
  H          -0.34477761431865      1.08690544102708     -1.15437764261001
  H           0.98358354571727      2.25549075229796     -0.99364377930553
  H          -0.47258495725239     -0.34202423301379     -3.08698644918043
  H           1.17339502626176     -0.94789687626695     -2.82770254484595
  H           0.73962483826131     -0.20717987551475     -4.36954423625658
  H          -0.87297548168217      2.04067370519062     -3.26217094463910
  H           0.35447297330440      2.14528351897322     -4.53160896796293
  H           0.47369726203267      3.17760915175008     -3.10224838790456
  H           3.01466596543943      0.61343614193257     -2.58165009630929
  H           2.71616803260608      2.34969366375135     -2.71128645023240
  H           2.57860420064338      1.31863381909910     -4.14282622546361
  H           0.00263133766423     -1.28309332328989     -0.58216998986411
  H           3.15961374454445      1.58025932924096     -0.12200496361911
  H           1.27104552472148     -2.87463881855351      0.78685197132216
  H           4.40165895649826     -0.02031656135237      1.25121364585316
  H           3.47392665235323     -2.24468633269241      1.70139737976160
  Cl          9.37389644142523     -6.62066386651219     -0.68544001388398
