53
Coordinates from ORCA-job R4N+PFOA-_0.15M E -133.626512248310
  C           7.69872250016593     -6.51090162272001      0.65347408331393
  C           5.16692868298142      1.15227358594080     -2.58223527347066
  F           6.00487056603119     -2.56733493295296      1.26030261967180
  F           4.77185800464138     -2.75241993950239     -0.48584132412802
  F           8.24810003133028     -2.14874951081647     -0.36300914231630
  F           7.11626400268573     -2.69168474921777     -2.08849085009646
  F           5.34985763859304     -5.06791186915532      0.70757979041739
  F           6.03628720510458     -4.93289271655520     -1.32500585236422
  F           5.63558614821292     -0.31295361950747     -0.08536278839624
  F           7.59541650221893      0.20036224735580     -0.86122382387600
  F           8.56757823170826     -4.74171496383206     -0.63309718660328
  F           8.11052898500218     -4.34618782837669      1.45902136641819
  F           5.06593440951998     -1.32779674878544     -2.76162430663122
  F           6.93113971354581     -0.37823357648718     -3.35079219666460
  F           7.09260194330114     -6.78180256533891      1.80159394108509
  F           8.94704302240859     -6.95075603714097      0.73506538129037
  F           7.08880066546134     -7.20184778866874     -0.30334798016089
  O           5.43094854338385      1.94249710323744     -1.69573287316564
  O           4.53667256701422      1.22328138402366     -3.62008243445904
  C           6.02837281574431     -2.94758044485195     -0.02010129796302
  C           7.01277353557832     -2.09754298599152     -0.87367291523115
  C           6.27716605501579     -4.48641558257835     -0.07995328948823
  C           6.54114994538065     -0.61274677802085     -1.04242074225567
  C           7.68647651601721     -4.97730983057793      0.35622902281966
  C           5.92681879271281     -0.32004412458494     -2.42761853018771
  N           2.13262220061780      1.66529827655362     -1.00771883279976
  C           2.44144691332494      0.23090804208191     -1.26093338541128
  C           0.75310832737438      1.74461130179436     -0.46947882817663
  C           3.02889224739835      2.20313785279435      0.02921134402864
  C           2.17090886051689      2.50666415953712     -2.21062056970209
  C           1.49968262067802     -0.45485824685598     -2.21898288935484
  C           0.41256361401691     -1.17668310587661     -1.73639577772520
  C           1.72521186896204     -0.40678320845105     -3.59025528062977
  C          -0.44801665117440     -1.81791437217079     -2.60991709850589
  C           0.86236508662058     -1.04904214048091     -4.46239696074552
  C          -0.22843777750382     -1.74961341938722     -3.97545227157970
  H           2.42187112402115     -0.28446710070079     -0.29839177248923
  H           3.45581670148017      0.15992802972630     -1.64252479412630
  H           0.67407712247993      1.14665723954741      0.43451912767559
  H           0.04605267660797      1.37434514031779     -1.20711291849001
  H           0.51430066990889      2.77750849738022     -0.23146537972399
  H           2.97671287248254      1.59184099255567      0.92650766915115
  H           2.73702638881375      3.22271292620907      0.26592400246727
  H           4.06010243617588      2.21148908930647     -0.31218791497309
  H           1.48993480415588      2.10976006666023     -2.95901442373394
  H           3.16802680731173      2.53831186684862     -2.63603362282195
  H           1.87677199866370      3.51879101211090     -1.94664384049327
  H           0.24410965317177     -1.25074209463382     -0.67315087040149
  H           2.58836526289217      0.11622854919466     -3.97381325421810
  H          -1.28676017330362     -2.37559277742861     -2.22373633679103
  H           1.05143844591754     -1.00550741379704     -5.52388828032730
  H          -0.89706748690211     -2.25018637263533     -4.65836143992072
  Cl          8.51557744143061     -1.04253679879535      2.43695765376024
