53
Coordinates from ORCA-job R4N+PFOA-_0.15M E -133.630001307490
  C           7.28136642530768     -6.18851533805736      0.58964265034210
  C           5.15412120107808      1.26224118091596     -2.87267554997515
  F           5.66885259145525     -2.14762343113177      1.17379615074707
  F           4.67287701881633     -2.21987201177072     -0.71774762061610
  F           7.97191986741771     -1.58721890222186      0.22571824157738
  F           7.54471156839841     -2.29781548374014     -1.77414847572445
  F           4.89655988935905     -4.59068584295402      0.37908987162721
  F           6.00166018799475     -4.44862360862037     -1.47146300518077
  F           5.59732866059454      0.16696344303798     -0.24426520497224
  F           7.60141161802123      0.60021437116188     -0.89826060145186
  F           8.34840179646968     -4.18358155736252     -0.11854339940058
  F           7.26664338317432     -4.11673571765108      1.78351800225831
  F           5.43671478097925     -1.22449405097838     -2.95072545382895
  F           7.20435647215041     -0.02560984496544     -3.34883747965630
  F           6.24082410239566     -6.69158680618050     -0.09809350626575
  F           7.15093889608805     -6.64038332260821      1.82323484623879
  F           8.35912493605003     -6.69225612797709      0.02069829619101
  O           5.39577421523787      2.18770891028777     -2.12186103666891
  O           4.45055909748725      1.12217549630065     -3.85276765241733
  C           5.83836696386692     -2.51632685549584     -0.10779329334517
  C           7.00604875516410     -1.67743291281895     -0.70970266611802
  C           6.00248302111707     -4.06514179541975     -0.18457612098700
  C           6.56250377556494     -0.22914388718641     -1.10353514028806
  C           7.26667068905237     -4.62106311724084      0.54165514099462
  C           6.08791752471457     -0.08786806965682     -2.56507368103136
  N           2.21346996528163      1.59685073464907     -1.08664091461521
  C           2.60719987235380      0.17794004490080     -1.30167928027966
  C           0.88715349239381      1.60399738624499     -0.42369908465484
  C           3.15204224215849      2.26358366188512     -0.16948382745263
  C           2.07658176605351      2.36440037497318     -2.33154689875814
  C           1.63366666493235     -0.63144986754657     -2.12149116198561
  C           0.65887293216881     -1.40251639065149     -1.49677376941925
  C           1.72722740243859     -0.65132728040056     -3.50869246629902
  C          -0.22440747052942     -2.15897914431054     -2.24672557680418
  C           0.84158219930712     -1.40823448736490     -4.25706877564600
  C          -0.13931795145571     -2.15740559781045     -3.62893057163291
  H           2.72566771703066     -0.28353628551086     -0.31979296508074
  H           3.57495509428706      0.15822972691372     -1.79320907845785
  H           0.94232999299209      1.06456222722958      0.51808254303680
  H           0.14868155943549      1.12942766153806     -1.06438775713281
  H           0.58282356117972      2.62844522283288     -0.22768405628452
  H           3.26446019896675      1.68172550605300      0.74139978068076
  H           2.77408511095229      3.25267373377143      0.07470336775746
  H           4.13033723880682      2.37457890625977     -0.62671054189559
  H           1.35127058402390      1.88359466969731     -2.98272128849491
  H           3.02238046425451      2.42773843334495     -2.85852430063871
  H           1.74561556584390      3.37204626309478     -2.09548686506175
  H           0.59693751291812     -1.42593363907712     -0.41982418488143
  H           2.50817327505643     -0.09191373247672     -4.00165572519423
  H          -0.97524593866897     -2.75477140910313     -1.75169228326356
  H           0.92670549621127     -1.41707496023257     -5.33279564055604
  H          -0.82591925914629     -2.74819279821693     -4.21522531590729
  Cl          9.91913435269709     -5.31793158205318      2.16926977837319
