53
Coordinates from ORCA-job R4N+PFOA-_0.15M E -133.635953723460
  C           3.73909793136717     -4.49417113720869     -2.82106381427345
  C           7.51125073440923      0.78595375762201      0.68958925083985
  F           5.58479250495385     -3.56095996106302     -0.21075835001432
  F           5.68084626902303     -1.39326666179045     -0.15469369629267
  F           7.96205082303686     -3.79643117398958     -0.69238885070977
  F           7.83406596946961     -2.51776990925788     -2.40552493830061
  F           3.93382281553311     -2.02451479898552     -1.87520092978340
  F           5.62318124332265     -1.46822776927814     -3.04144203310500
  F           8.54152657581678     -1.80520791515544      0.93781986716597
  F           9.71949704434825     -1.77454531709515     -0.84855346800206
  F           5.32533372997360     -3.55194857363737     -4.26769127985643
  F           6.08216579379595     -4.61931434608196     -2.55567019532012
  F           7.23700321802778      0.02262776133910     -1.68081641109499
  F           9.22375727439652      0.58857439604765     -1.06976136516103
  F           2.77285688867104     -3.76329707662969     -3.36485896424956
  F           3.41647966088802     -4.73740293386221     -1.56062251033202
  F           3.77648348349967     -5.65218304949793     -3.46918988227740
  O           8.34590041707578      0.91009894385373      1.56672861321035
  O           6.37182397935582      1.17662694238579      0.52922023211708
  C           6.01738432049798     -2.47116891066295     -0.87070637190712
  C           7.55998576493435     -2.57208843077889     -1.07874252937169
  C           5.18419888202730     -2.40975719711741     -2.19674111459416
  C           8.46612525820178     -1.52087847405812     -0.37149128486748
  C           5.11836214150360     -3.77522402540717     -2.95769527077277
  C           8.10151448856456     -0.04817933029818     -0.62359840751475
  N           1.63504300642035      1.26569869831382     -2.20474872726838
  C           0.99101794452956      0.90521682516346     -0.90539229915497
  C           1.39501745149116      0.21774051505376     -3.20862296268785
  C           1.04291461270832      2.52803354548681     -2.67914550276335
  C           3.08328882568198      1.45199159681261     -2.02796705539068
  C           1.44671170367477     -0.41092087308656     -0.32722938385480
  C           0.76994540128604     -1.58494570505885     -0.64251868631220
  C           2.52600065085404     -0.46853437097929      0.54830493476249
  C           1.17767886637470     -2.79556583915641     -0.11330194750778
  C           2.92798434067418     -1.67997716743215      1.08550002308620
  C           2.26112333529906     -2.84607115069873      0.74800425093761
  H          -0.08647167577478      0.86361879836300     -1.07171885757150
  H           1.21530076337210      1.69815109201967     -0.19106879344897
  H           0.32636389164180      0.07492984125874     -3.34511029989004
  H           1.84259924778856     -0.71932801916988     -2.88619130934954
  H           1.84129720783919      0.51017345731169     -4.15550110996228
  H          -0.02464505380620      2.40172480866904     -2.83999954456446
  H           1.51125834610603      2.82356839210352     -3.61445447346245
  H           1.20205560309057      3.31460473750931     -1.94596562017547
  H           3.54754907715634      0.54694666957351     -1.64316581843525
  H           3.28587134047738      2.25044725944566     -1.31807934355412
  H           3.54887211121770      1.70056134779180     -2.97808599952839
  H          -0.08654780202641     -1.56057979229677     -1.29773805312921
  H           3.07608094797630      0.41954720926070      0.82510290205246
  H           0.65497269886418     -3.70486330518514     -0.36623308517962
  H           3.77722048871917     -1.72034348258811      1.75401499000841
  H           2.60203259452176     -3.78425068866743      1.16107718702505
  Cl          6.23455794104740     -2.60706711291040      2.67238474128663
