53
Coordinates from ORCA-job R4N+PFOA-_0.15M E -133.627350459520
  C           7.52377872454883     -6.47496988534012      0.61021688107519
  C           5.21320562088911      1.18891748322413     -2.64998373066163
  F           5.79723181364941     -2.57236655938630      1.17235597145038
  F           4.72373543023649     -2.66662950522321     -0.68111842316303
  F           8.17117169382075     -2.08927194253748     -0.19042942130765
  F           7.24933384258242     -2.59361699196744     -2.04591571823969
  F           5.18472399703420     -5.03623411699370      0.46132807071430
  F           6.06132765373663     -4.83326363790737     -1.49084901884465
  F           5.58928355611589     -0.23253580911092     -0.14229105645581
  F           7.59438609941153      0.27233453437930     -0.81290937259580
  F           8.51385866395189     -4.68638237784908     -0.55877071644964
  F           7.86900445787753     -4.32482772764698      1.48710500245624
  F           5.22074970375525     -1.28523141976545     -2.87216155568702
  F           7.08404976022041     -0.26019230548001     -3.31591093525454
  F           6.82335742216181     -6.75862140104627      1.70011800561033
  F           8.75886952404310     -6.92354323345685      0.78868872730929
  F           6.99202010923279     -7.14576320871245     -0.40514826115118
  O           5.48618951822222      2.02035409647295     -1.80426830963474
  O           4.54510387042525      1.20705948718678     -3.66692898404708
  C           5.93272751183600     -2.89264294259667     -0.11769244292704
  C           7.00279349073641     -2.02308299408979     -0.83970983367612
  C           6.18177731464153     -4.43014324999003     -0.21473502767337
  C           6.54843833153224     -0.53876359849810     -1.04212481108076
  C           7.54409353817668     -4.93650328357997      0.33883435611915
  C           6.01675476503250     -0.25276321809249     -2.46380241575891
  N           2.21323551103176      1.60882538887436     -0.98470004577657
  C           2.54162984640163      0.18334415951093     -1.26196875466542
  C           0.85665309668466      1.65473549853311     -0.38773795597726
  C           3.13982102276437      2.16402662892225      0.01546240621770
  C           2.18228137267203      2.45389698027191     -2.18563309680906
  C           1.57480921009816     -0.51725039923728     -2.18351137413655
  C           0.52118310119102     -1.26137708277689     -1.66234136723668
  C           1.74755455131672     -0.46116461004702     -3.56216514374500
  C          -0.35982278456989     -1.91609761486305     -2.50507356814388
  C           0.86421506008284     -1.11672466110985     -4.40331844433659
  C          -0.19405598001075     -1.83900022668379     -3.87773541110593
  H           2.57956436049220     -0.33825365883612     -0.30329639483607
  H           3.53808362053659      0.13770707574090     -1.69121178157525
  H           0.83323949543000      1.05784667806531      0.52016313360102
  H           0.12829593012374      1.26419828497964     -1.09351063885577
  H           0.60206538796979      2.68193620817373     -0.14160947573284
  H           3.16659176724396      1.53213682750030      0.89975178740147
  H           2.81688050466768      3.16400747447978      0.29204407953453
  H           4.15025150336982      2.22665988454438     -0.37792483156812
  H           1.47012494684758      2.05024418638433     -2.90062728208381
  H           3.15758375112596      2.49784800850273     -2.65819335881479
  H           1.89026712192919      3.46190247138322     -1.90421766432849
  H           0.39614777956100     -1.34217275078920     -0.59357595839715
  H           2.58685196258247      0.07837853312024     -3.97473025699207
  H          -1.17220729920115     -2.49107866478980     -2.08912233874812
  H           1.01187157042276     -1.06653338925392     -5.47100516410546
  H          -0.87895120835235     -2.34991115113412     -4.53637821056045
  Cl          7.86246946361691     -0.63159417515873      2.41656658315027
