53
Coordinates from ORCA-job R4N+PFOA-_0.15M E -133.636899863250
  C           4.16998342779289     -4.00588428266346     -2.71530345271174
  C           7.96926828887350      1.36201948122667     -0.53360305550388
  F           5.26384363349287     -2.35053622902429     -0.34594194192379
  F           5.97561782845268     -0.63165531109011     -1.42083449986300
  F           7.21645083472062     -1.57175241705730      1.08874071246416
  F           7.86788780431285     -3.27133510987476     -0.03852368628695
  F           5.91332614641352     -2.03603899784993     -3.40395794292147
  F           7.70656408877799     -2.97148814806181     -2.68333874060399
  F           9.56940482279609     -1.00315417662363      0.58148848409198
  F           9.62894999883879     -2.07819912226419     -1.26887925684032
  F           6.27303706970358     -4.94994851794713     -3.16601396383209
  F           5.77548408338493     -4.67371050897041     -1.09472065691549
  F           8.15861453040423     -0.18201688480941     -2.53693860629834
  F           9.98972283175865      0.51990038685324     -1.63048139164111
  F           3.62016265883605     -2.83738731400095     -2.41467591782005
  F           3.46706566104224     -4.95621256594865     -2.11903857034605
  F           4.04988159405065     -4.17271371504661     -4.02768121458110
  O           8.33622111695793      1.44759725485719      0.62598424399305
  O           7.23793118318147      2.00884745088812     -1.25399876027981
  C           6.30249013184540     -1.87384882819018     -1.06395453597099
  C           7.56069450366552     -1.94948745933532     -0.14850025390794
  C           6.42333657026539     -2.73284079686301     -2.37286029864371
  C           8.86607043358104     -1.20408194052175     -0.55083658050738
  C           5.67742991340500     -4.10540959500798     -2.30465702003692
  C           8.71903288782739      0.10789114610321     -1.32389945367509
  N           1.50548231989317      1.14029596965907     -1.67705156313188
  C           1.09092065695801      0.57729168624376     -0.35598038528596
  C           0.53024847207741      0.80155166104562     -2.72340262803421
  C           1.58980181268233      2.60308707851164     -1.54422885739666
  C           2.82853899347810      0.61632522827036     -2.05028850396905
  C           1.05388721455107     -0.92817433667356     -0.30620555026442
  C          -0.07816734938322     -1.63529793965370     -0.69838130089858
  C           2.15679222052736     -1.62508851064808      0.17642687049071
  C          -0.09501347279905     -3.01809338921311     -0.64335808296898
  C           2.13304752055794     -3.00813569937300      0.23848735287728
  C           1.01368903119756     -3.70787594530636     -0.18211751146415
  H           0.10535296453130      0.98080135853926     -0.11762328789697
  H           1.81644601628835      0.91926015070456      0.38581037368776
  H          -0.44662875825152      1.19739264751018     -2.45729229251486
  H           0.46946278310449     -0.27770955597577     -2.83420816246941
  H           0.84786588946968      1.23516569526082     -3.66820429828868
  H           0.63363727491231      3.00470944960449     -1.21783468029996
  H           1.86277417336416      3.04446813270553     -2.49949840688835
  H           2.35604849266568      2.86124375626385     -0.81554090218822
  H           2.77721740966399     -0.45664009279700     -2.21506788052168
  H           3.55509662133959      0.79515961968942     -1.25613329518405
  H           3.18677504351312      1.10230739821984     -2.95360044395032
  H          -0.95860074576663     -1.10930423476938     -1.03334963203761
  H           3.03330400930895     -1.08884855116041      0.51424045396602
  H          -0.97453345809265     -3.56014501195253     -0.95379374092639
  H           2.99965085981958     -3.53239676074141      0.61663488980373
  H           1.00884991047826     -4.78640908002934     -0.13923773128663
  Cl          5.11418312942898      0.58435757358769      1.17152200910349
