53
Coordinates from ORCA-job R4N+PFOA-_0.15M E -133.634919809020
  C           3.60162497184340     -4.20509702033514     -2.52593507693208
  C           7.38155552426438     -0.59925616353510      1.53616044989380
  F           6.19366695866762     -4.22988295637785     -0.83141771374955
  F           5.80005608519509     -2.35652463725550      0.19607081213449
  F           8.48429538677756     -3.35379164138322     -0.17128797095759
  F           8.20639251619048     -3.04729227897919     -2.27675253610881
  F           4.37578511565178     -1.70573807268771     -1.69337955961844
  F           6.12876892711639     -1.53956317114528     -2.90251840060945
  F           9.60111775864863     -1.14977056727316     -0.49059086107972
  F           8.41365490245278     -0.60650219097582     -2.18801078140481
  F           4.60830005676858     -2.98417205401340     -4.24592134410065
  F           5.84630606239404     -4.46540659031024     -3.30023195551123
  F           6.28260299928983      0.01059849202001     -0.64066831903311
  F           8.09285365579708      1.06275973803900     -0.13586246300590
  F           2.57228942312837     -3.39931702711892     -2.77568137090928
  F           3.61799775688040     -4.45172650192255     -1.22741708141927
  F           3.37991793899000     -5.34303601353662     -3.17162572492400
  O           8.19324853978644     -1.45528543559775      1.85218345147989
  O           6.52537197832414      0.02635011248755      2.13231054230646
  C           6.30671974478902     -2.88875827172672     -0.91914723152218
  C           7.82989673018052     -2.58755376132166     -1.05341014236443
  C           5.44064425240897     -2.39915814600126     -2.12996961008947
  C           8.32779643890342     -1.11578716766248     -0.92729956535855
  C           4.91224378710552     -3.54005101552207     -3.05497497268689
  C           7.50142320052142     -0.16697449271968     -0.04902473369346
  N           1.51515792246144      1.16935898721810     -2.51553035730610
  C           0.94342802242843      0.98394027557772     -1.14723879526525
  C           1.38368710788157     -0.06670246295039     -3.30090743300978
  C           0.76439633873109      2.24507228933272     -3.18590748375552
  C           2.93306700899613      1.55065985994624     -2.43778995181601
  C           1.60652569335066     -0.10702667613434     -0.34554005360759
  C           1.12235605498221     -1.40960361772928     -0.39282135268289
  C           2.70221020091839      0.17515939791177      0.46303690885340
  C           1.73808911238960     -2.41299886772314      0.33365862818629
  C           3.32013671355350     -0.82895353276728      1.18721850777662
  C           2.84502499310868     -2.12886758538983      1.11674569753907
  H          -0.11544284898695      0.74796911293183     -1.25894409320235
  H           1.04705935211067      1.92768640223866     -0.61086723039496
  H           0.33768624655910     -0.35168728518812     -3.37416173751067
  H           1.93619465654835     -0.87379984874133     -2.82648389288500
  H           1.78207066263072      0.08824441545532     -4.30014838446696
  H          -0.28524938842262      1.97450482563101     -3.26500345935257
  H           1.16429875728315      2.40469113810376     -4.18392368425086
  H           0.85041629899438      3.17002451536866     -2.62162206110641
  H           3.51157719214331      0.77657522440643     -1.93731205132896
  H           3.04292833609499      2.47666317734115     -1.87912773569063
  H           3.33345858761827      1.69109831457763     -3.43850443379772
  H           0.25774888026127     -1.65237896594784     -0.99057295195823
  H           3.09073166103866      1.17869410233506      0.54510600546871
  H           1.36812969451753     -3.42679171013190      0.29472121873747
  H           4.18810566629407     -0.61228760897594      1.79480701928120
  H           3.35122395552726     -2.91408304788758      1.66160588567911
  Cl          5.49505348880984     -4.66637189765428      2.24820588263070
