53
Coordinates from ORCA-job R4N+PFOA-_0.15M E -133.640131803230
  C           6.49970492317535     -5.97442363257121     -3.07813310927720
  C           6.15115323843652      1.31565372631693     -0.19815328218253
  F           6.63055113887519     -4.66992006645901     -0.63402433639780
  F           5.23853170079843     -3.01354691932173     -0.66829114251911
  F           8.07304838807951     -3.22891696314484      0.72352196396104
  F           8.61344311559334     -2.33722730940064     -1.13242868935994
  F           5.29911644164809     -3.34770381928386     -3.08585971921444
  F           7.15326563890215     -2.28663815042708     -3.08140028017820
  F           6.05426404743944     -1.26024242519104      1.06588797135830
  F           8.13017782366430     -0.65583186176548      0.96540920209206
  F           7.58573783834512     -4.37973798924454     -4.44150394639391
  F           8.47363326501107     -4.77388391087534     -2.52151191875241
  F           5.80365832861070     -0.64168879914409     -1.68731683035857
  F           7.82488649385938      0.14558427783449     -1.63102499188698
  F           5.28503952511634     -5.83844732565922     -2.56077160742227
  F           7.16396598007312     -6.86869282956568     -2.36276814929696
  F           6.34764322984956     -6.46975443706857     -4.30201913065190
  O           6.94052310226870      1.86808977554876      0.54144117924683
  O           5.02364719414033      1.57177968640854     -0.57964363029952
  C           6.47511526375833     -3.38535526122347     -1.01686435182352
  C           7.56156309658258     -2.52463181312816     -0.29739769838494
  C           6.54655093940786     -3.37700313126905     -2.58768568787584
  C           7.10115993721203     -1.12800769398930      0.22692130137667
  C           7.29670519533786     -4.62340723068120     -3.15109646208760
  C           6.73445632433853     -0.09570055798282     -0.84952591543482
  N           1.55144640102579      1.73343738631504     -2.14536658730238
  C           1.62144503347643      1.58854829680204     -0.65998161050710
  C           0.19417127373289      1.45768748039540     -2.63730602054211
  C           1.92340734891855      3.11634553512108     -2.48412772960388
  C           2.50391142735152      0.81304208602005     -2.78458823052187
  C           1.35459275233166      0.19383590181031     -0.15395534422911
  C           0.06112780964999     -0.23583964250012      0.12323588848525
  C           2.41861592557188     -0.66996828019621      0.08666881807057
  C          -0.16385047966830     -1.51230312593595      0.60841871299892
  C           2.19566889910129     -1.94370145951669      0.58065616751195
  C           0.90102133208555     -2.36861391968616      0.83436552761303
  H           0.89870377482451      2.27896906157287     -0.22274542255887
  H           2.62973940037655      1.87233770828483     -0.35009909215275
  H          -0.51217256979136      2.14445357523217     -2.17802927712885
  H          -0.08627289754847      0.43621073755664     -2.39431106279241
  H           0.16603663062390      1.58498119788770     -3.71653957441911
  H           1.24442021338753      3.81501876187409     -2.00197374323788
  H           1.87899711073001      3.25603896075432     -3.56126488072836
  H           2.93773908429038      3.31497345812481     -2.14345969806727
  H           2.22775810647071     -0.21917519266075     -2.58340625762676
  H           3.50339606456193      0.97406807870760     -2.38271899878332
  H           2.51816251263800      0.98051380125536     -3.85812928254711
  H          -0.77588556745277      0.42998329829642     -0.01854292378564
  H           3.43494862040363     -0.34700249550032     -0.08960446379011
  H          -1.16909064667385     -1.84067216647399      0.82193820739766
  H           3.03699399824608     -2.59455527744292      0.77882511112008
  H           0.73663832652832     -3.36264708154463      1.22270483410922
  Cl          5.61538902418326     -4.29845992696543      2.29187264628170
