53
Coordinates from ORCA-job R4N+PFOA-_0.15M E -133.630091327920
  C           6.87722243518507     -6.24740223539907      0.29499384610884
  C           5.34030240915349      1.14145570928627     -2.75707183034567
  F           5.93979148514162     -3.06686493502911      1.13968538402967
  F           4.77849323959275     -2.24058867095765     -0.49164297755468
  F           7.79848832924267     -1.55075894489861      0.76393898305521
  F           8.01289552682674     -2.17654103714886     -1.27827290114607
  F           5.01323306380746     -4.76490522942007     -0.85364548459774
  F           6.33796331750006     -3.84936864595319     -2.26815582851211
  F           5.69202394168783      0.18209570192477     -0.06070802931002
  F           7.72297745026613      0.54839232615462     -0.67210965667997
  F           8.11958443744745     -5.31877937495275     -1.47020152556512
  F           8.14088880670033     -4.26506688229132      0.40761856118056
  F           5.61420913047325     -1.34482861331854     -2.71073712207932
  F           7.39943534635766     -0.17877103431577     -3.08830097996018
  F           6.04453261780416     -5.98208178797044      1.29244178454164
  F           7.92936735425924     -6.88111513919350      0.79843162513942
  F           6.27493931947594     -7.07514829981054     -0.54892797531632
  O           5.60632234371663      2.12175000983886     -2.08856953438014
  O           4.63354239726389      0.93844151241253     -3.72474961050330
  C           5.97857854747063     -2.73735275095531     -0.16374868717742
  C           7.11762089727934     -1.68905483586707     -0.38847619363399
  C           6.16432520691260     -4.07249051990814     -0.95909394041404
  C           6.66699870832041     -0.27394955608653     -0.86471042993780
  C           7.34799974231518     -4.95160908424409     -0.43429716659499
  C           6.25103951299836     -0.19380982436614     -2.34685226225623
  N           2.35857688387909      1.62503360712337     -1.07636435101262
  C           2.77086157682032      0.19745495030944     -1.16641698095217
  C           1.03830157371303      1.66674307847733     -0.40484269229505
  C           3.29389164084153      2.37198818515955     -0.21978014065749
  C           2.20899751781140      2.28258023576698     -2.38095495557590
  C           1.80176367048514     -0.69541568939125     -1.89595858037344
  C           0.87770648337918     -1.45215249306996     -1.18364825491093
  C           1.85052368622588     -0.81007421207402     -3.28113505268431
  C          -0.00525645670653     -2.28566891280282     -1.84788152314888
  C           0.96439681855135     -1.64290894111261     -3.94345483987280
  C           0.03020735506249     -2.37468086436910     -3.22966394598261
  H           2.91897159511716     -0.17505092136544     -0.14845283011820
  H           3.73337718177802      0.14940591536738     -1.66563137788540
  H           1.11957764160491      1.20669751107370      0.57771867022097
  H           0.30551699895312      1.12043973686596     -0.99291076357828
  H           0.71783699422964      2.69885014696934     -0.29246283381633
  H           3.45485862634899      1.83100194028311      0.71140134768827
  H           2.88338694499321      3.35496838882625     -0.00613015267961
  H           4.25635205629214      2.49174566716445     -0.70754575083122
  H           1.45523912744477      1.76370387188684     -2.96726907232158
  H           3.14439587990289      2.27169586516534     -2.93101282994777
  H           1.90838136568825      3.31483379011684     -2.22373478958486
  H           0.87182631904964     -1.40328656310407     -0.10460138159616
  H           2.60093957285529     -0.26578108402076     -3.83513874243748
  H          -0.71511942326823     -2.87008636310755     -1.28336099986542
  H           1.01303134163652     -1.72469662970179     -5.01813288582729
  H          -0.65799094331949     -3.02458999285919     -3.74727233624470
  Cl          3.85127348333101     -1.07654598480788      2.37609644970088
