53
Coordinates from ORCA-job R4N+PFOA-_0.15M E -133.631506979890
  C           4.41719600916826     -3.51171005486329     -2.34015479111454
  C           9.87933314359579     -0.10961152911119      0.78811304890824
  F           5.27531617997195     -1.30740283574398     -0.69551943217935
  F           6.89707823273254      0.02258982490097     -1.26977364369819
  F           7.35335354136009     -1.32010323794571      1.01612877380217
  F           6.84299409526483     -3.19935597254838      0.09913101680358
  F           5.59827133681415     -0.95379740520261     -3.29045009748159
  F           7.60809688466817     -1.71248410177078     -3.27470871367604
  F           9.38585285214346     -3.09248316868747      0.50122876419792
  F           8.97388031935676     -3.02826116249217     -1.60142954169623
  F           5.85927918877311     -3.44414162357131     -4.19179948424349
  F           6.67706047159798     -4.16348358469652     -2.33179048699610
  F           9.42551667997268     -0.32256610875875     -1.67118224685879
  F          11.07248756466993     -1.48532772570765     -0.88972459022969
  F           3.59634745416003     -2.48674964898938     -2.52143139881436
  F           4.42144281545482     -3.83717823082887     -1.05794135574856
  F           3.90801778904311     -4.53960431820736     -3.01277536375364
  O          10.18986591848503     -0.75629375294167      1.77376509404334
  O           9.61519497912552      1.05986212959996      0.58297026917911
  C           6.53578647891778     -1.26325742824024     -1.17827294661430
  C           7.43235862179146     -2.00027886159023     -0.14044819768295
  C           6.42882930986297     -1.79723355680981     -2.64103067798588
  C           8.92168147558449     -2.27591567448964     -0.46478968768155
  C           5.86556749380310     -3.23478648085142     -2.86022384860561
  C           9.81731261638024     -1.03889230100315     -0.57969755273371
  N           0.73136973817009      1.00255566947965     -2.17176713126908
  C           0.44142912847822      0.65700947211423     -0.74771196503081
  C          -0.03455249484473      0.14059109139975     -3.08409570793280
  C           0.34506146688511      2.40535273052749     -2.39315003562973
  C           2.16842325887589      0.84583065310436     -2.44856985587560
  C           0.84768921987281     -0.73879658644912     -0.34933975008937
  C          -0.02989715712595     -1.80636287408013     -0.51178657618689
  C           2.09320108336312     -0.96710194712419      0.22705674077096
  C           0.33877954531389     -3.08420694383581     -0.13076899528196
  C           2.45313390437755     -2.24474756518987      0.62043349993616
  C           1.58375920155065     -3.30678227814741      0.43383862225309
  H          -0.63058059082598      0.78299905911718     -0.58672660164099
  H           0.98716832000181      1.36079895984173     -0.11674631121872
  H          -1.09882846143967      0.25665650294780     -2.89581245259603
  H           0.24943088575134     -0.89797696943262     -2.93613368748221
  H           0.17940361138448      0.41913703664587     -4.11273282489103
  H          -0.70955052037909      2.54228945311857     -2.16713298985410
  H           0.52752709541569      2.67794702360693     -3.42961548123053
  H           0.93396079063051      3.05828932684679     -1.75310611424899
  H           2.46257512275962     -0.19715460204574     -2.35888367402283
  H           2.76616387061414      1.41422212177673     -1.73707645844399
  H           2.39510133575507      1.19149145370180     -3.45353406151561
  H          -1.01428651813234     -1.64325493755675     -0.92222656139655
  H           2.79627375027858     -0.16124441159714      0.38922774236842
  H          -0.34538918437924     -3.90768332570743     -0.26398973622271
  H           3.42330798879611     -2.39978952567572      1.07178664444175
  H           1.88054482770032     -4.29939297247022      0.73791867962961
  Cl          5.11526040835339      1.31564329193390      0.98074858502070
