29
Coordinates from ORCA-job PFOS_wb E -2626.601742341384
  S       2.671220      1.777068      0.212812
  F       0.142532      0.053374     -1.080322
  F       0.132532     -2.004277     -1.783978
  F       1.171278     -2.927479      0.406995
  F       0.942092     -1.055380      1.481411
  F      -1.377700     -2.414582      0.821438
  F      -2.219984     -1.920271     -1.111558
  F       3.429678     -2.219255      0.026311
  F       2.597357     -1.001334     -1.560919
  F      -3.069245     -0.705118      1.390179
  F      -1.287504      0.512734      1.203848
  F       4.570349      0.057584     -0.125614
  F       3.474746     -0.192396      1.738084
  F      -4.147712      0.124082     -0.727393
  F      -2.296826      0.779891     -1.658293
  F      -4.049270      2.742097     -0.779042
  F      -2.059982      2.818910      0.045803
  F      -3.705429      2.102129      1.255372
  O       1.428083      1.785300      0.947328
  O       2.541413      1.933431     -1.218348
  O       3.726772      2.563939      0.812841
  C       0.012559     -1.224291     -0.701729
  C       1.176566     -1.593327      0.277216
  C      -1.441748     -1.462846     -0.119779
  C       2.620351     -1.173694     -0.229485
  C      -2.170806     -0.225397      0.519141
  C       3.333932      0.057711      0.422575
  C      -2.952641      0.681344     -0.494746
  C      -3.192713      2.129855      0.029951
29
Coordinates from ORCA-job PFOS_wb E -2626.601734125360
  S       2.665381      1.779047      0.196799
  F       0.143685      0.052792     -1.078256
  F       0.135349     -2.003558     -1.786117
  F       1.170801     -2.930422      0.405490
  F       0.938470     -1.060340      1.482427
  F      -1.380494     -2.420703      0.813807
  F      -2.219722     -1.917603     -1.118275
  F       3.431524     -2.216755      0.037522
  F       2.601986     -1.006740     -1.557136
  F      -3.071204     -0.711486      1.386689
  F      -1.286936      0.503965      1.209150
  F       4.568920      0.058527     -0.111141
  F       3.454712     -0.179286      1.743470
  F      -4.144844      0.130807     -0.727980
  F      -2.290871      0.785238     -1.653827
  F      -4.037413      2.749266     -0.768733
  F      -2.049409      2.815396      0.060285
  F      -3.699673      2.098936      1.263433
  O       1.412326      1.789964      0.914143
  O       2.554845      1.927301     -1.236789
  O       3.711712      2.570588      0.806626
  C       0.013226     -1.225663     -0.702572
  C       1.175562     -1.596059      0.277812
  C      -1.442156     -1.465150     -0.123666
  C       2.620171     -1.174481     -0.225078
  C      -2.170304     -0.229461      0.519501
  C       3.327193      0.061672      0.424936
  C      -2.948403      0.683554     -0.491558
  C      -3.184536      2.130455      0.039140
29
Coordinates from ORCA-job PFOS_wb E -2626.601742516731
  S       2.671825      1.778701      0.209088
  F       0.142041      0.052007     -1.081445
  F       0.132344     -2.005884     -1.784396
  F       1.172028     -2.928360      0.405599
  F       0.940865     -1.057376      1.481188
  F      -1.378816     -2.416217      0.819791
  F      -2.220941     -1.920081     -1.112782
  F       3.430034     -2.217712      0.027700
  F       2.598323     -1.000540     -1.560262
  F      -3.069030     -0.706566      1.390250
  F      -1.287029      0.510839      1.204051
  F       4.570619      0.057043     -0.119335
  F       3.467210     -0.189246      1.740351
  F      -4.148842      0.125483     -0.725025
  F      -2.298335      0.779583     -1.657870
  F      -4.046642      2.743704     -0.776128
  F      -2.056690      2.817129      0.047482
  F      -3.702376      2.102101      1.257713
  O       1.424787      1.788828      0.936813
  O       2.549882      1.933835     -1.222841
  O       3.724724      2.565292      0.813981
  C       0.012126     -1.225478     -0.702445
  C       1.176187     -1.594112      0.276685
  C      -1.442357     -1.463784     -0.120724
  C       2.620006     -1.172916     -0.228842
  C      -2.170797     -0.226557      0.519193
  C       3.332031      0.059024      0.423938
  C      -2.952829      0.681262     -0.493610
  C      -3.190452      2.129800      0.031982
29
Coordinates from ORCA-job PFOS_wb E -2626.601741373316
  S       2.669935      1.776889      0.209345
  F       0.143189      0.053655     -1.079801
  F       0.134196     -2.003894     -1.783955
  F       1.170537     -2.927549      0.408045
  F       0.941527     -1.055298      1.482067
  F      -1.378530     -2.416023      0.818782
  F      -2.219405     -1.918695     -1.114049
  F       3.430000     -2.219290      0.029659
  F       2.598513     -1.003669     -1.559741
  F      -3.069897     -0.706796      1.388767
  F      -1.287763      0.510885      1.205157
  F       4.570142      0.057736     -0.124109
  F       3.472510     -0.189667      1.738775
  F      -4.146929      0.125493     -0.728225
  F      -2.295403      0.781984     -1.657342
  F      -4.047577      2.743514     -0.776581
  F      -2.058918      2.818681      0.049848
  F      -3.705403      2.100634      1.257201
  O       1.425500      1.785532      0.941524
  O       2.542611      1.931030     -1.222220
  O       3.723881      2.565237      0.810089
  C       0.013104     -1.224107     -0.701637
  C       1.176409     -1.593399      0.278078
  C      -1.441651     -1.462924     -0.121092
  C       2.620569     -1.174308     -0.228098
  C      -2.170785     -0.226175      0.518952
  C       3.333126      0.058281      0.422726
  C      -2.951799      0.682095     -0.494279
  C      -3.191789      2.129949      0.032212
29
Coordinates from ORCA-job PFOS_wb E -2626.601742639044
  S       2.671329      1.777789      0.209117
  F       0.142457      0.052874     -1.080545
  F       0.133049     -2.004887     -1.784060
  F       1.171406     -2.928006      0.406587
  F       0.941427     -1.056576      1.481680
  F      -1.378651     -2.416009      0.819530
  F      -2.220245     -1.919319     -1.113147
  F       3.430045     -2.218516      0.028259
  F       2.598349     -1.001806     -1.560124
  F      -3.069467     -0.706456      1.389694
  F      -1.287417      0.511111      1.204638
  F       4.570627      0.057092     -0.121427
  F       3.469579     -0.189634      1.739592
  F      -4.147747      0.125239     -0.726821
  F      -2.296694      0.780902     -1.657491
  F      -4.047585      2.743318     -0.776550
  F      -2.058445      2.818155      0.048790
  F      -3.704523      2.101174      1.257325
  O       1.425242      1.787240      0.938449
  O       2.547413      1.932599     -1.222665
  O       3.724537      2.565060      0.812537
  C       0.012538     -1.224742     -0.701925
  C       1.176368     -1.593781      0.277324
  C      -1.442018     -1.463264     -0.120678
  C       2.620315     -1.173567     -0.228632
  C      -2.170797     -0.226231      0.519209
  C       3.332691      0.058552      0.423335
  C      -2.952321      0.681674     -0.493950
  C      -3.191564      2.129815      0.032047
29
Coordinates from ORCA-job PFOS_wb E -2626.601741265737
  S       2.670826      1.777720      0.209272
  F       0.142716      0.052548     -1.080975
  F       0.133152     -2.005356     -1.784089
  F       1.171504     -2.928168      0.406525
  F       0.941297     -1.056752      1.481582
  F      -1.378718     -2.415976      0.819357
  F      -2.220310     -1.919148     -1.113287
  F       3.430171     -2.218455      0.028363
  F       2.598477     -1.001808     -1.560066
  F      -3.068834     -0.706142      1.389969
  F      -1.286831      0.511367      1.204097
  F       4.570462      0.057385     -0.121252
  F       3.469397     -0.189609      1.739717
  F      -4.147920      0.125305     -0.726192
  F      -2.297211      0.780795     -1.657691
  F      -4.047583      2.743406     -0.776305
  F      -2.058139      2.818172      0.048325
  F      -3.703837      2.101436      1.257517
  O       1.424675      1.786888      0.938488
  O       2.546997      1.932550     -1.222510
  O       3.723810      2.565189      0.812808
  C       0.012646     -1.224972     -0.702112
  C       1.176396     -1.593938      0.277256
  C      -1.441948     -1.463226     -0.120850
  C       2.620350     -1.173592     -0.228578
  C      -2.170467     -0.226068      0.519093
  C       3.332505      0.058613      0.423466
  C      -2.952365      0.681715     -0.493882
  C      -3.191317      2.129923      0.032052
