29
Coordinates from ORCA-job PFOS_wb
  S           2.67122044100828      1.77706845843845      0.21281207901302
  F           0.14253200447794      0.05337370412716     -1.08032155952189
  F           0.13253217406390     -2.00427659292498     -1.78397799972828
  F           1.17127780057598     -2.92747907191177      0.40699486482280
  F           0.94209190788699     -1.05537958096242      1.48141062683613
  F          -1.37769994367970     -2.41458236975698      0.82143815392435
  F          -2.21998352019763     -1.92027111515394     -1.11155753888244
  F           3.42967773216764     -2.21925503924843      0.02631060968758
  F           2.59735658615982     -1.00133401123420     -1.56091897668668
  F          -3.06924542003216     -0.70511805915784      1.39017892635482
  F          -1.28750386954427      0.51273350416624      1.20384800524641
  F           4.57034854356849      0.05758433242169     -0.12561365647576
  F           3.47474590641022     -0.19239577836640      1.73808358067575
  F          -4.14771217581582      0.12408167042651     -0.72739266227201
  F          -2.29682626876331      0.77989081041952     -1.65829329137317
  F          -4.04927021463024      2.74209723136095     -0.77904234936782
  F          -2.05998158967475      2.81890990560154      0.04580274214762
  F          -3.70542931013507      2.10212940249289      1.25537176497956
  O           1.42808279205738      1.78530022794530      0.94732835646768
  O           2.54141311804625      1.93343142692025     -1.21834822634144
  O           3.72677189308755      2.56393854264734      0.81284098336228
  C           0.01255948407277     -1.22429119272615     -0.70172936211276
  C           1.17656587243873     -1.59332689276986      0.27721639314850
  C          -1.44174804522422     -1.46284646887579     -0.11977896740440
  C           2.62035120444434     -1.17369445506010     -0.22948455379184
  C          -2.17080576355509     -0.22539691752394      0.51914124880836
  C           3.33393175902983      0.05771051783638      0.42257531279108
  C          -2.95264070919614      0.68134360569257     -0.49474610102674
  C          -3.19271338904783      2.12985520517596      0.02995059671928
