56
Coordinates from ORCA-job R4N+PFOS-_wb E -3071.939518986819
  N      -4.578916     -1.189473      0.186198
  C      -3.811921     -0.635646     -1.019941
  C      -4.782344     -0.126020      1.223552
  C      -5.918460     -1.655333     -0.308199
  C      -3.855513     -2.350481      0.797977
  C      -2.449280     -0.098569     -0.696078
  C      -2.280750      1.250326     -0.368817
  C      -1.327528     -0.930771     -0.756818
  C      -1.015037      1.752981     -0.084152
  C      -0.061649     -0.428335     -0.471760
  C       0.095745      0.913252     -0.130702
  H      -4.452670      0.147617     -1.435400
  H      -3.748976     -1.465365     -1.729926
  H      -5.256188      0.735930      0.750266
  H      -5.422711     -0.534628      2.007838
  H      -3.815102      0.155666      1.642107
  H      -5.761757     -2.424685     -1.066874
  H      -6.475519     -2.065619      0.535840
  H      -6.450097     -0.802854     -0.735492
  H      -3.705327     -3.114337      0.032232
  H      -2.896913     -2.010047      1.191619
  H      -4.471803     -2.743519      1.609232
  H      -3.145794      1.908194     -0.342459
  H      -1.448055     -1.974870     -1.034600
  H      -0.894899      2.802718      0.167820
  H       0.803597     -1.083001     -0.522979
  H       1.084543      1.306569      0.088025
  S      -8.237965      1.486393      1.040605
  F     -12.518334     -1.134858     -0.467414
  F     -11.492419     -0.390223      1.318768
  F     -12.137188      1.147103     -1.772891
  F     -10.328944      0.161726     -1.027352
  F     -13.356764      1.472955      1.730991
  F     -14.074204     -0.594990      1.623967
  F     -10.227548      2.822856     -1.245296
  F     -11.952053      3.075492      0.081809
  F     -15.797220      1.272708      0.863652
  F     -14.440918      2.030806     -0.681594
  F     -10.593307      2.043701      2.167505
  F      -9.633414      3.733187      1.151937
  F     -14.578250     -0.275548     -2.052305
  F     -16.509200      0.655537     -1.583412
  F     -16.807470     -1.255364      0.497776
  F     -15.045618     -2.265364     -0.295969
  F     -16.771078     -1.935044     -1.570570
  O      -7.520782      2.179102      2.142415
  O      -7.685169      1.739949     -0.314156
  O      -8.583101      0.072897      1.327491
  C     -12.259288     -0.027578      0.268690
  C     -11.400006      0.901608     -0.662177
  C     -13.621705      0.451093      0.888677
  C     -10.870486      2.293942     -0.177023
  C     -14.820222      0.923903     -0.006845
  C      -9.914736      2.406836      1.052949
  C     -15.467614     -0.037669     -1.066237
  C     -16.033921     -1.412380     -0.582398
56
Coordinates from ORCA-job R4N+PFOS-_wb E -3071.946974345030
  N      -4.579181     -1.182330      0.192521
  C      -3.820080     -0.631410     -1.004360
  C      -4.782687     -0.130229      1.228303
  C      -5.909875     -1.641740     -0.301694
  C      -3.865932     -2.339881      0.798206
  C      -2.454786     -0.093072     -0.692786
  C      -2.284280      1.251812     -0.370387
  C      -1.336193     -0.920874     -0.762048
  C      -1.020436      1.755091     -0.098151
  C      -0.071685     -0.418894     -0.489659
  C       0.087249      0.919058     -0.152967
  H      -4.461240      0.147829     -1.414640
  H      -3.762821     -1.457258     -1.712265
  H      -5.253053      0.732367      0.760716
  H      -5.422539     -0.540960      2.006719
  H      -3.819801      0.146478      1.649200
  H      -5.752282     -2.406542     -1.058906
  H      -6.467535     -2.051985      0.537469
  H      -6.437900     -0.790905     -0.727220
  H      -3.717428     -3.098589      0.032750
  H      -2.911160     -2.005254      1.194803
  H      -4.484235     -2.731559      1.603130
  H      -3.147303      1.907289     -0.337083
  H      -1.457746     -1.962850     -1.036054
  H      -0.899746      2.802372      0.151518
  H       0.791109     -1.071646     -0.546353
  H       1.074862      1.312291      0.056868
  S      -8.241817      1.478769      1.053437
  F     -12.513747     -1.127211     -0.468363
  F     -11.512001     -0.397402      1.316177
  F     -12.107995      1.146650     -1.759089
  F     -10.330207      0.145988     -1.013257
  F     -13.361805      1.472266      1.703888
  F     -14.075398     -0.578893      1.605519
  F     -10.207593      2.798083     -1.222742
  F     -11.913207      3.057046      0.097236
  F     -15.777820      1.288381      0.827860
  F     -14.425333      2.010291     -0.713456
  F     -10.564323      2.019697      2.171002
  F      -9.613159      3.697478      1.165913
  F     -14.581293     -0.306853     -2.047443
  F     -16.485254      0.652089     -1.604251
  F     -16.830339     -1.217827      0.485639
  F     -15.088886     -2.255935     -0.268446
  F     -16.782509     -1.923320     -1.555809
  O      -7.536999      2.157346      2.142852
  O      -7.692979      1.733189     -0.278934
  O      -8.579279      0.084164      1.330233
  C     -12.259407     -0.029212      0.265822
  C     -11.386902      0.891555     -0.651652
  C     -13.620611      0.453879      0.870312
  C     -10.846711      2.272800     -0.162230
  C     -14.809896      0.921394     -0.030724
  C      -9.892711      2.381317      1.063688
  C     -15.464142     -0.043817     -1.074314
  C     -16.053225     -1.398047     -0.576395
56
Coordinates from ORCA-job R4N+PFOS-_wb E -3071.947647792857
  N      -4.613215     -1.174245      0.200317
  C      -3.846743     -0.638132     -0.991360
  C      -4.820095     -0.116538      1.224041
  C      -5.939200     -1.631168     -0.298394
  C      -3.911553     -2.327589      0.820345
  C      -2.480253     -0.099064     -0.681650
  C      -2.307626      1.247208     -0.374717
  C      -1.364562     -0.928597     -0.736819
  C      -1.044953      1.751154     -0.105742
  C      -0.100849     -0.426783     -0.467786
  C       0.059974      0.913377     -0.147737
  H      -4.481466      0.138501     -1.414601
  H      -3.787394     -1.468398     -1.692945
  H      -5.283382      0.743819      0.747987
  H      -5.466785     -0.518138      1.999941
  H      -3.860855      0.160281      1.651765
  H      -5.780612     -2.402888     -1.047345
  H      -6.504934     -2.031301      0.538756
  H      -6.460645     -0.783275     -0.735307
  H      -3.759530     -3.093762      0.063955
  H      -2.959140     -1.995570      1.223264
  H      -4.537128     -2.710712      1.622910
  H      -3.169004      1.904758     -0.351064
  H      -1.487191     -1.973497     -0.997652
  H      -0.923208      2.800665      0.132097
  H       0.760146     -1.082133     -0.513440
  H       1.047477      1.306900      0.060195
  S      -8.278911      1.494512      1.017450
  F     -12.503231     -1.162546     -0.474454
  F     -11.426934     -0.450619      1.268779
  F     -12.142490      1.093443     -1.774247
  F     -10.330350      0.128233     -1.078882
  F     -13.247954      1.392705      1.776131
  F     -13.994872     -0.639182      1.634504
  F     -10.240582      2.772792     -1.286732
  F     -11.938743      3.016772      0.038209
  F     -15.707462      1.235431      0.958543
  F     -14.378045      2.054396     -0.548273
  F     -10.587074      2.040219      2.114102
  F      -9.641400      3.701201      1.082902
  F     -14.536752     -0.144400     -2.030878
  F     -16.450408      0.730818     -1.488136
  F     -16.710006     -1.295860      0.460916
  F     -14.952815     -2.220648     -0.387279
  F     -16.673280     -1.852018     -1.622052
  O      -7.589660      2.170256      2.094546
  O      -7.724059      1.734726     -0.295400
  O      -8.614936      0.118634      1.296972
  C     -12.215976     -0.074428      0.256307
  C     -11.386343      0.855241     -0.690759
  C     -13.547960      0.407930      0.921575
  C     -10.863930      2.249832     -0.219952
  C     -14.751166      0.927354      0.069474
  C      -9.911591      2.384043      1.006288
  C     -15.405670      0.025981     -1.029227
  C     -15.946924     -1.377219     -0.619343
56
Coordinates from ORCA-job R4N+PFOS-_wb E -3071.947158895795
  N      -4.591739     -1.170169      0.159798
  C      -3.821700     -0.599377     -1.010474
  C      -4.787656     -0.148845      1.220405
  C      -5.921994     -1.596184     -0.352902
  C      -3.900927     -2.351503      0.737675
  C      -2.449460     -0.082110     -0.685345
  C      -2.265325      1.250886     -0.332465
  C      -1.340778     -0.917638     -0.771226
  C      -0.998336      1.735747     -0.050239
  C      -0.072536     -0.435397     -0.489166
  C       0.099717      0.891576     -0.124281
  H      -4.448236      0.197940     -1.407782
  H      -3.768670     -1.402937     -1.743695
  H      -5.242725      0.732747      0.776765
  H      -5.438194     -0.570954      1.981955
  H      -3.826132      0.103957      1.658931
  H      -5.773167     -2.343070     -1.129024
  H      -6.491586     -2.019722      0.469816
  H      -6.435959     -0.728905     -0.759603
  H      -3.755310     -3.092656     -0.044951
  H      -2.945015     -2.044455      1.153061
  H      -4.529211     -2.758688      1.526607
  H      -3.121595      1.914254     -0.283243
  H      -1.472016     -1.952553     -1.066831
  H      -0.867996      2.775719      0.223506
  H       0.783182     -1.095937     -0.559293
  H       1.091103      1.270161      0.094247
  S      -8.235323      1.495025      1.076990
  F     -12.490757     -1.106540     -0.418944
  F     -11.549512     -0.326263      1.370935
  F     -12.065412      1.167109     -1.741095
  F     -10.317244      0.148593     -0.965411
  F     -13.419497      1.570329      1.617976
  F     -14.100338     -0.488318      1.619111
  F     -10.175244      2.807208     -1.196636
  F     -11.867599      3.078635      0.129571
  F     -15.800236      1.329603      0.696694
  F     -14.427570      1.936791     -0.868813
  F     -10.530233      2.027707      2.192960
  F      -9.579404      3.705514      1.193809
  F     -14.556132     -0.489407     -2.016132
  F     -16.457501      0.513436     -1.701133
  F     -16.879822     -1.169269      0.515059
  F     -15.121274     -2.270576     -0.081717
  F     -16.765139     -2.049656     -1.449956
  O      -7.546778      2.121699      2.170089
  O      -7.680726      1.774854     -0.216596
  O      -8.579450      0.122415      1.304287
  C     -12.262576      0.007948      0.290861
  C     -11.364903      0.909800     -0.626043
  C     -13.644823      0.505919      0.840638
  C     -10.812083      2.289382     -0.136286
  C     -14.820787      0.904799     -0.114310
  C      -9.852227      2.389835      1.091788
  C     -15.457368     -0.140262     -1.093583
  C     -16.070029     -1.445721     -0.496260
56
Coordinates from ORCA-job R4N+PFOS-_wb E -3071.948217174453
  N      -4.584266     -1.175340      0.178370
  C      -3.815343     -0.617352     -1.003244
  C      -4.787743     -0.135651      1.223316
  C      -5.913145     -1.620161     -0.328516
  C      -3.883697     -2.343285      0.776127
  C      -2.448160     -0.086742     -0.681005
  C      -2.273815      1.253778     -0.347025
  C      -1.332966     -0.917244     -0.751570
  C      -1.009937      1.750734     -0.066854
  C      -0.068039     -0.422382     -0.471416
  C       0.094510      0.911791     -0.124571
  H      -4.447165      0.169592     -1.413572
  H      -3.755437     -1.433178     -1.722718
  H      -5.248303      0.735692      0.763659
  H      -5.436446     -0.549328      1.992074
  H      -3.827468      0.130505      1.657102
  H      -5.758124     -2.378660     -1.092564
  H      -6.479784     -2.034524      0.501853
  H      -6.433031     -0.762351     -0.749268
  H      -3.732691     -3.095599      0.004837
  H      -2.929995     -2.021231      1.185805
  H      -4.509538     -2.741866      1.571769
  H      -3.134538      1.912350     -0.310752
  H      -1.456689     -1.957093     -1.033120
  H      -0.886945      2.795552      0.192031
  H       0.792344     -1.078261     -0.529376
  H       1.082820      1.299889      0.091838
  S      -8.240573      1.487461      1.047139
  F     -12.507234     -1.133759     -0.463754
  F     -11.503472     -0.395401      1.312338
  F     -12.103165      1.137906     -1.767635
  F     -10.329623      0.131824     -1.029383
  F     -13.353087      1.479556      1.692457
  F     -14.060453     -0.570751      1.617552
  F     -10.194332      2.781279     -1.248177
  F     -11.891820      3.056236      0.074237
  F     -15.769384      1.290952      0.833244
  F     -14.431090      1.994184     -0.724885
  F     -10.553758      2.037168      2.152716
  F      -9.601344      3.703310      1.131195
  F     -14.603772     -0.341610     -2.033255
  F     -16.495331      0.636069     -1.589255
  F     -16.844725     -1.206051      0.520854
  F     -15.115795     -2.266267     -0.227999
  F     -16.811648     -1.933480     -1.511148
  O      -7.552573      2.142306      2.139953
  O      -7.682979      1.752512     -0.261601
  O      -8.582571      0.106164      1.299288
  C     -12.251527     -0.033313      0.262682
  C     -11.378871      0.882800     -0.664608
  C     -13.613135      0.454270      0.870914
  C     -10.830919      2.267161     -0.182947
  C     -14.810456      0.914472     -0.028434
  C      -9.873481      2.383888      1.045295
  C     -15.477059     -0.060261     -1.059020
  C     -16.074484     -1.405790     -0.540867
56
Coordinates from ORCA-job R4N+PFOS-_wb E -3071.948298641739
  N      -4.597244     -1.175260      0.179964
  C      -3.830023     -0.621577     -1.004292
  C      -4.799441     -0.132260      1.221722
  C      -5.926546     -1.621866     -0.323681
  C      -3.895988     -2.340991      0.780597
  C      -2.462593     -0.089487     -0.685543
  C      -2.287964      1.252576     -0.358200
  C      -1.347509     -0.920303     -0.752907
  C      -1.023910      1.750845     -0.081373
  C      -0.082418     -0.424172     -0.475917
  C       0.080423      0.911609     -0.135687
  H      -4.462281      0.163558     -1.417046
  H      -3.770618     -1.439911     -1.720757
  H      -5.260491      0.737642      0.759850
  H      -5.447213     -0.543356      1.992555
  H      -3.838754      0.135122      1.653466
  H      -5.772413     -2.382517     -1.085575
  H      -6.491847     -2.033821      0.508728
  H      -6.447101     -0.765378     -0.746271
  H      -3.745792     -3.095621      0.011604
  H      -2.942035     -2.017485      1.188194
  H      -4.520909     -2.737009      1.578087
  H      -3.148514      1.911338     -0.324559
  H      -1.471380     -1.961438     -1.029203
  H      -0.900739      2.796834      0.172237
  H       0.777803     -1.080341     -0.531216
  H       1.068812      1.300688      0.078098
  S      -8.252525      1.487858      1.046988
  F     -12.516173     -1.146262     -0.433851
  F     -11.496954     -0.398996      1.332542
  F     -12.117000      1.110753     -1.754085
  F     -10.333882      0.116822     -1.017270
  F     -13.334602      1.482049      1.712482
  F     -14.063581     -0.563466      1.637377
  F     -10.215261      2.768618     -1.251633
  F     -11.911575      3.035780      0.076283
  F     -15.760928      1.293993      0.838447
  F     -14.398802      2.014925     -0.693633
  F     -10.564002      2.038655      2.153147
  F      -9.616045      3.702094      1.121666
  F     -14.540864     -0.291985     -2.030993
  F     -16.454112      0.649697     -1.597149
  F     -16.800211     -1.229482      0.479412
  F     -15.033245     -2.240033     -0.247670
  F     -16.713356     -1.937186     -1.558530
  O      -7.566026      2.144470      2.139745
  O      -7.695496      1.752844     -0.262108
  O      -8.594406      0.106558      1.299882
  C     -12.249886     -0.042684      0.284291
  C     -11.384744      0.865958     -0.653709
  C     -13.604014      0.457555      0.892788
  C     -10.844722      2.255009     -0.181941
  C     -14.789072      0.928617     -0.013509
  C      -9.885705      2.381512      1.043205
  C     -15.431137     -0.037919     -1.064687
  C     -16.007241     -1.400697     -0.570262
56
Coordinates from ORCA-job R4N+PFOS-_wb E -3071.948337152191
  N      -4.605977     -1.171840      0.179191
  C      -3.832976     -0.620079     -1.001507
  C      -4.807838     -0.129438      1.221181
  C      -5.935046     -1.612897     -0.329246
  C      -3.911301     -2.340663      0.781088
  C      -2.464534     -0.092895     -0.678298
  C      -2.286155      1.248367     -0.350301
  C      -1.352280     -0.927523     -0.742232
  C      -1.021297      1.742196     -0.069701
  C      -0.086363     -0.435929     -0.461429
  C       0.080161      0.899164     -0.120739
  H      -4.460774      0.167648     -1.416151
  H      -3.773919     -1.437772     -1.718757
  H      -5.264104      0.742677      0.758852
  H      -5.459748     -0.538868      1.989316
  H      -3.847764      0.134002      1.656742
  H      -5.781386     -2.373187     -1.091589
  H      -6.504587     -2.023781      0.500697
  H      -6.451133     -0.754080     -0.752495
  H      -3.761055     -3.095195      0.012008
  H      -2.957637     -2.021323      1.192651
  H      -4.540458     -2.735318      1.575930
  H      -3.144464      1.910202     -0.319152
  H      -1.478874     -1.968234     -1.018954
  H      -0.895269      2.787749      0.184339
  H       0.771674     -1.095181     -0.514105
  H       1.069276      1.284760      0.096041
  S      -8.255690      1.500793      1.039172
  F     -12.486184     -1.135985     -0.474460
  F     -11.456753     -0.401153      1.289360
  F     -12.117782      1.140417     -1.772859
  F     -10.322430      0.151669     -1.063012
  F     -13.307546      1.455690      1.715009
  F     -14.014425     -0.594899      1.624184
  F     -10.209011      2.798406     -1.263628
  F     -11.908096      3.053229      0.061876
  F     -15.739519      1.260336      0.877380
  F     -14.413432      2.005128     -0.672602
  F     -10.568498      2.054424      2.136399
  F      -9.612350      3.717424      1.111995
  F     -14.569260     -0.297582     -2.027530
  F     -16.473144      0.641034     -1.552880
  F     -16.785427     -1.251526      0.514984
  F     -15.036168     -2.262132     -0.253036
  F     -16.738705     -1.941365     -1.529661
  O      -7.573168      2.150975      2.135884
  O      -7.692487      1.768050     -0.264879
  O      -8.602223      0.121336      1.285733
  C     -12.224092     -0.038706      0.254063
  C     -11.375043      0.888654     -0.681456
  C     -13.576893      0.439502      0.885489
  C     -10.839536      2.276280     -0.199000
  C     -14.782128      0.909398      0.003848
  C      -9.884433      2.397557      1.030124
  C     -15.441603     -0.050662     -1.043580
  C     -16.012398     -1.416379     -0.550194
56
Coordinates from ORCA-job R4N+PFOS-_wb E -3071.948335427306
  N      -4.591037     -1.173389      0.183162
  C      -3.824903     -0.622886     -1.002503
  C      -4.791191     -0.128454      1.222981
  C      -5.921166     -1.619743     -0.317976
  C      -3.890350     -2.338528      0.785450
  C      -2.456634     -0.090499     -0.686931
  C      -2.280971      1.252351     -0.363955
  C      -1.342066     -0.921894     -0.753117
  C      -1.016410      1.750994     -0.090498
  C      -0.076434     -0.425491     -0.479462
  C       0.087448      0.911207     -0.143746
  H      -4.456782      0.161759     -1.416918
  H      -3.766369     -1.442429     -1.717776
  H      -5.251991      0.741039      0.760168
  H      -5.438572     -0.537394      1.995241
  H      -3.829923      0.139008      1.653574
  H      -5.768859     -2.381674     -1.079021
  H      -6.485667     -2.030067      0.515705
  H      -6.441736     -0.763578     -0.741155
  H      -3.741180     -3.094920      0.017920
  H      -2.935837     -2.015303      1.192105
  H      -4.514936     -2.732780      1.584141
  H      -3.141219      1.911644     -0.330982
  H      -1.466576     -1.963899     -1.026038
  H      -0.892538      2.797762      0.159714
  H       0.783420     -1.082291     -0.533843
  H       1.076337      1.300561      0.067454
  S      -8.245554      1.489133      1.053973
  F     -12.513512     -1.145293     -0.435311
  F     -11.506309     -0.397320      1.335047
  F     -12.111055      1.116531     -1.752986
  F     -10.335309      0.115616     -1.013439
  F     -13.350737      1.476512      1.712200
  F     -14.069666     -0.569710      1.632121
  F     -10.203545      2.764149     -1.246872
  F     -11.898886      3.042804      0.077823
  F     -15.773620      1.280996      0.840553
  F     -14.420390      2.013554     -0.691135
  F     -10.556683      2.039882      2.158032
  F      -9.608375      3.701780      1.125733
  F     -14.562516     -0.294136     -2.038413
  F     -16.470434      0.652245     -1.597375
  F     -16.822170     -1.230636      0.472300
  F     -15.065000     -2.251252     -0.264436
  F     -16.745869     -1.927830     -1.568893
  O      -7.562083      2.142234      2.148040
  O      -7.687165      1.757551     -0.251698
  O      -8.586133      0.108855      1.302393
  C     -12.254404     -0.041134      0.283836
  C     -11.383588      0.868020     -0.650552
  C     -13.613892      0.453583      0.889013
  C     -10.836805      2.255151     -0.177513
  C     -14.803236      0.922293     -0.015324
  C      -9.877049      2.380769      1.048217
  C     -15.449238     -0.040547     -1.069085
  C     -16.032889     -1.402432     -0.579840
56
Coordinates from ORCA-job R4N+PFOS-_wb E -3071.948354240871
  N      -4.598151     -1.172439      0.180153
  C      -3.828770     -0.621264     -1.003233
  C      -4.798656     -0.128700      1.221248
  C      -5.928118     -1.615891     -0.324221
  C      -3.900443     -2.339683      0.781968
  C      -2.460431     -0.091397     -0.683841
  C      -2.283565      1.250704     -0.358198
  C      -1.346866     -0.924303     -0.749048
  C      -1.018866      1.747057     -0.081026
  C      -0.081103     -0.430151     -0.471743
  C       0.083939      0.905758     -0.133277
  H      -4.458653      0.164952     -1.417700
  H      -3.769960     -1.439835     -1.719583
  H      -5.257166      0.742248      0.758817
  H      -5.448213     -0.537808      1.991634
  H      -3.837774      0.136522      1.654057
  H      -5.775574     -2.376680     -1.086364
  H      -6.494719     -2.026869      0.507741
  H      -6.446609     -0.758138     -0.746772
  H      -3.750973     -3.095050      0.013493
  H      -2.946241     -2.018556      1.190988
  H      -4.527247     -2.734189      1.578794
  H      -3.142937      1.911162     -0.325967
  H      -1.472238     -1.965649     -1.024049
  H      -0.894055      2.793208      0.171269
  H       0.777929     -1.088077     -0.525387
  H       1.072907      1.293327      0.080790
  S      -8.250309      1.493597      1.049664
  F     -12.502375     -1.141773     -0.451096
  F     -11.485746     -0.399049      1.317171
  F     -12.114591      1.126617     -1.760149
  F     -10.329332      0.130912     -1.034135
  F     -13.331697      1.471039      1.710567
  F     -14.047681     -0.577253      1.628903
  F     -10.207478      2.779763     -1.251709
  F     -11.905071      3.044962      0.074007
  F     -15.757704      1.277005      0.850033
  F     -14.412001      2.008335     -0.689861
  F     -10.563296      2.044143      2.150715
  F      -9.611896      3.707727      1.122993
  F     -14.559542     -0.302442     -2.032025
  F     -16.466508      0.644203     -1.584907
  F     -16.810547     -1.233232      0.488871
  F     -15.051886     -2.252679     -0.245826
  F     -16.735422     -1.939406     -1.549615
  O      -7.568650      2.143164      2.147744
  O      -7.688495      1.765429     -0.254505
  O      -8.593340      0.112426      1.293351
  C     -12.241333     -0.040425      0.271918
  C     -11.379850      0.876229     -0.662783
  C     -13.597748      0.449326      0.886518
  C     -10.839069      2.263480     -0.184657
  C     -14.791810      0.917793     -0.010895
  C      -9.881448      2.386934      1.042672
  C     -15.442441     -0.046858     -1.059604
  C     -16.022430     -1.407751     -0.563802
56
Coordinates from ORCA-job R4N+PFOS-_wb E -3071.948358968587
  N      -4.603285     -1.170700      0.180471
  C      -3.832617     -0.621813     -1.003008
  C      -4.802334     -0.125919      1.220763
  C      -5.933850     -1.612172     -0.323962
  C      -3.907825     -2.338709      0.783320
  C      -2.463376     -0.094186     -0.683679
  C      -2.284080      1.247919     -0.359457
  C      -1.351369     -0.929243     -0.747588
  C      -1.018522      1.742233     -0.082607
  C      -0.084763     -0.437154     -0.470515
  C       0.082713      0.898833     -0.133621
  H      -4.460900      0.165206     -1.418351
  H      -3.775027     -1.440987     -1.718747
  H      -5.259211      0.745491      0.757596
  H      -5.452861     -0.533386      1.991185
  H      -3.841175      0.137943      1.653749
  H      -5.782426     -2.373444     -1.085828
  H      -6.501214     -2.021981      0.508038
  H      -6.450891     -0.753722     -0.746862
  H      -3.759341     -3.094836      0.015426
  H      -2.953262     -2.018946      1.192540
  H      -4.535611     -2.731612      1.580148
  H      -3.142187      1.910049     -0.328242
  H      -1.478576     -1.970671     -1.021403
  H      -0.891828      2.788444      0.168460
  H       0.773025     -1.096768     -0.523159
  H       1.072349      1.284801      0.080208
  S      -8.252303      1.499347      1.050221
  F     -12.494361     -1.137934     -0.455667
  F     -11.476113     -0.395601      1.311712
  F     -12.116032      1.134986     -1.760926
  F     -10.326823      0.141853     -1.041400
  F     -13.326822      1.468571      1.712341
  F     -14.035874     -0.581847      1.629697
  F     -10.208117      2.789572     -1.251667
  F     -11.906344      3.050649      0.074105
  F     -15.755683      1.264143      0.858222
  F     -14.416809      2.007806     -0.681526
  F     -10.565396      2.050664      2.149740
  F      -9.612239      3.714197      1.123322
  F     -14.555792     -0.296862     -2.033057
  F     -16.466953      0.636654     -1.576789
  F     -16.794518     -1.252426      0.489195
  F     -15.032452     -2.258616     -0.255634
  F     -16.721467     -1.947944     -1.552871
  O      -7.572111      2.145955      2.150778
  O      -7.688390      1.773771     -0.252385
  O      -8.596764      0.118017      1.290255
  C     -12.235036     -0.037191      0.268830
  C     -11.378190      0.883721     -0.665837
  C     -13.591534      0.447202      0.887470
  C     -10.839370      2.270917     -0.185567
  C     -14.789755      0.912872     -0.005926
  C      -9.882494      2.393546      1.042349
  C     -15.437602     -0.050837     -1.057239
  C     -16.008463     -1.417381     -0.566515
56
Coordinates from ORCA-job R4N+PFOS-_wb E -3071.948361197711
  N      -4.602772     -1.168883      0.181810
  C      -3.831927     -0.622573     -1.002596
  C      -4.801547     -0.122097      1.220112
  C      -5.933487     -1.610812     -0.321773
  C      -3.907769     -2.335982      0.786918
  C      -2.462500     -0.094726     -0.684279
  C      -2.282752      1.248013     -0.362991
  C      -1.350799     -0.930319     -0.746199
  C      -1.017035      1.742485     -0.087141
  C      -0.084045     -0.438083     -0.470067
  C       0.083899      0.898590     -0.136178
  H      -4.459867      0.163825     -1.419619
  H      -3.774479     -1.443104     -1.716794
  H      -5.258123      0.748590      0.755294
  H      -5.452307     -0.527924      1.991206
  H      -3.840367      0.142250      1.652746
  H      -5.782360     -2.373068     -1.082719
  H      -6.500699     -2.019509      0.510863
  H      -6.450486     -0.752818     -0.745634
  H      -3.759360     -3.093573      0.020458
  H      -2.953215     -2.015754      1.195792
  H      -4.535819     -2.727246      1.584340
  H      -3.140603      1.910548     -0.333310
  H      -1.478296     -1.972324     -1.017672
  H      -0.890004      2.789215      0.161581
  H       0.773485     -1.098155     -0.521139
  H       1.073659      1.284680      0.076855
  S      -8.253124      1.498969      1.052056
  F     -12.493755     -1.141230     -0.459693
  F     -11.473463     -0.402257      1.307814
  F     -12.116982      1.133210     -1.761567
  F     -10.326415      0.140337     -1.045435
  F     -13.322541      1.460584      1.715269
  F     -14.033789     -0.588769      1.627390
  F     -10.208041      2.787210     -1.251478
  F     -11.907462      3.046993      0.072944
  F     -15.751986      1.261904      0.863603
  F     -14.413922      2.008659     -0.675238
  F     -10.567823      2.047208      2.149362
  F      -9.615400      3.711987      1.124379
  F     -14.558058     -0.293124     -2.033356
  F     -16.466195      0.644892     -1.573876
  F     -16.800621     -1.247896      0.485894
  F     -15.041046     -2.258006     -0.259401
  F     -16.727779     -1.939037     -1.557595
  O      -7.576618      2.142790      2.156326
  O      -7.686621      1.778615     -0.248214
  O      -8.596209      0.116521      1.286678
  C     -12.233465     -0.041850      0.266476
  C     -11.377864      0.880789     -0.667573
  C     -13.589077      0.441894      0.887670
  C     -10.839898      2.267883     -0.186042
  C     -14.787707      0.911994     -0.002934
  C      -9.884068      2.390978      1.042716
  C     -15.438726     -0.047039     -1.056553
  C     -16.014019     -1.412983     -0.569384
56
Coordinates from ORCA-job R4N+PFOS-_wb E -3071.948367790697
  N      -4.605011     -1.164662      0.183053
  C      -3.833017     -0.624461     -1.003206
  C      -4.800851     -0.113838      1.217849
  C      -5.937123     -1.604555     -0.318652
  C      -3.913085     -2.331625      0.792012
  C      -2.462343     -0.098519     -0.686812
  C      -2.279576      1.245037     -0.370663
  C      -1.352525     -0.936858     -0.745411
  C      -1.012752      1.737682     -0.096511
  C      -0.084691     -0.446461     -0.470872
  C       0.086268      0.891093     -0.142057
  H      -4.459032      0.161893     -1.423192
  H      -3.777342     -1.447585     -1.714574
  H      -5.255165      0.756521      0.750153
  H      -5.452726     -0.515405      1.990276
  H      -3.838960      0.149326      1.649637
  H      -5.788397     -2.368473     -1.078434
  H      -6.504471     -2.010583      0.515187
  H      -6.452549     -0.746132     -0.743517
  H      -3.766552     -3.092104      0.028047
  H      -2.957801     -2.012545      1.200087
  H      -4.542259     -2.718671      1.590609
  H      -3.135900      1.909675     -0.343563
  H      -1.482222     -1.979637     -1.012875
  H      -0.883415      2.785089      0.148166
  H       0.771300     -1.108742     -0.519246
  H       1.076881      1.275743      0.069643
  S      -8.253782      1.502881      1.060059
  F     -12.488934     -1.138795     -0.467365
  F     -11.470521     -0.404198      1.302918
  F     -12.117628      1.143122     -1.759986
  F     -10.325277      0.148705     -1.051052
  F     -13.323198      1.455121      1.715372
  F     -14.029385     -0.595850      1.622589
  F     -10.205756      2.793914     -1.244138
  F     -11.907493      3.050166      0.078000
  F     -15.752540      1.251649      0.865439
  F     -14.418029      2.006947     -0.672392
  F     -10.571357      2.045029      2.154133
  F      -9.618729      3.713578      1.135494
  F     -14.556956     -0.293111     -2.036189
  F     -16.466993      0.640024     -1.573870
  F     -16.800958     -1.256315      0.478826
  F     -15.035610     -2.260641     -0.260438
  F     -16.718710     -1.946507     -1.564717
  O      -7.584926      2.136564      2.174750
  O      -7.680721      1.797177     -0.234161
  O      -8.595484      0.117516      1.278662
  C     -12.230743     -0.041442      0.262640
  C     -11.376836      0.886158     -0.668037
  C     -13.587436      0.437743      0.885287
  C     -10.839493      2.271716     -0.181083
  C     -14.788055      0.907132     -0.003142
  C      -9.885638      2.392286      1.049633
  C     -15.437673     -0.050681     -1.058511
  C     -16.010075     -1.418615     -0.573754
56
Coordinates from ORCA-job R4N+PFOS-_wb E -3071.948373073504
  N      -4.606935     -1.157781      0.185533
  C      -3.833987     -0.627209     -1.004296
  C      -4.798249     -0.100378      1.214525
  C      -5.941176     -1.595344     -0.312587
  C      -3.918916     -2.323928      0.800513
  C      -2.461434     -0.103666     -0.691900
  C      -2.274064      1.241370     -0.384759
  C      -1.354397     -0.946008     -0.745631
  C      -1.005402      1.731669     -0.114780
  C      -0.084740     -0.457925     -0.475344
  C       0.090844      0.881220     -0.155513
  H      -4.457693      0.158582     -1.428713
  H      -3.781292     -1.454740     -1.710752
  H      -5.249596      0.769055      0.742141
  H      -5.451352     -0.495337      1.989404
  H      -3.835170      0.161504      1.644464
  H      -5.796048     -2.362129     -1.070215
  H      -6.508310     -1.997032      0.523478
  H      -6.454662     -0.736738     -0.739288
  H      -3.775548     -3.089116      0.040654
  H      -2.962322     -2.006040      1.206452
  H      -4.549113     -2.704271      1.601514
  H      -3.128162      1.909019     -0.361437
  H      -1.487566     -1.990121     -1.006120
  H      -0.872505      2.780270      0.122804
  H       0.769011     -1.123367     -0.519986
  H       1.082871      1.264035      0.052884
  S      -8.255024      1.506100      1.074851
  F     -12.485438     -1.137758     -0.471084
  F     -11.472376     -0.406518      1.303865
  F     -12.115842      1.151328     -1.754732
  F     -10.323123      0.154889     -1.049121
  F     -13.327397      1.453791      1.712057
  F     -14.030004     -0.598636      1.619875
  F     -10.203433      2.799629     -1.229004
  F     -11.909227      3.049966      0.089638
  F     -15.755805      1.243408      0.859379
  F     -14.420006      2.004128     -0.674715
  F     -10.577300      2.035025      2.165155
  F      -9.626423      3.711809      1.158081
  F     -14.551079     -0.294902     -2.042073
  F     -16.463786      0.634455     -1.582825
  F     -16.801492     -1.264738      0.464656
  F     -15.031805     -2.265748     -0.268872
  F     -16.710263     -1.952015     -1.579405
  O      -7.598637      2.123191      2.206294
  O      -7.672119      1.825034     -0.209357
  O      -8.592914      0.115737      1.266986
  C     -12.230072     -0.042019      0.262404
  C     -11.375523      0.889535     -0.663366
  C     -13.588653      0.435122      0.882413
  C     -10.839917      2.273286     -0.169399
  C     -14.788780      0.902378     -0.007959
  C      -9.889453      2.390103      1.064316
  C     -15.434370     -0.055113     -1.066029
  C     -16.006077     -1.424585     -0.584972
56
Coordinates from ORCA-job R4N+PFOS-_wb E -3071.948374769488
  N      -4.606210     -1.158557      0.186298
  C      -3.833812     -0.627865     -1.003958
  C      -4.797744     -0.100930      1.214981
  C      -5.940323     -1.596912     -0.311301
  C      -3.917380     -2.324162      0.801294
  C      -2.461486     -0.103612     -0.692007
  C      -2.274711      1.241494     -0.384846
  C      -1.354045     -0.945390     -0.746149
  C      -1.006225      1.732435     -0.115326
  C      -0.084549     -0.456662     -0.476351
  C       0.090441      0.882558     -0.156534
  H      -4.458153      0.157503     -1.428197
  H      -3.781034     -1.455619     -1.710108
  H      -5.249446      0.768127      0.742338
  H      -5.450558     -0.495826      1.990105
  H      -3.834661      0.161447      1.644603
  H      -5.794999     -2.364304     -1.068261
  H      -6.507307     -1.998010      0.525156
  H      -6.454149     -0.738815     -0.738724
  H      -3.774138     -3.089535      0.041604
  H      -2.960648     -2.005722      1.206464
  H      -4.546945     -2.704472      1.602794
  H      -3.129165      1.908659     -0.361209
  H      -1.486880     -1.989540     -1.006630
  H      -0.873760      2.781073      0.122308
  H       0.769555     -1.121615     -0.521355
  H       1.082335      1.265878      0.051538
  S      -8.255066      1.505156      1.073876
  F     -12.487687     -1.137044     -0.471605
  F     -11.474295     -0.407560      1.303782
  F     -12.116032      1.151195     -1.754700
  F     -10.324302      0.154173     -1.047758
  F     -13.329350      1.452414      1.713955
  F     -14.032853     -0.599496      1.618102
  F     -10.203779      2.799315     -1.228629
  F     -11.909166      3.050451      0.090076
  F     -15.756573      1.246149      0.858130
  F     -14.418865      2.005069     -0.675249
  F     -10.576880      2.033250      2.165393
  F      -9.626518      3.710694      1.159068
  F     -14.551432     -0.292332     -2.042990
  F     -16.464538      0.635828     -1.582979
  F     -16.797661     -1.264978      0.466209
  F     -15.029103     -2.264147     -0.272440
  F     -16.710933     -1.950682     -1.578668
  O      -7.597473      2.124307      2.203558
  O      -7.673602      1.821722     -0.211536
  O      -8.592496      0.115098      1.268730
  C     -12.231838     -0.041911      0.262572
  C     -11.376539      0.889517     -0.662834
  C     -13.590385      0.435169      0.882611
  C     -10.840334      2.273188     -0.169059
  C     -14.789299      0.903952     -0.008403
  C      -9.889785      2.389262      1.064555
  C     -15.434669     -0.053411     -1.066680
  C     -16.004800     -1.423499     -0.585510
56
Coordinates from ORCA-job R4N+PFOS-_wb E -3071.948377477255
  N      -4.606077     -1.157803      0.186830
  C      -3.833403     -0.628064     -1.003845
  C      -4.797453     -0.099353      1.214656
  C      -5.940208     -1.596207     -0.310479
  C      -3.917502     -2.323106      0.802583
  C      -2.460927     -0.104203     -0.692133
  C      -2.273562      1.240903     -0.385325
  C      -1.353849     -0.946473     -0.746087
  C      -1.004888      1.731323     -0.115855
  C      -0.084156     -0.458276     -0.476323
  C       0.091381      0.880924     -0.156766
  H      -4.457602      0.157241     -1.428381
  H      -3.781061     -1.456380     -1.709335
  H      -5.248627      0.769498      0.741153
  H      -5.450649     -0.493339      1.989906
  H      -3.834359      0.162937      1.644291
  H      -5.795031     -2.364648     -1.066396
  H      -6.507596     -1.995932      0.526364
  H      -6.453647     -0.738468     -0.739125
  H      -3.774785     -3.089150      0.043476
  H      -2.960475     -2.004677      1.207055
  H      -4.546928     -2.702505      1.604617
  H      -3.127742      1.908418     -0.361931
  H      -1.487293     -1.990616     -1.006274
  H      -0.871915      2.779943      0.121551
  H       0.769681     -1.123579     -0.521112
  H       1.083424      1.263852      0.051300
  S      -8.255860      1.505595      1.073109
  F     -12.488513     -1.135330     -0.476214
  F     -11.474048     -0.409729      1.300074
  F     -12.115328      1.153257     -1.756236
  F     -10.323833      0.156530     -1.048479
  F     -13.329060      1.450144      1.714449
  F     -14.032304     -0.601666      1.615786
  F     -10.205110      2.802573     -1.227089
  F     -11.910795      3.050915      0.091647
  F     -15.756125      1.246533      0.858453
  F     -14.419021      2.004579     -0.675785
  F     -10.577954      2.029970      2.165561
  F      -9.628731      3.710120      1.162727
  F     -14.553250     -0.291921     -2.043654
  F     -16.466123      0.635341     -1.581325
  F     -16.792306     -1.266939      0.470929
  F     -15.027168     -2.265344     -0.276836
  F     -16.714645     -1.950217     -1.575173
  O      -7.598571      2.124697      2.203058
  O      -7.674735      1.822875     -0.212221
  O      -8.592202      0.115228      1.267280
  C     -12.232136     -0.041750      0.260051
  C     -11.376761      0.891167     -0.663943
  C     -13.590318      0.434202      0.881710
  C     -10.841497      2.274609     -0.168456
  C     -14.789479      0.903787     -0.008464
  C      -9.891404      2.388937      1.065533
  C     -15.435532     -0.053707     -1.066303
  C     -16.004192     -1.424242     -0.584499
56
Coordinates from ORCA-job R4N+PFOS-_wb E -3071.948377480567
  N      -4.606579     -1.156599      0.189303
  C      -3.834520     -0.629883     -1.003190
  C      -4.796491     -0.095808      1.214982
  C      -5.941360     -1.595156     -0.306033
  C      -3.918269     -2.321037      0.806947
  C      -2.461531     -0.106056     -0.693787
  C      -2.273191      1.239617     -0.390067
  C      -1.354905     -0.948979     -0.747100
  C      -1.003998      1.730017     -0.123064
  C      -0.084685     -0.460801     -0.479808
  C       0.091824      0.879007     -0.163352
  H      -4.458724      0.154795     -1.428864
  H      -3.783281     -1.459842     -1.706823
  H      -5.247160      0.772420      0.739840
  H      -5.449631     -0.487584      1.991410
  H      -3.832936      0.166565      1.643540
  H      -5.797322     -2.365551     -1.060183
  H      -6.508555     -1.992338      0.532145
  H      -6.454428     -0.738079     -0.736410
  H      -3.776900     -3.088879      0.049404
  H      -2.960565     -2.002457      1.209688
  H      -4.547159     -2.698175      1.610464
  H      -3.127040      1.907577     -0.367240
  H      -1.489206     -1.993590     -1.004959
  H      -0.870240      2.779084      0.111911
  H       0.768813     -1.126571     -0.524126
  H       1.084276      1.261923      0.042782
  S      -8.256399      1.506873      1.076342
  F     -12.486314     -1.134545     -0.478679
  F     -11.473607     -0.411047      1.299446
  F     -12.114378      1.156298     -1.754680
  F     -10.322563      0.159988     -1.047177
  F     -13.330766      1.445695      1.716604
  F     -14.032625     -0.606301      1.612553
  F     -10.206153      2.806612     -1.221653
  F     -11.912479      3.051216      0.096958
  F     -15.756570      1.243511      0.857247
  F     -14.418123      2.004346     -0.674371
  F     -10.579157      2.026817      2.169348
  F      -9.631290      3.709992      1.170236
  F     -14.550419     -0.289533     -2.046405
  F     -16.463935      0.636197     -1.584160
  F     -16.789894     -1.270329      0.465647
  F     -15.025146     -2.266986     -0.285388
  F     -16.713227     -1.948900     -1.582058
  O      -7.600078      2.124806      2.207518
  O      -7.675266      1.826717     -0.208319
  O      -8.591337      0.115848      1.268148
  C     -12.231522     -0.041996      0.259658
  C     -11.376383      0.893217     -0.662274
  C     -13.590562      0.431541      0.881300
  C     -10.842453      2.276236     -0.164232
  C     -14.788977      0.902398     -0.009193
  C      -9.892854      2.388838      1.070234
  C     -15.433673     -0.053510     -1.069407
  C     -16.002337     -1.425143     -0.590552
56
Coordinates from ORCA-job R4N+PFOS-_wb E -3071.948378162525
  N      -4.605821     -1.156180      0.189937
  C      -3.833820     -0.630158     -1.002882
  C      -4.795621     -0.094817      1.215038
  C      -5.940659     -1.594899     -0.305076
  C      -3.917525     -2.320322      0.808147
  C      -2.460775     -0.106252     -0.693898
  C      -2.272345      1.239539     -0.390734
  C      -1.354166     -0.949214     -0.747149
  C      -1.003068      1.730044     -0.124318
  C      -0.083865     -0.460930     -0.480443
  C       0.092744      0.879016     -0.164625
  H      -4.458012      0.154330     -1.428919
  H      -3.782708     -1.460498     -1.706074
  H      -5.246066      0.773259      0.739405
  H      -5.448924     -0.486063      1.991604
  H      -3.832062      0.167609      1.643563
  H      -5.796777     -2.366014     -1.058528
  H      -6.508037     -1.991154      0.533420
  H      -6.453520     -0.738117     -0.736264
  H      -3.776366     -3.088638      0.051042
  H      -2.959705     -2.001618      1.210520
  H      -4.546301     -2.696928      1.612005
  H      -3.126188      1.907512     -0.367932
  H      -1.488580     -1.993923     -1.004565
  H      -0.869221      2.779208      0.110178
  H       0.769627     -1.126710     -0.524741
  H       1.085263      1.262020      0.041034
  S      -8.256596      1.506374      1.076825
  F     -12.487402     -1.134748     -0.480618
  F     -11.474460     -0.412796      1.298023
  F     -12.113853      1.156305     -1.755426
  F     -10.322447      0.159586     -1.047400
  F     -13.330503      1.444649      1.716212
  F     -14.033291     -0.606966      1.611320
  F     -10.206414      2.806760     -1.220490
  F     -11.913157      3.049990      0.097878
  F     -15.756443      1.244334      0.857275
  F     -14.418158      2.004591     -0.674702
  F     -10.580095      2.023731      2.169700
  F      -9.633054      3.708547      1.172639
  F     -14.552501     -0.288960     -2.047149
  F     -16.465307      0.637627     -1.583756
  F     -16.790844     -1.269070      0.466130
  F     -15.027233     -2.266567     -0.286565
  F     -16.716195     -1.947168     -1.581787
  O      -7.600705      2.124113      2.208342
  O      -7.675668      1.827301     -0.207635
  O      -8.590626      0.115028      1.267827
  C     -12.232160     -0.042766      0.258419
  C     -11.376473      0.892708     -0.662750
  C     -13.590931      0.431034      0.880463
  C     -10.842882      2.275438     -0.163662
  C     -14.789382      0.902752     -0.009542
  C      -9.893644      2.387284      1.071166
  C     -15.435107     -0.052666     -1.069653
  C     -16.004220     -1.424075     -0.590726
56
Coordinates from ORCA-job R4N+PFOS-_wb E -3071.948377645295
  N      -4.606011     -1.155775      0.189760
  C      -3.833838     -0.629699     -1.002875
  C      -4.795661     -0.094566      1.215051
  C      -5.940926     -1.594118     -0.305389
  C      -3.917998     -2.320181      0.807791
  C      -2.460595     -0.106372     -0.693749
  C      -2.271741      1.239168     -0.389719
  C      -1.354239     -0.949619     -0.747698
  C      -1.002280      1.729124     -0.123141
  C      -0.083760     -0.461886     -0.480834
  C       0.093285      0.877814     -0.164202
  H      -4.457717      0.155136     -1.428729
  H      -3.782990     -1.459827     -1.706336
  H      -5.245764      0.773754      0.739534
  H      -5.449213     -0.485774      1.991430
  H      -3.832110      0.167502      1.643809
  H      -5.797233     -2.365497     -1.058604
  H      -6.508644     -1.989889      0.533111
  H      -6.453372     -0.737265     -0.736925
  H      -3.776988     -3.088409      0.050567
  H      -2.960114     -2.001770      1.210255
  H      -4.546874     -2.696789      1.611573
  H      -3.125380      1.907383     -0.366362
  H      -1.489006     -1.994131     -1.005737
  H      -0.868087      2.778097      0.112018
  H       0.769531     -1.127891     -0.525648
  H       1.085948      1.260401      0.041541
  S      -8.256706      1.507384      1.076267
  F     -12.486781     -1.134703     -0.480413
  F     -11.474014     -0.412270      1.298157
  F     -12.113979      1.156346     -1.755433
  F     -10.322213      0.160264     -1.047339
  F     -13.330619      1.444552      1.716284
  F     -14.032748     -0.607285      1.611550
  F     -10.207360      2.807679     -1.220629
  F     -11.913877      3.050083      0.098175
  F     -15.756597      1.243311      0.857478
  F     -14.418606      2.004032     -0.674541
  F     -10.580091      2.024688      2.169649
  F      -9.633494      3.709484      1.172163
  F     -14.551993     -0.289963     -2.046704
  F     -16.464991      0.636586     -1.583932
  F     -16.791424     -1.269639      0.465773
  F     -15.027327     -2.267312     -0.285624
  F     -16.715549     -1.948209     -1.581916
  O      -7.600074      2.125777      2.206970
  O      -7.676604      1.827583     -0.208744
  O      -8.590705      0.116163      1.268255
  C     -12.231854     -0.042575      0.258521
  C     -11.376496      0.893080     -0.662753
  C     -13.590763      0.430815      0.880591
  C     -10.843351      2.275975     -0.163707
  C     -14.789435      0.902062     -0.009352
  C      -9.893808      2.388096      1.070912
  C     -15.434861     -0.053566     -1.069482
  C     -16.004158     -1.424885     -0.590564
56
Coordinates from ORCA-job R4N+PFOS-_wb E -3071.948377296946
  N      -4.607650     -1.150821      0.188797
  C      -3.833796     -0.625685     -1.002966
  C      -4.796154     -0.089810      1.214532
  C      -5.943048     -1.586661     -0.307219
  C      -3.922081     -2.316767      0.806635
  C      -2.458662     -0.107637     -0.693193
  C      -2.264864      1.236551     -0.386151
  C      -1.355385     -0.954722     -0.749586
  C      -0.993474      1.721295     -0.119136
  C      -0.083021     -0.472203     -0.482254
  C       0.099009      0.866155     -0.162773
  H      -4.454874      0.161760     -1.428081
  H      -3.785543     -1.454979     -1.707596
  H      -5.244042      0.779753      0.739131
  H      -5.451290     -0.480147      1.990025
  H      -3.832561      0.170119      1.644478
  H      -5.800505     -2.359532     -1.059125
  H      -6.512762     -1.979673      0.531239
  H      -6.452928     -0.729262     -0.740678
  H      -3.782083     -3.084930      0.049153
  H      -2.963818     -2.000311      1.209769
  H      -4.552027     -2.692625      1.609944
  H      -3.116039      1.907827     -0.360810
  H      -1.494107     -1.998200     -1.009744
  H      -0.855346      2.769247      0.118305
  H       0.767839     -1.141193     -0.528888
  H       1.093159      1.244727      0.043219
  S      -8.258425      1.514386      1.074498
  F     -12.483043     -1.134276     -0.480541
  F     -11.471612     -0.409967      1.298088
  F     -12.116147      1.158387     -1.754740
  F     -10.321837      0.165795     -1.048013
  F     -13.332490      1.441997      1.717424
  F     -14.029797     -0.611399      1.611757
  F     -10.213550      2.814128     -1.219856
  F     -11.919223      3.051181      0.100925
  F     -15.758212      1.235362      0.859093
  F     -14.422278      2.000216     -0.672748
  F     -10.581691      2.028904      2.170323
  F      -9.638211      3.715009      1.172205
  F     -14.550184     -0.294035     -2.045705
  F     -16.465112      0.628969     -1.583359
  F     -16.790881     -1.277826      0.463991
  F     -15.023514     -2.272520     -0.283868
  F     -16.709917     -1.956467     -1.583403
  O      -7.599701      2.134224      2.203088
  O      -7.681425      1.834025     -0.212046
  O      -8.591328      0.123142      1.268298
  C     -12.230482     -0.041753      0.258635
  C     -11.377567      0.896161     -0.662573
  C     -13.590401      0.428130      0.881185
  C     -10.847164      2.279790     -0.162835
  C     -14.790425      0.896934     -0.008128
  C      -9.896422      2.392997      1.070987
  C     -15.433852     -0.059494     -1.068812
  C     -16.001307     -1.431804     -0.590792
56
Coordinates from ORCA-job R4N+PFOS-_wb E -3071.948377737444
  N      -4.606581     -1.152981      0.188835
  C      -3.833103     -0.627612     -1.003170
  C      -4.795643     -0.091753      1.214220
  C      -5.941723     -1.589719     -0.307099
  C      -3.920307     -2.318305      0.807077
  C      -2.458918     -0.107119     -0.693326
  C      -2.267477      1.237719     -0.387761
  C      -1.354214     -0.952466     -0.748125
  C      -0.997071      1.724848     -0.120468
  C      -0.082807     -0.467555     -0.480552
  C       0.096825      0.871432     -0.162369
  H      -4.455319      0.158620     -1.428877
  H      -3.783492     -1.457370     -1.707163
  H      -5.244293      0.777266      0.738584
  H      -5.450264     -0.482313      1.990023
  H      -3.832096      0.169017      1.643779
  H      -5.798622     -2.362070     -1.059432
  H      -6.510872     -1.983694      0.531279
  H      -6.452421     -0.732499     -0.739982
  H      -3.779732     -3.086568      0.049808
  H      -2.962309     -2.001094      1.210215
  H      -4.550121     -2.694328      1.610401
  H      -3.119774      1.907620     -0.363760
  H      -1.491040     -1.996439     -1.007264
  H      -0.860826      2.773287      0.115896
  H       0.769176     -1.135194     -0.525979
  H       1.090214      1.251845      0.043897
  S      -8.257704      1.511090      1.074579
  F     -12.485566     -1.134660     -0.480416
  F     -11.473000     -0.411365      1.297939
  F     -12.116145      1.157281     -1.754998
  F     -10.322927      0.162833     -1.048279
  F     -13.331707      1.442936      1.717309
  F     -14.031476     -0.609663      1.611956
  F     -10.211114      2.810610     -1.220742
  F     -11.916931      3.050532      0.099348
  F     -15.757696      1.239155      0.859121
  F     -14.420947      2.002174     -0.672896
  F     -10.580922      2.026490      2.169587
  F      -9.636317      3.712136      1.171716
  F     -14.551917     -0.291445     -2.045958
  F     -16.465893      0.632909     -1.582576
  F     -16.790974     -1.274283      0.465584
  F     -15.025306     -2.269882     -0.284915
  F     -16.713096     -1.952304     -1.582196
  O      -7.600037      2.130188      2.204249
  O      -7.679350      1.831340     -0.211222
  O      -8.590804      0.119746      1.267336
  C     -12.231622     -0.042364      0.258614
  C     -11.377743      0.894447     -0.662844
  C     -13.590893      0.429244      0.881253
  C     -10.845749      2.277696     -0.163611
  C     -14.790362      0.899446     -0.008117
  C      -9.895424      2.390427      1.070456
  C     -15.434936     -0.056381     -1.068572
  C     -16.002880     -1.428439     -0.590294
56
Coordinates from ORCA-job R4N+PFOS-_wb E -3071.948377445709
  N      -4.606278     -1.153044      0.188745
  C      -3.832604     -0.628127     -1.003357
  C      -4.795266     -0.091492      1.213808
  C      -5.941418     -1.589708     -0.307251
  C      -3.920241     -2.318287      0.807398
  C      -2.458575     -0.107259     -0.693454
  C      -2.267376      1.237864     -0.389014
  C      -1.353767     -0.952553     -0.747056
  C      -0.997124      1.725382     -0.121734
  C      -0.082511     -0.467270     -0.479421
  C       0.096869      0.872034     -0.162433
  H      -4.454858      0.157827     -1.429521
  H      -3.782762     -1.458224     -1.706934
  H      -5.243863      0.777399      0.737913
  H      -5.449882     -0.481791      1.989743
  H      -3.831678      0.169335      1.643247
  H      -5.798309     -2.362277     -1.059358
  H      -6.510750     -1.983362      0.531150
  H      -6.451897     -0.732502     -0.740442
  H      -3.779594     -3.086732      0.050329
  H      -2.962299     -2.001064      1.210653
  H      -4.550270     -2.694051      1.610665
  H      -3.119746      1.907701     -0.365970
  H      -1.490389     -1.996767     -1.005321
  H      -0.861078      2.774051      0.113720
  H       0.769556     -1.134861     -0.523933
  H       1.090139      1.252735      0.043874
  S      -8.257756      1.510574      1.074686
  F     -12.486237     -1.134718     -0.480825
  F     -11.473467     -0.412227      1.297720
  F     -12.116277      1.157345     -1.754802
  F     -10.323250      0.162543     -1.048149
  F     -13.331864      1.442367      1.717715
  F     -14.032040     -0.610066      1.611679
  F     -10.211105      2.810248     -1.220247
  F     -11.916927      3.050276      0.099826
  F     -15.757805      1.239486      0.859354
  F     -14.420854      2.002527     -0.672463
  F     -10.580889      2.025462      2.169953
  F      -9.636396      3.711429      1.172462
  F     -14.552417     -0.290612     -2.046160
  F     -16.466199      0.633903     -1.582358
  F     -16.790973     -1.273940      0.465630
  F     -15.025766     -2.269504     -0.285937
  F     -16.713995     -1.951236     -1.582453
  O      -7.600335      2.129325      2.204713
  O      -7.679305      1.831436     -0.210929
  O      -8.590565      0.119076      1.266876
  C     -12.232049     -0.042718      0.258557
  C     -11.377990      0.894200     -0.662640
  C     -13.591225      0.428987      0.881337
  C     -10.845844      2.277331     -0.163180
  C     -14.790544      0.899740     -0.007957
  C      -9.895563      2.389802      1.070893
  C     -15.435318     -0.055691     -1.068621
  C     -16.003323     -1.427830     -0.590626
56
Coordinates from ORCA-job R4N+PFOS-_wb E -3071.948377531377
  N      -4.605717     -1.152315      0.186905
  C      -3.830587     -0.627361     -1.004254
  C      -4.794950     -0.091048      1.212219
  C      -5.940664     -1.587908     -0.310546
  C      -3.921025     -2.318251      0.805758
  C      -2.456657     -0.107206     -0.692717
  C      -2.265169      1.237797     -0.387995
  C      -1.352198     -0.953044     -0.745040
  C      -0.995013      1.724689     -0.119161
  C      -0.081031     -0.468395     -0.475816
  C       0.098606      0.870798     -0.158509
  H      -4.452062      0.159044     -1.430713
  H      -3.780432     -1.457231     -1.708082
  H      -5.242871      0.778189      0.736336
  H      -5.450198     -0.481367      1.987600
  H      -3.831509      0.169214      1.642342
  H      -5.797316     -2.360521     -1.062568
  H      -6.511196     -1.981166      0.527219
  H      -6.449966     -0.730243     -0.744227
  H      -3.779876     -3.086348      0.048431
  H      -2.963425     -2.001722      1.210353
  H      -4.552255     -2.694100      1.608033
  H      -3.117247      1.908038     -0.365916
  H      -1.489002     -1.997162     -1.003592
  H      -0.858755      2.773275      0.116533
  H       0.770765     -1.136394     -0.519368
  H       1.091799      1.250999      0.049083
  S      -8.258128      1.510805      1.072439
  F     -12.487644     -1.135110     -0.479912
  F     -11.474073     -0.412007      1.297907
  F     -12.118249      1.156641     -1.754801
  F     -10.324988      0.161857     -1.048767
  F     -13.332347      1.442828      1.718023
  F     -14.032579     -0.609643      1.613001
  F     -10.212487      2.809357     -1.221777
  F     -11.917710      3.050205      0.098933
  F     -15.758531      1.239775      0.860611
  F     -14.422116      2.002125     -0.672006
  F     -10.580766      2.025293      2.168789
  F      -9.636990      3.711359      1.170749
  F     -14.554453     -0.291348     -2.044917
  F     -16.468015      0.633217     -1.580407
  F     -16.791349     -1.274162      0.468554
  F     -15.026607     -2.269723     -0.284007
  F     -16.715729     -1.951961     -1.579449
  O      -7.600517      2.129511      2.202403
  O      -7.680124      1.832045     -0.213299
  O      -8.590457      0.119170      1.264516
  C     -12.233110     -0.042851      0.258974
  C     -11.379428      0.893726     -0.662935
  C     -13.592022      0.429129      0.882123
  C     -10.846869      2.276994     -0.164215
  C     -14.791627      0.899624     -0.006951
  C      -9.896113      2.389766      1.069412
  C     -15.436852     -0.056171     -1.066969
  C     -16.004422     -1.428242     -0.588227
56
Coordinates from ORCA-job R4N+PFOS-_wb E -3071.948378819922
  N      -4.605279     -1.151024      0.184889
  C      -3.828417     -0.626496     -1.005332
  C      -4.794701     -0.089774      1.210192
  C      -5.940057     -1.585425     -0.314063
  C      -3.922233     -2.317628      0.804312
  C      -2.454452     -0.107464     -0.692083
  C      -2.262295      1.237344     -0.386951
  C      -1.350606     -0.954199     -0.742891
  C      -0.992150      1.723133     -0.116057
  C      -0.079444     -0.470628     -0.471706
  C       0.100818      0.868343     -0.153847
  H      -4.448793      0.160479     -1.432321
  H      -3.778113     -1.456273     -1.709265
  H      -5.241855      0.779757      0.734107
  H      -5.450652     -0.479883      1.985083
  H      -3.831420      0.169949      1.641000
  H      -5.796541     -2.358334     -1.065743
  H      -6.511990     -1.977914      0.523109
  H      -6.447944     -0.727335     -0.748559
  H      -3.780575     -3.085577      0.046935
  H      -2.964989     -2.001864      1.210346
  H      -4.554853     -2.693281      1.605580
  H      -3.113860      1.908278     -0.365985
  H      -1.487874     -1.998185     -1.001727
  H      -0.855391      2.771566      0.120016
  H       0.771857     -1.139332     -0.514069
  H       1.094005      1.247687      0.055330
  S      -8.258725      1.511714      1.069723
  F     -12.488838     -1.135392     -0.480130
  F     -11.473856     -0.412451      1.296941
  F     -12.120853      1.156479     -1.755012
  F     -10.326782      0.162089     -1.050539
  F     -13.332048      1.442134      1.718851
  F     -14.031987     -0.610463      1.614228
  F     -10.214979      2.809493     -1.223508
  F     -11.919353      3.050030      0.098340
  F     -15.759059      1.238392      0.863600
  F     -14.424140      2.001700     -0.669855
  F     -10.580810      2.025807      2.167408
  F      -9.638051      3.711895      1.168469
  F     -14.556794     -0.291488     -2.043347
  F     -16.470232      0.632493     -1.577172
  F     -16.791799     -1.275531      0.471329
  F     -15.027144     -2.270358     -0.282379
  F     -16.717053     -1.952870     -1.576864
  O      -7.600687      2.130714      2.199284
  O      -7.681515      1.833039     -0.216353
  O      -8.590481      0.119984      1.262132
  C     -12.233815     -0.043220      0.258721
  C     -11.381073      0.893647     -0.663765
  C     -13.592266      0.428461      0.883081
  C     -10.848496      2.277068     -0.165454
  C     -14.792749      0.898857     -0.004882
  C      -9.896962      2.390248      1.067536
  C     -15.438527     -0.056779     -1.064678
  C     -16.005375     -1.429138     -0.585904
56
Coordinates from ORCA-job R4N+PFOS-_wb E -3071.948378976680
  N      -4.604544     -1.148912      0.181205
  C      -3.824747     -0.624728     -1.007257
  C      -4.794449     -0.088024      1.206800
  C      -5.938987     -1.581237     -0.320452
  C      -3.924245     -2.316798      0.801250
  C      -2.450748     -0.107658     -0.690982
  C      -2.257535      1.236736     -0.384704
  C      -1.347889     -0.955808     -0.739621
  C      -0.987420      1.720690     -0.110396
  C      -0.076759     -0.474063     -0.465058
  C       0.104503      0.864470     -0.145926
  H      -4.443284      0.163304     -1.434929
  H      -3.774185     -1.454145     -1.711599
  H      -5.240364      0.782108      0.730613
  H      -5.451617     -0.478070      1.980692
  H      -3.831516      0.170742      1.638945
  H      -5.795139     -2.354346     -1.071859
  H      -6.513229     -1.972821      0.515562
  H      -6.444591     -0.722328     -0.755972
  H      -3.781641     -3.084259      0.043560
  H      -2.967635     -2.002417      1.209853
  H      -4.559212     -2.692410      1.600675
  H      -3.108272      1.908772     -0.365379
  H      -1.485897     -1.999496     -0.999282
  H      -0.849867      2.768812      0.126594
  H       0.773747     -1.143886     -0.505689
  H       1.097668      1.242367      0.065953
  S      -8.259568      1.513041      1.065405
  F     -12.490400     -1.136234     -0.478791
  F     -11.474010     -0.412034      1.296969
  F     -12.124510      1.155217     -1.755112
  F     -10.329388      0.161764     -1.051924
  F     -13.332407      1.441988      1.719810
  F     -14.031894     -0.610828      1.616599
  F     -10.218645      2.809076     -1.226324
  F     -11.921749      3.049748      0.097159
  F     -15.760157      1.237180      0.866961
  F     -14.426861      2.000517     -0.667906
  F     -10.580719      2.026748      2.165294
  F      -9.639589      3.712784      1.164710
  F     -14.560088     -0.293381     -2.040569
  F     -16.473212      0.630685     -1.573291
  F     -16.793546     -1.276505      0.475852
  F     -15.029065     -2.271477     -0.278088
  F     -16.719567     -1.954821     -1.572033
  O      -7.600769      2.132489      2.194282
  O      -7.683681      1.834404     -0.221241
  O      -8.590615      0.121212      1.258333
  C     -12.235076     -0.043601      0.259277
  C     -11.383555      0.893135     -0.664463
  C     -13.593110      0.427921      0.884662
  C     -10.850925      2.276979     -0.167357
  C     -14.794548      0.897726     -0.002351
  C      -9.898133      2.391004      1.064572
  C     -15.441085     -0.058323     -1.061314
  C     -16.007526     -1.430532     -0.581620
56
Coordinates from ORCA-job R4N+PFOS-_wb E -3071.948379065968
  N      -4.604897     -1.148671      0.181853
  C      -3.825372     -0.624641     -1.006835
  C      -4.794705     -0.087675      1.207350
  C      -5.939405     -1.581124     -0.319529
  C      -3.924435     -2.316465      0.801884
  C      -2.451161     -0.107813     -0.691085
  C      -2.257543      1.236570     -0.384966
  C      -1.348484     -0.956150     -0.740349
  C      -0.987166      1.720323     -0.111496
  C      -0.077104     -0.474619     -0.466593
  C       0.104592      0.863920     -0.147714
  H      -4.443913      0.163457     -1.434384
  H      -3.775177     -1.454103     -1.711146
  H      -5.240740      0.782377      0.731135
  H      -5.451762     -0.477661      1.981369
  H      -3.831744      0.171195      1.639366
  H      -5.795657     -2.354260     -1.070933
  H      -6.513455     -1.972722      0.516614
  H      -6.445176     -0.722289     -0.754988
  H      -3.781968     -3.084017      0.044256
  H      -2.967737     -2.002026      1.210242
  H      -4.559204     -2.692014      1.601497
  H      -3.108143      1.908767     -0.365242
  H      -1.486831     -1.999808     -0.999944
  H      -0.849275      2.768440      0.125331
  H       0.773267     -1.144585     -0.507733
  H       1.097960      1.241662      0.063493
  S      -8.259671      1.513285      1.066488
  F     -12.489629     -1.135970     -0.478983
  F     -11.473840     -0.411735      1.297123
  F     -12.123942      1.155813     -1.754901
  F     -10.328794      0.162496     -1.051551
  F     -13.332699      1.441865      1.719656
  F     -14.031718     -0.611096      1.616153
  F     -10.218468      2.809943     -1.225332
  F     -11.921819      3.049966      0.097944
  F     -15.760256      1.236532      0.866189
  F     -14.426746      2.000262     -0.668302
  F     -10.581033      2.026952      2.166068
  F      -9.639730      3.713090      1.165823
  F     -14.558969     -0.293729     -2.041006
  F     -16.472403      0.630080     -1.574454
  F     -16.793420     -1.277100      0.474442
  F     -15.028465     -2.271911     -0.278659
  F     -16.718415     -1.955434     -1.573381
  O      -7.600824      2.132836      2.195268
  O      -7.683800      1.834449     -0.220203
  O      -8.590851      0.121514      1.259570
  C     -12.234721     -0.043360      0.259259
  C     -11.383163      0.893648     -0.664161
  C     -13.592998      0.427800      0.884376
  C     -10.850829      2.277434     -0.166623
  C     -14.794341      0.897351     -0.002882
  C      -9.898207      2.391277      1.065482
  C     -15.440375     -0.058796     -1.062097
  C     -16.006892     -1.431054     -0.582652
