80
Coordinates from ORCA-job R4N+PFOA-_r2 E -2865.069247254385
  N           5.51552806164911      0.63548516690354      2.54678036518626
  C           3.37908351448753     -4.10521923989908     -1.58925440886629
  C           4.23114903691946     -4.56677708834546     -2.78194359881494
  C           4.48638670800490     -3.47609842605760     -3.83644807590227
  C           4.02436604276853     -2.94094518897239     -0.86919847455059
  C           3.07773493841465     -5.27284547426466     -0.63590432787709
  C           5.89837005325356      0.43167396904742      1.07508096516085
  C           5.24287787519339     -0.74488125120325      0.41784481061248
  C           3.19618200802323     -2.89313559467010     -4.37849508598791
  C           3.40589003824844     -1.68987521105615     -0.83987942058291
  C           5.26883222623979     -3.07656149060906     -0.24222362770916
  C           5.35978693841070     -4.02852038801605     -4.96967243151182
  C           4.03947817287351      0.85996407265229      2.68921223902417
  C           6.24586312158002      1.85074211235364      3.03976268834845
  C           5.92306738807637     -0.54745558777036      3.37108264768733
  C           4.00888072405527     -0.60231857313222     -0.21863708448969
  C           5.86883247062199     -1.99615710672760      0.39341563852341
  C           2.06820898048152     -4.90402362425586      0.44712957538188
  C           2.24466943649254     -3.70804326608073     -5.00413614437349
  C           2.92801196829345     -1.52574357885586     -4.27204052055544
  C           1.06395743109645     -3.16987132254533     -5.50758739317648
  C           1.74208818641547     -0.98364745390971     -4.76632063433606
  C           0.80479352960377     -1.80483840620519     -5.38709635051604
  H           2.41718253432347     -3.75206833987101     -1.98567948080609
  H           3.72884429794180     -5.41928132327915     -3.25929581701432
  H           5.20049111538205     -4.93576273162812     -2.41913531798074
  H           5.03525327039795     -2.65664178867964     -3.35191840409451
  H           4.01317080207747     -5.62433154275070     -0.17975222478108
  H           2.68613639689590     -6.10795018179173     -1.23184402537059
  H           6.98727231467125      0.33005572396591      1.07168587003785
  H           5.62173261682842      1.36415705365423      0.57433383674489
  H           2.44834829542617     -1.56006661689806     -1.33424390432822
  H           5.78179844452043     -4.03509371541587     -0.25829996586982
  H           5.57465078674846     -3.25549812368193     -5.71536722111223
  H           4.85945956212770     -4.86085142709551     -5.47812173772648
  H           6.31311235837149     -4.39764848669532     -4.57456179941457
  H           3.51420196986413     -0.04957402500161      2.39718272851730
  H           3.74971956689374      1.69640136663745      2.04958186215023
  H           3.83061163271970      1.09101152131933      3.73598162468592
  H           7.31912232180883      1.68303167339352      2.93037003611754
  H           5.99257249713570      2.00392856677415      4.09046772719153
  H           5.93322866943212      2.71219024984198      2.44607576330890
  H           5.37120452437064     -1.42595445602463      3.03389421669336
  H           5.68242610708993     -0.33416663476964      4.41454269274497
  H           6.99756912868245     -0.70310257691486      3.25456287064892
  H           3.51825744249504      0.36752172745937     -0.23398751990521
  H           6.83936641290563     -2.11951494080616      0.86831912724007
  H           1.11886972849264     -4.58818972729218     -0.00255827513778
  H           2.43266467646912     -4.08040531712362      1.07237089860114
  H           1.86111630688598     -5.75615416438606      1.10343533558441
  H           2.42802883639608     -4.77576759450259     -5.10132050938731
  H           3.65584548976120     -0.87843732172088     -3.78748371253528
  H           0.33972058310491     -3.81952524489167     -5.99171042262255
  H           1.55169402687520      0.08174974373727     -4.66395302054169
  H          -0.12168963878879     -1.38732463194797     -5.77209776532699
  F          -0.10543641446254     -2.05301851125492      0.42898403573476
  F          -2.20067905998743     -1.42281214222157      0.19621541384317
  F           0.48064855552853      0.17122370664869     -1.42769547111299
  F          -1.57482019664219      0.81333023563284     -0.97022003858046
  F          -1.57828031690505     -1.34630811354531     -2.68111224437700
  F           0.21109491009886     -2.49151703525065     -2.11661369001069
  F          -0.89087469041643      0.40316954346723      1.80542216094306
  F           1.18716861582696      0.17020587516223      1.12190855414871
  F          -1.64815582321224     -4.12383199897354     -0.52292835060836
  F          -3.21314739286142     -3.13449757708816     -1.71280062420717
  F           0.74876374363099      2.59201435274806      1.99461155767290
  F          -1.07201610394391      2.83664865589802      0.79780788052009
  F          -2.54959629138782     -5.44577084757932     -2.80122669570914
  F          -0.42121868094877     -5.00709295104979     -2.76227524803615
  F          -1.75509475287829     -3.83118275908420     -4.02928754702409
  O           2.27921161008492      2.71171072210495     -0.21713185825936
  O           0.40913001707070      3.26201320936651     -1.36945146687234
  C          -0.97411867752137     -1.39923615922547     -0.37384501147436
  C          -0.52197582593961      0.09861498240129     -0.51621615507566
  C          -1.04450851711151     -2.16166487072906     -1.74363564517134
  C          -0.01008066875394      0.72624752954804      0.81963245650058
  C          -1.90628478432733     -3.46921561478282     -1.67810305439001
  C           0.16962083038517      2.27550073884544      0.79394155936961
  C          -1.64016315347444     -4.46401041461029     -2.85474637079067
  C           1.04636466611209      2.81456600815383     -0.39415227011386
