
                                 *****************
                                 * O   R   C   A *
                                 *****************

                                            #,                                       
                                            ###                                      
                                            ####                                     
                                            #####                                    
                                            ######                                   
                                           ########,                                 
                                     ,,################,,,,,                         
                               ,,#################################,,                 
                          ,,##########################################,,             
                       ,#########################################, ''#####,          
                    ,#############################################,,   '####,        
                  ,##################################################,,,,####,       
                ,###########''''           ''''###############################       
              ,#####''   ,,,,##########,,,,          '''####'''          '####       
            ,##' ,,,,###########################,,,                        '##       
           ' ,,###''''                  '''############,,,                           
         ,,##''                                '''############,,,,        ,,,,,,###''
      ,#''                                            '''#######################'''  
     '                                                          ''''####''''         
             ,#######,   #######,   ,#######,      ##                                
            ,#'     '#,  ##    ##  ,#'     '#,    #''#        ,####,    ,#,          
            ##       ##  ##   ,#'  ##            #'  '#       #'       ,# #          
            ##       ##  #######   ##           ,######,      #####,      #          
            '#,     ,#'  ##    ##  '#,     ,#' ,#      #,     #,   #      #          
             '#######'   ##     ##  '#######'  #'      '#     '####' #    #          



                #########################################################
                #                        -***-                          #
                #          Department of theory and spectroscopy        #
                #                                                       #
                #                      Frank Neese                      #
                #                                                       #
                #     Directorship, Architecture, Infrastructure        #
                #                    SHARK, DRIVERS                     #
                #        Core code/Algorithms in most modules           #
                #                                                       #
                #        Max Planck Institute fuer Kohlenforschung      #
                #                Kaiser Wilhelm Platz 1                 #
                #                 D-45470 Muelheim/Ruhr                 #
                #                      Germany                          #
                #                                                       #
                #                  All rights reserved                  #
                #                        -***-                          #
                #########################################################


                         Program Version 6.1.0  -  RELEASE   -
                                (GIT: $679e74b$)
                          ($2025-06-10 18:02:51 +0200$)


 With contributions from (in alphabetic order):
[Max-Planck-Institut fuer Kohlenforschung]                               
  Daniel Aravena         : Magnetic Suceptibility                        
  Michael Atanasov       : Ab Initio Ligand Field Theory (pilot matlab implementation)
  Alexander A. Auer      : GIAO ZORA, VPT2 properties, NMR spectrum      
  Ute Becker             : All parallelization in ORCA, NUMFREQ, NUMCALC 
  Giovanni Bistoni       : ED, misc. LED, open-shell LED, HFLD           
  Dmytro Bykov           : pre 5.0 version of the SCF Hessian            
  Marcos Casanova-Páez   : Triplet and SCS-CIS(D). UHF-(DLPNO)-IP/EA/STEOM-CCSD. UHF-CVS-IP/STEOM-CCSD   
  Vijay G. Chilkuri      : MRCI spin determinant printing, contributions to CSF-ICE 
  Pauline Colinet        : FMM embedding                                 
  Dipayan Datta          : RHF DLPNO-CCSD density                        
  Achintya Kumar Dutta   : EOM-CC, STEOM-CC                              
  Nicolas Foglia         : Exact transition moments, OPA infrastructure, MCD improvements    
  Dmitry Ganyushin       : Spin-Orbit,Spin-Spin,Magnetic field MRCI      
  Miquel Garcia-Rates    : C-PCM and meta-GGA Hessian, CCSD/C-PCM, Gaussian charge scheme 
  Tiago L. C. Gouveia    : GS-ROHF, GS-ROCIS                             
  Yang Guo               : DLPNO-NEVPT2, F12-NEVPT2, CIM, IAO-localization        
  Andreas Hansen         : Spin unrestricted coupled pair/coupled cluster methods 
  Ingolf Harden          : AUTO-CI MPn and infrastructure                
  Benjamin Helmich-Paris : MC-RPA, TRAH-(SCF,CASSCF), AVAS, COSX integrals, SCF dyn. polar., MC-PDFT, srDFT 
  Lee Huntington         : MR-EOM, pCC                                   
  Robert Izsak           : Overlap fitted RIJCOSX, COSX-SCS-MP3, EOM     
  Riya Kayal             : Wick's Theorem for AUTO-CI, AUTO-CI UHF-CCSDT 
  Emily Kempfer          : AUTO-CI RHF CISDT and CCSDT, approximate NEVPT4
  Christian Kollmar      : KDIIS, OOCD, Brueckner-CCSD(T), CCSD density, CASPT2, CASPT2-K, improved NEVPT2 
  Axel Koslowski         : Symmetry handling                             
  Simone Kossmann        : meta-GGA functionals, TD-DFT gradient, OOMP2, (MP2 Hessian; deprecated post 5.0) 
  Lucas Lang             : DCDCAS, Hyperfine gauge corrections, ICE-SOC+SSC
  Marvin Lechner         : AUTO-CI (C++ implementation), FIC-MRCC        
  Spencer Leger          : CASSCF response                               
  Dagmar Lenk            : GEPOL surface, SMD, ORCA-2-JSON               
  Dimitrios Liakos       : Extrapolation schemes; Compound Job, Property file
  Dimitrios Manganas     : Further ROCIS development; embedding schemes. LFT, Crystal Embedding 
  Dimitrios Pantazis     : SARC Basis sets                               
  Anastasios Papadopoulos: AUTO-CI, single reference methods and gradients 
  Taras Petrenko         : pre 6.0 DFT Hessian and TD-DFT gradient,  ECA, NRVS 
  Petra Pikulova         : Analytic Raman intensities                    
  Peter Pinski           : DLPNO-MP2, DLPNO-MP2 Gradient                 
  Shashank Vittal Rao    : ES-AILFT, MagRelax                            
  Christoph Reimann      : Effective Core Potentials                     
  Marius Retegan         : Local ZFS, SOC                                
  Christoph Riplinger    : Optimizer, TS searches, QM/MM, DLPNO-CCSD(T), (RO)-DLPNO pert. Triples 
  Michael Roemelt        : Original ROCIS implementation, recursive CI coupling coefficients
  Masaaki Saitow         : Open-shell DLPNO-CCSD energy and density      
  Barbara Sandhoefer     : DKH picture change effects                    
  Yorick L. A. Schmerwitz: GMF and freeze-and-release deltaSCF, NEB S-IDPP initial path                    
  Kantharuban Sivalingam : CASSCF convergence/infrastructure, NEVPT2, NEVPT3, NEVPT4(SD), FIC-MRCI and CEPA variants
  Bernardo de Souza      : ESD, SOC TD-DFT                               
  Georgi L. Stoychev     : AutoAux, RI-MP2 NMR, DLPNO-MP2 response, X2C  
  Van Anh Tran           : RI-MP2 g-tensors                              
  Willem Van den Heuvel  : Paramagnetic NMR                              
  Zikuan Wang            : NOTCH, Electric field optimization            
  Frank Wennmohs         : Technical directorship and infrastructure     
  Hang Xu                : AUTO-CI-Response properties                   
                                                                         
[FACCTs GmbH]                                                            
  Markus Bursch, Nicolas Foglia, Miquel Garcia-Rates, Ingolf Harden, Hagen Neugebauer, Anastasios Papadopoulos, 
  Christoph Riplinger, Bernardo de Souza, Georgi L. Stoychev                                                    
                                                                 
  APM, various basis sets, CI-OPT, improved COSX, DLPNO-Multilevel,           
  DOCKER, DRACO, updates on ESD, Fragmentator, GOAT, IRC, LR-CPCM, L-BFGS, MBIS, meta-GGA TD-DFT gradient, ML-optimized integration grids, 
  MM, NACMEs, nearIR, NEB, NEB-TS, NL-DFT gradient (VV10), 2- and 3-layer-ONIOM, interface openCOSMO-RS, QMMM,   
  Crystal-QMMM, RESP, rigid body optimization, SF, symmetry and pop. for TD-DFT, various functionals, SOLVATOR                                   
                                                                         
[Other institutions]                                                     
  V. Asgeirsson          : NEB                                           
  Christoph Bannwarth    : sTDA-DFT, sTD-DFT, PBEh-3c, B97-3c, D3        
  Giovanni Bistoni       : ETS/NOCV, ADLD/ADEX, COVALED                  
  Martin Brehm           : Molecular dynamics                            
  Ronald Cardenas        : ETS/NOCV                                      
  Martina Colucci        : COVALED                                       
  Sebastian Ehlert       : rSCAN, r2SCAN, r2SCAN-3c, D4, dhf basis sets  
  Marvin Friede          : D4 for Fr, Ra, Ac-Lr                          
  Lars Goerigk           : TD-DFT with DH, B97 family of functionals     
  Stefan Grimme          : VdW corrections, initial TS optimization, DFT functionals, gCP, sTDA/sTD-DF 
  Waldemar Hujo          : DFT-NL                                        
  H. Jonsson             : NEB                                           
  Holger Kruse           : gCP                                           
  Marcel Mueller         : wB97X-3c, vDZP basis set                      
  Hagen Neugebauer       : wr2SCAN, Native XTB                           
  Gianluca Regni         : ADLD/ADEX                                     
  Tobias Risthaus        : pre 6.0 range-separated hybrid DFT and stability analysis
  Lukas Wittmann         : regularized MP2, r2SCAN double-hybrids, wr2SCAN        
                                                                         
We gratefully acknowledge several colleagues who have allowed us to      
interface, adapt or use parts of their codes:                            
  Ed Valeev, F. Pavosevic, A. Kumar             : LibInt (2-el integral package), F12 methods 
  Garnet Chan, S. Sharma, J. Yang, R. Olivares  : DMRG                   
  Ulf Ekstrom                                   : XCFun DFT Library      
  Mihaly Kallay                                 : mrcc  (arbitrary order and MRCC methods)
  Frank Weinhold                                : gennbo (NPA and NBO analysis)           
  Simon Mueller                                 : openCOSMO-RS                            
  Christopher J. Cramer and Donald G. Truhlar   : smd solvation model                     
  S Lehtola, MJT Oliveira, MAL Marques          : LibXC Library                           
  Liviu Ungur et al                             : ANISO software                          


 Your calculation uses the libint2 library for the computation of 2-el integrals
 For citations please refer to: http://libint.valeyev.net

 Your ORCA version has been built with support for libXC version: 7.0.0
 For citations please refer to: https://libxc.gitlab.io

 This ORCA versions uses:
   CBLAS   interface :  Fast vector & matrix operations
   LAPACKE interface :  Fast linear algebra routines
   SCALAPACK package :  Parallel linear algebra routines
   Shared memory     :  Shared parallel matrices
   BLAS/LAPACK       :  OpenBLAS 0.3.29  USE64BITINT DYNAMIC_ARCH NO_AFFINITY SkylakeX SINGLE_THREADED
        Core in use  :  SkylakeX
   Copyright (c) 2011-2014, The OpenBLAS Project


  ***********************************
  * Starting time: Wed Apr 22 03:10:19 2026
  * Host name:     node1925.oscar.ccv.brown.edu
  * Process ID:    379850
  * Working dir.:  /sss/jobtmp/rzwa/orca_jobtmp/R4N+PFOS-_20260422_024033
  ***********************************

NOTE: MaxCore=4000 MB was set to SCF,MP2,MDCI,CIPSI,MRCI,RASCI and CIS
      => If you want to overwrite this, your respective input block should be placed after the MaxCore statement
Your calculation utilizes the atom-pairwise dispersion correction
with the zero-damping scheme (D30)


Your calculation utilizes the SMD solvation module
Please cite in your paper:
Marenich, A. V.; Cramer, C. J.; Truhlar, D. G. J. Phys. Chem. B 2009, 113, 6378 

XCFun DFT library Copyright 2009-2010 Ulf Ekstrom and contributors.
See http://admol.org/xcfun for more information.
This is free software; see the source code for copying conditions.
There is ABSOLUTELY NO WARRANTY; not even for MERCHANTABILITY or FITNESS FOR A PARTICULAR PURPOSE.
For details see the documentation.
Scientific users of this library should cite U. Ekstrom, L. Visscher, R. Bast, A. J. Thorvaldsen and K. Ruud;
J.Chem.Theor.Comp. 2010, DOI: 10.1021/ct100117s
XCFun Version 0.99 

Warning: RI is on but no J-basis has been assigned. Assigning Def2/J (nothing to worry about!)
================================================================================

----- Orbital basis set information -----
Your calculation utilizes the basis: def2-TZVPD
   F. Weigend and R. Ahlrichs, Phys. Chem. Chem. Phys. 7, 3297 (2005).
   D. Rappoport and F. Furche, J. Chem. Phys. 133, 134105 (2010)
   D. Rappoport, J. Chem. Phys. 155, 124102 (2021).

----- AuxJ basis set information -----
Your calculation utilizes the auxiliary basis: def2/J
   H-Rn: F. Weigend, Phys. Chem. Chem. Phys. 8, 1057 (2006).
   Fr-Lr: K. Eichkorn, F. Weigend, O. Treutler, R. Ahlrichs; Theor. Chem. Acc. 97, 119 (1997).

================================================================================
                                        WARNINGS
                       Please study these warnings very carefully!
================================================================================


================================================================================
                                       INPUT FILE
================================================================================
NAME = R4N+PFOS-_frag2.inp
|  1> #EDA Fragment 2 automatic file
|  2> !wb97x-d3 def2-TZVPD
|  3> 
|  4> %cpcm
|  5>    smd true
|  6>    SMDSolvent "octanol"
|  7>    epsilon 72.5
|  8> end%pal nprocs 32 end
|  9> %maxcore 4000
| 10>     *xyz -1 1
| 11>      N :(1) -0.5699324 -0.4713478  5.0353808
| 12>      C :(1)  1.8008827 -3.1564724 -0.4947881
| 13>      C :(1)  2.1032413 -4.5942210 -0.0557643
| 14>      C :(1)  2.7557884 -4.7564307  1.3212626
| 15>      C :(1)  1.0498685 -2.3698855  0.5563623
| 16>      C :(1)  1.0557841 -3.1662951 -1.8366665
| 17>      C :(1) -1.0038639 -0.1346173  3.6198717
| 18>      C :(1) -0.2993681 -0.9073436  2.5444965
| 19>      C :(1)  4.0356274 -3.9619742  1.4828705
| 20>      C :(1)  1.5548059 -1.1613743  1.0246595
| 21>      C :(1) -0.1611486 -2.8211005  1.0790568
| 22>      C :(1)  2.9977650 -6.2373918  1.6178053
| 23>      C :(1) -1.3543372  0.3947868  5.9588881
| 24>      C :(1)  0.8791745 -0.1981004  5.2357189
| 25>      C :(1) -0.8519640 -1.8960649  5.3579710
| 26>      C :(1)  0.8872686 -0.4335692  1.9969116
| 27>      C :(1) -0.8246661 -2.1032486  2.0599858
| 28>      C :(1)  0.8659842 -1.7884218 -2.4527628
| 29>      C :(1)  5.1003017 -4.1080166  0.5943959
| 30>      C :(1)  4.1893861 -3.0868266  2.5553057
| 31>      C :(1)  6.2833218 -3.4069481  0.7779115
| 32>      C :(1)  5.3721201 -2.3839420  2.7449966
| 33>      C :(1)  6.4256680 -2.5444877  1.8572119
| 34>      H :(1)  2.7551243 -2.6426403 -0.6504020
| 35>      H :(1)  2.7445478 -5.0499578 -0.8181512
| 36>      H :(1)  1.1738659 -5.1741262 -0.0564403
| 37>      H :(1)  2.0549259 -4.3805418  2.0728483
| 38>      H :(1)  0.0814751 -3.6479397 -1.6989030
| 39>      H :(1)  1.6166053 -3.7997514 -2.5310407
| 40>      H :(1) -0.8259988  0.9345009  3.5099623
| 41>      H :(1) -2.0773822 -0.3170255  3.5943319
| 42>      H :(1)  2.4911201 -0.7877228  0.6255715
| 43>      H :(1) -0.5896791 -3.7523257  0.7241017
| 44>      H :(1)  2.0620474 -6.7996419  1.5630839
| 45>      H :(1)  3.4168262 -6.3768059  2.6171442
| 46>      H :(1)  3.6944912 -6.6750692  0.8974851
| 47>      H :(1) -1.0584079  0.1688701  6.9810123
| 48>      H :(1) -2.4132046  0.1871138  5.8198126
| 49>      H :(1) -1.1409137  1.4364633  5.7281621
| 50>      H :(1)  1.0815411  0.8394127  4.9774285
| 51>      H :(1)  1.4637258 -0.8665895  4.6090329
| 52>      H :(1)  1.1161877 -0.3760326  6.2825189
| 53>      H :(1) -0.2470517 -2.5366218  4.7215527
| 54>      H :(1) -1.9105587 -2.0896492  5.1970978
| 55>      H :(1) -0.5945771 -2.0658855  6.4014601
| 56>      H :(1)  1.2962268  0.5109526  2.3376840
| 57>      H :(1) -1.7623134 -2.4773949  2.4570839
| 58>      H :(1)  0.3647082 -1.8590513 -3.4208096
| 59>      H :(1)  1.8263249 -1.2915877 -2.6127114
| 60>      H :(1)  0.2595244 -1.1397480 -1.8151666
| 61>      H :(1)  5.0074236 -4.7794520 -0.2530199
| 62>      H :(1)  3.3680490 -2.9540053  3.2529787
| 63>      H :(1)  7.0980783 -3.5334869  0.0739233
| 64>      H :(1)  5.4674591 -1.7064623  3.5863785
| 65>      H :(1)  7.3487788 -1.9938825  1.9979156
| 66>      S (2)  5.4020183 -3.5966856 -3.5230266
| 67>      F (2)  6.2366188 -0.9622596 -1.7935475
| 68>      F (2)  7.1579622  0.9246494 -2.3582497
| 69>      F (2)  5.8588785  1.2011371 -4.5004735
| 70>      F (2)  4.3316549 -0.2528694 -4.0275478
| 71>      F (2)  3.8398611  0.1589658 -1.5005903
| 72>      F (2)  4.5741818  2.0907790 -2.2157540
| 73>      F (2)  6.7457250 -0.5658108 -5.8852870
| 74>      F (2)  7.6678293 -1.2271950 -4.0377439
| 75>      F (2)  5.4173430  0.1951370  0.6006248
| 76>      F (2)  6.4904851  1.9623827 -0.0832874
| 77>      F (2)  6.7790533 -3.1345864 -5.6681435
| 78>      F (2)  4.7697360 -2.2989005 -5.7030107
| 79>      F (2)  3.0179635  1.9285185  0.2833577
| 80>      F (2)  4.4876377  3.5304576  0.1976865
| 81>      F (2)  3.9451039  1.0998022  2.6576827
| 82>      F (2)  3.6146895  3.2288103  2.6537507
| 83>      F (2)  5.6282016  2.4526104  2.5567925
| 84>      O (2)  4.9309876 -4.7693182 -4.2261858
| 85>      O (2)  4.3785791 -2.8743630 -2.8058643
| 86>      O (2)  6.6443327 -3.7807230 -2.8090131
| 87>      C (2)  6.0194252  0.2165784 -2.3857448
| 88>      C (2)  5.6357609  0.0213338 -3.9000697
| 89>      C (2)  4.9096833  0.9630578 -1.5682089
| 90>      C (2)  6.4892215 -1.0700623 -4.6629027
| 91>      C (2)  5.3086653  1.3331435 -0.1001316
| 92>      C (2)  5.8572265 -2.4778693 -4.9276680
| 93>      C (2)  4.2712819  2.2734526  0.6073731
| 94>      C (2)  4.3739853  2.2543337  2.1659983
| 95>     *
| 96> 
| 97>                          ****END OF INPUT****
================================================================================

                       ****************************
                       * Single Point Calculation *
                       ****************************

---------------------------------
CARTESIAN COORDINATES (ANGSTROEM)
---------------------------------
  N     -0.569932   -0.471348    5.035381
  C      1.800883   -3.156472   -0.494788
  C      2.103241   -4.594221   -0.055764
  C      2.755788   -4.756431    1.321263
  C      1.049869   -2.369886    0.556362
  C      1.055784   -3.166295   -1.836666
  C     -1.003864   -0.134617    3.619872
  C     -0.299368   -0.907344    2.544496
  C      4.035627   -3.961974    1.482870
  C      1.554806   -1.161374    1.024660
  C     -0.161149   -2.821100    1.079057
  C      2.997765   -6.237392    1.617805
  C     -1.354337    0.394787    5.958888
  C      0.879174   -0.198100    5.235719
  C     -0.851964   -1.896065    5.357971
  C      0.887269   -0.433569    1.996912
  C     -0.824666   -2.103249    2.059986
  C      0.865984   -1.788422   -2.452763
  C      5.100302   -4.108017    0.594396
  C      4.189386   -3.086827    2.555306
  C      6.283322   -3.406948    0.777911
  C      5.372120   -2.383942    2.744997
  C      6.425668   -2.544488    1.857212
  H      2.755124   -2.642640   -0.650402
  H      2.744548   -5.049958   -0.818151
  H      1.173866   -5.174126   -0.056440
  H      2.054926   -4.380542    2.072848
  H      0.081475   -3.647940   -1.698903
  H      1.616605   -3.799751   -2.531041
  H     -0.825999    0.934501    3.509962
  H     -2.077382   -0.317025    3.594332
  H      2.491120   -0.787723    0.625571
  H     -0.589679   -3.752326    0.724102
  H      2.062047   -6.799642    1.563084
  H      3.416826   -6.376806    2.617144
  H      3.694491   -6.675069    0.897485
  H     -1.058408    0.168870    6.981012
  H     -2.413205    0.187114    5.819813
  H     -1.140914    1.436463    5.728162
  H      1.081541    0.839413    4.977429
  H      1.463726   -0.866589    4.609033
  H      1.116188   -0.376033    6.282519
  H     -0.247052   -2.536622    4.721553
  H     -1.910559   -2.089649    5.197098
  H     -0.594577   -2.065885    6.401460
  H      1.296227    0.510953    2.337684
  H     -1.762313   -2.477395    2.457084
  H      0.364708   -1.859051   -3.420810
  H      1.826325   -1.291588   -2.612711
  H      0.259524   -1.139748   -1.815167
  H      5.007424   -4.779452   -0.253020
  H      3.368049   -2.954005    3.252979
  H      7.098078   -3.533487    0.073923
  H      5.467459   -1.706462    3.586378
  H      7.348779   -1.993883    1.997916
  S      5.402018   -3.596686   -3.523027
  F      6.236619   -0.962260   -1.793548
  F      7.157962    0.924649   -2.358250
  F      5.858878    1.201137   -4.500473
  F      4.331655   -0.252869   -4.027548
  F      3.839861    0.158966   -1.500590
  F      4.574182    2.090779   -2.215754
  F      6.745725   -0.565811   -5.885287
  F      7.667829   -1.227195   -4.037744
  F      5.417343    0.195137    0.600625
  F      6.490485    1.962383   -0.083287
  F      6.779053   -3.134586   -5.668144
  F      4.769736   -2.298900   -5.703011
  F      3.017964    1.928519    0.283358
  F      4.487638    3.530458    0.197686
  F      3.945104    1.099802    2.657683
  F      3.614689    3.228810    2.653751
  F      5.628202    2.452610    2.556792
  O      4.930988   -4.769318   -4.226186
  O      4.378579   -2.874363   -2.805864
  O      6.644333   -3.780723   -2.809013
  C      6.019425    0.216578   -2.385745
  C      5.635761    0.021334   -3.900070
  C      4.909683    0.963058   -1.568209
  C      6.489221   -1.070062   -4.662903
  C      5.308665    1.333144   -0.100132
  C      5.857227   -2.477869   -4.927668
  C      4.271282    2.273453    0.607373
  C      4.373985    2.254334    2.165998

----------------------------
CARTESIAN COORDINATES (A.U.)
----------------------------
  NO LB      ZA    FRAG     MASS         X           Y           Z
   0 N     0.0000    1     0.000   -1.077016   -0.890718    9.515491
   1 C     0.0000    1     0.000    3.403175   -5.964868   -0.935014
   2 C     0.0000    1     0.000    3.974550   -8.681819   -0.105379
   3 C     0.0000    1     0.000    5.207685   -8.988351    2.496824
   4 C     0.0000    1     0.000    1.983964   -4.478435    1.051372
   5 C     0.0000    1     0.000    1.995143   -5.983431   -3.470797
   6 C     0.0000    1     0.000   -1.897028   -0.254390    6.840566
   7 C     0.0000    1     0.000   -0.565724   -1.714631    4.808402
   8 C     0.0000    1     0.000    7.626231   -7.487046    2.802219
   9 C     0.0000    1     0.000    2.938157   -2.194679    1.936326
  10 C     0.0000    1     0.000   -0.304527   -5.331107    2.039122
  11 C     0.0000    1     0.000    5.664955  -11.786962    3.057209
  12 C     0.0000    1     0.000   -2.559326    0.746039   11.260667
  13 C     0.0000    1     0.000    1.661399   -0.374356    9.894075
  14 C     0.0000    1     0.000   -1.609979   -3.583043   10.125098
  15 C     0.0000    1     0.000    1.676695   -0.819327    3.773616
  16 C     0.0000    1     0.000   -1.558393   -3.974564    3.892809
  17 C     0.0000    1     0.000    1.636473   -3.379627   -4.635050
  18 C     0.0000    1     0.000    9.638173   -7.763026    1.123245
  19 C     0.0000    1     0.000    7.916792   -5.833257    4.828828
  20 C     0.0000    1     0.000   11.873757   -6.438199    1.470040
  21 C     0.0000    1     0.000   10.151836   -4.504997    5.187292
  22 C     0.0000    1     0.000   12.142753   -4.808385    3.509622
  23 H     0.0000    1     0.000    5.206430   -4.993866   -1.229082
  24 H     0.0000    1     0.000    5.186444   -9.543037   -1.546082
  25 H     0.0000    1     0.000    2.218285   -9.777682   -0.106657
  26 H     0.0000    1     0.000    3.883247   -8.278024    3.917116
  27 H     0.0000    1     0.000    0.153966   -6.893607   -3.210461
  28 H     0.0000    1     0.000    3.054941   -7.180490   -4.782974
  29 H     0.0000    1     0.000   -1.560912    1.765951    6.632867
  30 H     0.0000    1     0.000   -3.925683   -0.599091    6.792303
  31 H     0.0000    1     0.000    4.707535   -1.488580    1.182159
  32 H     0.0000    1     0.000   -1.114332   -7.090868    1.368354
  33 H     0.0000    1     0.000    3.896705  -12.849461    2.953800
  34 H     0.0000    1     0.000    6.456866  -12.050417    4.945686
  35 H     0.0000    1     0.000    6.981577  -12.614053    1.696001
  36 H     0.0000    1     0.000   -2.000101    0.319118   13.192201
  37 H     0.0000    1     0.000   -4.560296    0.353594   10.997852
  38 H     0.0000    1     0.000   -2.156014    2.714522   10.824658
  39 H     0.0000    1     0.000    2.043816    1.586260    9.405977
  40 H     0.0000    1     0.000    2.766041   -1.637617    8.709810
  41 H     0.0000    1     0.000    2.109289   -0.710599   11.872240
  42 H     0.0000    1     0.000   -0.466860   -4.793521    8.922442
  43 H     0.0000    1     0.000   -3.610433   -3.948865    9.821092
  44 H     0.0000    1     0.000   -1.123588   -3.903958   12.097006
  45 H     0.0000    1     0.000    2.449514    0.965560    4.417583
  46 H     0.0000    1     0.000   -3.330290   -4.681598    4.643216
  47 H     0.0000    1     0.000    0.689199   -3.513098   -6.464393
  48 H     0.0000    1     0.000    3.451254   -2.440747   -4.937309
  49 H     0.0000    1     0.000    0.490430   -2.153812   -3.430168
  50 H     0.0000    1     0.000    9.462659   -9.031855   -0.478138
  51 H     0.0000    1     0.000    6.364690   -5.582261    6.147239
  52 H     0.0000    1     0.000   13.413424   -6.677323    0.139695
  53 H     0.0000    1     0.000   10.332000   -3.224746    6.777273
  54 H     0.0000    1     0.000   13.887179   -3.767892    3.775513
  55 S    16.0000    2    32.060   10.208335   -6.796751   -6.657555
  56 F     9.0000    2    18.998   11.785502   -1.818407   -3.389314
  57 F     9.0000    2    18.998   13.526588    1.747334   -4.456446
  58 F     9.0000    2    18.998   11.071676    2.269820   -8.504662
  59 F     9.0000    2    18.998    8.185641   -0.477854   -7.610962
  60 F     9.0000    2    18.998    7.256286    0.300402   -2.835705
  61 F     9.0000    2    18.998    8.643951    3.951000   -4.187168
  62 F     9.0000    2    18.998   12.747573   -1.069227  -11.121581
  63 F     9.0000    2    18.998   14.490097   -2.319062   -7.630230
  64 F     9.0000    2    18.998   10.237295    0.368755    1.135016
  65 F     9.0000    2    18.998   12.265239    3.708366   -0.157390
  66 F     9.0000    2    18.998   12.810554   -5.923510  -10.711239
  67 F     9.0000    2    18.998    9.013495   -4.344292  -10.777128
  68 F     9.0000    2    18.998    5.703124    3.644372    0.535468
  69 F     9.0000    2    18.998    8.480406    6.671598    0.373573
  70 F     9.0000    2    18.998    7.455166    2.078325    5.022292
  71 F     9.0000    2    18.998    6.830773    6.101567    5.014862
  72 F     9.0000    2    18.998   10.635760    4.634762    4.831638
  73 O     8.0000    2    15.999    9.318216   -9.012705   -7.986334
  74 O     8.0000    2    15.999    8.274315   -5.431759   -5.302315
  75 O     8.0000    2    15.999   12.555969   -7.144531   -5.308265
  76 C     6.0000    2    12.011   11.375065    0.409274   -4.508404
  77 C     6.0000    2    12.011   10.650045    0.040315   -7.370064
  78 C     6.0000    2    12.011    9.277957    1.819915   -2.963485
  79 C     6.0000    2    12.011   12.262851   -2.022125   -8.811609
  80 C     6.0000    2    12.011   10.031924    2.519276   -0.189221
  81 C     6.0000    2    12.011   11.068554   -4.682494   -9.311943
  82 C     6.0000    2    12.011    8.071553    4.296203    1.147769
  83 C     6.0000    2    12.011    8.265634    4.260073    4.093144

----------------------------------------------
CARTESIAN COORDINATES OF FRAGMENTS (ANGSTROEM)
----------------------------------------------

 FRAGMENT 1 
  N    -0.569932   -0.471348    5.035381
  C     1.800883   -3.156472   -0.494788
  C     2.103241   -4.594221   -0.055764
  C     2.755788   -4.756431    1.321263
  C     1.049869   -2.369886    0.556362
  C     1.055784   -3.166295   -1.836666
  C    -1.003864   -0.134617    3.619872
  C    -0.299368   -0.907344    2.544496
  C     4.035627   -3.961974    1.482870
  C     1.554806   -1.161374    1.024660
  C    -0.161149   -2.821100    1.079057
  C     2.997765   -6.237392    1.617805
  C    -1.354337    0.394787    5.958888
  C     0.879174   -0.198100    5.235719
  C    -0.851964   -1.896065    5.357971
  C     0.887269   -0.433569    1.996912
  C    -0.824666   -2.103249    2.059986
  C     0.865984   -1.788422   -2.452763
  C     5.100302   -4.108017    0.594396
  C     4.189386   -3.086827    2.555306
  C     6.283322   -3.406948    0.777911
  C     5.372120   -2.383942    2.744997
  C     6.425668   -2.544488    1.857212
  H     2.755124   -2.642640   -0.650402
  H     2.744548   -5.049958   -0.818151
  H     1.173866   -5.174126   -0.056440
  H     2.054926   -4.380542    2.072848
  H     0.081475   -3.647940   -1.698903
  H     1.616605   -3.799751   -2.531041
  H    -0.825999    0.934501    3.509962
  H    -2.077382   -0.317025    3.594332
  H     2.491120   -0.787723    0.625571
  H    -0.589679   -3.752326    0.724102
  H     2.062047   -6.799642    1.563084
  H     3.416826   -6.376806    2.617144
  H     3.694491   -6.675069    0.897485
  H    -1.058408    0.168870    6.981012
  H    -2.413205    0.187114    5.819813
  H    -1.140914    1.436463    5.728162
  H     1.081541    0.839413    4.977429
  H     1.463726   -0.866589    4.609033
  H     1.116188   -0.376033    6.282519
  H    -0.247052   -2.536622    4.721553
  H    -1.910559   -2.089649    5.197098
  H    -0.594577   -2.065885    6.401460
  H     1.296227    0.510953    2.337684
  H    -1.762313   -2.477395    2.457084
  H     0.364708   -1.859051   -3.420810
  H     1.826325   -1.291588   -2.612711
  H     0.259524   -1.139748   -1.815167
  H     5.007424   -4.779452   -0.253020
  H     3.368049   -2.954005    3.252979
  H     7.098078   -3.533487    0.073923
  H     5.467459   -1.706462    3.586378
  H     7.348779   -1.993883    1.997916

 FRAGMENT 2 
  S     5.402018   -3.596686   -3.523027
  F     6.236619   -0.962260   -1.793548
  F     7.157962    0.924649   -2.358250
  F     5.858878    1.201137   -4.500473
  F     4.331655   -0.252869   -4.027548
  F     3.839861    0.158966   -1.500590
  F     4.574182    2.090779   -2.215754
  F     6.745725   -0.565811   -5.885287
  F     7.667829   -1.227195   -4.037744
  F     5.417343    0.195137    0.600625
  F     6.490485    1.962383   -0.083287
  F     6.779053   -3.134586   -5.668144
  F     4.769736   -2.298900   -5.703011
  F     3.017964    1.928519    0.283358
  F     4.487638    3.530458    0.197686
  F     3.945104    1.099802    2.657683
  F     3.614689    3.228810    2.653751
  F     5.628202    2.452610    2.556792
  O     4.930988   -4.769318   -4.226186
  O     4.378579   -2.874363   -2.805864
  O     6.644333   -3.780723   -2.809013
  C     6.019425    0.216578   -2.385745
  C     5.635761    0.021334   -3.900070
  C     4.909683    0.963058   -1.568209
  C     6.489221   -1.070062   -4.662903
  C     5.308665    1.333144   -0.100132
  C     5.857227   -2.477869   -4.927668
  C     4.271282    2.273453    0.607373
  C     4.373985    2.254334    2.165998

--------------------------------
INTERNAL COORDINATES (ANGSTROEM)
--------------------------------
 N      0   0   0     0.000000000000     0.00000000     0.00000000
 C      1   0   0     6.588886584123     0.00000000     0.00000000
 C      2   1   0     1.533389597187   102.28362323     0.00000000
 C      3   2   1     1.532427090538   116.13516986   317.96792734
 C      2   1   4     1.512500725049    13.11797895   165.17146205
 C      2   1   5     1.534896103827   124.17400913   340.66687196
 C      1   2   3     1.518337903270    53.89534089   213.72616980
 C      7   1   2     1.499950695091   114.82844762     0.33056606
 C      4   3   2     1.515013567482   113.58264760   304.90370139
 C      5   2   3     1.390957715379   120.36932793   124.54725190
 C      5   2   3     1.394046962282   121.57381123   304.22522133
 C      4   3   2     1.529619569561   110.12410079   180.11025005
 C      1   2   3     1.489411215458   161.24550111   210.70065472
 C      1   2   3     1.488190278004    80.64464172    88.58517579
 C      1   2   3     1.487758406317    81.94893145   337.34113829
 C     10   5   2     1.385850084400   121.17288736   180.64479451
 C     11   5   2     1.384842419260   120.93259213   178.72982409
 C      6   2   1     1.521227623916   114.13199243    66.27875619
 C      9   4   3     1.394362529088   121.47570160   304.72403777
 C      9   4   3     1.392710421376   120.32599193   126.49003321
 C     19   9   4     1.387339747192   120.92327495   182.10691045
 C     20   9   4     1.388844524494   121.14518210   177.81772221
 C     22  20   9     1.387047141570   120.05567747     0.13692006
 H      2   1  15     1.094904627826   103.98301474   225.00915025
 H      3   2   1     1.095538152283   107.83224170   194.85138166
 H      3   2   1     1.095458411848   109.20137017    80.07840727
 H      4   3   2     1.094249411009   107.94459724    63.02276340
 H      6   2   1     1.095553891930   108.94100522   303.21906785
 H      6   2   1     1.094505747817   108.03539793   188.11888060
 H      7   1   2     1.089371284539   105.36990791   238.01133057
 H      7   1   2     1.089204559872   105.45000228   122.96078772
 H     10   5   2     1.084237499959   119.27380611     0.19792455
 H     11   5   2     1.084809607978   119.88936505   359.39022073
 H     12   4   3     1.093017398543   110.66507843   302.84571471
 H     12   4   3     1.092578060222   111.19481995   182.85228180
 H     12   4   3     1.093549310624   111.13661243    62.65432910
 H     13   1   2     1.087819096249   108.57595318   182.54249587
 H     13   1   2     1.087966102602   108.80231615    62.59805318
 H     13   1   2     1.088059744720   108.78098717   302.43614015
 H     14   1   2     1.088163408776   108.91694912   100.81327885
 H     14   1   2     1.086882349542   109.46005288   339.95101223
 H     14   1   2     1.087945478768   108.15753133   220.47506520
 H     15   1   2     1.086857987689   109.38523963    18.56116799
 H     15   1   2     1.088107442559   108.82867822   257.76090858
 H     15   1   2     1.088097676817   108.21335349   138.09215909
 H     16  10   5     1.084202042345   119.75719136   180.65252120
 H     17  11   5     1.084829393972   119.64523955   180.43888552
 H     18   6   2     1.092419681916   110.95166623   177.88512443
 H     18   6   2     1.093015067436   111.18386782    58.13486468
 H     18   6   2     1.093206340119   111.74379915   297.83849984
 H     19   9   4     1.085156843927   119.80472205     2.01042390
 H     20   9   4     1.085810178852   119.21774870   357.79456129
 H     21  19   9     1.084176926492   119.73236805   180.13589033
 H     22  20   9     1.084431542552   119.80251411   179.86886436
 H     23  22  20     1.084018988089   120.32777231   179.65658802
 S     51  19   9     3.499655004751   120.72419993   121.71494338
 F     56  51  19     3.260039309796    78.82996510     6.90994738
 F     57  56  51     2.174439654184   132.21713125   169.27387443
 F     58  57  56     2.520552859423    95.59676517    40.59069834
 F     59  58  57     2.161065835221    95.99459234    16.23769912
 F     60  59  58     2.607102525886   103.83565901    40.50971538
 F     61  60  59     2.186912949328    76.06819241    26.19680543
 F     59  58  57     2.413775056972   102.58802853   291.23568828
 F     63  59  58     2.168206841251    83.72417866    10.76728473
 F     61  60  59     2.627710485766   131.60464873   305.08280998
 F     65  61  60     2.177734425560    93.20303763    65.78152268
 F     63  59  58     2.578152469954   133.29802556    61.67662616
 F     67  63  59     2.176451850415    66.68072996    59.46074593
 F     61  60  59     2.643728974322   144.92682066    60.03408583
 F     69  61  60     2.175658679289   104.84817059   297.79537978
 F     69  61  60     2.680257307204   106.45534109   201.51169424
 F     71  69  61     2.154498694875    68.88746479   154.85763900
 F     72  71  69     2.160119939761    60.13552197   254.63066491
 O     56  51  19     1.446156974699    98.25337728   190.69530658
 O     56  51  19     1.443433233339    67.97188282   303.97466848
 O     56  51  19     1.444655706813    65.92661762    77.31572795
 C     57  56  51     1.336985314898   115.84512105   208.21833832
 C     60  59  58     1.338704791993    36.35038457   323.92194248
 C     61  60  59     1.340020805489    83.98894799   351.06684046
 C     64  63  59     1.343365384714    36.35612532    67.12827942
 C     66  65  61     1.339001022241    35.67525819    30.63825250
 C     68  67  63     1.347524293439    36.36379823   283.54756142
 C     70  69  61     1.339669553449    35.70788308   286.83490937
 C     71  69  61     1.326135660090    60.93797315   116.16079543

---------------------------
INTERNAL COORDINATES (A.U.)
---------------------------
 N      0   0   0     0.000000000000     0.00000000     0.00000000
 C      1   0   0    12.451191171461     0.00000000     0.00000000
 C      2   1   0     2.897686395288   102.28362323     0.00000000
 C      3   2   1     2.895867521319   116.13516986   317.96792734
 C      2   1   4     2.858212147700    13.11797895   165.17146205
 C      2   1   5     2.900533280256   124.17400913   340.66687196
 C      1   2   3     2.869242815932    53.89534089   213.72616980
 C      7   1   2     2.834496028107   114.82844762     0.33056606
 C      4   3   2     2.862960731717   113.58264760   304.90370139
 C      5   2   3     2.628529145931   120.36932793   124.54725190
 C      5   2   3     2.634366976538   121.57381123   304.22522133
 C      4   3   2     2.890562075557   110.12410079   180.11025005
 C      1   2   3     2.814579298007   161.24550111   210.70065472
 C      1   2   3     2.812272060592    80.64464172    88.58517579
 C      1   2   3     2.811455941378    81.94893145   337.34113829
 C     10   5   2     2.618877122188   121.17288736   180.64479451
 C     11   5   2     2.616972911038   120.93259213   178.72982409
 C      6   2   1     2.874703596558   114.13199243    66.27875619
 C      9   4   3     2.634963311377   121.47570160   304.72403777
 C      9   4   3     2.631841280260   120.32599193   126.49003321
 C     19   9   4     2.621692176897   120.92327495   182.10691045
 C     20   9   4     2.624535793889   121.14518210   177.81772221
 C     22  20   9     2.621139232405   120.05567747     0.13692006
 H      2   1  15     2.069069889354   103.98301474   225.00915025
 H      3   2   1     2.070267077077   107.83224170   194.85138166
 H      3   2   1     2.070116389493   109.20137017    80.07840727
 H      4   3   2     2.067831709012   107.94459724    63.02276340
 H      6   2   1     2.070296820699   108.94100522   303.21906785
 H      6   2   1     2.068316115377   108.03539793   188.11888060
 H      7   1   2     2.058613385936   105.36990791   238.01133057
 H      7   1   2     2.058298321976   105.45000228   122.96078772
 H     10   5   2     2.048911939050   119.27380611     0.19792455
 H     11   5   2     2.049993066525   119.88936505   359.39022073
 H     12   4   3     2.065503542857   110.66507843   302.84571471
 H     12   4   3     2.064673313750   111.19481995   182.85228180
 H     12   4   3     2.066508711017   111.13661243    62.65432910
 H     13   1   2     2.055680175159   108.57595318   182.54249587
 H     13   1   2     2.055957976908   108.80231615    62.59805318
 H     13   1   2     2.056134934865   108.78098717   302.43614015
 H     14   1   2     2.056330831541   108.91694912   100.81327885
 H     14   1   2     2.053909980428   109.46005288   339.95101223
 H     14   1   2     2.055919003509   108.15753133   220.47506520
 H     15   1   2     2.053863943197   109.38523963    18.56116799
 H     15   1   2     2.056225070718   108.82867822   257.76090858
 H     15   1   2     2.056206616140   108.21335349   138.09215909
 H     16  10   5     2.048844933869   119.75719136   180.65252120
 H     17  11   5     2.050030456634   119.64523955   180.43888552
 H     18   6   2     2.064374022126   110.95166623   177.88512443
 H     18   6   2     2.065499137703   111.18386782    58.13486468
 H     18   6   2     2.065860590692   111.74379915   297.83849984
 H     19   9   4     2.050649247373   119.80472205     2.01042390
 H     20   9   4     2.051883871455   119.21774870   357.79456129
 H     21  19   9     2.048797471786   119.73236805   180.13589033
 H     22  20   9     2.049278626408   119.80251411   179.86886436
 H     23  22  20     2.048499011459   120.32777231   179.65658802
 S     51  19   9     6.613389522187   120.72419993   121.71494338
 F     56  51  19     6.160581481331    78.82996510     6.90994738
 F     57  56  51     4.109095441147   132.21713125   169.27387443
 F     58  57  56     4.763154610381    95.59676517    40.59069834
 F     59  58  57     4.083822585942    95.99459234    16.23769912
 F     60  59  58     4.926709776980   103.83565901    40.50971538
 F     61  60  59     4.132666552957    76.06819241    26.19680543
 F     59  58  57     4.561373806567   102.58802853   291.23568828
 F     63  59  58     4.097317131658    83.72417866    10.76728473
 F     61  60  59     4.965653177331   131.60464873   305.08280998
 F     65  61  60     4.115321656721    93.20303763    65.78152268
 F     63  59  58     4.872002099705   133.29802556    61.67662616
 F     67  63  59     4.112897940950    66.68072996    59.46074593
 F     61  60  59     4.995923733780   144.92682066    60.03408583
 F     69  61  60     4.111399064744   104.84817059   297.79537978
 F     69  61  60     5.064952279058   106.45534109   201.51169424
 F     71  69  61     4.071412489204    68.88746479   154.85763900
 F     72  71  69     4.082035102571    60.13552197   254.63066491
 O     56  51  19     2.732840628841    98.25337728   190.69530658
 O     56  51  19     2.727693503612    67.97188282   303.97466848
 O     56  51  19     2.730003643684    65.92661762    77.31572795
 C     57  56  51     2.526536090231   115.84512105   208.21833832
 C     60  59  58     2.529785431035    36.35038457   323.92194248
 C     61  60  59     2.532272336130    83.98894799   351.06684046
 C     64  63  59     2.538592674899    36.35612532    67.12827942
 C     66  65  61     2.530345225076    35.67525819    30.63825250
 C     68  67  63     2.546451873405    36.36379823   283.54756142
 C     70  69  61     2.531608565971    35.70788308   286.83490937
 C     71  69  61     2.506033213996    60.93797315   116.16079543

---------------------
BASIS SET INFORMATION
---------------------
There are 6 groups of distinct atoms

 Group   1 Type N   : 12s6p3d1f contracted to 6s3p3d1f pattern {621111/411/111/1}
 Group   2 Type C   : 12s6p3d1f contracted to 6s3p3d1f pattern {621111/411/111/1}
 Group   3 Type H   : 5s2p contracted to 3s2p pattern {311/11}
 Group   4 Type S   : 15s10p4d1f contracted to 6s6p3d1f pattern {732111/511111/211/1}
 Group   5 Type F   : 12s7p3d1f contracted to 6s4p3d1f pattern {621111/4111/111/1}
 Group   6 Type O   : 12s7p3d1f contracted to 6s4p3d1f pattern {621111/4111/111/1}

Atom   0N    basis set group =>   1
Atom   1C    basis set group =>   2
Atom   2C    basis set group =>   2
Atom   3C    basis set group =>   2
Atom   4C    basis set group =>   2
Atom   5C    basis set group =>   2
Atom   6C    basis set group =>   2
Atom   7C    basis set group =>   2
Atom   8C    basis set group =>   2
Atom   9C    basis set group =>   2
Atom  10C    basis set group =>   2
Atom  11C    basis set group =>   2
Atom  12C    basis set group =>   2
Atom  13C    basis set group =>   2
Atom  14C    basis set group =>   2
Atom  15C    basis set group =>   2
Atom  16C    basis set group =>   2
Atom  17C    basis set group =>   2
Atom  18C    basis set group =>   2
Atom  19C    basis set group =>   2
Atom  20C    basis set group =>   2
Atom  21C    basis set group =>   2
Atom  22C    basis set group =>   2
Atom  23H    basis set group =>   3
Atom  24H    basis set group =>   3
Atom  25H    basis set group =>   3
Atom  26H    basis set group =>   3
Atom  27H    basis set group =>   3
Atom  28H    basis set group =>   3
Atom  29H    basis set group =>   3
Atom  30H    basis set group =>   3
Atom  31H    basis set group =>   3
Atom  32H    basis set group =>   3
Atom  33H    basis set group =>   3
Atom  34H    basis set group =>   3
Atom  35H    basis set group =>   3
Atom  36H    basis set group =>   3
Atom  37H    basis set group =>   3
Atom  38H    basis set group =>   3
Atom  39H    basis set group =>   3
Atom  40H    basis set group =>   3
Atom  41H    basis set group =>   3
Atom  42H    basis set group =>   3
Atom  43H    basis set group =>   3
Atom  44H    basis set group =>   3
Atom  45H    basis set group =>   3
Atom  46H    basis set group =>   3
Atom  47H    basis set group =>   3
Atom  48H    basis set group =>   3
Atom  49H    basis set group =>   3
Atom  50H    basis set group =>   3
Atom  51H    basis set group =>   3
Atom  52H    basis set group =>   3
Atom  53H    basis set group =>   3
Atom  54H    basis set group =>   3
Atom  55S    basis set group =>   4
Atom  56F    basis set group =>   5
Atom  57F    basis set group =>   5
Atom  58F    basis set group =>   5
Atom  59F    basis set group =>   5
Atom  60F    basis set group =>   5
Atom  61F    basis set group =>   5
Atom  62F    basis set group =>   5
Atom  63F    basis set group =>   5
Atom  64F    basis set group =>   5
Atom  65F    basis set group =>   5
Atom  66F    basis set group =>   5
Atom  67F    basis set group =>   5
Atom  68F    basis set group =>   5
Atom  69F    basis set group =>   5
Atom  70F    basis set group =>   5
Atom  71F    basis set group =>   5
Atom  72F    basis set group =>   5
Atom  73O    basis set group =>   6
Atom  74O    basis set group =>   6
Atom  75O    basis set group =>   6
Atom  76C    basis set group =>   2
Atom  77C    basis set group =>   2
Atom  78C    basis set group =>   2
Atom  79C    basis set group =>   2
Atom  80C    basis set group =>   2
Atom  81C    basis set group =>   2
Atom  82C    basis set group =>   2
Atom  83C    basis set group =>   2
---------------------------------
AUXILIARY/J BASIS SET INFORMATION
---------------------------------
There are 6 groups of distinct atoms

 Group   1 Type N   : 12s5p4d2f1g contracted to 6s4p3d1f1g pattern {711111/2111/211/2/1}
 Group   2 Type C   : 12s5p4d2f1g contracted to 6s4p3d1f1g pattern {711111/2111/211/2/1}
 Group   3 Type H   : 5s2p1d contracted to 3s1p1d pattern {311/2/1}
 Group   4 Type S   : 14s5p5d2f1g contracted to 8s4p3d1f1g pattern {71111111/2111/311/2/1}
 Group   5 Type F   : 12s5p4d2f1g contracted to 6s4p3d1f1g pattern {711111/2111/211/2/1}
 Group   6 Type O   : 12s5p4d2f1g contracted to 6s4p3d1f1g pattern {711111/2111/211/2/1}

Atom   0N    basis set group =>   1
Atom   1C    basis set group =>   2
Atom   2C    basis set group =>   2
Atom   3C    basis set group =>   2
Atom   4C    basis set group =>   2
Atom   5C    basis set group =>   2
Atom   6C    basis set group =>   2
Atom   7C    basis set group =>   2
Atom   8C    basis set group =>   2
Atom   9C    basis set group =>   2
Atom  10C    basis set group =>   2
Atom  11C    basis set group =>   2
Atom  12C    basis set group =>   2
Atom  13C    basis set group =>   2
Atom  14C    basis set group =>   2
Atom  15C    basis set group =>   2
Atom  16C    basis set group =>   2
Atom  17C    basis set group =>   2
Atom  18C    basis set group =>   2
Atom  19C    basis set group =>   2
Atom  20C    basis set group =>   2
Atom  21C    basis set group =>   2
Atom  22C    basis set group =>   2
Atom  23H    basis set group =>   3
Atom  24H    basis set group =>   3
Atom  25H    basis set group =>   3
Atom  26H    basis set group =>   3
Atom  27H    basis set group =>   3
Atom  28H    basis set group =>   3
Atom  29H    basis set group =>   3
Atom  30H    basis set group =>   3
Atom  31H    basis set group =>   3
Atom  32H    basis set group =>   3
Atom  33H    basis set group =>   3
Atom  34H    basis set group =>   3
Atom  35H    basis set group =>   3
Atom  36H    basis set group =>   3
Atom  37H    basis set group =>   3
Atom  38H    basis set group =>   3
Atom  39H    basis set group =>   3
Atom  40H    basis set group =>   3
Atom  41H    basis set group =>   3
Atom  42H    basis set group =>   3
Atom  43H    basis set group =>   3
Atom  44H    basis set group =>   3
Atom  45H    basis set group =>   3
Atom  46H    basis set group =>   3
Atom  47H    basis set group =>   3
Atom  48H    basis set group =>   3
Atom  49H    basis set group =>   3
Atom  50H    basis set group =>   3
Atom  51H    basis set group =>   3
Atom  52H    basis set group =>   3
Atom  53H    basis set group =>   3
Atom  54H    basis set group =>   3
Atom  55S    basis set group =>   4
Atom  56F    basis set group =>   5
Atom  57F    basis set group =>   5
Atom  58F    basis set group =>   5
Atom  59F    basis set group =>   5
Atom  60F    basis set group =>   5
Atom  61F    basis set group =>   5
Atom  62F    basis set group =>   5
Atom  63F    basis set group =>   5
Atom  64F    basis set group =>   5
Atom  65F    basis set group =>   5
Atom  66F    basis set group =>   5
Atom  67F    basis set group =>   5
Atom  68F    basis set group =>   5
Atom  69F    basis set group =>   5
Atom  70F    basis set group =>   5
Atom  71F    basis set group =>   5
Atom  72F    basis set group =>   5
Atom  73O    basis set group =>   6
Atom  74O    basis set group =>   6
Atom  75O    basis set group =>   6
Atom  76C    basis set group =>   2
Atom  77C    basis set group =>   2
Atom  78C    basis set group =>   2
Atom  79C    basis set group =>   2
Atom  80C    basis set group =>   2
Atom  81C    basis set group =>   2
Atom  82C    basis set group =>   2
Atom  83C    basis set group =>   2


           ************************************************************
           *        Program running with 32 parallel MPI-processes    *
           *              working on a common directory               *
           ************************************************************
------------------------------------------------------------------------------
                             ORCA STARTUP CALCULATIONS
                           -- RI-GTO INTEGRALS CHOSEN --
------------------------------------------------------------------------------
------------------------------------------------------------------------------
                   ___                                                        
                  /   \      - P O W E R E D   B Y -                         
                 /     \                                                     
                 |  |  |   _    _      __       _____    __    __             
                 |  |  |  | |  | |    /  \     |  _  \  |  |  /  |          
                  \  \/   | |  | |   /    \    | | | |  |  | /  /          
                 / \  \   | |__| |  /  /\  \   | |_| |  |  |/  /          
                |  |  |   |  __  | /  /__\  \  |    /   |      \           
                |  |  |   | |  | | |   __   |  |    \   |  |\   \          
                \     /   | |  | | |  |  |  |  | |\  \  |  | \   \       
                 \___/    |_|  |_| |__|  |__|  |_| \__\ |__|  \__/        
                                                                              
                      - O R C A' S   B I G   F R I E N D -                    
                                      &                                       
                       - I N T E G R A L  F E E D E R -                       
                                                                              
 v1 FN, 2020, v2 2021, v3 2022-2024                                           
------------------------------------------------------------------------------


----------------------
SHARK INTEGRAL PACKAGE
----------------------

Number of atoms                             ...     84
Number of basis functions                   ...   2281
Number of shells                            ...    859
Maximum angular momentum                    ...      3
Integral batch strategy                     ... SHARK/LIBINT Hybrid
RI-J (if used) integral strategy            ... SPLIT-RIJ (Revised 2003 algorithm where possible)
Printlevel                                  ...      1
Contraction scheme used                     ... SEGMENTED contraction
Prescreening option                         ... SCHWARTZ
   Thresh                                   ... 1.000e-10
   Tcut                                     ... 1.000e-11
   Tpresel                                  ... 1.000e-11 
Coulomb Range Separation                    ... NOT USED
Exchange Range Separation                   ... Long Range
   Mu parameter                             ... 2.500e-01
   Scaling (regular/separated)              ... 1.957e-01 8.043e-01
Robust (split-)RI terms used:
  metric    (central integrals)             ... YES
  density   (r.h.s.  integrals)             ... YES
  potential (l.h.s.  integrals)             ... YES
Multipole approximations                    ... NOT USED
Finite Nucleus Model                        ... NOT USED
CABS basis                                  ... NOT available
Auxiliary Coulomb fitting basis             ... AVAILABLE
   # of basis functions in Aux-J            ...   2902
   # of shells in Aux-J                     ...    942
   Maximum angular momentum in Aux-J        ...      4
Auxiliary J/K fitting basis                 ... NOT available
Auxiliary Correlation fitting basis         ... NOT available
Auxiliary 'external' fitting basis          ... NOT available

Checking pre-screening integrals            ... done (  0.0 sec) Dimension = 859
   => SHARK Basis and OBASIS are compatible. Storing Pre-screening
Shell pair information
Shell pair cut-off parameter TPreSel        ...   1.0e-11
Total number of shell pairs                 ...    369370
Shell pairs after pre-screening             ...    229647
Total number of primitive shell pairs       ...    976360
Primitive shell pairs kept                  ...    400673
          la=0 lb=0:  48723 shell pairs
          la=1 lb=0:  64666 shell pairs
          la=1 lb=1:  21242 shell pairs
          la=2 lb=0:  39394 shell pairs
          la=2 lb=1:  26120 shell pairs
          la=2 lb=2:   8216 shell pairs
          la=3 lb=0:   9726 shell pairs
          la=3 lb=1:   6983 shell pairs
          la=3 lb=2:   4167 shell pairs
          la=3 lb=3:    410 shell pairs

Checking whether 4 symmetric matrices of dimension 2281 fit in memory
:Max Core in MB      =   4000.00
 MB in use           =    268.12
 MB left             =   3731.88
 MB needed           =     79.43
 Data fit in memory  = YES
Calculating RI/J V-Matrix + Cholesky decomp.... done (  0.3 sec)
Calculating Nuclear repulsion               ... done (  0.0 sec) ENN=   4006.372416972630 Eh

Diagonalization of the overlap matrix:
Smallest eigenvalue                        ... 7.507e-08
Time for diagonalization                   ...    0.597 sec
Threshold for overlap eigenvalues          ... 1.000e-07
Number of eigenvalues below threshold      ... 1
Smallest eigenvalue above threshold        ... 1.060e-07

IMPORTANT:
Smallest eigenvalue of S below the DiffSThresh (1.000e-06) while
Thresh>1e-12 and/or TCut>1e-13! In order to avoid SCF convergence issues,
Thresh will be set to at least 1e-12 and TCut to at least 1e-13.
This can be turned off by adding %SCF DiffSThresh -1 END to the input.

Time for construction of square roots      ...    0.417 sec
Total time needed                          ...    1.057 sec

-------------------
DFT GRID GENERATION
-------------------

General Integration Accuracy     IntAcc      ... 4.388
Radial Grid Type                 RadialGrid  ... OptM3 with GC (2021)
Angular Grid (max. ang.)         AngularGrid ... 4 (Lebedev-302)
Angular grid pruning method      GridPruning ... 4 (adaptive)
Weight generation scheme         WeightScheme... mBecke (2022)
Basis function cutoff            BFCut       ... 1.0000e-10
Integration weight cutoff        WCut        ... 1.0000e-14
Partially contracted basis set               ... off
Rotationally invariant grid construction     ... off
Angular grids for H and He will be reduced by one unit
Diffuse basis detected: some atoms will have their outermost
                        angular grid increased by 1.

Total number of grid points                  ...   428524
Total number of batches                      ...     6737
Average number of points per batch           ...       63
Average number of grid points per atom       ...     5101

--------------------
COSX GRID GENERATION
--------------------

GRIDX 1
-------
General Integration Accuracy     IntAcc      ... 3.816
Radial Grid Type                 RadialGrid  ... OptM3 with GC (2021)
Angular Grid (max. ang.)         AngularGrid ... 1 (Lebedev-50)
Angular grid pruning method      GridPruning ... 4 (adaptive)
Weight generation scheme         WeightScheme... mBecke (2022)
Basis function cutoff            BFCut       ... 1.0000e-10
Integration weight cutoff        WCut        ... 1.0000e-14
Partially contracted basis set               ... on
Rotationally invariant grid construction     ... off
Angular grids for H and He will be reduced by one unit
Diffuse basis detected: some atoms will have their outermost
                        angular grid increased by 1.

Total number of grid points                  ...    54611
Total number of batches                      ...      470
Average number of points per batch           ...      116
Average number of grid points per atom       ...      650
UseSFitting                                  ... on

GRIDX 2
-------
General Integration Accuracy     IntAcc      ... 4.020
Radial Grid Type                 RadialGrid  ... OptM3 with GC (2021)
Angular Grid (max. ang.)         AngularGrid ... 2 (Lebedev-110)
Angular grid pruning method      GridPruning ... 4 (adaptive)
Weight generation scheme         WeightScheme... mBecke (2022)
Basis function cutoff            BFCut       ... 1.0000e-10
Integration weight cutoff        WCut        ... 1.0000e-14
Partially contracted basis set               ... on
Rotationally invariant grid construction     ... off
Angular grids for H and He will be reduced by one unit
Diffuse basis detected: some atoms will have their outermost
                        angular grid increased by 1.

Total number of grid points                  ...   126311
Total number of batches                      ...     1029
Average number of points per batch           ...      122
Average number of grid points per atom       ...     1504
UseSFitting                                  ... on

GRIDX 3
-------
General Integration Accuracy     IntAcc      ... 4.338
Radial Grid Type                 RadialGrid  ... OptM3 with GC (2021)
Angular Grid (max. ang.)         AngularGrid ... 3 (Lebedev-194)
Angular grid pruning method      GridPruning ... 4 (adaptive)
Weight generation scheme         WeightScheme... mBecke (2022)
Basis function cutoff            BFCut       ... 1.0000e-10
Integration weight cutoff        WCut        ... 1.0000e-14
Partially contracted basis set               ... on
Rotationally invariant grid construction     ... off
Angular grids for H and He will be reduced by one unit
Diffuse basis detected: some atoms will have their outermost
                        angular grid increased by 1.

Total number of grid points                  ...   277123
Total number of batches                      ...     2207
Average number of points per batch           ...      125
Average number of grid points per atom       ...     3299
UseSFitting                                  ... on
Grids setup in   8.9 sec
Initializing property integral containers    ... done (  0.0 sec)

SHARK setup successfully completed in  13.0 seconds

Maximum memory used throughout the entire STARTUP-calculation: 399.8 MB


           ************************************************************
           *        Program running with 32 parallel MPI-processes    *
           *              working on a common directory               *
           ************************************************************
-------------------------------------------------------------------------------
                                 ORCA GUESS
                   Start orbitals & Density for SCF / CASSCF
-------------------------------------------------------------------------------

------------
SCF SETTINGS
------------
Hamiltonian:
 Density Functional     Method          .... DFT(GTOs)
 Exchange Functional    Exchange        .... WB97X-D3
 Correlation Functional Correlation     .... WB97X-D3
 Gradients option       PostSCFGGA      .... off
 Hybrid DFT is turned on
   Fraction HF Exchange ScalHFX         ....  0.195728
   Scaling of DF-GGA-X  ScalDFX         ....  0.000000
   Scaling of DF-GGA-C  ScalDFC         ....  1.000000
   Scaling of DF-LDA-C  ScalLDAC        ....  1.000000
   Perturbative correction              ....  0.000000
 Long-range corrected/Screened/Range-Separated Hybrid DFT is turned on
   Amount of maximum screened exact exchange              ....  0.804272
   Range separation parameter mu (erf(mu*r12)/r12)        ....  0.250000
 RI-approximation to the Coulomb term is turned on
   Number of AuxJ basis functions       .... 2902
   RIJ-COSX (HFX calculated with COS-X)).... on


General Settings:
 Integral files         IntName         .... R4N+PFOS-_frag2
 Hartree-Fock type      HFTyp           .... RHF
 Total Charge           Charge          ....   -1
 Multiplicity           Mult            ....    1
 Number of Electrons    NEL             ....  242
 Basis Dimension        Dim             .... 2281
 Nuclear Repulsion      ENuc            ....   4006.3724169726 Eh

Convergence Acceleration:
 AO-DIIS                CNVDIIS         .... on
   Start iteration      DIISMaxIt       ....    12
   Startup error        DIISStart       ....  0.200000
   # of expansion vecs  DIISMaxEq       ....     5
   Bias factor          DIISBfac        ....   1.050
   Max. coefficient     DIISMaxC        ....  10.000
 MO-DIIS                CNVKDIIS        .... off
 Trust-Rad. Augm. Hess. CNVTRAH         .... auto
   Auto Start mean grad. ratio tolernc. ....  1.125000
   Auto Start start iteration           ....    50
   Auto Start num. interpolation iter.  ....    10
   Max. Number of Micro iterations      ....    24
   Max. Number of Macro iterations      .... Maxiter - #DIIS iter
   Number of Davidson start vectors     ....     2
   Converg. threshold    (grad. norm)   ....   5.000e-05
   Grad. Scal. Fac. for Micro threshold ....   0.100
   Minimum threshold for Micro iter.    ....   1.000e-02
   NR start threshold (gradient norm)   ....   1.000e-04
   Initial trust radius                 ....   0.400
   Minimum AH scaling param. (alpha)    ....   1.000
   Maximum AH scaling param. (alpha)    .... 1000.000
   Quad. conv. algorithm                .... NR
   White noise on init. David. guess    .... on
   Maximum white noise                  ....   0.010
   Pseudo random numbers                .... off
   Inactive MOs                         .... canonical
   Orbital update algorithm             .... Taylor
   Preconditioner                       .... Diag
   Full preconditioner red. dimension   ....   250
 SOSCF                 CNVSOSCF           .... on
   Start iteration     SOSCFMaxIt         ....   150
   Startup grad/error  SOSCFStart         ....  0.003300
   Hessian update      SOSCFHessUp        .... L-BFGS
   Autom. constraints  SOSCFAutoConstrain .... off
 Level Shifting         CNVShift        .... on
   Level shift para.    LevelShift      ....    0.2500
   Turn off err/grad.   ShiftErr        ....    0.0010
 Zerner damping         CNVZerner       .... off
 Static damping         CNVDamp         .... on
   Fraction old density DampFac         ....    0.7000
   Max. Damping (<1)    DampMax         ....    0.9800
   Min. Damping (>=0)   DampMin         ....    0.0000
   Turn off err/grad.   DampErr         ....    0.1000

SCF Procedure:
 Maximum # iterations   MaxIter         ....   125
 SCF integral mode      SCFMode         .... Direct
   Integral package                     .... SHARK and LIBINT hybrid scheme
 Reset frequency        DirectResetFreq ....    20
 Integral Threshold     Thresh          ....  1.000e-12 Eh
 Primitive CutOff       TCut            ....  1.000e-13 Eh

Convergence Tolerance:
 Convergence Check Mode ConvCheckMode   .... Total+1el-Energy
 Convergence forced     ConvForced      .... 0
 Energy Change          TolE            ....  1.000e-06 Eh
 1-El. energy change                    ....  1.000e-03 Eh
 Orbital Gradient       TolG            ....  5.000e-05
 Orbital Rotation angle TolX            ....  5.000e-05
 DIIS Error             TolErr          ....  1.000e-06

------------------------------
INITIAL GUESS: MODEL POTENTIAL
------------------------------
Loading Hartree-Fock densities                     ... done
Calculating cut-offs                               ... done
Initializing the effective Hamiltonian             ... done
Setting up the integral package (SHARK)            ... done
Starting the Coulomb interaction                   ... done (   1.1 sec)
Making the grid                                    ... done (   0.7 sec)
Mapping shells                                     ... done
Starting the XC term evaluation                    ... done (   0.9 sec)
  promolecular density results
     # of electrons  =    240.995719978
     EX              =   -260.495157852
     EC              =     -8.594069021
     EX+EC           =   -269.089226873
Transforming the Hamiltonian                       ... done (   0.3 sec)
Diagonalizing the Hamiltonian                      ... done (   0.7 sec)
Back transforming the eigenvectors                 ... done (   0.2 sec)
Now organizing SCF variables                       ... done
                      ------------------
                      INITIAL GUESS DONE (   4.4 sec)
                      ------------------
             **** ENERGY FILE WAS UPDATED (R4N+PFOS-_frag2.en.tmp) ****
Finished Guess after   6.9 sec
Maximum memory used throughout the entire GUESS-calculation: 406.3 MB


           ************************************************************
           *        Program running with 32 parallel MPI-processes    *
           *              working on a common directory               *
           ************************************************************

-------------------------------------------------------------------------------------------
                                      ORCA LEAN-SCF
                              memory conserving SCF solver
-------------------------------------------------------------------------------------------

--------------------
CPCM SOLVATION MODEL
--------------------
CPCM parameters:
  Epsilon                                         ...      72.5000
  Refrac                                          ...       1.4295
  Rsolv                                           ...       1.3000
  Surface type                                    ... GAUSSIAN VDW
  Discretization scheme                           ... Constant charge density
    Threshold for H atoms                         ...       5.0000 (charges/Ang^2)
    Threshold for non-H atoms                     ...       5.0000 (charges/Ang^2)
  Epsilon function type                           ...         CPCM
Solvent:                                          ... CUSTOM
SMD-CDS solvent descriptors:
  Soln                                            ...       1.4295
  Soln25                                          ...       1.4279
  Sola                                            ...       0.3700
  Solb                                            ...       0.4800
  Solg                                            ...      39.0100
  Solc                                            ...       0.0000
  Solh                                            ...       0.0000
Radii:
  Scheme                                          ... Element-dependent radii
  Radius for N  used is    3.5716 Bohr (=   1.8900 Ang.)
  Radius for C  used is    3.4960 Bohr (=   1.8500 Ang.)
  Radius for H  used is    2.2677 Bohr (=   1.2000 Ang.)
  Radius for S  used is    4.7054 Bohr (=   2.4900 Ang.)
  Radius for F  used is    3.2692 Bohr (=   1.7300 Ang.)
  Radius for O  used is    3.0765 Bohr (=   1.6280 Ang.)
Calculating surface                               ...        done! (  0.0s)
Cavity surface points                             ...         6415
Cavity Volume                                     ...    4771.0536
Cavity Surface-area                               ...    2522.6838
Calculating surface distance matrix               ...        done! (  0.3s)
Performing Cholesky decomposition & store         ...        done! (  0.9s)
Overall time for CPCM initialization              ...                 1.2s

----------------------------------------D-I-I-S--------------------------------------------
Iteration    Energy (Eh)           Delta-E    RMSDP     MaxDP     DIISErr   Damp  Time(sec)
-------------------------------------------------------------------------------------------
               ***  Starting incremental Fock matrix formation  ***
    1    -2626.0170112728715139     0.00e+00  1.41e-01  8.73e+00  2.97e-01  0.700  80.8
    2    -2626.2868754359528793    -2.70e-01  1.39e-01  9.02e+00  1.42e-01  0.700  41.9
                               ***Turning on AO-DIIS***
    3    -2626.3920204630117041    -1.05e-01  1.31e-01  9.27e+00  5.07e-02  0.700  40.0
    4    -2626.4574835547359726    -6.55e-02  3.55e-01  2.54e+01  2.69e-02  0.000  39.1
                              *** Initializing SOSCF ***
---------------------------------------S-O-S-C-F--------------------------------------
Iteration    Energy (Eh)           Delta-E    RMSDP     MaxDP     MaxGrad    Time(sec)
--------------------------------------------------------------------------------------
    5    -2626.6048141612304789    -1.47e-01  3.28e-02  2.15e+00  2.84e-03    42.5
               *** Restarting incremental Fock matrix formation ***
    6    -2626.6049800359792243    -1.66e-04  2.20e-01  1.84e+01  3.45e-04    82.8
    7    -2626.6050549471542581    -7.49e-05  2.01e-02  1.42e+00  2.47e-04    71.7
    8    -2626.6050590530853697    -4.11e-06  1.59e-02  1.02e+00  1.17e-04    64.7
    9    -2626.6050632754399885    -4.22e-06  2.46e-03  1.63e-01  3.14e-05    62.9
   10    -2626.6050632090659747     6.64e-08  1.76e-03  6.72e-02  2.10e-05    55.8
                 **** Energy Check signals convergence ****

               *****************************************************
               *                     SUCCESS                       *
               *           SCF CONVERGED AFTER  10 CYCLES          *
               *****************************************************

Recomputing exchange energy using gridx3       ... done (  145.401 sec)
Old exchange energy                            :    -77.918409539 Eh
New exchange energy                            :    -77.918023759 Eh
Exchange energy change after final integration :      0.000385780 Eh
Total energy after final integration           :  -2626.604677576 Eh

SMD CDS free energy correction energy :                 6.22775     Kcal/mol
Total Energy after SMD CDS correction =             -2626.594753019 Eh
             **** ENERGY FILE WAS UPDATED (R4N+PFOS-_frag2.en.tmp) ****

----------------
TOTAL SCF ENERGY
----------------

Total Energy       :      -2626.59475301879456 Eh          -71473.27686 eV

Components:
Nuclear Repulsion  :       4006.37241697262971 Eh          109018.93588 eV
Electronic Energy  :      -6632.88601528274376 Eh         -180490.00441 eV
One Electron Energy:     -11659.26498895439181 Eh         -317264.72978 eV
Two Electron Energy:       5026.37897367164805 Eh          136774.72537 eV
CPCM Dielectric    :         -0.09146504639249 Eh              -2.48889 eV
SMD CDS (Gcds)     :          0.00992455764095 Eh               0.27006 eV

Virial components:
Potential Energy   :      -5245.24861769215386 Eh         -142730.47116 eV
Kinetic Energy     :       2618.65386467335975 Eh           71257.19430 eV
Virial Ratio       :          2.00303243145364

DFT components:
N(Alpha)           :      120.999771830588 electrons
N(Beta)            :      120.999771830588 electrons
N(Total)           :      241.999543661176 electrons
E(XC)              :     -195.099588654006 Eh       

CPCM Solvation Model Properties:
Surface-charge          :          0.98694881031430
Corrected charge        :          1.00000000000000
Outlying charge corr.   :          0.00000715398964 Eh               0.00019 eV
Free-energy (cav+disp)  :          0.00992455764095 Eh               0.27006 eV

---------------
SCF CONVERGENCE
---------------

  Last Energy change         ...   -6.6374e-08  Tolerance :   1.0000e-06
  Last MAX-Density change    ...    6.7244e-02  Tolerance :   1.0000e-05
  Last RMS-Density change    ...    1.7632e-03  Tolerance :   1.0000e-06
  Last DIIS Error            ...    2.8367e-03  Tolerance :   1.0000e-06
  Last Orbital Gradient      ...    2.1022e-05  Tolerance :   5.0000e-05
  Last Orbital Rotation      ...    9.4450e-06  Tolerance :   5.0000e-05


----------------
ORBITAL ENERGIES
----------------

  NO   OCC          E(Eh)            E(eV) 
   0   2.0000     -89.144095     -2425.7342 
   1   2.0000     -24.850559      -676.2181 
   2   2.0000     -24.849677      -676.1941 
   3   2.0000     -24.849534      -676.1902 
   4   2.0000     -24.849089      -676.1781 
   5   2.0000     -24.848517      -676.1625 
   6   2.0000     -24.848238      -676.1549 
   7   2.0000     -24.847756      -676.1418 
   8   2.0000     -24.847535      -676.1358 
   9   2.0000     -24.846402      -676.1050 
  10   2.0000     -24.845354      -676.0765 
  11   2.0000     -24.844409      -676.0507 
  12   2.0000     -24.843359      -676.0222 
  13   2.0000     -24.840849      -675.9539 
  14   2.0000     -24.839812      -675.9256 
  15   2.0000     -24.836393      -675.8326 
  16   2.0000     -24.829635      -675.6487 
  17   2.0000     -24.827784      -675.5984 
  18   2.0000     -19.218164      -522.9528 
  19   2.0000     -19.218134      -522.9520 
  20   2.0000     -19.218047      -522.9497 
  21   2.0000     -10.567278      -287.5502 
  22   2.0000     -10.517114      -286.1852 
  23   2.0000     -10.515928      -286.1529 
  24   2.0000     -10.514561      -286.1158 
  25   2.0000     -10.514107      -286.1034 
  26   2.0000     -10.512374      -286.0562 
  27   2.0000     -10.506036      -285.8838 
  28   2.0000     -10.487412      -285.3770 
  29   2.0000      -8.207387      -223.3344 
  30   2.0000      -6.162585      -167.6925 
  31   2.0000      -6.159827      -167.6174 
  32   2.0000      -6.159738      -167.6150 
  33   2.0000      -1.476200       -40.1694 
  34   2.0000      -1.456464       -39.6324 
  35   2.0000      -1.445608       -39.3370 
  36   2.0000      -1.434969       -39.0475 
  37   2.0000      -1.429037       -38.8861 
  38   2.0000      -1.427164       -38.8351 
  39   2.0000      -1.423290       -38.7297 
  40   2.0000      -1.407347       -38.2959 
  41   2.0000      -1.387097       -37.7448 
  42   2.0000      -1.381494       -37.5924 
  43   2.0000      -1.378389       -37.5079 
  44   2.0000      -1.374252       -37.3953 
  45   2.0000      -1.369216       -37.2583 
  46   2.0000      -1.368142       -37.2290 
  47   2.0000      -1.364723       -37.1360 
  48   2.0000      -1.360619       -37.0243 
  49   2.0000      -1.350326       -36.7442 
  50   2.0000      -1.254995       -34.1501 
  51   2.0000      -1.116033       -30.3688 
  52   2.0000      -1.114608       -30.3300 
  53   2.0000      -0.965881       -26.2830 
  54   2.0000      -0.951312       -25.8865 
  55   2.0000      -0.929255       -25.2863 
  56   2.0000      -0.898411       -24.4470 
  57   2.0000      -0.862282       -23.4639 
  58   2.0000      -0.826837       -22.4994 
  59   2.0000      -0.803243       -21.8574 
  60   2.0000      -0.792404       -21.5624 
  61   2.0000      -0.763586       -20.7782 
  62   2.0000      -0.761668       -20.7260 
  63   2.0000      -0.754621       -20.5343 
  64   2.0000      -0.746098       -20.3023 
  65   2.0000      -0.742240       -20.1974 
  66   2.0000      -0.736931       -20.0529 
  67   2.0000      -0.735366       -20.0103 
  68   2.0000      -0.727499       -19.7963 
  69   2.0000      -0.722162       -19.6510 
  70   2.0000      -0.717853       -19.5338 
  71   2.0000      -0.712775       -19.3956 
  72   2.0000      -0.708010       -19.2659 
  73   2.0000      -0.700590       -19.0640 
  74   2.0000      -0.690253       -18.7828 
  75   2.0000      -0.687980       -18.7209 
  76   2.0000      -0.683718       -18.6049 
  77   2.0000      -0.679070       -18.4784 
  78   2.0000      -0.648444       -17.6451 
  79   2.0000      -0.627362       -17.0714 
  80   2.0000      -0.622166       -16.9300 
  81   2.0000      -0.618503       -16.8303 
  82   2.0000      -0.613798       -16.7023 
  83   2.0000      -0.610485       -16.6121 
  84   2.0000      -0.604863       -16.4592 
  85   2.0000      -0.604393       -16.4464 
  86   2.0000      -0.601190       -16.3592 
  87   2.0000      -0.597392       -16.2559 
  88   2.0000      -0.594832       -16.1862 
  89   2.0000      -0.588703       -16.0194 
  90   2.0000      -0.588124       -16.0037 
  91   2.0000      -0.582054       -15.8385 
  92   2.0000      -0.579577       -15.7711 
  93   2.0000      -0.578451       -15.7405 
  94   2.0000      -0.575471       -15.6594 
  95   2.0000      -0.569654       -15.5011 
  96   2.0000      -0.565330       -15.3834 
  97   2.0000      -0.562819       -15.3151 
  98   2.0000      -0.558130       -15.1875 
  99   2.0000      -0.556434       -15.1414 
 100   2.0000      -0.554352       -15.0847 
 101   2.0000      -0.552952       -15.0466 
 102   2.0000      -0.549909       -14.9638 
 103   2.0000      -0.548282       -14.9195 
 104   2.0000      -0.546424       -14.8690 
 105   2.0000      -0.543994       -14.8028 
 106   2.0000      -0.542848       -14.7716 
 107   2.0000      -0.540959       -14.7202 
 108   2.0000      -0.538483       -14.6529 
 109   2.0000      -0.535981       -14.5848 
 110   2.0000      -0.532571       -14.4920 
 111   2.0000      -0.521629       -14.1942 
 112   2.0000      -0.499909       -13.6032 
 113   2.0000      -0.473188       -12.8761 
 114   2.0000      -0.462768       -12.5925 
 115   2.0000      -0.460767       -12.5381 
 116   2.0000      -0.436290       -11.8721 
 117   2.0000      -0.423389       -11.5210 
 118   2.0000      -0.422746       -11.5035 
 119   2.0000      -0.401086       -10.9141 
 120   2.0000      -0.373022       -10.1504 
 121   0.0000       0.027098         0.7374 
 122   0.0000       0.039620         1.0781 
 123   0.0000       0.045659         1.2424 
 124   0.0000       0.054921         1.4945 
 125   0.0000       0.056624         1.5408 
 126   0.0000       0.060100         1.6354 
 127   0.0000       0.063884         1.7384 
 128   0.0000       0.065285         1.7765 
 129   0.0000       0.069192         1.8828 
 130   0.0000       0.070681         1.9233 
 131   0.0000       0.076450         2.0803 
*Only the first 10 virtual orbitals were printed.

                    ********************************
                    * MULLIKEN POPULATION ANALYSIS *
                    ********************************

-------------------------
MULLIKEN FRAGMENT CHARGES
-------------------------
 Fragment   0 :  -0.071047
 Fragment   1 :  -0.928953
Sum of fragment charges:   -1.0000000

---------------------------------
MULLIKEN FRAGMENT OVERLAP CHARGES
---------------------------------
                  0          1    
      0     -529.500757  -0.927847
      1      -0.927847 149.295808

-----------------------
MULLIKEN ATOMIC CHARGES
-----------------------
   0 N :    0.000065
   1 C :   -0.024853
   2 C :    0.023338
   3 C :    0.001083
   4 C :    0.056745
   5 C :   -0.001940
   6 C :   -0.001062
   7 C :   -0.003998
   8 C :    0.013957
   9 C :    0.001981
  10 C :   -0.001906
  11 C :   -0.000438
  12 C :    0.000018
  13 C :    0.001553
  14 C :    0.000025
  15 C :    0.047014
  16 C :    0.001052
  17 C :   -0.012758
  18 C :    0.028522
  19 C :    0.005264
  20 C :   -0.039148
  21 C :   -0.038109
  22 C :    0.021887
  23 H :   -0.043404
  24 H :   -0.001254
  25 H :    0.000194
  26 H :   -0.000825
  27 H :   -0.001137
  28 H :   -0.030284
  29 H :    0.000162
  30 H :   -0.000037
  31 H :   -0.014315
  32 H :   -0.000224
  33 H :   -0.000087
  34 H :   -0.000071
  35 H :    0.000113
  36 H :   -0.000007
  37 H :    0.000001
  38 H :   -0.000006
  39 H :   -0.001109
  40 H :   -0.001661
  41 H :   -0.000690
  42 H :   -0.000023
  43 H :   -0.000000
  44 H :    0.000000
  45 H :   -0.050616
  46 H :   -0.000004
  47 H :    0.000140
  48 H :   -0.007162
  49 H :    0.001904
  50 H :   -0.001505
  51 H :    0.001485
  52 H :   -0.021606
  53 H :    0.008579
  54 H :    0.014111
  55 S :    1.490824
  56 F :   -0.315238
  57 F :   -0.379385
  58 F :   -0.406015
  59 F :   -0.263225
  60 F :   -0.329596
  61 F :   -0.366266
  62 F :   -0.393453
  63 F :   -0.338378
  64 F :   -0.177622
  65 F :   -0.390066
  66 F :   -0.359863
  67 F :   -0.341396
  68 F :   -0.283190
  69 F :   -0.352755
  70 F :   -0.185062
  71 F :   -0.346492
  72 F :   -0.323176
  73 O :   -0.818138
  74 O :   -0.718480
  75 O :   -0.814928
  76 C :    0.694155
  77 C :    0.768542
  78 C :    0.964644
  79 C :    0.586590
  80 C :    0.435757
  81 C :    0.548601
  82 C :    0.878846
  83 C :    0.605814
Sum of atomic charges:   -1.0000000

--------------------------------
MULLIKEN REDUCED ORBITAL CHARGES
--------------------------------
  0 N s       :    -0.000057  s :    -0.000057
      pz      :    -0.000004  p :    -0.000018
      px      :    -0.000009
      py      :    -0.000005
      dz2     :    -0.000003  d :     0.000010
      dxz     :    -0.000005
      dyz     :    -0.000009
      dx2y2   :     0.000034
      dxy     :    -0.000007
      f0      :    -0.000000  f :    -0.000000
      f+1     :    -0.000000
      f-1     :    -0.000000
      f+2     :    -0.000000
      f-2     :    -0.000000
      f+3     :    -0.000000
      f-3     :    -0.000000

  1 C s       :     0.053424  s :     0.053424
      pz      :    -0.010576  p :     0.019010
      px      :     0.009278
      py      :     0.020309
      dz2     :    -0.009684  d :    -0.047581
      dxz     :     0.002925
      dyz     :    -0.003748
      dx2y2   :    -0.018250
      dxy     :    -0.018824
      f0      :     0.000000  f :    -0.000000
      f+1     :    -0.000000
      f-1     :    -0.000000
      f+2     :     0.000000
      f-2     :    -0.000000
      f+3     :    -0.000000
      f-3     :    -0.000000

  2 C s       :    -0.026022  s :    -0.026022
      pz      :     0.004759  p :    -0.002187
      px      :    -0.000538
      py      :    -0.006408
      dz2     :     0.001480  d :     0.004872
      dxz     :     0.002996
      dyz     :    -0.003386
      dx2y2   :     0.000087
      dxy     :     0.003694
      f0      :     0.000000  f :    -0.000000
      f+1     :    -0.000000
      f-1     :    -0.000000
      f+2     :     0.000000
      f-2     :    -0.000000
      f+3     :    -0.000000
      f-3     :    -0.000000

  3 C s       :     0.001645  s :     0.001645
      pz      :     0.002677  p :     0.001752
      px      :    -0.000326
      py      :    -0.000598
      dz2     :    -0.001028  d :    -0.004480
      dxz     :    -0.003958
      dyz     :     0.000947
      dx2y2   :    -0.000095
      dxy     :    -0.000347
      f0      :     0.000000  f :    -0.000000
      f+1     :    -0.000000
      f-1     :     0.000000
      f+2     :    -0.000000
      f-2     :    -0.000000
      f+3     :    -0.000000
      f-3     :    -0.000000

  4 C s       :    -0.018493  s :    -0.018493
      pz      :    -0.011286  p :    -0.003423
      px      :     0.001495
      py      :     0.006368
      dz2     :     0.000858  d :    -0.034829
      dxz     :    -0.019189
      dyz     :    -0.000517
      dx2y2   :    -0.009502
      dxy     :    -0.006479
      f0      :    -0.000000  f :    -0.000000
      f+1     :     0.000000
      f-1     :    -0.000000
      f+2     :    -0.000000
      f-2     :    -0.000000
      f+3     :    -0.000000
      f-3     :    -0.000000

  5 C s       :     0.013867  s :     0.013867
      pz      :     0.003403  p :     0.005466
      px      :     0.004743
      py      :    -0.002679
      dz2     :    -0.003206  d :    -0.017394
      dxz     :    -0.008090
      dyz     :     0.002150
      dx2y2   :    -0.012939
      dxy     :     0.004692
      f0      :     0.000000  f :     0.000001
      f+1     :    -0.000000
      f-1     :    -0.000000
      f+2     :     0.000000
      f-2     :     0.000000
      f+3     :     0.000000
      f-3     :    -0.000000

  6 C s       :    -0.000242  s :    -0.000242
      pz      :     0.000017  p :     0.001402
      px      :     0.001139
      py      :     0.000246
      dz2     :    -0.000125  d :    -0.000098
      dxz     :    -0.000101
      dyz     :    -0.000100
      dx2y2   :     0.000190
      dxy     :     0.000039
      f0      :    -0.000000  f :    -0.000000
      f+1     :    -0.000000
      f-1     :    -0.000000
      f+2     :    -0.000000
      f-2     :    -0.000000
      f+3     :    -0.000000
      f-3     :    -0.000000

  7 C s       :     0.010421  s :     0.010421
      pz      :    -0.000960  p :     0.002571
      px      :     0.006015
      py      :    -0.002484
      dz2     :    -0.001492  d :    -0.008994
      dxz     :    -0.004175
      dyz     :    -0.000230
      dx2y2   :     0.001504
      dxy     :    -0.004602
      f0      :    -0.000000  f :    -0.000000
      f+1     :    -0.000000
      f-1     :    -0.000000
      f+2     :    -0.000000
      f-2     :     0.000000
      f+3     :    -0.000000
      f-3     :    -0.000000

  8 C s       :    -0.003004  s :    -0.003004
      pz      :    -0.011056  p :    -0.017571
      px      :    -0.003381
      py      :    -0.003134
      dz2     :     0.010647  d :     0.006619
      dxz     :    -0.001632
      dyz     :    -0.000820
      dx2y2   :    -0.004928
      dxy     :     0.003352
      f0      :    -0.000000  f :    -0.000000
      f+1     :    -0.000000
      f-1     :    -0.000000
      f+2     :    -0.000000
      f-2     :    -0.000000
      f+3     :     0.000000
      f-3     :    -0.000000

  9 C s       :    -0.038465  s :    -0.038465
      pz      :     0.012028  p :     0.058620
      px      :     0.027853
      py      :     0.018739
      dz2     :    -0.018690  d :    -0.022134
      dxz     :     0.006275
      dyz     :    -0.009234
      dx2y2   :     0.004884
      dxy     :    -0.005370
      f0      :    -0.000000  f :    -0.000001
      f+1     :    -0.000000
      f-1     :    -0.000000
      f+2     :    -0.000000
      f-2     :    -0.000000
      f+3     :    -0.000000
      f-3     :    -0.000000

 10 C s       :     0.001715  s :     0.001715
      pz      :    -0.000308  p :     0.000474
      px      :     0.000891
      py      :    -0.000109
      dz2     :    -0.000028  d :    -0.000283
      dxz     :     0.000149
      dyz     :    -0.000168
      dx2y2   :     0.000189
      dxy     :    -0.000425
      f0      :    -0.000000  f :    -0.000000
      f+1     :    -0.000000
      f-1     :    -0.000000
      f+2     :    -0.000000
      f-2     :    -0.000000
      f+3     :    -0.000000
      f-3     :    -0.000000

 11 C s       :     0.000052  s :     0.000052
      pz      :     0.000226  p :     0.000225
      px      :     0.000058
      py      :    -0.000058
      dz2     :    -0.000008  d :     0.000160
      dxz     :     0.000296
      dyz     :    -0.000046
      dx2y2   :     0.000037
      dxy     :    -0.000119
      f0      :    -0.000000  f :    -0.000000
      f+1     :    -0.000000
      f-1     :    -0.000000
      f+2     :    -0.000000
      f-2     :    -0.000000
      f+3     :    -0.000000
      f-3     :    -0.000000

 12 C s       :    -0.000007  s :    -0.000007
      pz      :     0.000005  p :    -0.000007
      px      :    -0.000012
      py      :    -0.000000
      dz2     :     0.000004  d :    -0.000004
      dxz     :     0.000014
      dyz     :     0.000000
      dx2y2   :    -0.000024
      dxy     :     0.000001
      f0      :    -0.000000  f :    -0.000000
      f+1     :    -0.000000
      f-1     :    -0.000000
      f+2     :    -0.000000
      f-2     :    -0.000000
      f+3     :    -0.000000
      f-3     :    -0.000000

 13 C s       :    -0.000982  s :    -0.000982
      pz      :     0.000271  p :     0.000337
      px      :    -0.000740
      py      :     0.000805
      dz2     :     0.000171  d :    -0.000908
      dxz     :     0.000561
      dyz     :    -0.000158
      dx2y2   :    -0.000728
      dxy     :    -0.000753
      f0      :     0.000000  f :    -0.000000
      f+1     :    -0.000000
      f-1     :    -0.000000
      f+2     :    -0.000000
      f-2     :    -0.000000
      f+3     :    -0.000000
      f-3     :     0.000000

 14 C s       :    -0.000015  s :    -0.000015
      pz      :    -0.000008  p :    -0.000013
      px      :    -0.000006
      py      :     0.000000
      dz2     :    -0.000006  d :     0.000003
      dxz     :    -0.000005
      dyz     :    -0.000003
      dx2y2   :    -0.000002
      dxy     :     0.000018
      f0      :    -0.000000  f :    -0.000000
      f+1     :    -0.000000
      f-1     :    -0.000000
      f+2     :    -0.000000
      f-2     :    -0.000000
      f+3     :    -0.000000
      f-3     :    -0.000000

 15 C s       :    -0.032259  s :    -0.032259
      pz      :     0.000870  p :     0.061733
      px      :     0.030637
      py      :     0.030226
      dz2     :    -0.014527  d :    -0.076487
      dxz     :    -0.018854
      dyz     :     0.000981
      dx2y2   :    -0.006765
      dxy     :    -0.037322
      f0      :    -0.000000  f :    -0.000001
      f+1     :    -0.000000
      f-1     :    -0.000000
      f+2     :    -0.000000
      f-2     :    -0.000000
      f+3     :    -0.000000
      f-3     :    -0.000000

 16 C s       :    -0.000436  s :    -0.000436
      pz      :     0.000168  p :    -0.000288
      px      :    -0.000180
      py      :    -0.000277
      dz2     :    -0.000170  d :    -0.000327
      dxz     :     0.000237
      dyz     :     0.000006
      dx2y2   :     0.000007
      dxy     :    -0.000408
      f0      :    -0.000000  f :    -0.000000
      f+1     :    -0.000000
      f-1     :    -0.000000
      f+2     :    -0.000000
      f-2     :    -0.000000
      f+3     :    -0.000000
      f-3     :    -0.000000

 17 C s       :     0.004037  s :     0.004037
      pz      :     0.001526  p :     0.005043
      px      :     0.002851
      py      :     0.000666
      dz2     :     0.000769  d :     0.003678
      dxz     :     0.000269
      dyz     :     0.000962
      dx2y2   :     0.000720
      dxy     :     0.000958
      f0      :    -0.000000  f :    -0.000000
      f+1     :    -0.000000
      f-1     :     0.000000
      f+2     :    -0.000000
      f-2     :    -0.000000
      f+3     :    -0.000000
      f-3     :    -0.000000

 18 C s       :     0.013404  s :     0.013404
      pz      :    -0.036867  p :    -0.035064
      px      :     0.006988
      py      :    -0.005185
      dz2     :     0.012782  d :    -0.006862
      dxz     :    -0.014295
      dyz     :    -0.004549
      dx2y2   :    -0.000996
      dxy     :     0.000195
      f0      :     0.000000  f :     0.000000
      f+1     :    -0.000000
      f-1     :     0.000000
      f+2     :    -0.000000
      f-2     :    -0.000000
      f+3     :    -0.000000
      f-3     :     0.000000

 19 C s       :    -0.002067  s :    -0.002067
      pz      :     0.000410  p :    -0.009067
      px      :    -0.002356
      py      :    -0.007121
      dz2     :    -0.000924  d :     0.005870
      dxz     :     0.000604
      dyz     :    -0.000359
      dx2y2   :     0.008137
      dxy     :    -0.001588
      f0      :    -0.000000  f :    -0.000000
      f+1     :    -0.000000
      f-1     :    -0.000000
      f+2     :    -0.000000
      f-2     :    -0.000000
      f+3     :    -0.000000
      f-3     :    -0.000000

 20 C s       :     0.017763  s :     0.017763
      pz      :     0.032749  p :     0.042841
      px      :     0.004117
      py      :     0.005976
      dz2     :    -0.019505  d :    -0.021456
      dxz     :    -0.000025
      dyz     :     0.001182
      dx2y2   :    -0.006752
      dxy     :     0.003644
      f0      :     0.000000  f :    -0.000000
      f+1     :    -0.000000
      f-1     :    -0.000000
      f+2     :     0.000000
      f-2     :    -0.000000
      f+3     :    -0.000000
      f-3     :    -0.000000

 21 C s       :     0.037188  s :     0.037188
      pz      :     0.005592  p :     0.002754
      px      :     0.006128
      py      :    -0.008966
      dz2     :    -0.001598  d :    -0.001833
      dxz     :    -0.000525
      dyz     :    -0.000970
      dx2y2   :     0.005949
      dxy     :    -0.004690
      f0      :    -0.000000  f :     0.000000
      f+1     :    -0.000000
      f-1     :     0.000000
      f+2     :     0.000000
      f-2     :    -0.000000
      f+3     :    -0.000000
      f-3     :     0.000000

 22 C s       :    -0.029297  s :    -0.029297
      pz      :    -0.000119  p :    -0.002374
      px      :    -0.010132
      py      :     0.007878
      dz2     :    -0.001330  d :     0.009782
      dxz     :    -0.000513
      dyz     :     0.007307
      dx2y2   :     0.004620
      dxy     :    -0.000300
      f0      :     0.000000  f :     0.000001
      f+1     :    -0.000000
      f-1     :    -0.000000
      f+2     :     0.000000
      f-2     :     0.000000
      f+3     :     0.000000
      f-3     :     0.000000

 23 H s       :     0.076554  s :     0.076554
      pz      :    -0.042229  p :    -0.033150
      px      :    -0.005677
      py      :     0.014756

 24 H s       :    -0.013532  s :    -0.013532
      pz      :     0.008509  p :     0.014786
      px      :     0.002858
      py      :     0.003420

 25 H s       :     0.000016  s :     0.000016
      pz      :    -0.000399  p :    -0.000209
      px      :    -0.000120
      py      :     0.000311

 26 H s       :     0.000606  s :     0.000606
      pz      :     0.000103  p :     0.000219
      px      :     0.000077
      py      :     0.000039

 27 H s       :     0.001055  s :     0.001055
      pz      :    -0.000240  p :     0.000082
      px      :     0.000237
      py      :     0.000085

 28 H s       :     0.006214  s :     0.006214
      pz      :     0.003553  p :     0.024070
      px      :     0.020402
      py      :     0.000115

 29 H s       :    -0.000166  s :    -0.000166
      pz      :     0.000089  p :     0.000004
      px      :    -0.000127
      py      :     0.000042

 30 H s       :     0.000019  s :     0.000019
      pz      :    -0.000008  p :     0.000018
      px      :     0.000019
      py      :     0.000007

 31 H s       :     0.007931  s :     0.007931
      pz      :     0.002596  p :     0.006384
      px      :     0.006944
      py      :    -0.003155

 32 H s       :     0.000131  s :     0.000131
      pz      :     0.000007  p :     0.000093
      px      :     0.000059
      py      :     0.000027

 33 H s       :     0.000043  s :     0.000043
      pz      :     0.000035  p :     0.000044
      px      :     0.000008
      py      :     0.000001

 34 H s       :     0.000047  s :     0.000047
      pz      :     0.000018  p :     0.000023
      px      :     0.000003
      py      :     0.000002

 35 H s       :    -0.000660  s :    -0.000660
      pz      :     0.000388  p :     0.000547
      px      :     0.000067
      py      :     0.000092

 36 H s       :     0.000004  s :     0.000004
      pz      :     0.000001  p :     0.000004
      px      :     0.000002
      py      :     0.000000

 37 H s       :    -0.000002  s :    -0.000002
      pz      :     0.000001  p :     0.000001
      px      :    -0.000000
      py      :     0.000000

 38 H s       :    -0.000017  s :    -0.000017
      pz      :     0.000006  p :     0.000023
      px      :     0.000019
      py      :    -0.000002

 39 H s       :    -0.002788  s :    -0.002788
      pz      :     0.001458  p :     0.003896
      px      :     0.002291
      py      :     0.000147

 40 H s       :     0.000153  s :     0.000153
      pz      :    -0.000197  p :     0.001509
      px      :    -0.000006
      py      :     0.001712

 41 H s       :     0.000495  s :     0.000495
      pz      :     0.000120  p :     0.000194
      px      :     0.000055
      py      :     0.000019

 42 H s       :     0.000014  s :     0.000014
      pz      :    -0.000007  p :     0.000009
      px      :     0.000004
      py      :     0.000013

 43 H s       :    -0.000002  s :    -0.000002
      pz      :    -0.000000  p :     0.000002
      px      :     0.000001
      py      :     0.000001

 44 H s       :    -0.000003  s :    -0.000003
      pz      :     0.000001  p :     0.000003
      px      :     0.000001
      py      :     0.000000

 45 H s       :    -0.022582  s :    -0.022582
      pz      :     0.002224  p :     0.073197
      px      :     0.052202
      py      :     0.018771

 46 H s       :     0.000002  s :     0.000002
      pz      :     0.000005  p :     0.000003
      px      :    -0.000002
      py      :     0.000000

 47 H s       :     0.000300  s :     0.000300
      pz      :    -0.000138  p :    -0.000440
      px      :    -0.000285
      py      :    -0.000018

 48 H s       :    -0.021885  s :    -0.021885
      pz      :    -0.001872  p :     0.029047
      px      :     0.021871
      py      :     0.009048

 49 H s       :    -0.001507  s :    -0.001507
      pz      :     0.000270  p :    -0.000397
      px      :    -0.000450
      py      :    -0.000217

 50 H s       :    -0.001080  s :    -0.001080
      pz      :    -0.005141  p :     0.002584
      px      :     0.003373
      py      :     0.004352

 51 H s       :    -0.000045  s :    -0.000045
      pz      :    -0.000084  p :    -0.001440
      px      :    -0.000405
      py      :    -0.000951

 52 H s       :     0.014057  s :     0.014057
      pz      :     0.005896  p :     0.007549
      px      :     0.000715
      py      :     0.000938

 53 H s       :    -0.010794  s :    -0.010794
      pz      :    -0.000555  p :     0.002215
      px      :     0.002085
      py      :     0.000685

 54 H s       :    -0.008830  s :    -0.008830
      pz      :    -0.001106  p :    -0.005281
      px      :    -0.001744
      py      :    -0.002431

 55 S s       :     5.079113  s :     5.079113
      pz      :     2.713306  p :     8.121311
      px      :     2.701512
      py      :     2.706493
      dz2     :     0.175206  d :     1.184184
      dxz     :     0.227405
      dyz     :     0.275712
      dx2y2   :     0.263522
      dxy     :     0.242339
      f0      :     0.006479  f :     0.124568
      f+1     :     0.023744
      f-1     :     0.017483
      f+2     :     0.015839
      f-2     :     0.016340
      f+3     :     0.020580
      f-3     :     0.024103

 56 F s       :     4.006829  s :     4.006829
      pz      :     1.823532  p :     5.281577
      px      :     1.939260
      py      :     1.518785
      dz2     :     0.005202  d :     0.026096
      dxz     :     0.002839
      dyz     :     0.009224
      dx2y2   :     0.005904
      dxy     :     0.002927
      f0      :     0.000079  f :     0.000736
      f+1     :     0.000008
      f-1     :     0.000133
      f+2     :     0.000182
      f-2     :     0.000080
      f+3     :     0.000119
      f-3     :     0.000135

 57 F s       :     4.058220  s :     4.058220
      pz      :     1.966070  p :     5.291027
      px      :     1.535195
      py      :     1.789761
      dz2     :     0.005564  d :     0.029405
      dxz     :     0.005102
      dyz     :     0.005311
      dx2y2   :     0.006297
      dxy     :     0.007131
      f0      :     0.000066  f :     0.000734
      f+1     :     0.000109
      f-1     :     0.000050
      f+2     :     0.000026
      f-2     :     0.000087
      f+3     :     0.000155
      f-3     :     0.000241

 58 F s       :     4.090244  s :     4.090244
      pz      :     1.854559  p :     5.289433
      px      :     1.919665
      py      :     1.515210
      dz2     :     0.005043  d :     0.025597
      dxz     :     0.004752
      dyz     :     0.007778
      dx2y2   :     0.004246
      dxy     :     0.003777
      f0      :     0.000080  f :     0.000741
      f+1     :     0.000007
      f-1     :     0.000142
      f+2     :     0.000180
      f-2     :     0.000084
      f+3     :     0.000112
      f-3     :     0.000136

 59 F s       :     3.995677  s :     3.995677
      pz      :     1.916271  p :     5.243017
      px      :     1.397697
      py      :     1.929048
      dz2     :     0.003991  d :     0.023798
      dxz     :     0.005952
      dyz     :     0.005467
      dx2y2   :     0.005966
      dxy     :     0.002422
      f0      :     0.000065  f :     0.000733
      f+1     :     0.000142
      f-1     :     0.000017
      f+2     :     0.000095
      f-2     :     0.000023
      f+3     :     0.000207
      f-3     :     0.000184

 60 F s       :     3.981818  s :     3.981818
      pz      :     1.963916  p :     5.327693
      px      :     1.611430
      py      :     1.752346
      dz2     :     0.005626  d :     0.019353
      dxz     :     0.003362
      dyz     :     0.004371
      dx2y2   :     0.001028
      dxy     :     0.004965
      f0      :     0.000067  f :     0.000732
      f+1     :     0.000095
      f-1     :     0.000059
      f+2     :     0.000015
      f-2     :     0.000101
      f+3     :     0.000168
      f-3     :     0.000227

 61 F s       :     4.056927  s :     4.056927
      pz      :     1.831653  p :     5.278040
      px      :     1.897366
      py      :     1.549021
      dz2     :     0.005819  d :     0.030583
      dxz     :     0.004910
      dyz     :     0.009149
      dx2y2   :     0.005542
      dxy     :     0.005164
      f0      :     0.000078  f :     0.000716
      f+1     :     0.000016
      f-1     :     0.000128
      f+2     :     0.000164
      f-2     :     0.000108
      f+3     :     0.000118
      f-3     :     0.000105

 62 F s       :     4.098357  s :     4.098357
      pz      :     1.486884  p :     5.273607
      px      :     1.908252
      py      :     1.878471
      dz2     :     0.005722  d :     0.020758
      dxz     :     0.002617
      dyz     :     0.005930
      dx2y2   :     0.003673
      dxy     :     0.002817
      f0      :     0.000209  f :     0.000730
      f+1     :     0.000135
      f-1     :     0.000230
      f+2     :     0.000070
      f-2     :     0.000073
      f+3     :     0.000008
      f-3     :     0.000005

 63 F s       :     4.048101  s :     4.048101
      pz      :     1.822657  p :     5.264426
      px      :     1.502387
      py      :     1.939382
      dz2     :     0.003980  d :     0.025129
      dxz     :     0.004558
      dyz     :     0.005469
      dx2y2   :     0.005665
      dxy     :     0.005457
      f0      :     0.000079  f :     0.000722
      f+1     :     0.000127
      f-1     :     0.000007
      f+2     :     0.000192
      f-2     :     0.000080
      f+3     :     0.000125
      f-3     :     0.000112

 64 F s       :     3.910918  s :     3.910918
      pz      :     1.789806  p :     5.243439
      px      :     1.921069
      py      :     1.532563
      dz2     :     0.004039  d :     0.022545
      dxz     :     0.003239
      dyz     :     0.007936
      dx2y2   :     0.004589
      dxy     :     0.002742
      f0      :     0.000078  f :     0.000720
      f+1     :     0.000005
      f-1     :     0.000151
      f+2     :     0.000203
      f-2     :     0.000082
      f+3     :     0.000088
      f-3     :     0.000112

 65 F s       :     4.070901  s :     4.070901
      pz      :     1.962590  p :     5.290395
      px      :     1.506797
      py      :     1.821008
      dz2     :     0.004083  d :     0.028032
      dxz     :     0.006607
      dyz     :     0.003671
      dx2y2   :     0.006939
      dxy     :     0.006732
      f0      :     0.000065  f :     0.000738
      f+1     :     0.000117
      f-1     :     0.000042
      f+2     :     0.000036
      f-2     :     0.000075
      f+3     :     0.000159
      f-3     :     0.000245

 66 F s       :     4.044210  s :     4.044210
      pz      :     1.771216  p :     5.294039
      px      :     1.694862
      py      :     1.827961
      dz2     :     0.004363  d :     0.020906
      dxz     :     0.005859
      dyz     :     0.001958
      dx2y2   :     0.004008
      dxy     :     0.004717
      f0      :     0.000076  f :     0.000708
      f+1     :     0.000104
      f-1     :     0.000049
      f+2     :     0.000105
      f-2     :     0.000193
      f+3     :     0.000077
      f-3     :     0.000105

 67 F s       :     4.026596  s :     4.026596
      pz      :     1.750500  p :     5.287118
      px      :     1.594056
      py      :     1.942562
      dz2     :     0.004387  d :     0.026964
      dxz     :     0.005987
      dyz     :     0.005776
      dx2y2   :     0.005690
      dxy     :     0.005124
      f0      :     0.000077  f :     0.000718
      f+1     :     0.000154
      f-1     :     0.000013
      f+2     :     0.000198
      f-2     :     0.000109
      f+3     :     0.000089
      f-3     :     0.000079

 68 F s       :     4.018601  s :     4.018601
      pz      :     1.906353  p :     5.243212
      px      :     1.458585
      py      :     1.878274
      dz2     :     0.004926  d :     0.020646
      dxz     :     0.003560
      dyz     :     0.004720
      dx2y2   :     0.005345
      dxy     :     0.002095
      f0      :     0.000069  f :     0.000731
      f+1     :     0.000131
      f-1     :     0.000017
      f+2     :     0.000110
      f-2     :     0.000053
      f+3     :     0.000173
      f-3     :     0.000178

 69 F s       :     4.052203  s :     4.052203
      pz      :     1.901342  p :     5.273174
      px      :     1.920459
      py      :     1.451372
      dz2     :     0.005327  d :     0.026638
      dxz     :     0.003099
      dyz     :     0.006748
      dx2y2   :     0.007410
      dxy     :     0.004054
      f0      :     0.000074  f :     0.000741
      f+1     :     0.000009
      f-1     :     0.000136
      f+2     :     0.000146
      f-2     :     0.000048
      f+3     :     0.000147
      f-3     :     0.000182

 70 F s       :     3.942747  s :     3.942747
      pz      :     1.846071  p :     5.227759
      px      :     1.884516
      py      :     1.497172
      dz2     :     0.001260  d :     0.013771
      dxz     :     0.003944
      dyz     :     0.006074
      dx2y2   :     0.001295
      dxy     :     0.001199
      f0      :     0.000082  f :     0.000784
      f+1     :     0.000021
      f-1     :     0.000129
      f+2     :     0.000129
      f-2     :     0.000108
      f+3     :     0.000173
      f-3     :     0.000140

 71 F s       :     4.074420  s :     4.074420
      pz      :     1.853557  p :     5.256208
      px      :     1.758026
      py      :     1.644625
      dz2     :     0.004236  d :     0.015081
      dxz     :     0.002860
      dyz     :     0.004445
      dx2y2   :     0.000043
      dxy     :     0.003498
      f0      :     0.000082  f :     0.000783
      f+1     :     0.000057
      f-1     :     0.000094
      f+2     :     0.000056
      f-2     :     0.000179
      f+3     :     0.000179
      f-3     :     0.000136

 72 F s       :     4.059615  s :     4.059615
      pz      :     1.877350  p :     5.242386
      px      :     1.454556
      py      :     1.910480
      dz2     :     0.003742  d :     0.020401
      dxz     :     0.007761
      dyz     :     0.004107
      dx2y2   :     0.004201
      dxy     :     0.000590
      f0      :     0.000076  f :     0.000774
      f+1     :     0.000145
      f-1     :     0.000009
      f+2     :     0.000149
      f-2     :     0.000045
      f+3     :     0.000197
      f-3     :     0.000153

 73 O s       :     3.967565  s :     3.967565
      pz      :     1.639050  p :     4.796942
      px      :     1.716352
      py      :     1.441539
      dz2     :     0.008445  d :     0.051657
      dxz     :     0.007168
      dyz     :     0.012897
      dx2y2   :     0.010279
      dxy     :     0.012869
      f0      :     0.000149  f :     0.001975
      f+1     :     0.000079
      f-1     :     0.000418
      f+2     :     0.000338
      f-2     :     0.000333
      f+3     :     0.000316
      f-3     :     0.000342

 74 O s       :     3.917093  s :     3.917093
      pz      :     1.678045  p :     4.765767
      px      :     1.554611
      py      :     1.533111
      dz2     :     0.003273  d :     0.033667
      dxz     :     0.021810
      dyz     :     0.001860
      dx2y2   :    -0.000943
      dxy     :     0.007667
      f0      :     0.000156  f :     0.001953
      f+1     :     0.000362
      f-1     :     0.000167
      f+2     :     0.000301
      f-2     :     0.000377
      f+3     :     0.000316
      f-3     :     0.000274

 75 O s       :     4.008528  s :     4.008528
      pz      :     1.635482  p :     4.757542
      px      :     1.386280
      py      :     1.735779
      dz2     :     0.009280  d :     0.046882
      dxz     :     0.016632
      dyz     :     0.007570
      dx2y2   :     0.006562
      dxy     :     0.006839
      f0      :     0.000157  f :     0.001976
      f+1     :     0.000493
      f-1     :     0.000036
      f+2     :     0.000386
      f-2     :     0.000300
      f+3     :     0.000290
      f-3     :     0.000315

 76 C s       :     3.511940  s :     3.511940
      pz      :     0.445672  p :     1.347192
      px      :     0.439057
      py      :     0.462464
      dz2     :     0.105492  d :     0.417518
      dxz     :     0.117232
      dyz     :     0.086552
      dx2y2   :     0.079833
      dxy     :     0.028409
      f0      :     0.003173  f :     0.029195
      f+1     :     0.001725
      f-1     :     0.004887
      f+2     :     0.002797
      f-2     :     0.004992
      f+3     :     0.007337
      f-3     :     0.004284

 77 C s       :     3.337702  s :     3.337702
      pz      :     0.444775  p :     1.415926
      px      :     0.490855
      py      :     0.480296
      dz2     :     0.131315  d :     0.448806
      dxz     :     0.115957
      dyz     :     0.073563
      dx2y2   :     0.040706
      dxy     :     0.087264
      f0      :     0.002947  f :     0.029025
      f+1     :     0.002018
      f-1     :     0.004532
      f+2     :     0.004785
      f-2     :     0.003270
      f+3     :     0.005654
      f-3     :     0.005819

 78 C s       :     3.170694  s :     3.170694
      pz      :     0.441709  p :     1.339908
      px      :     0.474856
      py      :     0.423343
      dz2     :     0.152608  d :     0.495629
      dxz     :     0.110713
      dyz     :     0.016499
      dx2y2   :     0.089097
      dxy     :     0.126712
      f0      :     0.002959  f :     0.029125
      f+1     :     0.002009
      f-1     :     0.005046
      f+2     :     0.002346
      f-2     :     0.005462
      f+3     :     0.006392
      f-3     :     0.004912

 79 C s       :     3.365384  s :     3.365384
      pz      :     0.503105  p :     1.580493
      px      :     0.453626
      py      :     0.623762
      dz2     :     0.067352  d :     0.438463
      dxz     :     0.088431
      dyz     :     0.084828
      dx2y2   :     0.041773
      dxy     :     0.156078
      f0      :     0.005021  f :     0.029070
      f+1     :     0.006887
      f-1     :     0.002878
      f+2     :     0.004010
      f-2     :     0.004242
      f+3     :     0.002742
      f-3     :     0.003290

 80 C s       :     3.553852  s :     3.553852
      pz      :     0.597909  p :     1.549761
      px      :     0.442327
      py      :     0.509525
      dz2     :     0.094051  d :     0.431437
      dxz     :     0.107906
      dyz     :     0.116657
      dx2y2   :     0.052363
      dxy     :     0.060460
      f0      :     0.003064  f :     0.029193
      f+1     :     0.001813
      f-1     :     0.005195
      f+2     :     0.002931
      f-2     :     0.005225
      f+3     :     0.007165
      f-3     :     0.003800

 81 C s       :     3.282599  s :     3.282599
      pz      :     0.552987  p :     1.777268
      px      :     0.527320
      py      :     0.696962
      dz2     :     0.104545  d :     0.363817
      dxz     :     0.026830
      dyz     :     0.116563
      dx2y2   :     0.067238
      dxy     :     0.048641
      f0      :     0.002206  f :     0.027715
      f+1     :     0.006868
      f-1     :     0.002307
      f+2     :     0.004431
      f-2     :     0.004604
      f+3     :     0.004226
      f-3     :     0.003073

 82 C s       :     3.251801  s :     3.251801
      pz      :     0.422834  p :     1.408025
      px      :     0.470611
      py      :     0.514580
      dz2     :     0.107763  d :     0.432238
      dxz     :     0.078355
      dyz     :     0.067017
      dx2y2   :     0.036808
      dxy     :     0.142295
      f0      :     0.003235  f :     0.029091
      f+1     :     0.002764
      f-1     :     0.003538
      f+2     :     0.004536
      f-2     :     0.003081
      f+3     :     0.006594
      f-3     :     0.005343

 83 C s       :     3.497405  s :     3.497405
      pz      :     0.540273  p :     1.405518
      px      :     0.455386
      py      :     0.409858
      dz2     :     0.160410  d :     0.449019
      dxz     :     0.061442
      dyz     :     0.094555
      dx2y2   :     0.061582
      dxy     :     0.071030
      f0      :     0.002983  f :     0.042244
      f+1     :     0.004661
      f-1     :     0.005597
      f+2     :     0.006317
      f-2     :     0.005602
      f+3     :     0.006683
      f-3     :     0.010401



                     *******************************
                     * LOEWDIN POPULATION ANALYSIS *
                     *******************************

------------------------
LOEWDIN FRAGMENT CHARGES
------------------------
 Fragment   0 :  -0.256204
 Fragment   1 :  -0.743796

----------------------------
LOEWDIN FRAGMENT BOND ORDERS
----------------------------
                  0          1    
      0       0.262744   0.503613
      1       0.503613 363.804676

----------------------
LOEWDIN ATOMIC CHARGES
----------------------
   0 N :   -0.000008
   1 C :   -0.013994
   2 C :   -0.002857
   3 C :   -0.000174
   4 C :   -0.000516
   5 C :   -0.012843
   6 C :   -0.000041
   7 C :   -0.000135
   8 C :   -0.000776
   9 C :   -0.012537
  10 C :   -0.000072
  11 C :   -0.000050
  12 C :   -0.000003
  13 C :   -0.000651
  14 C :   -0.000005
  15 C :   -0.010258
  16 C :   -0.000038
  17 C :   -0.009765
  18 C :   -0.014414
  19 C :   -0.001553
  20 C :   -0.018902
  21 C :   -0.011331
  22 C :   -0.015709
  23 H :   -0.023407
  24 H :   -0.003454
  25 H :   -0.000052
  26 H :   -0.000015
  27 H :   -0.000153
  28 H :   -0.012131
  29 H :   -0.000021
  30 H :   -0.000003
  31 H :   -0.022804
  32 H :   -0.000016
  33 H :   -0.000006
  34 H :   -0.000007
  35 H :   -0.000038
  36 H :   -0.000001
  37 H :   -0.000001
  38 H :   -0.000002
  39 H :   -0.000541
  40 H :   -0.000439
  41 H :   -0.000008
  42 H :   -0.000004
  43 H :   -0.000001
  44 H :   -0.000001
  45 H :   -0.014086
  46 H :   -0.000005
  47 H :   -0.000206
  48 H :   -0.021324
  49 H :   -0.000275
  50 H :   -0.011036
  51 H :   -0.000072
  52 H :   -0.015008
  53 H :   -0.002437
  54 H :   -0.002020
  55 S :    0.459080
  56 F :    0.159692
  57 F :    0.163099
  58 F :    0.154002
  59 F :    0.156747
  60 F :    0.179728
  61 F :    0.173026
  62 F :    0.145446
  63 F :    0.144664
  64 F :    0.189552
  65 F :    0.168124
  66 F :    0.093964
  67 F :    0.100746
  68 F :    0.182880
  69 F :    0.166325
  70 F :    0.205266
  71 F :    0.189345
  72 F :    0.190927
  73 O :   -0.346451
  74 O :   -0.287073
  75 O :   -0.327102
  76 C :   -0.335096
  77 C :   -0.324180
  78 C :   -0.329117
  79 C :   -0.342773
  80 C :   -0.330153
  81 C :   -0.462678
  82 C :   -0.336135
  83 C :   -0.545650

-------------------------------
LOEWDIN REDUCED ORBITAL CHARGES
-------------------------------
  0 N s       :     0.000002  s :     0.000002
      pz      :     0.000001  p :     0.000002
      px      :     0.000001
      py      :     0.000000
      dz2     :     0.000000  d :     0.000004
      dxz     :     0.000001
      dyz     :     0.000001
      dx2y2   :     0.000001
      dxy     :     0.000001
      f0      :     0.000000  f :     0.000000
      f+1     :     0.000000
      f-1     :     0.000000
      f+2     :     0.000000
      f-2     :     0.000000
      f+3     :     0.000000
      f-3     :     0.000000

  1 C s       :     0.001650  s :     0.001650
      pz      :     0.000606  p :     0.001509
      px      :     0.000838
      py      :     0.000066
      dz2     :     0.000852  d :     0.010833
      dxz     :     0.006614
      dyz     :     0.000395
      dx2y2   :     0.002293
      dxy     :     0.000680
      f0      :     0.000000  f :     0.000001
      f+1     :     0.000000
      f-1     :     0.000000
      f+2     :     0.000000
      f-2     :     0.000000
      f+3     :     0.000000
      f-3     :     0.000000

  2 C s       :     0.000564  s :     0.000564
      pz      :     0.000108  p :     0.000214
      px      :     0.000072
      py      :     0.000034
      dz2     :     0.000166  d :     0.002077
      dxz     :     0.000872
      dyz     :     0.000521
      dx2y2   :     0.000069
      dxy     :     0.000450
      f0      :     0.000000  f :     0.000001
      f+1     :     0.000000
      f-1     :     0.000000
      f+2     :     0.000000
      f-2     :     0.000000
      f+3     :     0.000000
      f-3     :     0.000000

  3 C s       :     0.000076  s :     0.000076
      pz      :     0.000017  p :     0.000026
      px      :     0.000004
      py      :     0.000004
      dz2     :     0.000018  d :     0.000072
      dxz     :     0.000025
      dyz     :     0.000013
      dx2y2   :     0.000011
      dxy     :     0.000004
      f0      :     0.000000  f :     0.000000
      f+1     :     0.000000
      f-1     :     0.000000
      f+2     :     0.000000
      f-2     :     0.000000
      f+3     :     0.000000
      f-3     :     0.000000

  4 C s       :     0.000175  s :     0.000175
      pz      :     0.000016  p :     0.000077
      px      :     0.000042
      py      :     0.000019
      dz2     :     0.000027  d :     0.000262
      dxz     :     0.000067
      dyz     :     0.000040
      dx2y2   :     0.000024
      dxy     :     0.000106
      f0      :     0.000000  f :     0.000002
      f+1     :     0.000000
      f-1     :     0.000000
      f+2     :     0.000000
      f-2     :     0.000000
      f+3     :     0.000000
      f-3     :     0.000000

  5 C s       :     0.001590  s :     0.001590
      pz      :     0.000201  p :     0.001498
      px      :     0.001259
      py      :     0.000039
      dz2     :     0.001459  d :     0.009754
      dxz     :     0.002292
      dyz     :     0.000068
      dx2y2   :     0.005226
      dxy     :     0.000709
      f0      :     0.000000  f :     0.000001
      f+1     :     0.000000
      f-1     :     0.000000
      f+2     :     0.000000
      f-2     :     0.000000
      f+3     :     0.000000
      f-3     :     0.000000

  6 C s       :     0.000015  s :     0.000015
      pz      :     0.000002  p :     0.000011
      px      :     0.000006
      py      :     0.000003
      dz2     :     0.000001  d :     0.000015
      dxz     :     0.000004
      dyz     :     0.000004
      dx2y2   :     0.000003
      dxy     :     0.000003
      f0      :     0.000000  f :     0.000000
      f+1     :     0.000000
      f-1     :     0.000000
      f+2     :     0.000000
      f-2     :     0.000000
      f+3     :     0.000000
      f-3     :     0.000000

  7 C s       :     0.000057  s :     0.000057
      pz      :     0.000002  p :     0.000028
      px      :     0.000011
      py      :     0.000014
      dz2     :     0.000014  d :     0.000050
      dxz     :     0.000004
      dyz     :     0.000005
      dx2y2   :     0.000006
      dxy     :     0.000021
      f0      :     0.000000  f :     0.000001
      f+1     :     0.000000
      f-1     :     0.000000
      f+2     :     0.000000
      f-2     :     0.000000
      f+3     :     0.000000
      f-3     :     0.000000

  8 C s       :     0.000221  s :     0.000221
      pz      :     0.000053  p :     0.000078
      px      :     0.000012
      py      :     0.000013
      dz2     :     0.000282  d :     0.000476
      dxz     :     0.000053
      dyz     :     0.000052
      dx2y2   :     0.000049
      dxy     :     0.000040
      f0      :     0.000000  f :     0.000001
      f+1     :     0.000000
      f-1     :     0.000000
      f+2     :     0.000000
      f-2     :     0.000000
      f+3     :     0.000000
      f-3     :     0.000000

  9 C s       :     0.001446  s :     0.001446
      pz      :     0.000220  p :     0.001118
      px      :     0.000350
      py      :     0.000548
      dz2     :     0.001160  d :     0.009971
      dxz     :     0.002210
      dyz     :     0.001669
      dx2y2   :     0.001879
      dxy     :     0.003053
      f0      :     0.000000  f :     0.000002
      f+1     :     0.000000
      f-1     :     0.000000
      f+2     :     0.000000
      f-2     :     0.000000
      f+3     :     0.000000
      f-3     :     0.000000

 10 C s       :     0.000016  s :     0.000016
      pz      :     0.000005  p :     0.000020
      px      :     0.000008
      py      :     0.000007
      dz2     :     0.000003  d :     0.000036
      dxz     :     0.000018
      dyz     :     0.000004
      dx2y2   :     0.000006
      dxy     :     0.000005
      f0      :     0.000000  f :     0.000000
      f+1     :     0.000000
      f-1     :     0.000000
      f+2     :     0.000000
      f-2     :     0.000000
      f+3     :     0.000000
      f-3     :     0.000000

 11 C s       :     0.000013  s :     0.000013
      pz      :     0.000010  p :     0.000015
      px      :     0.000003
      py      :     0.000002
      dz2     :     0.000003  d :     0.000021
      dxz     :     0.000009
      dyz     :     0.000005
      dx2y2   :     0.000003
      dxy     :     0.000001
      f0      :     0.000000  f :     0.000000
      f+1     :     0.000000
      f-1     :     0.000000
      f+2     :     0.000000
      f-2     :     0.000000
      f+3     :     0.000000
      f-3     :     0.000000

 12 C s       :     0.000001  s :     0.000001
      pz      :     0.000000  p :     0.000001
      px      :     0.000000
      py      :     0.000000
      dz2     :     0.000000  d :     0.000001
      dxz     :     0.000000
      dyz     :     0.000000
      dx2y2   :     0.000000
      dxy     :     0.000000
      f0      :     0.000000  f :     0.000000
      f+1     :     0.000000
      f-1     :     0.000000
      f+2     :     0.000000
      f-2     :     0.000000
      f+3     :     0.000000
      f-3     :     0.000000

 13 C s       :     0.000123  s :     0.000123
      pz      :     0.000016  p :     0.000040
      px      :     0.000019
      py      :     0.000005
      dz2     :     0.000020  d :     0.000487
      dxz     :     0.000257
      dyz     :     0.000049
      dx2y2   :     0.000083
      dxy     :     0.000078
      f0      :     0.000000  f :     0.000000
      f+1     :     0.000000
      f-1     :     0.000000
      f+2     :     0.000000
      f-2     :     0.000000
      f+3     :     0.000000
      f-3     :     0.000000

 14 C s       :     0.000001  s :     0.000001
      pz      :     0.000001  p :     0.000001
      px      :     0.000001
      py      :     0.000000
      dz2     :     0.000000  d :     0.000002
      dxz     :     0.000001
      dyz     :     0.000000
      dx2y2   :     0.000000
      dxy     :     0.000000
      f0      :     0.000000  f :     0.000000
      f+1     :     0.000000
      f-1     :     0.000000
      f+2     :     0.000000
      f-2     :     0.000000
      f+3     :     0.000000
      f-3     :     0.000000

 15 C s       :     0.001135  s :     0.001135
      pz      :     0.000126  p :     0.001022
      px      :     0.000562
      py      :     0.000334
      dz2     :     0.000974  d :     0.008100
      dxz     :     0.001381
      dyz     :     0.001105
      dx2y2   :     0.001477
      dxy     :     0.003164
      f0      :     0.000000  f :     0.000001
      f+1     :     0.000000
      f-1     :     0.000000
      f+2     :     0.000000
      f-2     :     0.000000
      f+3     :     0.000000
      f-3     :     0.000000

 16 C s       :     0.000012  s :     0.000012
      pz      :     0.000005  p :     0.000011
      px      :     0.000002
      py      :     0.000004
      dz2     :     0.000002  d :     0.000015
      dxz     :     0.000003
      dyz     :     0.000002
      dx2y2   :     0.000003
      dxy     :     0.000004
      f0      :     0.000000  f :     0.000000
      f+1     :     0.000000
      f-1     :     0.000000
      f+2     :     0.000000
      f-2     :     0.000000
      f+3     :     0.000000
      f-3     :     0.000000

 17 C s       :     0.001298  s :     0.001298
      pz      :     0.000044  p :     0.000846
      px      :     0.000659
      py      :     0.000143
      dz2     :     0.001457  d :     0.007620
      dxz     :     0.000872
      dyz     :     0.000261
      dx2y2   :     0.002281
      dxy     :     0.002749
      f0      :     0.000000  f :     0.000001
      f+1     :     0.000000
      f-1     :     0.000000
      f+2     :     0.000000
      f-2     :     0.000000
      f+3     :     0.000000
      f-3     :     0.000000

 18 C s       :     0.001926  s :     0.001926
      pz      :     0.001254  p :     0.001556
      px      :     0.000187
      py      :     0.000116
      dz2     :     0.005456  d :     0.010930
      dxz     :     0.002705
      dyz     :     0.002023
      dx2y2   :     0.000459
      dxy     :     0.000287
      f0      :     0.000000  f :     0.000002
      f+1     :     0.000000
      f-1     :     0.000000
      f+2     :     0.000000
      f-2     :     0.000000
      f+3     :     0.000000
      f-3     :     0.000000

 19 C s       :     0.000238  s :     0.000238
      pz      :     0.000033  p :     0.000119
      px      :     0.000011
      py      :     0.000076
      dz2     :     0.000135  d :     0.001196
      dxz     :     0.000085
      dyz     :     0.000280
      dx2y2   :     0.000490
      dxy     :     0.000205
      f0      :     0.000000  f :     0.000001
      f+1     :     0.000000
      f-1     :     0.000000
      f+2     :     0.000000
      f-2     :     0.000000
      f+3     :     0.000000
      f-3     :     0.000000

 20 C s       :     0.002240  s :     0.002240
      pz      :     0.001374  p :     0.002043
      px      :     0.000131
      py      :     0.000539
      dz2     :     0.007487  d :     0.014616
      dxz     :     0.001220
      dyz     :     0.003510
      dx2y2   :     0.001919
      dxy     :     0.000480
      f0      :     0.000001  f :     0.000002
      f+1     :     0.000000
      f-1     :     0.000001
      f+2     :     0.000000
      f-2     :     0.000000
      f+3     :     0.000000
      f-3     :     0.000000

 21 C s       :     0.001080  s :     0.001080
      pz      :     0.000446  p :     0.001355
      px      :     0.000058
      py      :     0.000851
      dz2     :     0.000910  d :     0.008894
      dxz     :     0.000207
      dyz     :     0.004343
      dx2y2   :     0.002278
      dxy     :     0.001156
      f0      :     0.000000  f :     0.000001
      f+1     :     0.000000
      f-1     :     0.000000
      f+2     :     0.000000
      f-2     :     0.000000
      f+3     :     0.000000
      f-3     :     0.000000

 22 C s       :     0.001424  s :     0.001424
      pz      :     0.000439  p :     0.002289
      px      :     0.000237
      py      :     0.001614
      dz2     :     0.001510  d :     0.011992
      dxz     :     0.000713
      dyz     :     0.003886
      dx2y2   :     0.003218
      dxy     :     0.002665
      f0      :     0.000001  f :     0.000003
      f+1     :     0.000000
      f-1     :     0.000000
      f+2     :     0.000001
      f-2     :     0.000000
      f+3     :     0.000000
      f-3     :     0.000000

 23 H s       :     0.002218  s :     0.002218
      pz      :     0.011139  p :     0.021189
      px      :     0.007152
      py      :     0.002898

 24 H s       :     0.000232  s :     0.000232
      pz      :     0.001183  p :     0.003222
      px      :     0.000770
      py      :     0.001270

 25 H s       :     0.000015  s :     0.000015
      pz      :     0.000025  p :     0.000037
      px      :     0.000011
      py      :     0.000002

 26 H s       :     0.000003  s :     0.000003
      pz      :     0.000005  p :     0.000012
      px      :     0.000005
      py      :     0.000002

 27 H s       :     0.000024  s :     0.000024
      pz      :     0.000031  p :     0.000129
      px      :     0.000087
      py      :     0.000012

 28 H s       :     0.001180  s :     0.001180
      pz      :     0.000452  p :     0.010951
      px      :     0.009230
      py      :     0.001268

 29 H s       :     0.000008  s :     0.000008
      pz      :     0.000004  p :     0.000013
      px      :     0.000006
      py      :     0.000003

 30 H s       :     0.000002  s :     0.000002
      pz      :     0.000000  p :     0.000002
      px      :     0.000001
      py      :     0.000001

 31 H s       :     0.001852  s :     0.001852
      pz      :     0.006934  p :     0.020951
      px      :     0.005530
      py      :     0.008488

 32 H s       :     0.000010  s :     0.000010
      pz      :     0.000002  p :     0.000005
      px      :     0.000002
      py      :     0.000002

 33 H s       :     0.000001  s :     0.000001
      pz      :     0.000003  p :     0.000005
      px      :     0.000002
      py      :     0.000000

 34 H s       :     0.000002  s :     0.000002
      pz      :     0.000003  p :     0.000005
      px      :     0.000001
      py      :     0.000001

 35 H s       :     0.000010  s :     0.000010
      pz      :     0.000012  p :     0.000028
      px      :     0.000007
      py      :     0.000008

 36 H s       :     0.000000  s :     0.000000
      pz      :     0.000000  p :     0.000000
      px      :     0.000000
      py      :     0.000000

 37 H s       :     0.000000  s :     0.000000
      pz      :     0.000000  p :     0.000000
      px      :     0.000000
      py      :     0.000000

 38 H s       :     0.000000  s :     0.000000
      pz      :     0.000000  p :     0.000001
      px      :     0.000001
      py      :     0.000000

 39 H s       :     0.000026  s :     0.000026
      pz      :     0.000188  p :     0.000515
      px      :     0.000289
      py      :     0.000039

 40 H s       :     0.000022  s :     0.000022
      pz      :     0.000112  p :     0.000417
      px      :     0.000181
      py      :     0.000124

 41 H s       :     0.000002  s :     0.000002
      pz      :     0.000002  p :     0.000006
      px      :     0.000003
      py      :     0.000001

 42 H s       :     0.000002  s :     0.000002
      pz      :     0.000001  p :     0.000002
      px      :     0.000001
      py      :     0.000000

 43 H s       :     0.000001  s :     0.000001
      pz      :     0.000000  p :     0.000000
      px      :     0.000000
      py      :     0.000000

 44 H s       :     0.000000  s :     0.000000
      pz      :     0.000000  p :     0.000001
      px      :     0.000000
      py      :     0.000000

 45 H s       :     0.001170  s :     0.001170
      pz      :     0.002163  p :     0.012916
      px      :     0.009180
      py      :     0.001572

 46 H s       :     0.000002  s :     0.000002
      pz      :     0.000001  p :     0.000002
      px      :     0.000001
      py      :     0.000001

 47 H s       :     0.000042  s :     0.000042
      pz      :     0.000015  p :     0.000164
      px      :     0.000125
      py      :     0.000024

 48 H s       :     0.001716  s :     0.001716
      pz      :     0.002757  p :     0.019608
      px      :     0.011536
      py      :     0.005315

 49 H s       :     0.000033  s :     0.000033
      pz      :     0.000012  p :     0.000242
      px      :     0.000197
      py      :     0.000034

 50 H s       :     0.000853  s :     0.000853
      pz      :     0.006209  p :     0.010183
      px      :     0.001875
      py      :     0.002099

 51 H s       :     0.000009  s :     0.000009
      pz      :     0.000007  p :     0.000063
      px      :     0.000005
      py      :     0.000051

 52 H s       :     0.001440  s :     0.001440
      pz      :     0.011371  p :     0.013569
      px      :     0.000680
      py      :     0.001518

 53 H s       :     0.000139  s :     0.000139
      pz      :     0.000476  p :     0.002298
      px      :     0.000437
      py      :     0.001384

 54 H s       :     0.000161  s :     0.000161
      pz      :     0.000397  p :     0.001859
      px      :     0.000609
      py      :     0.000854

 55 S s       :     4.550674  s :     4.550674
      pz      :     2.752896  p :     8.298314
      px      :     2.781261
      py      :     2.764158
      dz2     :     0.367157  d :     2.311112
      dxz     :     0.489790
      dyz     :     0.502085
      dx2y2   :     0.478218
      dxy     :     0.473861
      f0      :     0.025719  f :     0.380820
      f+1     :     0.065651
      f-1     :     0.048132
      f+2     :     0.055644
      f-2     :     0.056216
      f+3     :     0.060069
      f-3     :     0.069389

 56 F s       :     3.498713  s :     3.498713
      pz      :     1.735755  p :     5.089914
      px      :     1.771376
      py      :     1.582783
      dz2     :     0.050973  d :     0.249914
      dxz     :     0.023104
      dyz     :     0.063131
      dx2y2   :     0.048601
      dxy     :     0.064104
      f0      :     0.000164  f :     0.001767
      f+1     :     0.000025
      f-1     :     0.000405
      f+2     :     0.000387
      f-2     :     0.000186
      f+3     :     0.000319
      f-3     :     0.000282

 57 F s       :     3.510871  s :     3.510871
      pz      :     1.789207  p :     5.085312
      px      :     1.587374
      py      :     1.708731
      dz2     :     0.034685  d :     0.238982
      dxz     :     0.055193
      dyz     :     0.032678
      dx2y2   :     0.061505
      dxy     :     0.054920
      f0      :     0.000187  f :     0.001737
      f+1     :     0.000225
      f-1     :     0.000107
      f+2     :     0.000067
      f-2     :     0.000254
      f+3     :     0.000405
      f-3     :     0.000492

 58 F s       :     3.514546  s :     3.514546
      pz      :     1.736527  p :     5.083997
      px      :     1.770805
      py      :     1.576665
      dz2     :     0.049263  d :     0.245701
      dxz     :     0.026976
      dyz     :     0.068653
      dx2y2   :     0.050959
      dxy     :     0.049849
      f0      :     0.000165  f :     0.001753
      f+1     :     0.000017
      f-1     :     0.000419
      f+2     :     0.000385
      f-2     :     0.000191
      f+3     :     0.000262
      f-3     :     0.000313

 59 F s       :     3.503627  s :     3.503627
      pz      :     1.785451  p :     5.093086
      px      :     1.529775
      py      :     1.777860
      dz2     :     0.037028  d :     0.244800
      dxz     :     0.061244
      dyz     :     0.022491
      dx2y2   :     0.064089
      dxy     :     0.059948
      f0      :     0.000173  f :     0.001741
      f+1     :     0.000310
      f-1     :     0.000041
      f+2     :     0.000252
      f-2     :     0.000060
      f+3     :     0.000463
      f-3     :     0.000443

 60 F s       :     3.499581  s :     3.499581
      pz      :     1.785004  p :     5.071641
      px      :     1.602095
      py      :     1.684543
      dz2     :     0.036967  d :     0.247291
      dxz     :     0.050274
      dyz     :     0.037435
      dx2y2   :     0.061292
      dxy     :     0.061323
      f0      :     0.000193  f :     0.001760
      f+1     :     0.000197
      f-1     :     0.000125
      f+2     :     0.000041
      f-2     :     0.000296
      f+3     :     0.000420
      f-3     :     0.000488

 61 F s       :     3.508870  s :     3.508870
      pz      :     1.732698  p :     5.092102
      px      :     1.760260
      py      :     1.599144
      dz2     :     0.049271  d :     0.224293
      dxz     :     0.023891
      dyz     :     0.058666
      dx2y2   :     0.038617
      dxy     :     0.053848
      f0      :     0.000161  f :     0.001709
      f+1     :     0.000050
      f-1     :     0.000387
      f+2     :     0.000346
      f-2     :     0.000244
      f+3     :     0.000293
      f-3     :     0.000229

 62 F s       :     3.519325  s :     3.519325
      pz      :     1.566137  p :     5.090040
      px      :     1.766693
      py      :     1.757210
      dz2     :     0.067964  d :     0.243461
      dxz     :     0.056159
      dyz     :     0.066878
      dx2y2   :     0.025579
      dxy     :     0.026881
      f0      :     0.000499  f :     0.001729
      f+1     :     0.000336
      f-1     :     0.000495
      f+2     :     0.000177
      f-2     :     0.000183
      f+3     :     0.000027
      f-3     :     0.000011

 63 F s       :     3.511918  s :     3.511918
      pz      :     1.728753  p :     5.104699
      px      :     1.580883
      py      :     1.795064
      dz2     :     0.042167  d :     0.237014
      dxz     :     0.056536
      dyz     :     0.030088
      dx2y2   :     0.048650
      dxy     :     0.059573
      f0      :     0.000158  f :     0.001705
      f+1     :     0.000342
      f-1     :     0.000017
      f+2     :     0.000397
      f-2     :     0.000217
      f+3     :     0.000259
      f-3     :     0.000315

 64 F s       :     3.500374  s :     3.500374
      pz      :     1.713273  p :     5.072052
      px      :     1.771401
      py      :     1.587378
      dz2     :     0.052968  d :     0.236283
      dxz     :     0.026643
      dyz     :     0.063867
      dx2y2   :     0.040694
      dxy     :     0.052111
      f0      :     0.000173  f :     0.001739
      f+1     :     0.000012
      f-1     :     0.000448
      f+2     :     0.000426
      f-2     :     0.000199
      f+3     :     0.000245
      f-3     :     0.000237

 65 F s       :     3.510543  s :     3.510543
      pz      :     1.787840  p :     5.083478
      px      :     1.572193
      py      :     1.723445
      dz2     :     0.034595  d :     0.236108
      dxz     :     0.052602
      dyz     :     0.027142
      dx2y2   :     0.059271
      dxy     :     0.062499
      f0      :     0.000180  f :     0.001747
      f+1     :     0.000243
      f-1     :     0.000088
      f+2     :     0.000091
      f-2     :     0.000216
      f+3     :     0.000430
      f-3     :     0.000498

 66 F s       :     3.533364  s :     3.533364
      pz      :     1.716108  p :     5.129199
      px      :     1.675966
      py      :     1.737125
      dz2     :     0.042344  d :     0.241778
      dxz     :     0.054676
      dyz     :     0.043140
      dx2y2   :     0.056250
      dxy     :     0.045367
      f0      :     0.000150  f :     0.001695
      f+1     :     0.000294
      f-1     :     0.000115
      f+2     :     0.000291
      f-2     :     0.000399
      f+3     :     0.000216
      f-3     :     0.000229

 67 F s       :     3.529593  s :     3.529593
      pz      :     1.706003  p :     5.126650
      px      :     1.624028
      py      :     1.796620
      dz2     :     0.043301  d :     0.241301
      dxz     :     0.061636
      dyz     :     0.039398
      dx2y2   :     0.043268
      dxy     :     0.053698
      f0      :     0.000154  f :     0.001710
      f+1     :     0.000402
      f-1     :     0.000040
      f+2     :     0.000402
      f-2     :     0.000302
      f+3     :     0.000197
      f-3     :     0.000213

 68 F s       :     3.508631  s :     3.508631
      pz      :     1.772905  p :     5.079387
      px      :     1.548609
      py      :     1.757874
      dz2     :     0.036519  d :     0.227363
      dxz     :     0.060394
      dyz     :     0.019242
      dx2y2   :     0.057552
      dxy     :     0.053655
      f0      :     0.000162  f :     0.001739
      f+1     :     0.000335
      f-1     :     0.000043
      f+2     :     0.000270
      f-2     :     0.000126
      f+3     :     0.000413
      f-3     :     0.000390

 69 F s       :     3.516361  s :     3.516361
      pz      :     1.765403  p :     5.087272
      px      :     1.773264
      py      :     1.548606
      dz2     :     0.044013  d :     0.228296
      dxz     :     0.011320
      dyz     :     0.060813
      dx2y2   :     0.054186
      dxy     :     0.057965
      f0      :     0.000158  f :     0.001745
      f+1     :     0.000023
      f-1     :     0.000367
      f+2     :     0.000336
      f-2     :     0.000104
      f+3     :     0.000347
      f-3     :     0.000409

 70 F s       :     3.514657  s :     3.514657
      pz      :     1.740183  p :     5.062187
      px      :     1.742104
      py      :     1.579900
      dz2     :     0.039171  d :     0.216063
      dxz     :     0.020122
      dyz     :     0.052655
      dx2y2   :     0.051208
      dxy     :     0.052908
      f0      :     0.000173  f :     0.001827
      f+1     :     0.000058
      f-1     :     0.000347
      f+2     :     0.000286
      f-2     :     0.000236
      f+3     :     0.000376
      f-3     :     0.000350

 71 F s       :     3.524791  s :     3.524791
      pz      :     1.740703  p :     5.074389
      px      :     1.693310
      py      :     1.640375
      dz2     :     0.040831  d :     0.209663
      dxz     :     0.027066
      dyz     :     0.040322
      dx2y2   :     0.058092
      dxy     :     0.043351
      f0      :     0.000172  f :     0.001813
      f+1     :     0.000151
      f-1     :     0.000253
      f+2     :     0.000115
      f-2     :     0.000404
      f+3     :     0.000383
      f-3     :     0.000335

 72 F s       :     3.520836  s :     3.520836
      pz      :     1.758494  p :     5.078455
      px      :     1.549531
      py      :     1.770429
      dz2     :     0.035838  d :     0.207988
      dxz     :     0.057163
      dyz     :     0.009856
      dx2y2   :     0.047048
      dxy     :     0.058084
      f0      :     0.000163  f :     0.001794
      f+1     :     0.000371
      f-1     :     0.000026
      f+2     :     0.000348
      f-2     :     0.000090
      f+3     :     0.000423
      f-3     :     0.000374

 73 O s       :     3.461476  s :     3.461476
      pz      :     1.531465  p :     4.623032
      px      :     1.587184
      py      :     1.504384
      dz2     :     0.033145  d :     0.257340
      dxz     :     0.039117
      dyz     :     0.072796
      dx2y2   :     0.056447
      dxy     :     0.055835
      f0      :     0.000489  f :     0.004603
      f+1     :     0.000142
      f-1     :     0.000692
      f+2     :     0.000907
      f-2     :     0.000876
      f+3     :     0.000847
      f-3     :     0.000650

 74 O s       :     3.430372  s :     3.430372
      pz      :     1.529722  p :     4.570745
      px      :     1.513908
      py      :     1.527115
      dz2     :     0.041908  d :     0.281271
      dxz     :     0.064050
      dyz     :     0.051500
      dx2y2   :     0.062843
      dxy     :     0.060971
      f0      :     0.000505  f :     0.004684
      f+1     :     0.000656
      f-1     :     0.000305
      f+2     :     0.000636
      f-2     :     0.001214
      f+3     :     0.000564
      f-3     :     0.000804

 75 O s       :     3.450929  s :     3.450929
      pz      :     1.534088  p :     4.608842
      px      :     1.498492
      py      :     1.576262
      dz2     :     0.041101  d :     0.262689
      dxz     :     0.074927
      dyz     :     0.032383
      dx2y2   :     0.057825
      dxy     :     0.056453
      f0      :     0.000505  f :     0.004641
      f+1     :     0.000866
      f-1     :     0.000084
      f+2     :     0.001216
      f-2     :     0.000609
      f+3     :     0.000738
      f-3     :     0.000624

 76 C s       :     2.569018  s :     2.569018
      pz      :     0.807372  p :     2.226633
      px      :     0.729933
      py      :     0.689328
      dz2     :     0.265893  d :     1.352518
      dxz     :     0.231852
      dyz     :     0.259581
      dx2y2   :     0.279958
      dxy     :     0.315235
      f0      :     0.019596  f :     0.186926
      f+1     :     0.013103
      f-1     :     0.028559
      f+2     :     0.022666
      f-2     :     0.028707
      f+3     :     0.040390
      f-3     :     0.033906

 77 C s       :     2.573750  s :     2.573750
      pz      :     0.799382  p :     2.225787
      px      :     0.703706
      py      :     0.722698
      dz2     :     0.267134  d :     1.338456
      dxz     :     0.237636
      dyz     :     0.238053
      dx2y2   :     0.303417
      dxy     :     0.292216
      f0      :     0.018651  f :     0.186185
      f+1     :     0.015734
      f-1     :     0.024905
      f+2     :     0.033031
      f-2     :     0.020691
      f+3     :     0.036700
      f-3     :     0.036474

 78 C s       :     2.568575  s :     2.568575
      pz      :     0.799961  p :     2.226763
      px      :     0.735388
      py      :     0.691414
      dz2     :     0.258128  d :     1.347803
      dxz     :     0.235832
      dyz     :     0.270801
      dx2y2   :     0.265195
      dxy     :     0.317847
      f0      :     0.019178  f :     0.185976
      f+1     :     0.014053
      f-1     :     0.029970
      f+2     :     0.019400
      f-2     :     0.031282
      f+3     :     0.037710
      f-3     :     0.034382

 79 C s       :     2.580009  s :     2.580009
      pz      :     0.686478  p :     2.235315
      px      :     0.722796
      py      :     0.826041
      dz2     :     0.290706  d :     1.342462
      dxz     :     0.291467
      dyz     :     0.263055
      dx2y2   :     0.232204
      dxy     :     0.265031
      f0      :     0.033410  f :     0.184987
      f+1     :     0.038355
      f-1     :     0.023462
      f+2     :     0.029141
      f-2     :     0.023710
      f+3     :     0.018291
      f-3     :     0.018618

 80 C s       :     2.568675  s :     2.568675
      pz      :     0.794759  p :     2.228710
      px      :     0.724871
      py      :     0.709079
      dz2     :     0.267165  d :     1.346081
      dxz     :     0.228975
      dyz     :     0.264564
      dx2y2   :     0.274194
      dxy     :     0.311183
      f0      :     0.018974  f :     0.186688
      f+1     :     0.014248
      f-1     :     0.029829
      f+2     :     0.024313
      f-2     :     0.029384
      f+3     :     0.038668
      f-3     :     0.031272

 81 C s       :     2.622283  s :     2.622283
      pz      :     0.785267  p :     2.294263
      px      :     0.689322
      py      :     0.819674
      dz2     :     0.233968  d :     1.369101
      dxz     :     0.316637
      dyz     :     0.261893
      dx2y2   :     0.275176
      dxy     :     0.281426
      f0      :     0.016759  f :     0.177032
      f+1     :     0.038242
      f-1     :     0.013103
      f+2     :     0.029883
      f-2     :     0.030991
      f+3     :     0.026646
      f-3     :     0.021406

 82 C s       :     2.572364  s :     2.572364
      pz      :     0.811664  p :     2.232691
      px      :     0.714769
      py      :     0.706258
      dz2     :     0.285717  d :     1.344607
      dxz     :     0.221427
      dyz     :     0.231812
      dx2y2   :     0.307665
      dxy     :     0.297987
      f0      :     0.019964  f :     0.186473
      f+1     :     0.017523
      f-1     :     0.020836
      f+2     :     0.031520
      f-2     :     0.020711
      f+3     :     0.039682
      f-3     :     0.036236

 83 C s       :     2.565554  s :     2.565554
      pz      :     0.798981  p :     2.172001
      px      :     0.685981
      py      :     0.687039
      dz2     :     0.324628  d :     1.538397
      dxz     :     0.255581
      dyz     :     0.263726
      dx2y2   :     0.352119
      dxy     :     0.342344
      f0      :     0.021209  f :     0.269698
      f+1     :     0.027270
      f-1     :     0.030773
      f+2     :     0.043101
      f-2     :     0.040518
      f+3     :     0.049142
      f-3     :     0.057684



                      *****************************
                      * MAYER POPULATION ANALYSIS *
                      *****************************

  NA   - Mulliken gross atomic population
  ZA   - Total nuclear charge
  QA   - Mulliken gross atomic charge
  VA   - Mayer's total valence
  BVA  - Mayer's bonded valence
  FA   - Mayer's free valence

  ATOM       NA         ZA         QA         VA         BVA        FA
  0 N     -0.0001     0.0000     0.0001    -0.0001    -0.0001    -0.0000
  1 C      0.0249     0.0000    -0.0249     0.0516     0.0516     0.0000
  2 C     -0.0233     0.0000     0.0233    -0.0479    -0.0479     0.0000
  3 C     -0.0011     0.0000     0.0011    -0.0022    -0.0022    -0.0000
  4 C     -0.0567     0.0000     0.0567    -0.1168    -0.1168     0.0000
  5 C      0.0019     0.0000    -0.0019     0.0033     0.0033     0.0000
  6 C      0.0011     0.0000    -0.0011     0.0021     0.0021    -0.0000
  7 C      0.0040     0.0000    -0.0040     0.0078     0.0078     0.0000
  8 C     -0.0140     0.0000     0.0140    -0.0278    -0.0278     0.0000
  9 C     -0.0020     0.0000     0.0020    -0.0050    -0.0050    -0.0000
 10 C      0.0019     0.0000    -0.0019     0.0038     0.0038    -0.0000
 11 C      0.0004     0.0000    -0.0004     0.0009     0.0009     0.0000
 12 C     -0.0000     0.0000     0.0000    -0.0000    -0.0000     0.0000
 13 C     -0.0016     0.0000     0.0016    -0.0031    -0.0031     0.0000
 14 C     -0.0000     0.0000     0.0000    -0.0000    -0.0000     0.0000
 15 C     -0.0470     0.0000     0.0470    -0.0952    -0.0952    -0.0000
 16 C     -0.0011     0.0000     0.0011    -0.0021    -0.0021    -0.0000
 17 C      0.0128     0.0000    -0.0128     0.0255     0.0255    -0.0000
 18 C     -0.0285     0.0000     0.0285    -0.0569    -0.0569     0.0000
 19 C     -0.0053     0.0000     0.0053    -0.0107    -0.0107     0.0000
 20 C      0.0391     0.0000    -0.0391     0.0771     0.0771     0.0000
 21 C      0.0381     0.0000    -0.0381     0.0751     0.0751    -0.0000
 22 C     -0.0219     0.0000     0.0219    -0.0448    -0.0448     0.0000
 23 H      0.0434     0.0000    -0.0434     0.0884     0.0884    -0.0000
 24 H      0.0013     0.0000    -0.0013     0.0026     0.0026    -0.0000
 25 H     -0.0002     0.0000     0.0002    -0.0004    -0.0004     0.0000
 26 H      0.0008     0.0000    -0.0008     0.0016     0.0016     0.0000
 27 H      0.0011     0.0000    -0.0011     0.0023     0.0023     0.0000
 28 H      0.0303     0.0000    -0.0303     0.0599     0.0599     0.0000
 29 H     -0.0002     0.0000     0.0002    -0.0003    -0.0003    -0.0000
 30 H      0.0000     0.0000    -0.0000     0.0001     0.0001    -0.0000
 31 H      0.0143     0.0000    -0.0143     0.0266     0.0266     0.0000
 32 H      0.0002     0.0000    -0.0002     0.0004     0.0004    -0.0000
 33 H      0.0001     0.0000    -0.0001     0.0002     0.0002    -0.0000
 34 H      0.0001     0.0000    -0.0001     0.0001     0.0001    -0.0000
 35 H     -0.0001     0.0000     0.0001    -0.0002    -0.0002     0.0000
 36 H      0.0000     0.0000    -0.0000     0.0000     0.0000     0.0000
 37 H     -0.0000     0.0000     0.0000    -0.0000    -0.0000     0.0000
 38 H      0.0000     0.0000    -0.0000     0.0000     0.0000     0.0000
 39 H      0.0011     0.0000    -0.0011     0.0022     0.0022     0.0000
 40 H      0.0017     0.0000    -0.0017     0.0033     0.0033     0.0000
 41 H      0.0007     0.0000    -0.0007     0.0014     0.0014     0.0000
 42 H      0.0000     0.0000    -0.0000     0.0000     0.0000    -0.0000
 43 H      0.0000     0.0000    -0.0000     0.0000     0.0000     0.0000
 44 H     -0.0000     0.0000     0.0000    -0.0000    -0.0000    -0.0000
 45 H      0.0506     0.0000    -0.0506     0.0994     0.0994    -0.0000
 46 H      0.0000     0.0000    -0.0000     0.0000     0.0000    -0.0000
 47 H     -0.0001     0.0000     0.0001    -0.0003    -0.0003     0.0000
 48 H      0.0072     0.0000    -0.0072     0.0142     0.0142    -0.0000
 49 H     -0.0019     0.0000     0.0019    -0.0038    -0.0038     0.0000
 50 H      0.0015     0.0000    -0.0015     0.0030     0.0030    -0.0000
 51 H     -0.0015     0.0000     0.0015    -0.0030    -0.0030     0.0000
 52 H      0.0216     0.0000    -0.0216     0.0430     0.0430     0.0000
 53 H     -0.0086     0.0000     0.0086    -0.0172    -0.0172     0.0000
 54 H     -0.0141     0.0000     0.0141    -0.0284    -0.0284    -0.0000
 55 S     14.5092    16.0000     1.4908     5.2145     5.2145    -0.0000
 56 F      9.3152     9.0000    -0.3152     1.2205     1.2205    -0.0000
 57 F      9.3794     9.0000    -0.3794     0.5300     0.5300     0.0000
 58 F      9.4060     9.0000    -0.4060     0.6091     0.6091    -0.0000
 59 F      9.2632     9.0000    -0.2632     0.7213     0.7213     0.0000
 60 F      9.3296     9.0000    -0.3296     1.5392     1.5392     0.0000
 61 F      9.3663     9.0000    -0.3663     0.5716     0.5716    -0.0000
 62 F      9.3935     9.0000    -0.3935     0.6363     0.6363    -0.0000
 63 F      9.3384     9.0000    -0.3384     0.7162     0.7162    -0.0000
 64 F      9.1776     9.0000    -0.1776     1.3656     1.3656    -0.0000
 65 F      9.3901     9.0000    -0.3901     0.5942     0.5942    -0.0000
 66 F      9.3599     9.0000    -0.3599     0.6740     0.6740    -0.0000
 67 F      9.3414     9.0000    -0.3414     0.7523     0.7523    -0.0000
 68 F      9.2832     9.0000    -0.2832     0.8471     0.8471     0.0000
 69 F      9.3528     9.0000    -0.3528     0.6289     0.6289    -0.0000
 70 F      9.1851     9.0000    -0.1851     1.1952     1.1952     0.0000
 71 F      9.3465     9.0000    -0.3465     0.7960     0.7960     0.0000
 72 F      9.3232     9.0000    -0.3232     0.7880     0.7880     0.0000
 73 O      8.8181     8.0000    -0.8181     1.3944     1.3944    -0.0000
 74 O      8.7185     8.0000    -0.7185     2.8793     2.8793    -0.0000
 75 O      8.8149     8.0000    -0.8149     1.6228     1.6228    -0.0000
 76 C      5.3058     6.0000     0.6942     4.5342     4.5342     0.0000
 77 C      5.2315     6.0000     0.7685     4.5213     4.5213     0.0000
 78 C      5.0354     6.0000     0.9646     4.5708     4.5708    -0.0000
 79 C      5.4134     6.0000     0.5866     4.0106     4.0106    -0.0000
 80 C      5.5642     6.0000     0.4358     5.2547     5.2547    -0.0000
 81 C      5.4514     6.0000     0.5486     3.8954     3.8954    -0.0000
 82 C      5.1212     6.0000     0.8788     4.2574     4.2574     0.0000
 83 C      5.3942     6.0000     0.6058     3.5407     3.5407     0.0000

  Mayer bond orders larger than 0.100000
B( 55-S , 73-O ) :   1.1354 B( 55-S , 74-O ) :   2.0048 B( 55-S , 75-O ) :   1.2783 
B( 55-S , 81-C ) :   0.6776 B( 56-F , 76-C ) :   0.4705 B( 56-F , 77-C ) :   0.1986 
B( 56-F , 78-C ) :   0.3773 B( 57-F , 77-C ) :   0.2408 B( 57-F , 78-C ) :   0.2310 
B( 58-F , 76-C ) :   0.2930 B( 58-F , 77-C ) :   0.2173 B( 58-F , 79-C ) :   0.1471 
B( 59-F , 76-C ) :   0.2489 B( 59-F , 77-C ) :   0.4509 B( 60-F , 76-C ) :   0.4534 
B( 60-F , 78-C ) :   0.5378 B( 60-F , 80-C ) :   0.4679 B( 61-F , 76-C ) :   0.2194 
B( 61-F , 80-C ) :   0.2214 B( 62-F , 77-C ) :   0.1883 B( 62-F , 79-C ) :   0.2744 
B( 62-F , 81-C ) :   0.1692 B( 63-F , 77-C ) :   0.1502 B( 63-F , 79-C ) :   0.4215 
B( 63-F , 81-C ) :   0.1327 B( 64-F , 78-C ) :   0.3147 B( 64-F , 80-C ) :   0.5647 
B( 64-F , 82-C ) :   0.3303 B( 65-F , 78-C ) :   0.1657 B( 65-F , 80-C ) :   0.1520 
B( 65-F , 82-C ) :   0.2216 B( 66-F , 79-C ) :   0.1504 B( 66-F , 81-C ) :   0.5121 
B( 67-F , 79-C ) :   0.2210 B( 67-F , 81-C ) :   0.5133 B( 68-F , 80-C ) :   0.1930 
B( 68-F , 82-C ) :   0.4652 B( 68-F , 83-C ) :   0.1995 B( 69-F , 80-C ) :   0.2884 
B( 69-F , 82-C ) :   0.2585 B( 69-F , 83-C ) :   0.1359 B( 70-F , 82-C ) :   0.3048 
B( 70-F , 83-C ) :   0.8597 B( 71-F , 82-C ) :   0.1782 B( 71-F , 83-C ) :   0.6183 
B( 72-F , 82-C ) :   0.1399 B( 72-F , 83-C ) :   0.5541 B( 73-O , 74-O ) :   0.1576 
B( 73-O , 81-C ) :   0.1213 B( 74-O , 75-O ) :   0.1693 B( 74-O , 81-C ) :   0.3229 
B( 75-O , 81-C ) :   0.1464 B( 76-C , 77-C ) :   0.8907 B( 76-C , 78-C ) :   1.0431 
B( 76-C , 79-C ) :   0.2876 B( 76-C , 80-C ) :   0.5446 B( 77-C , 78-C ) :   0.3727 
B( 77-C , 79-C ) :   1.3710 B( 77-C , 81-C ) :   0.2993 B( 78-C , 80-C ) :   1.2098 
B( 78-C , 82-C ) :   0.3649 B( 79-C , 81-C ) :   0.9951 B( 80-C , 82-C ) :   1.1860 
B( 80-C , 83-C ) :   0.3895 B( 82-C , 83-C ) :   0.8065 

-------
TIMINGS
-------

Total SCF time: 0 days 0 hours 13 min 5 sec 

Total time                  ....     785.639 sec
Sum of individual times     ....     735.271 sec  ( 93.6%)

SCF preparation             ....       4.009 sec  (  0.5%)
Fock matrix formation       ....     707.070 sec  ( 90.0%)
  Startup                   ....       0.697 sec  (  0.1% of F)
  Split-RI-J                ....      29.051 sec  (  4.1% of F)
  Chain of spheres X        ....     655.232 sec  ( 92.7% of F)
  XC integration            ....      38.735 sec  (  5.5% of F)
    XC Preparation          ....       0.000 sec  (  0.0% of XC)
    Basis function eval.    ....       4.958 sec  ( 12.8% of XC)
    Density eval.           ....      17.078 sec  ( 44.1% of XC)
    XC-Functional eval.     ....       0.127 sec  (  0.3% of XC)
    XC-Potential eval.      ....      11.587 sec  ( 29.9% of XC)
  CPCM terms                ....      30.637 sec  (  4.3% of F)
Diagonalization             ....       0.000 sec  (  0.0%)
Density matrix formation    ....       2.430 sec  (  0.3%)
Total Energy calculation    ....       1.469 sec  (  0.2%)
Population analysis         ....       1.275 sec  (  0.2%)
Orbital Transformation      ....       2.867 sec  (  0.4%)
Orbital Orthonormalization  ....       0.000 sec  (  0.0%)
DIIS solution               ....      10.194 sec  (  1.3%)
SOSCF solution              ....       5.957 sec  (  0.8%)
Finished LeanSCF after 786.7 sec

Maximum memory used throughout the entire LEANSCF-calculation: 683.4 MB


-------------------------------------------------------------------------------
                          DFT DISPERSION CORRECTION                            
                                                                               
                              DFTD3 V3.1  Rev 1                                
                              USING zero damping                               
-------------------------------------------------------------------------------
The omegaB97X-D3 functional is recognized. Fit by Chai et al.
Active option DFTDOPT                   ...         3   

molecular C6(AA) [au] = 10048.290121 


            DFT-D V3
 parameters
 s6 scaling factor         :     1.0000 
 rs6 scaling factor        :     1.2810 
 s8 scaling factor         :     1.0000 
 rs8 scaling factor        :     1.0940 
 Damping factor alpha6     :    14.0000 
 Damping factor alpha8     :    16.0000 
 ad hoc parameters k1-k3   :    16.0000     1.3333    -4.0000 

 Edisp/kcal,au: -10.263216272361  -0.016355474462 
 E6   /kcal   :  -3.822811430 
 E8   /kcal   :  -6.440404842 
 % E8         :  62.752305624 

-------------------------   ----------------
Dispersion correction           -0.016355474
-------------------------   ----------------


-------------------------   --------------------
FINAL SINGLE POINT ENERGY     -2626.611108493256
-------------------------   --------------------



           ************************************************************
           *        Program running with 32 parallel MPI-processes    *
           *              working on a common directory               *
           ************************************************************

------------------------------------------------------------------------------
                              ORCA PROPERTY CALCULATIONS
------------------------------------------------------------------------------

GBWName                                 ... R4N+PFOS-_frag2.gbw
Number of atoms                         ...     84
Number of basis functions               ...   2281
Max core memory                         ...   4000 MB

Electric properties:
Dipole moment                           ... YES
Quadrupole moment                       ...  NO
Static polarizability (Dipole/Dipole)   ...  NO
Static polarizability (Dipole/Quad.)    ...  NO
Static polarizability (Quad./Quad.)     ...  NO
Static polarizability (Velocity)        ...  NO
Static hyperpolarizability              ...  NO

Atomic electric properties:
Dipole moment                           ...  NO
Quadrupole moment                       ...  NO
Static polarizability                   ...  NO

Choice of electric origin               ... Center of mass
Position of electric origin             ...    10.085653    -0.225665    -3.768796

General magnetic properties:
Magnetizability                         ...  NO

EPR properties:
g-Tensor (aka g-matrix)                 ...  NO
Zero-Field splitting spin-orbit         ...  NO
Zero-field splitting spin-spin          ...  NO
Hyperfine couplings                     ...  NO (   0 nuclei)
Quadrupole couplings                    ...  NO (   0 nuclei)
Contact density                         ...  NO (   0 nuclei)

NMR properties:
Chemical shifts                         ...  NO (   0 nuclei)
Spin-rotation constants                 ...  NO (   0 nuclei)
Spin-spin couplings                     ...  NO (   0 nuclei,    0 pairs)

Choice of magnetic origin               ... GIAO
Position of magnetic origin             ...     0.000000     0.000000     0.000000

Properties with geometric perturbations:
SCF Hessian                             ...  NO
IR spectrum                             ...  NO
VCD spectrum                            ...  NO
X-ray spectroscopy properties:
SCF XES/XAS/RIXS spectra                ...  NO

SCF SOC stabilization energy            ...  NO
Diagonal Born-Oppenheimer correction    ...  NO

-------------
DIPOLE MOMENT
-------------

Method             : SCF
Type of density    : Electron Density
Multiplicity       :   1
Irrep              :   0
Energy             : -2626.5947530187945631 Eh
Basis              : AO
                                X                 Y                 Z
Electronic contribution:     -0.257024061      18.143731121       7.531180146
Nuclear contribution   :      0.152682764     -11.516541692      -4.719963593
                        -----------------------------------------
Total Dipole Moment    :     -0.104341297       6.627189428       2.811216552
                        -----------------------------------------
Magnitude (a.u.)       :      7.199546189
Magnitude (Debye)      :     18.299792105



--------------------
Rotational spectrum 
--------------------
 
Rotational constants in cm-1:             0.012170             0.002921             0.002722 
Rotational constants in MHz :           364.846567            87.566453            81.591309 

Dipole components along the rotational axes: 
x,y,z [a.u.] :     6.252528     3.568690    -0.061707 
x,y,z [Debye]:    15.892663     9.070890    -0.156847 

 

Dipole moment calculation done in   0.3 sec 

Maximum memory used throughout the entire PROP-calculation: 436.1 MB

--------------------------------
SUGGESTED CITATIONS FOR THIS RUN
--------------------------------

Below you find a list of papers that are relevant to this ORCA run
We neither can nor want to force you to cite these papers, but we appreciate if you do
You receive ORCA, which is the product of decades of hard work by many enthusiastic individuals, for free
The only thing we kindly ask in return is that you cite our papers,
We deeply appreciate it, if you show your appreciation for ORCA by not just citing the generic ORCA reference.

Please note that relegating all ORCA citations to the supporting information does *not* help us.
SI sections are not indexed - citations you put there will not count into any citation statistics
But we need these citations in order to attract the funding resources that allow us to do what we are doing

Therefore, if you are a happy ORCA user, please consider citing a few of the papers listed below in the main body of your paper

In addition to the list printed below, the program has created the file R4N+PFOS-_frag2.bibtex that contains the list in bibtex format
You can import this file easily into all common literature databanks and citation aid programs


List of essential papers. We consider these as the minimum necessary citations

  1. Neese, F.
     Software update: the ORCA program system, version 6.0
     WIRES Comput. Molec. Sci. 2025 15(1), e70019
     doi.org/10.1002/wcms.7019

List of papers to cite with high priority. The work reported in these papers was absolutely
necessary for this run to complete.
Our perspective: the developers of density functionals and basis sets usually get cited in chemistry papers
Good! But without the algorithms to do something with them, the functionals or basis sets would not do anything.
Hence, in our opinion, the algorithm design and method developments papers are equally worthy of getting cited

  1. Neese, F.
     An improvement of the resolution of the identity approximation for the formation of the Coulomb matrix
     J. Comp. Chem. 2003 24(14), 1740-1747
     doi.org/10.1002/jcc.10318
  2. Neese, F.; Wennmohs, F.; Hansen, A.; Becker, U.
     Efficient, approximate and parallel Hartree-Fock and hybrid DFT calculations. A 'chain-of-spheres' algorithm for the Hartree-Fock exchange
     Chem. Phys. 2009 356(1-3), 98-109
     doi.org/10.1016/j.chemphys.2008.10.036
  3. Grimme, S.; Antony, J.; Ehrlich, S.; Krieg, H.
     A consistent and accurate ab initio parametrization of density functional dispersion correction (DFT-D) for the 94 elements H-Pu
     J. Chem. Phys. 2010 132 , 154104
     doi.org/10.1063/1.3382344
  4. Garcia-Rates, M.; Neese, F.
     Effect of the Solute Cavity on the Solvation Energy and its Derivatives within the Framework of the Gaussian Charge Scheme
     J. Comput. Chem. 2020 41 , 922-939
     doi.org/10.1002/jcc.26139
  5. Helmich-Paris, B.; de Souza, B.; Neese, F.; Izsák, R.
     An improved chain of spheres for exchange algorithm
     J. Chem. Phys. 2021 155(10), 104109
     doi.org/10.1063/5.0058766
  6. Neese, F.
     The SHARK Integral Generation and Digestion System
     J. Comp. Chem. 2022 44(3), 381
     doi.org/10.1002/jcc.26942

List of suggested additional citations. These are papers that are important in the 'surrounding' of 
of this run, or papers that preceded the highly important papers. If you like your results we are grateful for a citation.

  1. Izsak, R.; Neese, F.
     An overlap fitted chain of spheres exchange method
     J. Chem. Phys. 2011 135 , 144105
     doi.org/10.1063/1.3646921
  2. Izsak, R.; Hansen, A.; Neese, F.
     The resolution of identity and chain of spheres approximations for the LPNO-CCSD singles Fock term
     Molec. Phys. 2012 110 , 2413-2417
     doi.org/10.1080/00268976.2012.687466
  3. Neese, F.
     The ORCA program system
     WIRES Comput. Molec. Sci. 2012 2(1), 73-78
     doi.org/10.1002/wcms.81
  4. Izsak, R.; Neese, F.; Klopper, W.
     Robust fitting techniques in the chain of spheres approximation to the Fock exchange: The role of the complementary space
     J. Chem. Phys. 2013 139 , 
     doi.org/10.1063/1.4819264
  5. Neese, F.
     Software update: the ORCA program system, version 4.0
     WIRES Comput. Molec. Sci. 2018 8(1), 1-6
     doi.org/10.1002/wcms.1327
  6. Neese, F.; Wennmohs, F.; Becker, U.; Riplinger, C.
     The ORCA quantum chemistry program package
     J. Chem. Phys. 2020 152(22), 224108
     doi.org/10.1063/5.0004608
  7. Neese, F.
     Software update: The ORCA program system—Version 5.0
     WIRES Comput. Molec. Sci. 2022 12(1), e1606
     doi.org/10.1002/wcms.1606

List of optional additional citations

  1. Neese, F.
     Approximate second-order SCF convergence for spin unrestricted wavefunctions
     Chem. Phys. Lett. 2000 325(1-3), 93-98
     doi.org/10.1016/s0009-2614(00)00662-x

Timings for individual modules:

Sum of individual times          ...      811.954 sec (=  13.533 min)
Startup calculation              ...       14.493 sec (=   0.242 min)   1.8 %
SCF iterations                   ...      794.424 sec (=  13.240 min)  97.8 %
Property calculations            ...        3.036 sec (=   0.051 min)   0.4 %
                             ****ORCA TERMINATED NORMALLY****
TOTAL RUN TIME: 0 days 0 hours 13 minutes 33 seconds 178 msec
