
                                 *****************
                                 * O   R   C   A *
                                 *****************

                                            #,                                       
                                            ###                                      
                                            ####                                     
                                            #####                                    
                                            ######                                   
                                           ########,                                 
                                     ,,################,,,,,                         
                               ,,#################################,,                 
                          ,,##########################################,,             
                       ,#########################################, ''#####,          
                    ,#############################################,,   '####,        
                  ,##################################################,,,,####,       
                ,###########''''           ''''###############################       
              ,#####''   ,,,,##########,,,,          '''####'''          '####       
            ,##' ,,,,###########################,,,                        '##       
           ' ,,###''''                  '''############,,,                           
         ,,##''                                '''############,,,,        ,,,,,,###''
      ,#''                                            '''#######################'''  
     '                                                          ''''####''''         
             ,#######,   #######,   ,#######,      ##                                
            ,#'     '#,  ##    ##  ,#'     '#,    #''#        ,####,    ,#,          
            ##       ##  ##   ,#'  ##            #'  '#       #'       ,# #          
            ##       ##  #######   ##           ,######,      #####,      #          
            '#,     ,#'  ##    ##  '#,     ,#' ,#      #,     #,   #      #          
             '#######'   ##     ##  '#######'  #'      '#     '####' #    #          



                #########################################################
                #                        -***-                          #
                #          Department of theory and spectroscopy        #
                #                                                       #
                #                      Frank Neese                      #
                #                                                       #
                #     Directorship, Architecture, Infrastructure        #
                #                    SHARK, DRIVERS                     #
                #        Core code/Algorithms in most modules           #
                #                                                       #
                #        Max Planck Institute fuer Kohlenforschung      #
                #                Kaiser Wilhelm Platz 1                 #
                #                 D-45470 Muelheim/Ruhr                 #
                #                      Germany                          #
                #                                                       #
                #                  All rights reserved                  #
                #                        -***-                          #
                #########################################################


                         Program Version 6.1.0  -  RELEASE   -
                                (GIT: $679e74b$)
                          ($2025-06-10 18:02:51 +0200$)


 With contributions from (in alphabetic order):
[Max-Planck-Institut fuer Kohlenforschung]                               
  Daniel Aravena         : Magnetic Suceptibility                        
  Michael Atanasov       : Ab Initio Ligand Field Theory (pilot matlab implementation)
  Alexander A. Auer      : GIAO ZORA, VPT2 properties, NMR spectrum      
  Ute Becker             : All parallelization in ORCA, NUMFREQ, NUMCALC 
  Giovanni Bistoni       : ED, misc. LED, open-shell LED, HFLD           
  Dmytro Bykov           : pre 5.0 version of the SCF Hessian            
  Marcos Casanova-Páez   : Triplet and SCS-CIS(D). UHF-(DLPNO)-IP/EA/STEOM-CCSD. UHF-CVS-IP/STEOM-CCSD   
  Vijay G. Chilkuri      : MRCI spin determinant printing, contributions to CSF-ICE 
  Pauline Colinet        : FMM embedding                                 
  Dipayan Datta          : RHF DLPNO-CCSD density                        
  Achintya Kumar Dutta   : EOM-CC, STEOM-CC                              
  Nicolas Foglia         : Exact transition moments, OPA infrastructure, MCD improvements    
  Dmitry Ganyushin       : Spin-Orbit,Spin-Spin,Magnetic field MRCI      
  Miquel Garcia-Rates    : C-PCM and meta-GGA Hessian, CCSD/C-PCM, Gaussian charge scheme 
  Tiago L. C. Gouveia    : GS-ROHF, GS-ROCIS                             
  Yang Guo               : DLPNO-NEVPT2, F12-NEVPT2, CIM, IAO-localization        
  Andreas Hansen         : Spin unrestricted coupled pair/coupled cluster methods 
  Ingolf Harden          : AUTO-CI MPn and infrastructure                
  Benjamin Helmich-Paris : MC-RPA, TRAH-(SCF,CASSCF), AVAS, COSX integrals, SCF dyn. polar., MC-PDFT, srDFT 
  Lee Huntington         : MR-EOM, pCC                                   
  Robert Izsak           : Overlap fitted RIJCOSX, COSX-SCS-MP3, EOM     
  Riya Kayal             : Wick's Theorem for AUTO-CI, AUTO-CI UHF-CCSDT 
  Emily Kempfer          : AUTO-CI RHF CISDT and CCSDT, approximate NEVPT4
  Christian Kollmar      : KDIIS, OOCD, Brueckner-CCSD(T), CCSD density, CASPT2, CASPT2-K, improved NEVPT2 
  Axel Koslowski         : Symmetry handling                             
  Simone Kossmann        : meta-GGA functionals, TD-DFT gradient, OOMP2, (MP2 Hessian; deprecated post 5.0) 
  Lucas Lang             : DCDCAS, Hyperfine gauge corrections, ICE-SOC+SSC
  Marvin Lechner         : AUTO-CI (C++ implementation), FIC-MRCC        
  Spencer Leger          : CASSCF response                               
  Dagmar Lenk            : GEPOL surface, SMD, ORCA-2-JSON               
  Dimitrios Liakos       : Extrapolation schemes; Compound Job, Property file
  Dimitrios Manganas     : Further ROCIS development; embedding schemes. LFT, Crystal Embedding 
  Dimitrios Pantazis     : SARC Basis sets                               
  Anastasios Papadopoulos: AUTO-CI, single reference methods and gradients 
  Taras Petrenko         : pre 6.0 DFT Hessian and TD-DFT gradient,  ECA, NRVS 
  Petra Pikulova         : Analytic Raman intensities                    
  Peter Pinski           : DLPNO-MP2, DLPNO-MP2 Gradient                 
  Shashank Vittal Rao    : ES-AILFT, MagRelax                            
  Christoph Reimann      : Effective Core Potentials                     
  Marius Retegan         : Local ZFS, SOC                                
  Christoph Riplinger    : Optimizer, TS searches, QM/MM, DLPNO-CCSD(T), (RO)-DLPNO pert. Triples 
  Michael Roemelt        : Original ROCIS implementation, recursive CI coupling coefficients
  Masaaki Saitow         : Open-shell DLPNO-CCSD energy and density      
  Barbara Sandhoefer     : DKH picture change effects                    
  Yorick L. A. Schmerwitz: GMF and freeze-and-release deltaSCF, NEB S-IDPP initial path                    
  Kantharuban Sivalingam : CASSCF convergence/infrastructure, NEVPT2, NEVPT3, NEVPT4(SD), FIC-MRCI and CEPA variants
  Bernardo de Souza      : ESD, SOC TD-DFT                               
  Georgi L. Stoychev     : AutoAux, RI-MP2 NMR, DLPNO-MP2 response, X2C  
  Van Anh Tran           : RI-MP2 g-tensors                              
  Willem Van den Heuvel  : Paramagnetic NMR                              
  Zikuan Wang            : NOTCH, Electric field optimization            
  Frank Wennmohs         : Technical directorship and infrastructure     
  Hang Xu                : AUTO-CI-Response properties                   
                                                                         
[FACCTs GmbH]                                                            
  Markus Bursch, Nicolas Foglia, Miquel Garcia-Rates, Ingolf Harden, Hagen Neugebauer, Anastasios Papadopoulos, 
  Christoph Riplinger, Bernardo de Souza, Georgi L. Stoychev                                                    
                                                                 
  APM, various basis sets, CI-OPT, improved COSX, DLPNO-Multilevel,           
  DOCKER, DRACO, updates on ESD, Fragmentator, GOAT, IRC, LR-CPCM, L-BFGS, MBIS, meta-GGA TD-DFT gradient, ML-optimized integration grids, 
  MM, NACMEs, nearIR, NEB, NEB-TS, NL-DFT gradient (VV10), 2- and 3-layer-ONIOM, interface openCOSMO-RS, QMMM,   
  Crystal-QMMM, RESP, rigid body optimization, SF, symmetry and pop. for TD-DFT, various functionals, SOLVATOR                                   
                                                                         
[Other institutions]                                                     
  V. Asgeirsson          : NEB                                           
  Christoph Bannwarth    : sTDA-DFT, sTD-DFT, PBEh-3c, B97-3c, D3        
  Giovanni Bistoni       : ETS/NOCV, ADLD/ADEX, COVALED                  
  Martin Brehm           : Molecular dynamics                            
  Ronald Cardenas        : ETS/NOCV                                      
  Martina Colucci        : COVALED                                       
  Sebastian Ehlert       : rSCAN, r2SCAN, r2SCAN-3c, D4, dhf basis sets  
  Marvin Friede          : D4 for Fr, Ra, Ac-Lr                          
  Lars Goerigk           : TD-DFT with DH, B97 family of functionals     
  Stefan Grimme          : VdW corrections, initial TS optimization, DFT functionals, gCP, sTDA/sTD-DF 
  Waldemar Hujo          : DFT-NL                                        
  H. Jonsson             : NEB                                           
  Holger Kruse           : gCP                                           
  Marcel Mueller         : wB97X-3c, vDZP basis set                      
  Hagen Neugebauer       : wr2SCAN, Native XTB                           
  Gianluca Regni         : ADLD/ADEX                                     
  Tobias Risthaus        : pre 6.0 range-separated hybrid DFT and stability analysis
  Lukas Wittmann         : regularized MP2, r2SCAN double-hybrids, wr2SCAN        
                                                                         
We gratefully acknowledge several colleagues who have allowed us to      
interface, adapt or use parts of their codes:                            
  Ed Valeev, F. Pavosevic, A. Kumar             : LibInt (2-el integral package), F12 methods 
  Garnet Chan, S. Sharma, J. Yang, R. Olivares  : DMRG                   
  Ulf Ekstrom                                   : XCFun DFT Library      
  Mihaly Kallay                                 : mrcc  (arbitrary order and MRCC methods)
  Frank Weinhold                                : gennbo (NPA and NBO analysis)           
  Simon Mueller                                 : openCOSMO-RS                            
  Christopher J. Cramer and Donald G. Truhlar   : smd solvation model                     
  S Lehtola, MJT Oliveira, MAL Marques          : LibXC Library                           
  Liviu Ungur et al                             : ANISO software                          


 Your calculation uses the libint2 library for the computation of 2-el integrals
 For citations please refer to: http://libint.valeyev.net

 Your ORCA version has been built with support for libXC version: 7.0.0
 For citations please refer to: https://libxc.gitlab.io

 This ORCA versions uses:
   CBLAS   interface :  Fast vector & matrix operations
   LAPACKE interface :  Fast linear algebra routines
   SCALAPACK package :  Parallel linear algebra routines
   Shared memory     :  Shared parallel matrices
   BLAS/LAPACK       :  OpenBLAS 0.3.29  USE64BITINT DYNAMIC_ARCH NO_AFFINITY SkylakeX SINGLE_THREADED
        Core in use  :  SkylakeX
   Copyright (c) 2011-2014, The OpenBLAS Project


  ***********************************
  * Starting time: Wed Apr 22 02:58:07 2026
  * Host name:     node1925.oscar.ccv.brown.edu
  * Process ID:    378642
  * Working dir.:  /sss/jobtmp/rzwa/orca_jobtmp/R4N+PFOS-_20260422_024033
  ***********************************

NOTE: MaxCore=4000 MB was set to SCF,MP2,MDCI,CIPSI,MRCI,RASCI and CIS
      => If you want to overwrite this, your respective input block should be placed after the MaxCore statement
Your calculation utilizes the atom-pairwise dispersion correction
with the zero-damping scheme (D30)


Your calculation utilizes the SMD solvation module
Please cite in your paper:
Marenich, A. V.; Cramer, C. J.; Truhlar, D. G. J. Phys. Chem. B 2009, 113, 6378 

XCFun DFT library Copyright 2009-2010 Ulf Ekstrom and contributors.
See http://admol.org/xcfun for more information.
This is free software; see the source code for copying conditions.
There is ABSOLUTELY NO WARRANTY; not even for MERCHANTABILITY or FITNESS FOR A PARTICULAR PURPOSE.
For details see the documentation.
Scientific users of this library should cite U. Ekstrom, L. Visscher, R. Bast, A. J. Thorvaldsen and K. Ruud;
J.Chem.Theor.Comp. 2010, DOI: 10.1021/ct100117s
XCFun Version 0.99 

Warning: RI is on but no J-basis has been assigned. Assigning Def2/J (nothing to worry about!)
================================================================================

----- Orbital basis set information -----
Your calculation utilizes the basis: def2-TZVPD
   F. Weigend and R. Ahlrichs, Phys. Chem. Chem. Phys. 7, 3297 (2005).
   D. Rappoport and F. Furche, J. Chem. Phys. 133, 134105 (2010)
   D. Rappoport, J. Chem. Phys. 155, 124102 (2021).

----- AuxJ basis set information -----
Your calculation utilizes the auxiliary basis: def2/J
   H-Rn: F. Weigend, Phys. Chem. Chem. Phys. 8, 1057 (2006).
   Fr-Lr: K. Eichkorn, F. Weigend, O. Treutler, R. Ahlrichs; Theor. Chem. Acc. 97, 119 (1997).

================================================================================
                                        WARNINGS
                       Please study these warnings very carefully!
================================================================================


================================================================================
                                       INPUT FILE
================================================================================
NAME = R4N+PFOS-_frag1.inp
|  1> #EDA Fragment 1 automatic file
|  2> !wb97x-d3 def2-TZVPD
|  3> 
|  4> %cpcm
|  5>    smd true
|  6>    SMDSolvent "octanol"
|  7>    epsilon 72.5
|  8> end%pal nprocs 32 end
|  9> %maxcore 4000
| 10>     *xyz 1 1
| 11>      N (1) -0.5699324 -0.4713478  5.0353808
| 12>      C (1)  1.8008827 -3.1564724 -0.4947881
| 13>      C (1)  2.1032413 -4.5942210 -0.0557643
| 14>      C (1)  2.7557884 -4.7564307  1.3212626
| 15>      C (1)  1.0498685 -2.3698855  0.5563623
| 16>      C (1)  1.0557841 -3.1662951 -1.8366665
| 17>      C (1) -1.0038639 -0.1346173  3.6198717
| 18>      C (1) -0.2993681 -0.9073436  2.5444965
| 19>      C (1)  4.0356274 -3.9619742  1.4828705
| 20>      C (1)  1.5548059 -1.1613743  1.0246595
| 21>      C (1) -0.1611486 -2.8211005  1.0790568
| 22>      C (1)  2.9977650 -6.2373918  1.6178053
| 23>      C (1) -1.3543372  0.3947868  5.9588881
| 24>      C (1)  0.8791745 -0.1981004  5.2357189
| 25>      C (1) -0.8519640 -1.8960649  5.3579710
| 26>      C (1)  0.8872686 -0.4335692  1.9969116
| 27>      C (1) -0.8246661 -2.1032486  2.0599858
| 28>      C (1)  0.8659842 -1.7884218 -2.4527628
| 29>      C (1)  5.1003017 -4.1080166  0.5943959
| 30>      C (1)  4.1893861 -3.0868266  2.5553057
| 31>      C (1)  6.2833218 -3.4069481  0.7779115
| 32>      C (1)  5.3721201 -2.3839420  2.7449966
| 33>      C (1)  6.4256680 -2.5444877  1.8572119
| 34>      H (1)  2.7551243 -2.6426403 -0.6504020
| 35>      H (1)  2.7445478 -5.0499578 -0.8181512
| 36>      H (1)  1.1738659 -5.1741262 -0.0564403
| 37>      H (1)  2.0549259 -4.3805418  2.0728483
| 38>      H (1)  0.0814751 -3.6479397 -1.6989030
| 39>      H (1)  1.6166053 -3.7997514 -2.5310407
| 40>      H (1) -0.8259988  0.9345009  3.5099623
| 41>      H (1) -2.0773822 -0.3170255  3.5943319
| 42>      H (1)  2.4911201 -0.7877228  0.6255715
| 43>      H (1) -0.5896791 -3.7523257  0.7241017
| 44>      H (1)  2.0620474 -6.7996419  1.5630839
| 45>      H (1)  3.4168262 -6.3768059  2.6171442
| 46>      H (1)  3.6944912 -6.6750692  0.8974851
| 47>      H (1) -1.0584079  0.1688701  6.9810123
| 48>      H (1) -2.4132046  0.1871138  5.8198126
| 49>      H (1) -1.1409137  1.4364633  5.7281621
| 50>      H (1)  1.0815411  0.8394127  4.9774285
| 51>      H (1)  1.4637258 -0.8665895  4.6090329
| 52>      H (1)  1.1161877 -0.3760326  6.2825189
| 53>      H (1) -0.2470517 -2.5366218  4.7215527
| 54>      H (1) -1.9105587 -2.0896492  5.1970978
| 55>      H (1) -0.5945771 -2.0658855  6.4014601
| 56>      H (1)  1.2962268  0.5109526  2.3376840
| 57>      H (1) -1.7623134 -2.4773949  2.4570839
| 58>      H (1)  0.3647082 -1.8590513 -3.4208096
| 59>      H (1)  1.8263249 -1.2915877 -2.6127114
| 60>      H (1)  0.2595244 -1.1397480 -1.8151666
| 61>      H (1)  5.0074236 -4.7794520 -0.2530199
| 62>      H (1)  3.3680490 -2.9540053  3.2529787
| 63>      H (1)  7.0980783 -3.5334869  0.0739233
| 64>      H (1)  5.4674591 -1.7064623  3.5863785
| 65>      H (1)  7.3487788 -1.9938825  1.9979156
| 66>      S :(2)  5.4020183 -3.5966856 -3.5230266
| 67>      F :(2)  6.2366188 -0.9622596 -1.7935475
| 68>      F :(2)  7.1579622  0.9246494 -2.3582497
| 69>      F :(2)  5.8588785  1.2011371 -4.5004735
| 70>      F :(2)  4.3316549 -0.2528694 -4.0275478
| 71>      F :(2)  3.8398611  0.1589658 -1.5005903
| 72>      F :(2)  4.5741818  2.0907790 -2.2157540
| 73>      F :(2)  6.7457250 -0.5658108 -5.8852870
| 74>      F :(2)  7.6678293 -1.2271950 -4.0377439
| 75>      F :(2)  5.4173430  0.1951370  0.6006248
| 76>      F :(2)  6.4904851  1.9623827 -0.0832874
| 77>      F :(2)  6.7790533 -3.1345864 -5.6681435
| 78>      F :(2)  4.7697360 -2.2989005 -5.7030107
| 79>      F :(2)  3.0179635  1.9285185  0.2833577
| 80>      F :(2)  4.4876377  3.5304576  0.1976865
| 81>      F :(2)  3.9451039  1.0998022  2.6576827
| 82>      F :(2)  3.6146895  3.2288103  2.6537507
| 83>      F :(2)  5.6282016  2.4526104  2.5567925
| 84>      O :(2)  4.9309876 -4.7693182 -4.2261858
| 85>      O :(2)  4.3785791 -2.8743630 -2.8058643
| 86>      O :(2)  6.6443327 -3.7807230 -2.8090131
| 87>      C :(2)  6.0194252  0.2165784 -2.3857448
| 88>      C :(2)  5.6357609  0.0213338 -3.9000697
| 89>      C :(2)  4.9096833  0.9630578 -1.5682089
| 90>      C :(2)  6.4892215 -1.0700623 -4.6629027
| 91>      C :(2)  5.3086653  1.3331435 -0.1001316
| 92>      C :(2)  5.8572265 -2.4778693 -4.9276680
| 93>      C :(2)  4.2712819  2.2734526  0.6073731
| 94>      C :(2)  4.3739853  2.2543337  2.1659983
| 95>     *
| 96> 
| 97>                          ****END OF INPUT****
================================================================================

                       ****************************
                       * Single Point Calculation *
                       ****************************

---------------------------------
CARTESIAN COORDINATES (ANGSTROEM)
---------------------------------
  N     -0.569932   -0.471348    5.035381
  C      1.800883   -3.156472   -0.494788
  C      2.103241   -4.594221   -0.055764
  C      2.755788   -4.756431    1.321263
  C      1.049869   -2.369886    0.556362
  C      1.055784   -3.166295   -1.836666
  C     -1.003864   -0.134617    3.619872
  C     -0.299368   -0.907344    2.544496
  C      4.035627   -3.961974    1.482870
  C      1.554806   -1.161374    1.024660
  C     -0.161149   -2.821100    1.079057
  C      2.997765   -6.237392    1.617805
  C     -1.354337    0.394787    5.958888
  C      0.879174   -0.198100    5.235719
  C     -0.851964   -1.896065    5.357971
  C      0.887269   -0.433569    1.996912
  C     -0.824666   -2.103249    2.059986
  C      0.865984   -1.788422   -2.452763
  C      5.100302   -4.108017    0.594396
  C      4.189386   -3.086827    2.555306
  C      6.283322   -3.406948    0.777911
  C      5.372120   -2.383942    2.744997
  C      6.425668   -2.544488    1.857212
  H      2.755124   -2.642640   -0.650402
  H      2.744548   -5.049958   -0.818151
  H      1.173866   -5.174126   -0.056440
  H      2.054926   -4.380542    2.072848
  H      0.081475   -3.647940   -1.698903
  H      1.616605   -3.799751   -2.531041
  H     -0.825999    0.934501    3.509962
  H     -2.077382   -0.317025    3.594332
  H      2.491120   -0.787723    0.625571
  H     -0.589679   -3.752326    0.724102
  H      2.062047   -6.799642    1.563084
  H      3.416826   -6.376806    2.617144
  H      3.694491   -6.675069    0.897485
  H     -1.058408    0.168870    6.981012
  H     -2.413205    0.187114    5.819813
  H     -1.140914    1.436463    5.728162
  H      1.081541    0.839413    4.977429
  H      1.463726   -0.866589    4.609033
  H      1.116188   -0.376033    6.282519
  H     -0.247052   -2.536622    4.721553
  H     -1.910559   -2.089649    5.197098
  H     -0.594577   -2.065885    6.401460
  H      1.296227    0.510953    2.337684
  H     -1.762313   -2.477395    2.457084
  H      0.364708   -1.859051   -3.420810
  H      1.826325   -1.291588   -2.612711
  H      0.259524   -1.139748   -1.815167
  H      5.007424   -4.779452   -0.253020
  H      3.368049   -2.954005    3.252979
  H      7.098078   -3.533487    0.073923
  H      5.467459   -1.706462    3.586378
  H      7.348779   -1.993883    1.997916
  S      5.402018   -3.596686   -3.523027
  F      6.236619   -0.962260   -1.793548
  F      7.157962    0.924649   -2.358250
  F      5.858878    1.201137   -4.500473
  F      4.331655   -0.252869   -4.027548
  F      3.839861    0.158966   -1.500590
  F      4.574182    2.090779   -2.215754
  F      6.745725   -0.565811   -5.885287
  F      7.667829   -1.227195   -4.037744
  F      5.417343    0.195137    0.600625
  F      6.490485    1.962383   -0.083287
  F      6.779053   -3.134586   -5.668144
  F      4.769736   -2.298900   -5.703011
  F      3.017964    1.928519    0.283358
  F      4.487638    3.530458    0.197686
  F      3.945104    1.099802    2.657683
  F      3.614689    3.228810    2.653751
  F      5.628202    2.452610    2.556792
  O      4.930988   -4.769318   -4.226186
  O      4.378579   -2.874363   -2.805864
  O      6.644333   -3.780723   -2.809013
  C      6.019425    0.216578   -2.385745
  C      5.635761    0.021334   -3.900070
  C      4.909683    0.963058   -1.568209
  C      6.489221   -1.070062   -4.662903
  C      5.308665    1.333144   -0.100132
  C      5.857227   -2.477869   -4.927668
  C      4.271282    2.273453    0.607373
  C      4.373985    2.254334    2.165998

----------------------------
CARTESIAN COORDINATES (A.U.)
----------------------------
  NO LB      ZA    FRAG     MASS         X           Y           Z
   0 N     7.0000    1    14.007   -1.077016   -0.890718    9.515491
   1 C     6.0000    1    12.011    3.403175   -5.964868   -0.935014
   2 C     6.0000    1    12.011    3.974550   -8.681819   -0.105379
   3 C     6.0000    1    12.011    5.207685   -8.988351    2.496824
   4 C     6.0000    1    12.011    1.983964   -4.478435    1.051372
   5 C     6.0000    1    12.011    1.995143   -5.983431   -3.470797
   6 C     6.0000    1    12.011   -1.897028   -0.254390    6.840566
   7 C     6.0000    1    12.011   -0.565724   -1.714631    4.808402
   8 C     6.0000    1    12.011    7.626231   -7.487046    2.802219
   9 C     6.0000    1    12.011    2.938157   -2.194679    1.936326
  10 C     6.0000    1    12.011   -0.304527   -5.331107    2.039122
  11 C     6.0000    1    12.011    5.664955  -11.786962    3.057209
  12 C     6.0000    1    12.011   -2.559326    0.746039   11.260667
  13 C     6.0000    1    12.011    1.661399   -0.374356    9.894075
  14 C     6.0000    1    12.011   -1.609979   -3.583043   10.125098
  15 C     6.0000    1    12.011    1.676695   -0.819327    3.773616
  16 C     6.0000    1    12.011   -1.558393   -3.974564    3.892809
  17 C     6.0000    1    12.011    1.636473   -3.379627   -4.635050
  18 C     6.0000    1    12.011    9.638173   -7.763026    1.123245
  19 C     6.0000    1    12.011    7.916792   -5.833257    4.828828
  20 C     6.0000    1    12.011   11.873757   -6.438199    1.470040
  21 C     6.0000    1    12.011   10.151836   -4.504997    5.187292
  22 C     6.0000    1    12.011   12.142753   -4.808385    3.509622
  23 H     1.0000    1     1.008    5.206430   -4.993866   -1.229082
  24 H     1.0000    1     1.008    5.186444   -9.543037   -1.546082
  25 H     1.0000    1     1.008    2.218285   -9.777682   -0.106657
  26 H     1.0000    1     1.008    3.883247   -8.278024    3.917116
  27 H     1.0000    1     1.008    0.153966   -6.893607   -3.210461
  28 H     1.0000    1     1.008    3.054941   -7.180490   -4.782974
  29 H     1.0000    1     1.008   -1.560912    1.765951    6.632867
  30 H     1.0000    1     1.008   -3.925683   -0.599091    6.792303
  31 H     1.0000    1     1.008    4.707535   -1.488580    1.182159
  32 H     1.0000    1     1.008   -1.114332   -7.090868    1.368354
  33 H     1.0000    1     1.008    3.896705  -12.849461    2.953800
  34 H     1.0000    1     1.008    6.456866  -12.050417    4.945686
  35 H     1.0000    1     1.008    6.981577  -12.614053    1.696001
  36 H     1.0000    1     1.008   -2.000101    0.319118   13.192201
  37 H     1.0000    1     1.008   -4.560296    0.353594   10.997852
  38 H     1.0000    1     1.008   -2.156014    2.714522   10.824658
  39 H     1.0000    1     1.008    2.043816    1.586260    9.405977
  40 H     1.0000    1     1.008    2.766041   -1.637617    8.709810
  41 H     1.0000    1     1.008    2.109289   -0.710599   11.872240
  42 H     1.0000    1     1.008   -0.466860   -4.793521    8.922442
  43 H     1.0000    1     1.008   -3.610433   -3.948865    9.821092
  44 H     1.0000    1     1.008   -1.123588   -3.903958   12.097006
  45 H     1.0000    1     1.008    2.449514    0.965560    4.417583
  46 H     1.0000    1     1.008   -3.330290   -4.681598    4.643216
  47 H     1.0000    1     1.008    0.689199   -3.513098   -6.464393
  48 H     1.0000    1     1.008    3.451254   -2.440747   -4.937309
  49 H     1.0000    1     1.008    0.490430   -2.153812   -3.430168
  50 H     1.0000    1     1.008    9.462659   -9.031855   -0.478138
  51 H     1.0000    1     1.008    6.364690   -5.582261    6.147239
  52 H     1.0000    1     1.008   13.413424   -6.677323    0.139695
  53 H     1.0000    1     1.008   10.332000   -3.224746    6.777273
  54 H     1.0000    1     1.008   13.887179   -3.767892    3.775513
  55 S     0.0000    2     0.000   10.208335   -6.796751   -6.657555
  56 F     0.0000    2     0.000   11.785502   -1.818407   -3.389314
  57 F     0.0000    2     0.000   13.526588    1.747334   -4.456446
  58 F     0.0000    2     0.000   11.071676    2.269820   -8.504662
  59 F     0.0000    2     0.000    8.185641   -0.477854   -7.610962
  60 F     0.0000    2     0.000    7.256286    0.300402   -2.835705
  61 F     0.0000    2     0.000    8.643951    3.951000   -4.187168
  62 F     0.0000    2     0.000   12.747573   -1.069227  -11.121581
  63 F     0.0000    2     0.000   14.490097   -2.319062   -7.630230
  64 F     0.0000    2     0.000   10.237295    0.368755    1.135016
  65 F     0.0000    2     0.000   12.265239    3.708366   -0.157390
  66 F     0.0000    2     0.000   12.810554   -5.923510  -10.711239
  67 F     0.0000    2     0.000    9.013495   -4.344292  -10.777128
  68 F     0.0000    2     0.000    5.703124    3.644372    0.535468
  69 F     0.0000    2     0.000    8.480406    6.671598    0.373573
  70 F     0.0000    2     0.000    7.455166    2.078325    5.022292
  71 F     0.0000    2     0.000    6.830773    6.101567    5.014862
  72 F     0.0000    2     0.000   10.635760    4.634762    4.831638
  73 O     0.0000    2     0.000    9.318216   -9.012705   -7.986334
  74 O     0.0000    2     0.000    8.274315   -5.431759   -5.302315
  75 O     0.0000    2     0.000   12.555969   -7.144531   -5.308265
  76 C     0.0000    2     0.000   11.375065    0.409274   -4.508404
  77 C     0.0000    2     0.000   10.650045    0.040315   -7.370064
  78 C     0.0000    2     0.000    9.277957    1.819915   -2.963485
  79 C     0.0000    2     0.000   12.262851   -2.022125   -8.811609
  80 C     0.0000    2     0.000   10.031924    2.519276   -0.189221
  81 C     0.0000    2     0.000   11.068554   -4.682494   -9.311943
  82 C     0.0000    2     0.000    8.071553    4.296203    1.147769
  83 C     0.0000    2     0.000    8.265634    4.260073    4.093144

----------------------------------------------
CARTESIAN COORDINATES OF FRAGMENTS (ANGSTROEM)
----------------------------------------------

 FRAGMENT 1 
  N    -0.569932   -0.471348    5.035381
  C     1.800883   -3.156472   -0.494788
  C     2.103241   -4.594221   -0.055764
  C     2.755788   -4.756431    1.321263
  C     1.049869   -2.369886    0.556362
  C     1.055784   -3.166295   -1.836666
  C    -1.003864   -0.134617    3.619872
  C    -0.299368   -0.907344    2.544496
  C     4.035627   -3.961974    1.482870
  C     1.554806   -1.161374    1.024660
  C    -0.161149   -2.821100    1.079057
  C     2.997765   -6.237392    1.617805
  C    -1.354337    0.394787    5.958888
  C     0.879174   -0.198100    5.235719
  C    -0.851964   -1.896065    5.357971
  C     0.887269   -0.433569    1.996912
  C    -0.824666   -2.103249    2.059986
  C     0.865984   -1.788422   -2.452763
  C     5.100302   -4.108017    0.594396
  C     4.189386   -3.086827    2.555306
  C     6.283322   -3.406948    0.777911
  C     5.372120   -2.383942    2.744997
  C     6.425668   -2.544488    1.857212
  H     2.755124   -2.642640   -0.650402
  H     2.744548   -5.049958   -0.818151
  H     1.173866   -5.174126   -0.056440
  H     2.054926   -4.380542    2.072848
  H     0.081475   -3.647940   -1.698903
  H     1.616605   -3.799751   -2.531041
  H    -0.825999    0.934501    3.509962
  H    -2.077382   -0.317025    3.594332
  H     2.491120   -0.787723    0.625571
  H    -0.589679   -3.752326    0.724102
  H     2.062047   -6.799642    1.563084
  H     3.416826   -6.376806    2.617144
  H     3.694491   -6.675069    0.897485
  H    -1.058408    0.168870    6.981012
  H    -2.413205    0.187114    5.819813
  H    -1.140914    1.436463    5.728162
  H     1.081541    0.839413    4.977429
  H     1.463726   -0.866589    4.609033
  H     1.116188   -0.376033    6.282519
  H    -0.247052   -2.536622    4.721553
  H    -1.910559   -2.089649    5.197098
  H    -0.594577   -2.065885    6.401460
  H     1.296227    0.510953    2.337684
  H    -1.762313   -2.477395    2.457084
  H     0.364708   -1.859051   -3.420810
  H     1.826325   -1.291588   -2.612711
  H     0.259524   -1.139748   -1.815167
  H     5.007424   -4.779452   -0.253020
  H     3.368049   -2.954005    3.252979
  H     7.098078   -3.533487    0.073923
  H     5.467459   -1.706462    3.586378
  H     7.348779   -1.993883    1.997916

 FRAGMENT 2 
  S     5.402018   -3.596686   -3.523027
  F     6.236619   -0.962260   -1.793548
  F     7.157962    0.924649   -2.358250
  F     5.858878    1.201137   -4.500473
  F     4.331655   -0.252869   -4.027548
  F     3.839861    0.158966   -1.500590
  F     4.574182    2.090779   -2.215754
  F     6.745725   -0.565811   -5.885287
  F     7.667829   -1.227195   -4.037744
  F     5.417343    0.195137    0.600625
  F     6.490485    1.962383   -0.083287
  F     6.779053   -3.134586   -5.668144
  F     4.769736   -2.298900   -5.703011
  F     3.017964    1.928519    0.283358
  F     4.487638    3.530458    0.197686
  F     3.945104    1.099802    2.657683
  F     3.614689    3.228810    2.653751
  F     5.628202    2.452610    2.556792
  O     4.930988   -4.769318   -4.226186
  O     4.378579   -2.874363   -2.805864
  O     6.644333   -3.780723   -2.809013
  C     6.019425    0.216578   -2.385745
  C     5.635761    0.021334   -3.900070
  C     4.909683    0.963058   -1.568209
  C     6.489221   -1.070062   -4.662903
  C     5.308665    1.333144   -0.100132
  C     5.857227   -2.477869   -4.927668
  C     4.271282    2.273453    0.607373
  C     4.373985    2.254334    2.165998

--------------------------------
INTERNAL COORDINATES (ANGSTROEM)
--------------------------------
 N      0   0   0     0.000000000000     0.00000000     0.00000000
 C      1   0   0     6.588886584123     0.00000000     0.00000000
 C      2   1   0     1.533389597187   102.28362323     0.00000000
 C      3   2   1     1.532427090538   116.13516986   317.96792734
 C      2   1   4     1.512500725049    13.11797895   165.17146205
 C      2   1   5     1.534896103827   124.17400913   340.66687196
 C      1   2   3     1.518337903270    53.89534089   213.72616980
 C      7   1   2     1.499950695091   114.82844762     0.33056606
 C      4   3   2     1.515013567482   113.58264760   304.90370139
 C      5   2   3     1.390957715379   120.36932793   124.54725190
 C      5   2   3     1.394046962282   121.57381123   304.22522133
 C      4   3   2     1.529619569561   110.12410079   180.11025005
 C      1   2   3     1.489411215458   161.24550111   210.70065472
 C      1   2   3     1.488190278004    80.64464172    88.58517579
 C      1   2   3     1.487758406317    81.94893145   337.34113829
 C     10   5   2     1.385850084400   121.17288736   180.64479451
 C     11   5   2     1.384842419260   120.93259213   178.72982409
 C      6   2   1     1.521227623916   114.13199243    66.27875619
 C      9   4   3     1.394362529088   121.47570160   304.72403777
 C      9   4   3     1.392710421376   120.32599193   126.49003321
 C     19   9   4     1.387339747192   120.92327495   182.10691045
 C     20   9   4     1.388844524494   121.14518210   177.81772221
 C     22  20   9     1.387047141570   120.05567747     0.13692006
 H      2   1  15     1.094904627826   103.98301474   225.00915025
 H      3   2   1     1.095538152283   107.83224170   194.85138166
 H      3   2   1     1.095458411848   109.20137017    80.07840727
 H      4   3   2     1.094249411009   107.94459724    63.02276340
 H      6   2   1     1.095553891930   108.94100522   303.21906785
 H      6   2   1     1.094505747817   108.03539793   188.11888060
 H      7   1   2     1.089371284539   105.36990791   238.01133057
 H      7   1   2     1.089204559872   105.45000228   122.96078772
 H     10   5   2     1.084237499959   119.27380611     0.19792455
 H     11   5   2     1.084809607978   119.88936505   359.39022073
 H     12   4   3     1.093017398543   110.66507843   302.84571471
 H     12   4   3     1.092578060222   111.19481995   182.85228180
 H     12   4   3     1.093549310624   111.13661243    62.65432910
 H     13   1   2     1.087819096249   108.57595318   182.54249587
 H     13   1   2     1.087966102602   108.80231615    62.59805318
 H     13   1   2     1.088059744720   108.78098717   302.43614015
 H     14   1   2     1.088163408776   108.91694912   100.81327885
 H     14   1   2     1.086882349542   109.46005288   339.95101223
 H     14   1   2     1.087945478768   108.15753133   220.47506520
 H     15   1   2     1.086857987689   109.38523963    18.56116799
 H     15   1   2     1.088107442559   108.82867822   257.76090858
 H     15   1   2     1.088097676817   108.21335349   138.09215909
 H     16  10   5     1.084202042345   119.75719136   180.65252120
 H     17  11   5     1.084829393972   119.64523955   180.43888552
 H     18   6   2     1.092419681916   110.95166623   177.88512443
 H     18   6   2     1.093015067436   111.18386782    58.13486468
 H     18   6   2     1.093206340119   111.74379915   297.83849984
 H     19   9   4     1.085156843927   119.80472205     2.01042390
 H     20   9   4     1.085810178852   119.21774870   357.79456129
 H     21  19   9     1.084176926492   119.73236805   180.13589033
 H     22  20   9     1.084431542552   119.80251411   179.86886436
 H     23  22  20     1.084018988089   120.32777231   179.65658802
 S     51  19   9     3.499655004751   120.72419993   121.71494338
 F     56  51  19     3.260039309796    78.82996510     6.90994738
 F     57  56  51     2.174439654184   132.21713125   169.27387443
 F     58  57  56     2.520552859423    95.59676517    40.59069834
 F     59  58  57     2.161065835221    95.99459234    16.23769912
 F     60  59  58     2.607102525886   103.83565901    40.50971538
 F     61  60  59     2.186912949328    76.06819241    26.19680543
 F     59  58  57     2.413775056972   102.58802853   291.23568828
 F     63  59  58     2.168206841251    83.72417866    10.76728473
 F     61  60  59     2.627710485766   131.60464873   305.08280998
 F     65  61  60     2.177734425560    93.20303763    65.78152268
 F     63  59  58     2.578152469954   133.29802556    61.67662616
 F     67  63  59     2.176451850415    66.68072996    59.46074593
 F     61  60  59     2.643728974322   144.92682066    60.03408583
 F     69  61  60     2.175658679289   104.84817059   297.79537978
 F     69  61  60     2.680257307204   106.45534109   201.51169424
 F     71  69  61     2.154498694875    68.88746479   154.85763900
 F     72  71  69     2.160119939761    60.13552197   254.63066491
 O     56  51  19     1.446156974699    98.25337728   190.69530658
 O     56  51  19     1.443433233339    67.97188282   303.97466848
 O     56  51  19     1.444655706813    65.92661762    77.31572795
 C     57  56  51     1.336985314898   115.84512105   208.21833832
 C     60  59  58     1.338704791993    36.35038457   323.92194248
 C     61  60  59     1.340020805489    83.98894799   351.06684046
 C     64  63  59     1.343365384714    36.35612532    67.12827942
 C     66  65  61     1.339001022241    35.67525819    30.63825250
 C     68  67  63     1.347524293439    36.36379823   283.54756142
 C     70  69  61     1.339669553449    35.70788308   286.83490937
 C     71  69  61     1.326135660090    60.93797315   116.16079543

---------------------------
INTERNAL COORDINATES (A.U.)
---------------------------
 N      0   0   0     0.000000000000     0.00000000     0.00000000
 C      1   0   0    12.451191171461     0.00000000     0.00000000
 C      2   1   0     2.897686395288   102.28362323     0.00000000
 C      3   2   1     2.895867521319   116.13516986   317.96792734
 C      2   1   4     2.858212147700    13.11797895   165.17146205
 C      2   1   5     2.900533280256   124.17400913   340.66687196
 C      1   2   3     2.869242815932    53.89534089   213.72616980
 C      7   1   2     2.834496028107   114.82844762     0.33056606
 C      4   3   2     2.862960731717   113.58264760   304.90370139
 C      5   2   3     2.628529145931   120.36932793   124.54725190
 C      5   2   3     2.634366976538   121.57381123   304.22522133
 C      4   3   2     2.890562075557   110.12410079   180.11025005
 C      1   2   3     2.814579298007   161.24550111   210.70065472
 C      1   2   3     2.812272060592    80.64464172    88.58517579
 C      1   2   3     2.811455941378    81.94893145   337.34113829
 C     10   5   2     2.618877122188   121.17288736   180.64479451
 C     11   5   2     2.616972911038   120.93259213   178.72982409
 C      6   2   1     2.874703596558   114.13199243    66.27875619
 C      9   4   3     2.634963311377   121.47570160   304.72403777
 C      9   4   3     2.631841280260   120.32599193   126.49003321
 C     19   9   4     2.621692176897   120.92327495   182.10691045
 C     20   9   4     2.624535793889   121.14518210   177.81772221
 C     22  20   9     2.621139232405   120.05567747     0.13692006
 H      2   1  15     2.069069889354   103.98301474   225.00915025
 H      3   2   1     2.070267077077   107.83224170   194.85138166
 H      3   2   1     2.070116389493   109.20137017    80.07840727
 H      4   3   2     2.067831709012   107.94459724    63.02276340
 H      6   2   1     2.070296820699   108.94100522   303.21906785
 H      6   2   1     2.068316115377   108.03539793   188.11888060
 H      7   1   2     2.058613385936   105.36990791   238.01133057
 H      7   1   2     2.058298321976   105.45000228   122.96078772
 H     10   5   2     2.048911939050   119.27380611     0.19792455
 H     11   5   2     2.049993066525   119.88936505   359.39022073
 H     12   4   3     2.065503542857   110.66507843   302.84571471
 H     12   4   3     2.064673313750   111.19481995   182.85228180
 H     12   4   3     2.066508711017   111.13661243    62.65432910
 H     13   1   2     2.055680175159   108.57595318   182.54249587
 H     13   1   2     2.055957976908   108.80231615    62.59805318
 H     13   1   2     2.056134934865   108.78098717   302.43614015
 H     14   1   2     2.056330831541   108.91694912   100.81327885
 H     14   1   2     2.053909980428   109.46005288   339.95101223
 H     14   1   2     2.055919003509   108.15753133   220.47506520
 H     15   1   2     2.053863943197   109.38523963    18.56116799
 H     15   1   2     2.056225070718   108.82867822   257.76090858
 H     15   1   2     2.056206616140   108.21335349   138.09215909
 H     16  10   5     2.048844933869   119.75719136   180.65252120
 H     17  11   5     2.050030456634   119.64523955   180.43888552
 H     18   6   2     2.064374022126   110.95166623   177.88512443
 H     18   6   2     2.065499137703   111.18386782    58.13486468
 H     18   6   2     2.065860590692   111.74379915   297.83849984
 H     19   9   4     2.050649247373   119.80472205     2.01042390
 H     20   9   4     2.051883871455   119.21774870   357.79456129
 H     21  19   9     2.048797471786   119.73236805   180.13589033
 H     22  20   9     2.049278626408   119.80251411   179.86886436
 H     23  22  20     2.048499011459   120.32777231   179.65658802
 S     51  19   9     6.613389522187   120.72419993   121.71494338
 F     56  51  19     6.160581481331    78.82996510     6.90994738
 F     57  56  51     4.109095441147   132.21713125   169.27387443
 F     58  57  56     4.763154610381    95.59676517    40.59069834
 F     59  58  57     4.083822585942    95.99459234    16.23769912
 F     60  59  58     4.926709776980   103.83565901    40.50971538
 F     61  60  59     4.132666552957    76.06819241    26.19680543
 F     59  58  57     4.561373806567   102.58802853   291.23568828
 F     63  59  58     4.097317131658    83.72417866    10.76728473
 F     61  60  59     4.965653177331   131.60464873   305.08280998
 F     65  61  60     4.115321656721    93.20303763    65.78152268
 F     63  59  58     4.872002099705   133.29802556    61.67662616
 F     67  63  59     4.112897940950    66.68072996    59.46074593
 F     61  60  59     4.995923733780   144.92682066    60.03408583
 F     69  61  60     4.111399064744   104.84817059   297.79537978
 F     69  61  60     5.064952279058   106.45534109   201.51169424
 F     71  69  61     4.071412489204    68.88746479   154.85763900
 F     72  71  69     4.082035102571    60.13552197   254.63066491
 O     56  51  19     2.732840628841    98.25337728   190.69530658
 O     56  51  19     2.727693503612    67.97188282   303.97466848
 O     56  51  19     2.730003643684    65.92661762    77.31572795
 C     57  56  51     2.526536090231   115.84512105   208.21833832
 C     60  59  58     2.529785431035    36.35038457   323.92194248
 C     61  60  59     2.532272336130    83.98894799   351.06684046
 C     64  63  59     2.538592674899    36.35612532    67.12827942
 C     66  65  61     2.530345225076    35.67525819    30.63825250
 C     68  67  63     2.546451873405    36.36379823   283.54756142
 C     70  69  61     2.531608565971    35.70788308   286.83490937
 C     71  69  61     2.506033213996    60.93797315   116.16079543

---------------------
BASIS SET INFORMATION
---------------------
There are 6 groups of distinct atoms

 Group   1 Type N   : 12s6p3d1f contracted to 6s3p3d1f pattern {621111/411/111/1}
 Group   2 Type C   : 12s6p3d1f contracted to 6s3p3d1f pattern {621111/411/111/1}
 Group   3 Type H   : 5s2p contracted to 3s2p pattern {311/11}
 Group   4 Type S   : 15s10p4d1f contracted to 6s6p3d1f pattern {732111/511111/211/1}
 Group   5 Type F   : 12s7p3d1f contracted to 6s4p3d1f pattern {621111/4111/111/1}
 Group   6 Type O   : 12s7p3d1f contracted to 6s4p3d1f pattern {621111/4111/111/1}

Atom   0N    basis set group =>   1
Atom   1C    basis set group =>   2
Atom   2C    basis set group =>   2
Atom   3C    basis set group =>   2
Atom   4C    basis set group =>   2
Atom   5C    basis set group =>   2
Atom   6C    basis set group =>   2
Atom   7C    basis set group =>   2
Atom   8C    basis set group =>   2
Atom   9C    basis set group =>   2
Atom  10C    basis set group =>   2
Atom  11C    basis set group =>   2
Atom  12C    basis set group =>   2
Atom  13C    basis set group =>   2
Atom  14C    basis set group =>   2
Atom  15C    basis set group =>   2
Atom  16C    basis set group =>   2
Atom  17C    basis set group =>   2
Atom  18C    basis set group =>   2
Atom  19C    basis set group =>   2
Atom  20C    basis set group =>   2
Atom  21C    basis set group =>   2
Atom  22C    basis set group =>   2
Atom  23H    basis set group =>   3
Atom  24H    basis set group =>   3
Atom  25H    basis set group =>   3
Atom  26H    basis set group =>   3
Atom  27H    basis set group =>   3
Atom  28H    basis set group =>   3
Atom  29H    basis set group =>   3
Atom  30H    basis set group =>   3
Atom  31H    basis set group =>   3
Atom  32H    basis set group =>   3
Atom  33H    basis set group =>   3
Atom  34H    basis set group =>   3
Atom  35H    basis set group =>   3
Atom  36H    basis set group =>   3
Atom  37H    basis set group =>   3
Atom  38H    basis set group =>   3
Atom  39H    basis set group =>   3
Atom  40H    basis set group =>   3
Atom  41H    basis set group =>   3
Atom  42H    basis set group =>   3
Atom  43H    basis set group =>   3
Atom  44H    basis set group =>   3
Atom  45H    basis set group =>   3
Atom  46H    basis set group =>   3
Atom  47H    basis set group =>   3
Atom  48H    basis set group =>   3
Atom  49H    basis set group =>   3
Atom  50H    basis set group =>   3
Atom  51H    basis set group =>   3
Atom  52H    basis set group =>   3
Atom  53H    basis set group =>   3
Atom  54H    basis set group =>   3
Atom  55S    basis set group =>   4
Atom  56F    basis set group =>   5
Atom  57F    basis set group =>   5
Atom  58F    basis set group =>   5
Atom  59F    basis set group =>   5
Atom  60F    basis set group =>   5
Atom  61F    basis set group =>   5
Atom  62F    basis set group =>   5
Atom  63F    basis set group =>   5
Atom  64F    basis set group =>   5
Atom  65F    basis set group =>   5
Atom  66F    basis set group =>   5
Atom  67F    basis set group =>   5
Atom  68F    basis set group =>   5
Atom  69F    basis set group =>   5
Atom  70F    basis set group =>   5
Atom  71F    basis set group =>   5
Atom  72F    basis set group =>   5
Atom  73O    basis set group =>   6
Atom  74O    basis set group =>   6
Atom  75O    basis set group =>   6
Atom  76C    basis set group =>   2
Atom  77C    basis set group =>   2
Atom  78C    basis set group =>   2
Atom  79C    basis set group =>   2
Atom  80C    basis set group =>   2
Atom  81C    basis set group =>   2
Atom  82C    basis set group =>   2
Atom  83C    basis set group =>   2
---------------------------------
AUXILIARY/J BASIS SET INFORMATION
---------------------------------
There are 6 groups of distinct atoms

 Group   1 Type N   : 12s5p4d2f1g contracted to 6s4p3d1f1g pattern {711111/2111/211/2/1}
 Group   2 Type C   : 12s5p4d2f1g contracted to 6s4p3d1f1g pattern {711111/2111/211/2/1}
 Group   3 Type H   : 5s2p1d contracted to 3s1p1d pattern {311/2/1}
 Group   4 Type S   : 14s5p5d2f1g contracted to 8s4p3d1f1g pattern {71111111/2111/311/2/1}
 Group   5 Type F   : 12s5p4d2f1g contracted to 6s4p3d1f1g pattern {711111/2111/211/2/1}
 Group   6 Type O   : 12s5p4d2f1g contracted to 6s4p3d1f1g pattern {711111/2111/211/2/1}

Atom   0N    basis set group =>   1
Atom   1C    basis set group =>   2
Atom   2C    basis set group =>   2
Atom   3C    basis set group =>   2
Atom   4C    basis set group =>   2
Atom   5C    basis set group =>   2
Atom   6C    basis set group =>   2
Atom   7C    basis set group =>   2
Atom   8C    basis set group =>   2
Atom   9C    basis set group =>   2
Atom  10C    basis set group =>   2
Atom  11C    basis set group =>   2
Atom  12C    basis set group =>   2
Atom  13C    basis set group =>   2
Atom  14C    basis set group =>   2
Atom  15C    basis set group =>   2
Atom  16C    basis set group =>   2
Atom  17C    basis set group =>   2
Atom  18C    basis set group =>   2
Atom  19C    basis set group =>   2
Atom  20C    basis set group =>   2
Atom  21C    basis set group =>   2
Atom  22C    basis set group =>   2
Atom  23H    basis set group =>   3
Atom  24H    basis set group =>   3
Atom  25H    basis set group =>   3
Atom  26H    basis set group =>   3
Atom  27H    basis set group =>   3
Atom  28H    basis set group =>   3
Atom  29H    basis set group =>   3
Atom  30H    basis set group =>   3
Atom  31H    basis set group =>   3
Atom  32H    basis set group =>   3
Atom  33H    basis set group =>   3
Atom  34H    basis set group =>   3
Atom  35H    basis set group =>   3
Atom  36H    basis set group =>   3
Atom  37H    basis set group =>   3
Atom  38H    basis set group =>   3
Atom  39H    basis set group =>   3
Atom  40H    basis set group =>   3
Atom  41H    basis set group =>   3
Atom  42H    basis set group =>   3
Atom  43H    basis set group =>   3
Atom  44H    basis set group =>   3
Atom  45H    basis set group =>   3
Atom  46H    basis set group =>   3
Atom  47H    basis set group =>   3
Atom  48H    basis set group =>   3
Atom  49H    basis set group =>   3
Atom  50H    basis set group =>   3
Atom  51H    basis set group =>   3
Atom  52H    basis set group =>   3
Atom  53H    basis set group =>   3
Atom  54H    basis set group =>   3
Atom  55S    basis set group =>   4
Atom  56F    basis set group =>   5
Atom  57F    basis set group =>   5
Atom  58F    basis set group =>   5
Atom  59F    basis set group =>   5
Atom  60F    basis set group =>   5
Atom  61F    basis set group =>   5
Atom  62F    basis set group =>   5
Atom  63F    basis set group =>   5
Atom  64F    basis set group =>   5
Atom  65F    basis set group =>   5
Atom  66F    basis set group =>   5
Atom  67F    basis set group =>   5
Atom  68F    basis set group =>   5
Atom  69F    basis set group =>   5
Atom  70F    basis set group =>   5
Atom  71F    basis set group =>   5
Atom  72F    basis set group =>   5
Atom  73O    basis set group =>   6
Atom  74O    basis set group =>   6
Atom  75O    basis set group =>   6
Atom  76C    basis set group =>   2
Atom  77C    basis set group =>   2
Atom  78C    basis set group =>   2
Atom  79C    basis set group =>   2
Atom  80C    basis set group =>   2
Atom  81C    basis set group =>   2
Atom  82C    basis set group =>   2
Atom  83C    basis set group =>   2


           ************************************************************
           *        Program running with 32 parallel MPI-processes    *
           *              working on a common directory               *
           ************************************************************
------------------------------------------------------------------------------
                             ORCA STARTUP CALCULATIONS
                           -- RI-GTO INTEGRALS CHOSEN --
------------------------------------------------------------------------------
------------------------------------------------------------------------------
                   ___                                                        
                  /   \      - P O W E R E D   B Y -                         
                 /     \                                                     
                 |  |  |   _    _      __       _____    __    __             
                 |  |  |  | |  | |    /  \     |  _  \  |  |  /  |          
                  \  \/   | |  | |   /    \    | | | |  |  | /  /          
                 / \  \   | |__| |  /  /\  \   | |_| |  |  |/  /          
                |  |  |   |  __  | /  /__\  \  |    /   |      \           
                |  |  |   | |  | | |   __   |  |    \   |  |\   \          
                \     /   | |  | | |  |  |  |  | |\  \  |  | \   \       
                 \___/    |_|  |_| |__|  |__|  |_| \__\ |__|  \__/        
                                                                              
                      - O R C A' S   B I G   F R I E N D -                    
                                      &                                       
                       - I N T E G R A L  F E E D E R -                       
                                                                              
 v1 FN, 2020, v2 2021, v3 2022-2024                                           
------------------------------------------------------------------------------


----------------------
SHARK INTEGRAL PACKAGE
----------------------

Number of atoms                             ...     84
Number of basis functions                   ...   2281
Number of shells                            ...    859
Maximum angular momentum                    ...      3
Integral batch strategy                     ... SHARK/LIBINT Hybrid
RI-J (if used) integral strategy            ... SPLIT-RIJ (Revised 2003 algorithm where possible)
Printlevel                                  ...      1
Contraction scheme used                     ... SEGMENTED contraction
Prescreening option                         ... SCHWARTZ
   Thresh                                   ... 1.000e-10
   Tcut                                     ... 1.000e-11
   Tpresel                                  ... 1.000e-11 
Coulomb Range Separation                    ... NOT USED
Exchange Range Separation                   ... Long Range
   Mu parameter                             ... 2.500e-01
   Scaling (regular/separated)              ... 1.957e-01 8.043e-01
Robust (split-)RI terms used:
  metric    (central integrals)             ... YES
  density   (r.h.s.  integrals)             ... YES
  potential (l.h.s.  integrals)             ... YES
Multipole approximations                    ... NOT USED
Finite Nucleus Model                        ... NOT USED
CABS basis                                  ... NOT available
Auxiliary Coulomb fitting basis             ... AVAILABLE
   # of basis functions in Aux-J            ...   2902
   # of shells in Aux-J                     ...    942
   Maximum angular momentum in Aux-J        ...      4
Auxiliary J/K fitting basis                 ... NOT available
Auxiliary Correlation fitting basis         ... NOT available
Auxiliary 'external' fitting basis          ... NOT available

Checking pre-screening integrals            ... done (  0.0 sec) Dimension = 859
   => SHARK Basis and OBASIS are compatible. Storing Pre-screening
Shell pair information
Shell pair cut-off parameter TPreSel        ...   1.0e-11
Total number of shell pairs                 ...    369370
Shell pairs after pre-screening             ...    229647
Total number of primitive shell pairs       ...    976360
Primitive shell pairs kept                  ...    400673
          la=0 lb=0:  48723 shell pairs
          la=1 lb=0:  64666 shell pairs
          la=1 lb=1:  21242 shell pairs
          la=2 lb=0:  39394 shell pairs
          la=2 lb=1:  26120 shell pairs
          la=2 lb=2:   8216 shell pairs
          la=3 lb=0:   9726 shell pairs
          la=3 lb=1:   6983 shell pairs
          la=3 lb=2:   4167 shell pairs
          la=3 lb=3:    410 shell pairs

Checking whether 4 symmetric matrices of dimension 2281 fit in memory
:Max Core in MB      =   4000.00
 MB in use           =    268.12
 MB left             =   3731.88
 MB needed           =     79.43
 Data fit in memory  = YES
Calculating RI/J V-Matrix + Cholesky decomp.... done (  0.3 sec)
Calculating Nuclear repulsion               ... done (  0.0 sec) ENN=   1977.585550675170 Eh

Diagonalization of the overlap matrix:
Smallest eigenvalue                        ... 7.507e-08
Time for diagonalization                   ...    0.568 sec
Threshold for overlap eigenvalues          ... 1.000e-07
Number of eigenvalues below threshold      ... 1
Smallest eigenvalue above threshold        ... 1.060e-07

IMPORTANT:
Smallest eigenvalue of S below the DiffSThresh (1.000e-06) while
Thresh>1e-12 and/or TCut>1e-13! In order to avoid SCF convergence issues,
Thresh will be set to at least 1e-12 and TCut to at least 1e-13.
This can be turned off by adding %SCF DiffSThresh -1 END to the input.

Time for construction of square roots      ...    0.410 sec
Total time needed                          ...    1.021 sec

-------------------
DFT GRID GENERATION
-------------------

General Integration Accuracy     IntAcc      ... 4.388
Radial Grid Type                 RadialGrid  ... OptM3 with GC (2021)
Angular Grid (max. ang.)         AngularGrid ... 4 (Lebedev-302)
Angular grid pruning method      GridPruning ... 4 (adaptive)
Weight generation scheme         WeightScheme... mBecke (2022)
Basis function cutoff            BFCut       ... 1.0000e-10
Integration weight cutoff        WCut        ... 1.0000e-14
Partially contracted basis set               ... off
Rotationally invariant grid construction     ... off
Angular grids for H and He will be reduced by one unit
Diffuse basis detected: some atoms will have their outermost
                        angular grid increased by 1.

Total number of grid points                  ...   428524
Total number of batches                      ...     6737
Average number of points per batch           ...       63
Average number of grid points per atom       ...     5101

--------------------
COSX GRID GENERATION
--------------------

GRIDX 1
-------
General Integration Accuracy     IntAcc      ... 3.816
Radial Grid Type                 RadialGrid  ... OptM3 with GC (2021)
Angular Grid (max. ang.)         AngularGrid ... 1 (Lebedev-50)
Angular grid pruning method      GridPruning ... 4 (adaptive)
Weight generation scheme         WeightScheme... mBecke (2022)
Basis function cutoff            BFCut       ... 1.0000e-10
Integration weight cutoff        WCut        ... 1.0000e-14
Partially contracted basis set               ... on
Rotationally invariant grid construction     ... off
Angular grids for H and He will be reduced by one unit
Diffuse basis detected: some atoms will have their outermost
                        angular grid increased by 1.

Total number of grid points                  ...    54611
Total number of batches                      ...      470
Average number of points per batch           ...      116
Average number of grid points per atom       ...      650
UseSFitting                                  ... on

GRIDX 2
-------
General Integration Accuracy     IntAcc      ... 4.020
Radial Grid Type                 RadialGrid  ... OptM3 with GC (2021)
Angular Grid (max. ang.)         AngularGrid ... 2 (Lebedev-110)
Angular grid pruning method      GridPruning ... 4 (adaptive)
Weight generation scheme         WeightScheme... mBecke (2022)
Basis function cutoff            BFCut       ... 1.0000e-10
Integration weight cutoff        WCut        ... 1.0000e-14
Partially contracted basis set               ... on
Rotationally invariant grid construction     ... off
Angular grids for H and He will be reduced by one unit
Diffuse basis detected: some atoms will have their outermost
                        angular grid increased by 1.

Total number of grid points                  ...   126311
Total number of batches                      ...     1029
Average number of points per batch           ...      122
Average number of grid points per atom       ...     1504
UseSFitting                                  ... on

GRIDX 3
-------
General Integration Accuracy     IntAcc      ... 4.338
Radial Grid Type                 RadialGrid  ... OptM3 with GC (2021)
Angular Grid (max. ang.)         AngularGrid ... 3 (Lebedev-194)
Angular grid pruning method      GridPruning ... 4 (adaptive)
Weight generation scheme         WeightScheme... mBecke (2022)
Basis function cutoff            BFCut       ... 1.0000e-10
Integration weight cutoff        WCut        ... 1.0000e-14
Partially contracted basis set               ... on
Rotationally invariant grid construction     ... off
Angular grids for H and He will be reduced by one unit
Diffuse basis detected: some atoms will have their outermost
                        angular grid increased by 1.

Total number of grid points                  ...   277123
Total number of batches                      ...     2207
Average number of points per batch           ...      125
Average number of grid points per atom       ...     3299
UseSFitting                                  ... on
Grids setup in   8.9 sec
Initializing property integral containers    ... done (  0.0 sec)

SHARK setup successfully completed in  13.0 seconds

Maximum memory used throughout the entire STARTUP-calculation: 399.8 MB


           ************************************************************
           *        Program running with 32 parallel MPI-processes    *
           *              working on a common directory               *
           ************************************************************
-------------------------------------------------------------------------------
                                 ORCA GUESS
                   Start orbitals & Density for SCF / CASSCF
-------------------------------------------------------------------------------

------------
SCF SETTINGS
------------
Hamiltonian:
 Density Functional     Method          .... DFT(GTOs)
 Exchange Functional    Exchange        .... WB97X-D3
 Correlation Functional Correlation     .... WB97X-D3
 Gradients option       PostSCFGGA      .... off
 Hybrid DFT is turned on
   Fraction HF Exchange ScalHFX         ....  0.195728
   Scaling of DF-GGA-X  ScalDFX         ....  0.000000
   Scaling of DF-GGA-C  ScalDFC         ....  1.000000
   Scaling of DF-LDA-C  ScalLDAC        ....  1.000000
   Perturbative correction              ....  0.000000
 Long-range corrected/Screened/Range-Separated Hybrid DFT is turned on
   Amount of maximum screened exact exchange              ....  0.804272
   Range separation parameter mu (erf(mu*r12)/r12)        ....  0.250000
 RI-approximation to the Coulomb term is turned on
   Number of AuxJ basis functions       .... 2902
   RIJ-COSX (HFX calculated with COS-X)).... on


General Settings:
 Integral files         IntName         .... R4N+PFOS-_frag1
 Hartree-Fock type      HFTyp           .... RHF
 Total Charge           Charge          ....    1
 Multiplicity           Mult            ....    1
 Number of Electrons    NEL             ....  170
 Basis Dimension        Dim             .... 2281
 Nuclear Repulsion      ENuc            ....   1977.5855506752 Eh

Convergence Acceleration:
 AO-DIIS                CNVDIIS         .... on
   Start iteration      DIISMaxIt       ....    12
   Startup error        DIISStart       ....  0.200000
   # of expansion vecs  DIISMaxEq       ....     5
   Bias factor          DIISBfac        ....   1.050
   Max. coefficient     DIISMaxC        ....  10.000
 MO-DIIS                CNVKDIIS        .... off
 Trust-Rad. Augm. Hess. CNVTRAH         .... auto
   Auto Start mean grad. ratio tolernc. ....  1.125000
   Auto Start start iteration           ....    50
   Auto Start num. interpolation iter.  ....    10
   Max. Number of Micro iterations      ....    24
   Max. Number of Macro iterations      .... Maxiter - #DIIS iter
   Number of Davidson start vectors     ....     2
   Converg. threshold    (grad. norm)   ....   5.000e-05
   Grad. Scal. Fac. for Micro threshold ....   0.100
   Minimum threshold for Micro iter.    ....   1.000e-02
   NR start threshold (gradient norm)   ....   1.000e-04
   Initial trust radius                 ....   0.400
   Minimum AH scaling param. (alpha)    ....   1.000
   Maximum AH scaling param. (alpha)    .... 1000.000
   Quad. conv. algorithm                .... NR
   White noise on init. David. guess    .... on
   Maximum white noise                  ....   0.010
   Pseudo random numbers                .... off
   Inactive MOs                         .... canonical
   Orbital update algorithm             .... Taylor
   Preconditioner                       .... Diag
   Full preconditioner red. dimension   ....   250
 SOSCF                 CNVSOSCF           .... on
   Start iteration     SOSCFMaxIt         ....   150
   Startup grad/error  SOSCFStart         ....  0.003300
   Hessian update      SOSCFHessUp        .... L-BFGS
   Autom. constraints  SOSCFAutoConstrain .... off
 Level Shifting         CNVShift        .... on
   Level shift para.    LevelShift      ....    0.2500
   Turn off err/grad.   ShiftErr        ....    0.0010
 Zerner damping         CNVZerner       .... off
 Static damping         CNVDamp         .... on
   Fraction old density DampFac         ....    0.7000
   Max. Damping (<1)    DampMax         ....    0.9800
   Min. Damping (>=0)   DampMin         ....    0.0000
   Turn off err/grad.   DampErr         ....    0.1000

SCF Procedure:
 Maximum # iterations   MaxIter         ....   125
 SCF integral mode      SCFMode         .... Direct
   Integral package                     .... SHARK and LIBINT hybrid scheme
 Reset frequency        DirectResetFreq ....    20
 Integral Threshold     Thresh          ....  1.000e-12 Eh
 Primitive CutOff       TCut            ....  1.000e-13 Eh

Convergence Tolerance:
 Convergence Check Mode ConvCheckMode   .... Total+1el-Energy
 Convergence forced     ConvForced      .... 0
 Energy Change          TolE            ....  1.000e-06 Eh
 1-El. energy change                    ....  1.000e-03 Eh
 Orbital Gradient       TolG            ....  5.000e-05
 Orbital Rotation angle TolX            ....  5.000e-05
 DIIS Error             TolErr          ....  1.000e-06

------------------------------
INITIAL GUESS: MODEL POTENTIAL
------------------------------
Loading Hartree-Fock densities                     ... done
Calculating cut-offs                               ... done
Initializing the effective Hamiltonian             ... done
Setting up the integral package (SHARK)            ... done
Starting the Coulomb interaction                   ... done (   1.3 sec)
Making the grid                                    ... done (   0.7 sec)
Mapping shells                                     ... done
Starting the XC term evaluation                    ... done (   0.9 sec)
  promolecular density results
     # of electrons  =    170.992684441
     EX              =   -128.624944717
     EC              =     -5.683595364
     EX+EC           =   -134.308540081
Transforming the Hamiltonian                       ... done (   0.3 sec)
Diagonalizing the Hamiltonian                      ... done (   0.7 sec)
Back transforming the eigenvectors                 ... done (   0.2 sec)
Now organizing SCF variables                       ... done
                      ------------------
                      INITIAL GUESS DONE (   4.5 sec)
                      ------------------
             **** ENERGY FILE WAS UPDATED (R4N+PFOS-_frag1.en.tmp) ****
Finished Guess after   7.0 sec
Maximum memory used throughout the entire GUESS-calculation: 406.6 MB


           ************************************************************
           *        Program running with 32 parallel MPI-processes    *
           *              working on a common directory               *
           ************************************************************

-------------------------------------------------------------------------------------------
                                      ORCA LEAN-SCF
                              memory conserving SCF solver
-------------------------------------------------------------------------------------------

--------------------
CPCM SOLVATION MODEL
--------------------
CPCM parameters:
  Epsilon                                         ...      72.5000
  Refrac                                          ...       1.4295
  Rsolv                                           ...       1.3000
  Surface type                                    ... GAUSSIAN VDW
  Discretization scheme                           ... Constant charge density
    Threshold for H atoms                         ...       5.0000 (charges/Ang^2)
    Threshold for non-H atoms                     ...       5.0000 (charges/Ang^2)
  Epsilon function type                           ...         CPCM
Solvent:                                          ... CUSTOM
SMD-CDS solvent descriptors:
  Soln                                            ...       1.4295
  Soln25                                          ...       1.4279
  Sola                                            ...       0.3700
  Solb                                            ...       0.4800
  Solg                                            ...      39.0100
  Solc                                            ...       0.0000
  Solh                                            ...       0.0000
Radii:
  Scheme                                          ... Element-dependent radii
  Radius for N  used is    3.5716 Bohr (=   1.8900 Ang.)
  Radius for C  used is    3.4960 Bohr (=   1.8500 Ang.)
  Radius for H  used is    2.2677 Bohr (=   1.2000 Ang.)
  Radius for S  used is    4.7054 Bohr (=   2.4900 Ang.)
  Radius for F  used is    3.2692 Bohr (=   1.7300 Ang.)
  Radius for O  used is    3.0765 Bohr (=   1.6280 Ang.)
Calculating surface                               ...        done! (  0.0s)
Cavity surface points                             ...         6415
Cavity Volume                                     ...    4771.0536
Cavity Surface-area                               ...    2522.6838
Calculating surface distance matrix               ...        done! (  0.3s)
Performing Cholesky decomposition & store         ...        done! (  0.9s)
Overall time for CPCM initialization              ...                 1.2s

----------------------------------------D-I-I-S--------------------------------------------
Iteration    Energy (Eh)           Delta-E    RMSDP     MaxDP     DIISErr   Damp  Time(sec)
-------------------------------------------------------------------------------------------
               ***  Starting incremental Fock matrix formation  ***
    1    -911.7923309581713056     0.00e+00  3.74e-02  2.05e+00  1.81e-01  0.700  80.5
    2    -911.9916186861980805    -1.99e-01  3.19e-02  1.43e+00  1.09e-01  0.700  40.9
                               ***Turning on AO-DIIS***
    3    -912.1014425520040731    -1.10e-01  3.21e-02  1.21e+00  5.71e-02  0.700  39.3
    4    -912.1673385045294253    -6.59e-02  9.81e-02  4.24e+00  3.79e-02  0.000  38.6
    5    -912.3079047752028146    -1.41e-01  2.20e-02  1.46e+00  3.45e-03  0.000  40.8
                              *** Initializing SOSCF ***
---------------------------------------S-O-S-C-F--------------------------------------
Iteration    Energy (Eh)           Delta-E    RMSDP     MaxDP     MaxGrad    Time(sec)
--------------------------------------------------------------------------------------
    6    -912.3080692571309100    -1.64e-04  5.52e-03  4.13e-01  1.98e-03    37.7
               *** Restarting incremental Fock matrix formation ***
    7    -912.3081228802104761    -5.36e-05  1.27e-01  6.56e+00  2.32e-04    81.1
    8    -912.3081759920812601    -5.31e-05  1.26e-02  5.43e-01  1.82e-04    73.0
    9    -912.3081764708520041    -4.79e-07  8.67e-03  3.87e-01  1.45e-04    64.8
                 **** Energy Check signals convergence ****

               *****************************************************
               *                     SUCCESS                       *
               *           SCF CONVERGED AFTER   9 CYCLES          *
               *****************************************************

Recomputing exchange energy using gridx3       ... done (  139.575 sec)
Old exchange energy                            :    -43.988094177 Eh
New exchange energy                            :    -43.987870177 Eh
Exchange energy change after final integration :      0.000224000 Eh
Total energy after final integration           :   -912.307955885 Eh

SMD CDS free energy correction energy :                -2.94687     Kcal/mol
Total Energy after SMD CDS correction =              -912.312652016 Eh
             **** ENERGY FILE WAS UPDATED (R4N+PFOS-_frag1.en.tmp) ****

----------------
TOTAL SCF ENERGY
----------------

Total Energy       :       -912.31265201617953 Eh          -24825.28935 eV

Components:
Nuclear Repulsion  :       1977.58555067516977 Eh           53812.83863 eV
Electronic Energy  :      -2889.78763593183749 Eh          -78635.11931 eV
One Electron Energy:      -5141.36231344963562 Eh         -139903.58111 eV
Two Electron Energy:       2251.57467751779814 Eh           61268.46180 eV
CPCM Dielectric    :         -0.10609462840779 Eh              -2.88698 eV
SMD CDS (Gcds)     :         -0.00469613116584 Eh              -0.12779 eV

Virial components:
Potential Energy   :      -1819.98371216593841 Eh          -49524.27457 eV
Kinetic Energy     :        907.67106014975877 Eh           24698.98522 eV
Virial Ratio       :          2.00511373786188

DFT components:
N(Alpha)           :       85.000117712479 electrons
N(Beta)            :       85.000117712479 electrons
N(Total)           :      170.000235424958 electrons
E(XC)              :      -94.099759248650 Eh       

CPCM Solvation Model Properties:
Surface-charge          :         -1.04417006435678
Corrected charge        :         -1.00000000000000
Outlying charge corr.   :          0.00008194154857 Eh               0.00223 eV
Free-energy (cav+disp)  :         -0.00469613116584 Eh              -0.12779 eV

---------------
SCF CONVERGENCE
---------------

  Last Energy change         ...    4.7877e-07  Tolerance :   1.0000e-06
  Last MAX-Density change    ...    3.8730e-01  Tolerance :   1.0000e-05
  Last RMS-Density change    ...    8.6700e-03  Tolerance :   1.0000e-06
  Last DIIS Error            ...    1.9767e-03  Tolerance :   1.0000e-06
  Last Orbital Gradient      ...    1.4504e-04  Tolerance :   5.0000e-05
  Last Orbital Rotation      ...    1.0931e-04  Tolerance :   5.0000e-05


----------------
ORBITAL ENERGIES
----------------

  NO   OCC          E(Eh)            E(eV) 
   0   2.0000     -14.552376      -395.9903 
   1   2.0000     -10.330029      -281.0944 
   2   2.0000     -10.315622      -280.7023 
   3   2.0000     -10.314824      -280.6806 
   4   2.0000     -10.314813      -280.6803 
   5   2.0000     -10.293264      -280.0939 
   6   2.0000     -10.287539      -279.9382 
   7   2.0000     -10.283548      -279.8296 
   8   2.0000     -10.283172      -279.8193 
   9   2.0000     -10.282976      -279.8140 
  10   2.0000     -10.277609      -279.6680 
  11   2.0000     -10.277194      -279.6567 
  12   2.0000     -10.276872      -279.6479 
  13   2.0000     -10.276575      -279.6398 
  14   2.0000     -10.276183      -279.6292 
  15   2.0000     -10.275342      -279.6063 
  16   2.0000     -10.274575      -279.5854 
  17   2.0000     -10.273886      -279.5667 
  18   2.0000     -10.273723      -279.5622 
  19   2.0000     -10.264355      -279.3073 
  20   2.0000     -10.263967      -279.2967 
  21   2.0000     -10.256555      -279.0950 
  22   2.0000     -10.254226      -279.0317 
  23   2.0000      -1.138751       -30.9870 
  24   2.0000      -0.991942       -26.9921 
  25   2.0000      -0.980700       -26.6862 
  26   2.0000      -0.941855       -25.6292 
  27   2.0000      -0.910694       -24.7812 
  28   2.0000      -0.888325       -24.1726 
  29   2.0000      -0.868981       -23.6462 
  30   2.0000      -0.860623       -23.4187 
  31   2.0000      -0.859465       -23.3872 
  32   2.0000      -0.856697       -23.3119 
  33   2.0000      -0.847318       -23.0567 
  34   2.0000      -0.835397       -22.7323 
  35   2.0000      -0.811693       -22.0873 
  36   2.0000      -0.754673       -20.5357 
  37   2.0000      -0.738469       -20.0948 
  38   2.0000      -0.725524       -19.7425 
  39   2.0000      -0.721632       -19.6366 
  40   2.0000      -0.710372       -19.3302 
  41   2.0000      -0.703309       -19.1380 
  42   2.0000      -0.672994       -18.3131 
  43   2.0000      -0.662220       -18.0199 
  44   2.0000      -0.631102       -17.1732 
  45   2.0000      -0.623449       -16.9649 
  46   2.0000      -0.621772       -16.9193 
  47   2.0000      -0.614418       -16.7192 
  48   2.0000      -0.594144       -16.1675 
  49   2.0000      -0.576501       -15.6874 
  50   2.0000      -0.567471       -15.4417 
  51   2.0000      -0.555994       -15.1294 
  52   2.0000      -0.547814       -14.9068 
  53   2.0000      -0.545335       -14.8393 
  54   2.0000      -0.538155       -14.6439 
  55   2.0000      -0.529832       -14.4175 
  56   2.0000      -0.527581       -14.3562 
  57   2.0000      -0.524725       -14.2785 
  58   2.0000      -0.521229       -14.1834 
  59   2.0000      -0.514951       -14.0125 
  60   2.0000      -0.510809       -13.8998 
  61   2.0000      -0.499138       -13.5822 
  62   2.0000      -0.496806       -13.5188 
  63   2.0000      -0.491239       -13.3673 
  64   2.0000      -0.489103       -13.3092 
  65   2.0000      -0.488828       -13.3017 
  66   2.0000      -0.488234       -13.2855 
  67   2.0000      -0.482913       -13.1407 
  68   2.0000      -0.474176       -12.9030 
  69   2.0000      -0.472263       -12.8509 
  70   2.0000      -0.465071       -12.6552 
  71   2.0000      -0.462623       -12.5886 
  72   2.0000      -0.453789       -12.3482 
  73   2.0000      -0.444021       -12.0824 
  74   2.0000      -0.436041       -11.8653 
  75   2.0000      -0.432225       -11.7614 
  76   2.0000      -0.418568       -11.3898 
  77   2.0000      -0.413501       -11.2519 
  78   2.0000      -0.406399       -11.0587 
  79   2.0000      -0.403432       -10.9779 
  80   2.0000      -0.397262       -10.8100 
  81   2.0000      -0.349317        -9.5054 
  82   2.0000      -0.340387        -9.2624 
  83   2.0000      -0.334463        -9.1012 
  84   2.0000      -0.326884        -8.8950 
  85   0.0000       0.027623         0.7517 
  86   0.0000       0.037030         1.0076 
  87   0.0000       0.045154         1.2287 
  88   0.0000       0.048417         1.3175 
  89   0.0000       0.052852         1.4382 
  90   0.0000       0.055816         1.5188 
  91   0.0000       0.060597         1.6489 
  92   0.0000       0.062346         1.6965 
  93   0.0000       0.064013         1.7419 
  94   0.0000       0.064703         1.7607 
  95   0.0000       0.067668         1.8413 
*Only the first 10 virtual orbitals were printed.

                    ********************************
                    * MULLIKEN POPULATION ANALYSIS *
                    ********************************

-------------------------
MULLIKEN FRAGMENT CHARGES
-------------------------
 Fragment   0 :   0.970760
 Fragment   1 :   0.029240
Sum of fragment charges:    1.0000000

---------------------------------
MULLIKEN FRAGMENT OVERLAP CHARGES
---------------------------------
                  0          1    
      0     -123.101149  -0.598155
      1      -0.598155  -8.051578

-----------------------
MULLIKEN ATOMIC CHARGES
-----------------------
   0 N :   -0.279015
   1 C :    1.364556
   2 C :   -2.216336
   3 C :    0.947277
   4 C :   -1.418068
   5 C :   -1.108111
   6 C :   -0.997940
   7 C :   -0.239547
   8 C :    0.065317
   9 C :   -0.146684
  10 C :   -0.329950
  11 C :   -2.118186
  12 C :   -0.864242
  13 C :   -0.992217
  14 C :   -0.830266
  15 C :   -0.777666
  16 C :   -1.214453
  17 C :   -1.188747
  18 C :   -0.143002
  19 C :   -0.319373
  20 C :   -0.974913
  21 C :   -0.814406
  22 C :   -0.902184
  23 H :    0.363132
  24 H :    0.645239
  25 H :    0.463973
  26 H :    0.675148
  27 H :    0.501539
  28 H :    0.519930
  29 H :    0.572453
  30 H :    0.523682
  31 H :    1.404057
  32 H :    0.590495
  33 H :    0.446186
  34 H :    0.448897
  35 H :    0.403159
  36 H :    0.458099
  37 H :    0.409703
  38 H :    0.391651
  39 H :    0.490146
  40 H :    0.372006
  41 H :    0.462996
  42 H :    0.367991
  43 H :    0.431012
  44 H :    0.424487
  45 H :    0.887078
  46 H :    0.595082
  47 H :    0.438209
  48 H :   -0.001348
  49 H :    0.387213
  50 H :    0.574439
  51 H :    0.542399
  52 H :    0.621589
  53 H :    0.535843
  54 H :    0.522429
  55 S :   -0.010753
  56 F :    0.015096
  57 F :    0.000280
  58 F :   -0.000030
  59 F :    0.005136
  60 F :    0.005152
  61 F :    0.000427
  62 F :   -0.000004
  63 F :   -0.000157
  64 F :   -0.006428
  65 F :    0.000416
  66 F :   -0.000004
  67 F :   -0.000623
  68 F :   -0.006431
  69 F :    0.000065
  70 F :    0.004499
  71 F :    0.001208
  72 F :   -0.000049
  73 O :   -0.002681
  74 O :    0.032194
  75 O :   -0.000034
  76 C :   -0.002487
  77 C :    0.001236
  78 C :    0.023973
  79 C :   -0.000836
  80 C :   -0.041146
  81 C :    0.000230
  82 C :    0.012458
  83 C :   -0.001466
Sum of atomic charges:    1.0000000

--------------------------------
MULLIKEN REDUCED ORBITAL CHARGES
--------------------------------
  0 N s       :     4.041089  s :     4.041089
      pz      :     0.988559  p :     2.909509
      px      :     0.958214
      py      :     0.962735
      dz2     :     0.075204  d :     0.323828
      dxz     :     0.066092
      dyz     :     0.064137
      dx2y2   :     0.064130
      dxy     :     0.054266
      f0      :     0.000730  f :     0.004590
      f+1     :     0.000586
      f-1     :     0.000693
      f+2     :     0.000839
      f-2     :     0.000308
      f+3     :     0.000700
      f-3     :     0.000735

  1 C s       :     2.775573  s :     2.775573
      pz      :     0.443068  p :     1.266149
      px      :     0.870546
      py      :    -0.047465
      dz2     :     0.075620  d :     0.586258
      dxz     :     0.057758
      dyz     :     0.039728
      dx2y2   :     0.167475
      dxy     :     0.245677
      f0      :     0.001166  f :     0.007465
      f+1     :     0.001037
      f-1     :     0.001288
      f+2     :     0.001336
      f-2     :     0.000993
      f+3     :     0.000738
      f-3     :     0.000907

  2 C s       :     3.439806  s :     3.439806
      pz      :     1.527562  p :     4.197107
      px      :     1.253122
      py      :     1.416423
      dz2     :    -0.000700  d :     0.574253
      dxz     :     0.153907
      dyz     :     0.216465
      dx2y2   :     0.022566
      dxy     :     0.182014
      f0      :     0.000998  f :     0.005170
      f+1     :     0.000850
      f-1     :     0.000842
      f+2     :     0.000580
      f-2     :     0.000547
      f+3     :     0.000586
      f-3     :     0.000767

  3 C s       :     2.666996  s :     2.666996
      pz      :     0.892234  p :     2.250626
      px      :     0.937750
      py      :     0.420642
      dz2     :     0.054945  d :     0.127551
      dxz     :     0.205017
      dyz     :    -0.093742
      dx2y2   :    -0.010306
      dxy     :    -0.028363
      f0      :     0.001385  f :     0.007550
      f+1     :     0.000973
      f-1     :     0.000986
      f+2     :     0.000767
      f-2     :     0.000885
      f+3     :     0.001523
      f-3     :     0.001031

  4 C s       :     4.276409  s :     4.276409
      pz      :     0.849388  p :     1.877317
      px      :     0.068799
      py      :     0.959130
      dz2     :     0.236122  d :     1.254413
      dxz     :     0.282993
      dyz     :     0.128297
      dx2y2   :     0.353341
      dxy     :     0.253659
      f0      :     0.000813  f :     0.009929
      f+1     :     0.001426
      f-1     :     0.001420
      f+2     :     0.001610
      f-2     :     0.001512
      f+3     :     0.001576
      f-3     :     0.001573

  5 C s       :     3.418399  s :     3.418399
      pz      :     1.293937  p :     3.736163
      px      :     1.294773
      py      :     1.147453
      dz2     :    -0.023998  d :    -0.051723
      dxz     :     0.047417
      dyz     :     0.030733
      dx2y2   :    -0.052110
      dxy     :    -0.053763
      f0      :     0.000812  f :     0.005272
      f+1     :     0.000583
      f-1     :     0.001092
      f+2     :     0.000728
      f-2     :     0.000842
      f+3     :     0.000585
      f-3     :     0.000631

  6 C s       :     3.998042  s :     3.998042
      pz      :     0.813193  p :     2.855155
      px      :     0.994245
      py      :     1.047717
      dz2     :     0.052860  d :     0.137683
      dxz     :     0.017236
      dyz     :     0.021680
      dx2y2   :     0.075564
      dxy     :    -0.029657
      f0      :     0.001495  f :     0.007060
      f+1     :     0.001611
      f-1     :     0.001537
      f+2     :     0.000942
      f-2     :     0.000562
      f+3     :     0.000455
      f-3     :     0.000459

  7 C s       :     4.566242  s :     4.566242
      pz      :     0.554180  p :     1.127746
      px      :     0.209000
      py      :     0.364566
      dz2     :     0.146804  d :     0.535521
      dxz     :     0.102700
      dyz     :     0.107304
      dx2y2   :     0.199969
      dxy     :    -0.021257
      f0      :     0.000814  f :     0.010037
      f+1     :     0.001493
      f-1     :     0.001405
      f+2     :     0.001729
      f-2     :     0.001550
      f+3     :     0.001444
      f-3     :     0.001603

  8 C s       :     3.917852  s :     3.917852
      pz      :     0.303604  p :     1.377582
      px      :     0.492350
      py      :     0.581628
      dz2     :     0.029800  d :     0.629438
      dxz     :     0.328873
      dyz     :     0.028118
      dx2y2   :     0.249747
      dxy     :    -0.007100
      f0      :     0.001535  f :     0.009811
      f+1     :     0.001527
      f-1     :     0.000901
      f+2     :     0.001160
      f-2     :     0.002188
      f+3     :     0.001394
      f-3     :     0.001105

  9 C s       :     3.542831  s :     3.542831
      pz      :     0.693344  p :     2.592536
      px      :     0.909706
      py      :     0.989485
      dz2     :    -0.066193  d :     0.003981
      dxz     :    -0.040819
      dyz     :     0.045483
      dx2y2   :     0.072137
      dxy     :    -0.006626
      f0      :     0.000857  f :     0.007336
      f+1     :     0.000740
      f-1     :     0.001285
      f+2     :     0.001371
      f-2     :     0.001136
      f+3     :     0.000706
      f-3     :     0.001241

 10 C s       :     3.602510  s :     3.602510
      pz      :     0.733608  p :     2.670497
      px      :     1.059419
      py      :     0.877471
      dz2     :    -0.058742  d :     0.049602
      dxz     :     0.019672
      dyz     :     0.049161
      dx2y2   :     0.007933
      dxy     :     0.031578
      f0      :     0.000843  f :     0.007341
      f+1     :     0.001328
      f-1     :     0.000771
      f+2     :     0.001379
      f-2     :     0.001132
      f+3     :     0.001158
      f-3     :     0.000731

 11 C s       :     4.018106  s :     4.018106
      pz      :     1.457075  p :     4.054680
      px      :     1.495165
      py      :     1.102440
      dz2     :     0.016464  d :     0.042418
      dxz     :     0.019641
      dyz     :    -0.002046
      dx2y2   :     0.009298
      dxy     :    -0.000940
      f0      :     0.000430  f :     0.002983
      f+1     :     0.000513
      f-1     :     0.000276
      f+2     :     0.000367
      f-2     :     0.000018
      f+3     :     0.000628
      f-3     :     0.000749

 12 C s       :     3.539700  s :     3.539700
      pz      :     1.054913  p :     3.216775
      px      :     1.099562
      py      :     1.062301
      dz2     :     0.065413  d :     0.102610
      dxz     :    -0.009256
      dyz     :    -0.008318
      dx2y2   :     0.058759
      dxy     :    -0.003989
      f0      :     0.000712  f :     0.005158
      f+1     :     0.000811
      f-1     :     0.000828
      f+2     :     0.000757
      f-2     :     0.000706
      f+3     :     0.000676
      f-3     :     0.000667

 13 C s       :     3.536349  s :     3.536349
      pz      :     1.315134  p :     3.380111
      px      :     0.759075
      py      :     1.305902
      dz2     :     0.052936  d :     0.070677
      dxz     :    -0.015457
      dyz     :     0.013680
      dx2y2   :     0.019610
      dxy     :    -0.000092
      f0      :     0.000968  f :     0.005081
      f+1     :     0.000672
      f-1     :     0.000252
      f+2     :     0.000703
      f-2     :     0.000045
      f+3     :     0.001168
      f-3     :     0.001273

 14 C s       :     3.523783  s :     3.523783
      pz      :     1.241204  p :     3.246578
      px      :     1.244061
      py      :     0.761312
      dz2     :     0.033073  d :     0.054789
      dxz     :     0.019254
      dyz     :    -0.006319
      dx2y2   :     0.019661
      dxy     :    -0.010880
      f0      :     0.000865  f :     0.005117
      f+1     :     0.000342
      f-1     :     0.000728
      f+2     :     0.000683
      f-2     :     0.000145
      f+3     :     0.001267
      f-3     :     0.001087

 15 C s       :     3.740425  s :     3.740425
      pz      :     0.784640  p :     2.953625
      px      :     0.828850
      py      :     1.340134
      dz2     :     0.002364  d :     0.076218
      dxz     :     0.062034
      dyz     :    -0.002083
      dx2y2   :     0.010008
      dxy     :     0.003894
      f0      :     0.000785  f :     0.007398
      f+1     :     0.001387
      f-1     :     0.000793
      f+2     :     0.001348
      f-2     :     0.001144
      f+3     :     0.001208
      f-3     :     0.000734

 16 C s       :     3.928224  s :     3.928224
      pz      :     0.896054  p :     3.122544
      px      :     1.150773
      py      :     1.075717
      dz2     :     0.034417  d :     0.156264
      dxz     :     0.017225
      dyz     :     0.053291
      dx2y2   :     0.071535
      dxy     :    -0.020204
      f0      :     0.000868  f :     0.007421
      f+1     :     0.000754
      f-1     :     0.001294
      f+2     :     0.001392
      f-2     :     0.001147
      f+3     :     0.000675
      f-3     :     0.001290

 17 C s       :     3.393421  s :     3.393421
      pz      :     1.270026  p :     3.746468
      px      :     1.349830
      py      :     1.126611
      dz2     :     0.001176  d :     0.045857
      dxz     :     0.028814
      dyz     :    -0.004776
      dx2y2   :     0.009197
      dxy     :     0.011446
      f0      :     0.000156  f :     0.003001
      f+1     :     0.000274
      f-1     :     0.000616
      f+2     :     0.000450
      f-2     :     0.000491
      f+3     :     0.000478
      f-3     :     0.000536

 18 C s       :     3.446893  s :     3.446893
      pz      :     0.909814  p :     2.727298
      px      :     0.841368
      py      :     0.976116
      dz2     :    -0.069861  d :    -0.038467
      dxz     :     0.084512
      dyz     :     0.025202
      dx2y2   :     0.007453
      dxy     :    -0.085773
      f0      :     0.000786  f :     0.007279
      f+1     :     0.001114
      f-1     :     0.000652
      f+2     :     0.000839
      f-2     :     0.001560
      f+3     :     0.001519
      f-3     :     0.000808

 19 C s       :     3.539963  s :     3.539963
      pz      :     1.072700  p :     2.760641
      px      :     0.897741
      py      :     0.790200
      dz2     :    -0.040806  d :     0.011477
      dxz     :     0.045115
      dyz     :    -0.005815
      dx2y2   :     0.034426
      dxy     :    -0.021443
      f0      :     0.001261  f :     0.007292
      f+1     :     0.000653
      f-1     :     0.000811
      f+2     :     0.001022
      f-2     :     0.001516
      f+3     :     0.001471
      f-3     :     0.000558

 20 C s       :     3.788779  s :     3.788779
      pz      :     0.961316  p :     2.989533
      px      :     1.223971
      py      :     0.804246
      dz2     :     0.077873  d :     0.189361
      dxz     :     0.057087
      dyz     :    -0.007995
      dx2y2   :     0.006220
      dxy     :     0.056176
      f0      :     0.001275  f :     0.007240
      f+1     :     0.000662
      f-1     :     0.000774
      f+2     :     0.001050
      f-2     :     0.001484
      f+3     :     0.001457
      f-3     :     0.000539

 21 C s       :     3.689771  s :     3.689771
      pz      :     1.008246  p :     2.973962
      px      :     0.981151
      py      :     0.984565
      dz2     :    -0.005614  d :     0.143407
      dxz     :     0.033761
      dyz     :     0.044392
      dx2y2   :     0.035487
      dxy     :     0.035380
      f0      :     0.000800  f :     0.007266
      f+1     :     0.001120
      f-1     :     0.000696
      f+2     :     0.000899
      f-2     :     0.001565
      f+3     :     0.001462
      f-3     :     0.000725

 22 C s       :     3.780958  s :     3.780958
      pz      :     1.052635  p :     3.039819
      px      :     0.997203
      py      :     0.989981
      dz2     :     0.011120  d :     0.074161
      dxz     :     0.003896
      dyz     :     0.031974
      dx2y2   :     0.001333
      dxy     :     0.025837
      f0      :     0.001150  f :     0.007246
      f+1     :     0.001274
      f-1     :     0.000766
      f+2     :     0.000964
      f-2     :     0.001675
      f+3     :     0.000542
      f-3     :     0.000876

 23 H s       :     0.637980  s :     0.637980
      pz      :    -0.049522  p :    -0.001112
      px      :     0.062617
      py      :    -0.014206

 24 H s       :     0.310845  s :     0.310845
      pz      :     0.026325  p :     0.043916
      px      :     0.039453
      py      :    -0.021863

 25 H s       :     0.537126  s :     0.537126
      pz      :    -0.032294  p :    -0.001100
      px      :     0.058171
      py      :    -0.026977

 26 H s       :     0.391215  s :     0.391215
      pz      :    -0.004486  p :    -0.066363
      px      :    -0.026678
      py      :    -0.035199

 27 H s       :     0.488045  s :     0.488045
      pz      :    -0.000199  p :     0.010416
      px      :     0.015084
      py      :    -0.004469

 28 H s       :     0.430205  s :     0.430205
      pz      :     0.003405  p :     0.049866
      px      :     0.039756
      py      :     0.006705

 29 H s       :     0.420978  s :     0.420978
      pz      :    -0.002089  p :     0.006569
      px      :     0.000426
      py      :     0.008232

 30 H s       :     0.463329  s :     0.463329
      pz      :     0.001123  p :     0.012989
      px      :     0.007149
      py      :     0.004717

 31 H s       :    -0.341683  s :    -0.341683
      pz      :     0.012908  p :    -0.062374
      px      :    -0.062474
      py      :    -0.012809

 32 H s       :     0.386135  s :     0.386135
      pz      :    -0.013173  p :     0.023370
      px      :     0.022747
      py      :     0.013796

 33 H s       :     0.512925  s :     0.512925
      pz      :     0.008621  p :     0.040889
      px      :     0.030563
      py      :     0.001705

 34 H s       :     0.509960  s :     0.509960
      pz      :     0.031326  p :     0.041143
      px      :     0.015405
      py      :    -0.005589

 35 H s       :     0.557061  s :     0.557061
      pz      :     0.025396  p :     0.039780
      px      :     0.026304
      py      :    -0.011921

 36 H s       :     0.522726  s :     0.522726
      pz      :     0.009507  p :     0.019175
      px      :     0.005635
      py      :     0.004033

 37 H s       :     0.563198  s :     0.563198
      pz      :     0.000001  p :     0.027099
      px      :     0.019589
      py      :     0.007509

 38 H s       :     0.579268  s :     0.579268
      pz      :     0.004005  p :     0.029081
      px      :     0.006852
      py      :     0.018225

 39 H s       :     0.490785  s :     0.490785
      pz      :    -0.002925  p :     0.019069
      px      :     0.000292
      py      :     0.021701

 40 H s       :     0.552118  s :     0.552118
      pz      :     0.043581  p :     0.075876
      px      :     0.002103
      py      :     0.030193

 41 H s       :     0.492349  s :     0.492349
      pz      :     0.025167  p :     0.044655
      px      :     0.012201
      py      :     0.007286

 42 H s       :     0.591905  s :     0.591905
      pz      :     0.024330  p :     0.040105
      px      :     0.009987
      py      :     0.005788

 43 H s       :     0.551438  s :     0.551438
      pz      :    -0.011408  p :     0.017550
      px      :     0.022577
      py      :     0.006381

 44 H s       :     0.546256  s :     0.546256
      pz      :     0.021655  p :     0.029257
      px      :     0.001161
      py      :     0.006442

 45 H s       :     0.172102  s :     0.172102
      pz      :    -0.027284  p :    -0.059180
      px      :    -0.033114
      py      :     0.001218

 46 H s       :     0.381808  s :     0.381808
      pz      :    -0.003808  p :     0.023110
      px      :     0.002385
      py      :     0.024533

 47 H s       :     0.502876  s :     0.502876
      pz      :     0.031393  p :     0.058915
      px      :     0.014099
      py      :     0.013424

 48 H s       :     0.917374  s :     0.917374
      pz      :     0.015970  p :     0.083973
      px      :     0.066504
      py      :     0.001499

 49 H s       :     0.559095  s :     0.559095
      pz      :     0.016958  p :     0.053693
      px      :     0.017406
      py      :     0.019329

 50 H s       :     0.456174  s :     0.456174
      pz      :    -0.005250  p :    -0.030613
      px      :     0.003294
      py      :    -0.028657

 51 H s       :     0.491126  s :     0.491126
      pz      :    -0.003280  p :    -0.033525
      px      :     0.004554
      py      :    -0.034799

 52 H s       :     0.398082  s :     0.398082
      pz      :    -0.001387  p :    -0.019671
      px      :     0.004165
      py      :    -0.022450

 53 H s       :     0.455856  s :     0.455856
      pz      :    -0.009319  p :     0.008301
      px      :     0.001628
      py      :     0.015992

 54 H s       :     0.454247  s :     0.454247
      pz      :     0.013150  p :     0.023323
      px      :    -0.004298
      py      :     0.014471

 55 S s       :     0.002737  s :     0.002737
      pz      :     0.001451  p :     0.005799
      px      :     0.002453
      py      :     0.001895
      dz2     :     0.000029  d :     0.002217
      dxz     :     0.000189
      dyz     :     0.001073
      dx2y2   :     0.000950
      dxy     :    -0.000024
      f0      :     0.000000  f :     0.000000
      f+1     :     0.000000
      f-1     :    -0.000000
      f+2     :    -0.000000
      f-2     :    -0.000000
      f+3     :     0.000000
      f-3     :    -0.000000

 56 F s       :    -0.010461  s :    -0.010461
      pz      :    -0.004896  p :    -0.003761
      px      :    -0.003426
      py      :     0.004560
      dz2     :    -0.000019  d :    -0.000874
      dxz     :     0.000041
      dyz     :    -0.000802
      dx2y2   :    -0.000156
      dxy     :     0.000062
      f0      :    -0.000000  f :    -0.000000
      f+1     :    -0.000000
      f-1     :     0.000000
      f+2     :     0.000000
      f-2     :    -0.000000
      f+3     :    -0.000000
      f-3     :     0.000000

 57 F s       :    -0.000098  s :    -0.000098
      pz      :    -0.000405  p :    -0.000175
      px      :    -0.000001
      py      :     0.000230
      dz2     :    -0.000001  d :    -0.000006
      dxz     :     0.000001
      dyz     :    -0.000003
      dx2y2   :    -0.000003
      dxy     :    -0.000001
      f0      :    -0.000000  f :    -0.000000
      f+1     :    -0.000000
      f-1     :    -0.000000
      f+2     :    -0.000000
      f-2     :    -0.000000
      f+3     :    -0.000000
      f-3     :    -0.000000

 58 F s       :     0.000076  s :     0.000076
      pz      :    -0.000019  p :    -0.000042
      px      :    -0.000004
      py      :    -0.000019
      dz2     :    -0.000000  d :    -0.000004
      dxz     :    -0.000001
      dyz     :    -0.000001
      dx2y2   :    -0.000000
      dxy     :    -0.000001
      f0      :    -0.000000  f :    -0.000000
      f+1     :    -0.000000
      f-1     :    -0.000000
      f+2     :    -0.000000
      f-2     :    -0.000000
      f+3     :    -0.000000
      f-3     :    -0.000000

 59 F s       :    -0.001239  s :    -0.001239
      pz      :    -0.001723  p :    -0.004262
      px      :    -0.001633
      py      :    -0.000905
      dz2     :     0.000018  d :     0.000365
      dxz     :     0.000094
      dyz     :     0.000016
      dx2y2   :     0.000094
      dxy     :     0.000142
      f0      :    -0.000000  f :    -0.000000
      f+1     :    -0.000000
      f-1     :    -0.000000
      f+2     :    -0.000000
      f-2     :    -0.000000
      f+3     :    -0.000000
      f-3     :    -0.000000

 60 F s       :    -0.004907  s :    -0.004907
      pz      :    -0.001025  p :     0.000642
      px      :    -0.000051
      py      :     0.001718
      dz2     :    -0.000077  d :    -0.000888
      dxz     :    -0.000254
      dyz     :     0.000112
      dx2y2   :    -0.000013
      dxy     :    -0.000655
      f0      :     0.000000  f :     0.000000
      f+1     :     0.000000
      f-1     :     0.000000
      f+2     :     0.000000
      f-2     :     0.000000
      f+3     :     0.000000
      f-3     :     0.000000

 61 F s       :     0.000214  s :     0.000214
      pz      :    -0.000413  p :    -0.000651
      px      :    -0.000055
      py      :    -0.000182
      dz2     :     0.000001  d :     0.000010
      dxz     :    -0.000000
      dyz     :     0.000005
      dx2y2   :    -0.000000
      dxy     :     0.000004
      f0      :    -0.000000  f :    -0.000000
      f+1     :    -0.000000
      f-1     :    -0.000000
      f+2     :    -0.000000
      f-2     :    -0.000000
      f+3     :    -0.000000
      f-3     :    -0.000000

 62 F s       :    -0.000005  s :    -0.000005
      pz      :     0.000000  p :     0.000010
      px      :     0.000010
      py      :    -0.000001
      dz2     :    -0.000000  d :    -0.000000
      dxz     :    -0.000000
      dyz     :    -0.000000
      dx2y2   :     0.000000
      dxy     :    -0.000000
      f0      :    -0.000000  f :    -0.000000
      f+1     :    -0.000000
      f-1     :    -0.000000
      f+2     :    -0.000000
      f-2     :    -0.000000
      f+3     :    -0.000000
      f-3     :    -0.000000

 63 F s       :     0.000019  s :     0.000019
      pz      :     0.000019  p :     0.000137
      px      :     0.000039
      py      :     0.000080
      dz2     :    -0.000000  d :     0.000000
      dxz     :    -0.000001
      dyz     :     0.000001
      dx2y2   :     0.000000
      dxy     :     0.000000
      f0      :    -0.000000  f :    -0.000000
      f+1     :    -0.000000
      f-1     :    -0.000000
      f+2     :    -0.000000
      f-2     :    -0.000000
      f+3     :    -0.000000
      f-3     :    -0.000000

 64 F s       :    -0.027428  s :    -0.027428
      pz      :    -0.004084  p :     0.034412
      px      :    -0.000882
      py      :     0.039377
      dz2     :    -0.000095  d :    -0.000555
      dxz     :    -0.000040
      dyz     :    -0.000493
      dx2y2   :     0.000166
      dxy     :    -0.000093
      f0      :    -0.000000  f :    -0.000000
      f+1     :    -0.000000
      f-1     :    -0.000000
      f+2     :    -0.000000
      f-2     :     0.000000
      f+3     :     0.000000
      f-3     :    -0.000000

 65 F s       :    -0.000679  s :    -0.000679
      pz      :    -0.000357  p :     0.000273
      px      :     0.000216
      py      :     0.000414
      dz2     :    -0.000001  d :    -0.000010
      dxz     :     0.000001
      dyz     :    -0.000003
      dx2y2   :    -0.000006
      dxy     :    -0.000002
      f0      :    -0.000000  f :    -0.000000
      f+1     :    -0.000000
      f-1     :    -0.000000
      f+2     :    -0.000000
      f-2     :    -0.000000
      f+3     :    -0.000000
      f-3     :    -0.000000

 66 F s       :    -0.000021  s :    -0.000021
      pz      :     0.000011  p :     0.000025
      px      :     0.000002
      py      :     0.000011
      dz2     :     0.000000  d :     0.000000
      dxz     :     0.000000
      dyz     :     0.000000
      dx2y2   :     0.000000
      dxy     :    -0.000000
      f0      :    -0.000000  f :    -0.000000
      f+1     :    -0.000000
      f-1     :    -0.000000
      f+2     :    -0.000000
      f-2     :    -0.000000
      f+3     :    -0.000000
      f-3     :    -0.000000

 67 F s       :    -0.000099  s :    -0.000099
      pz      :     0.000334  p :     0.000712
      px      :     0.000445
      py      :    -0.000068
      dz2     :     0.000001  d :     0.000010
      dxz     :     0.000005
      dyz     :     0.000002
      dx2y2   :     0.000000
      dxy     :     0.000002
      f0      :    -0.000000  f :    -0.000000
      f+1     :    -0.000000
      f-1     :    -0.000000
      f+2     :    -0.000000
      f-2     :    -0.000000
      f+3     :    -0.000000
      f-3     :    -0.000000

 68 F s       :     0.008407  s :     0.008407
      pz      :    -0.000426  p :    -0.002874
      px      :    -0.001007
      py      :    -0.001440
      dz2     :     0.000067  d :     0.000897
      dxz     :     0.000192
      dyz     :     0.000220
      dx2y2   :     0.000290
      dxy     :     0.000129
      f0      :    -0.000000  f :    -0.000000
      f+1     :    -0.000000
      f-1     :     0.000000
      f+2     :    -0.000000
      f-2     :    -0.000000
      f+3     :     0.000000
      f-3     :    -0.000000

 69 F s       :    -0.000029  s :    -0.000029
      pz      :    -0.000006  p :    -0.000038
      px      :     0.000053
      py      :    -0.000084
      dz2     :     0.000000  d :     0.000002
      dxz     :    -0.000001
      dyz     :     0.000001
      dx2y2   :     0.000003
      dxy     :    -0.000001
      f0      :    -0.000000  f :    -0.000000
      f+1     :    -0.000000
      f-1     :    -0.000000
      f+2     :    -0.000000
      f-2     :    -0.000000
      f+3     :    -0.000000
      f-3     :    -0.000000

 70 F s       :     0.009096  s :     0.009096
      pz      :    -0.001837  p :    -0.013967
      px      :    -0.004110
      py      :    -0.008020
      dz2     :     0.000032  d :     0.000373
      dxz     :     0.000062
      dyz     :     0.000190
      dx2y2   :     0.000174
      dxy     :    -0.000086
      f0      :    -0.000000  f :     0.000000
      f+1     :     0.000000
      f-1     :    -0.000000
      f+2     :    -0.000000
      f-2     :    -0.000000
      f+3     :     0.000000
      f-3     :     0.000000

 71 F s       :    -0.000509  s :    -0.000509
      pz      :    -0.000062  p :    -0.000669
      px      :     0.000068
      py      :    -0.000675
      dz2     :    -0.000005  d :    -0.000030
      dxz     :    -0.000003
      dyz     :     0.000001
      dx2y2   :     0.000007
      dxy     :    -0.000030
      f0      :    -0.000000  f :    -0.000000
      f+1     :    -0.000000
      f-1     :    -0.000000
      f+2     :    -0.000000
      f-2     :    -0.000000
      f+3     :    -0.000000
      f-3     :    -0.000000

 72 F s       :    -0.000669  s :    -0.000669
      pz      :     0.000103  p :     0.000714
      px      :    -0.000047
      py      :     0.000657
      dz2     :    -0.000000  d :     0.000004
      dxz     :     0.000000
      dyz     :     0.000001
      dx2y2   :     0.000003
      dxy     :    -0.000000
      f0      :    -0.000000  f :    -0.000000
      f+1     :    -0.000000
      f-1     :    -0.000000
      f+2     :    -0.000000
      f-2     :    -0.000000
      f+3     :    -0.000000
      f-3     :    -0.000000

 73 O s       :     0.001573  s :     0.001573
      pz      :     0.000669  p :     0.001149
      px      :     0.000409
      py      :     0.000071
      dz2     :    -0.000043  d :    -0.000040
      dxz     :     0.000013
      dyz     :     0.000000
      dx2y2   :     0.000001
      dxy     :    -0.000012
      f0      :     0.000000  f :    -0.000000
      f+1     :    -0.000000
      f-1     :    -0.000000
      f+2     :    -0.000000
      f-2     :    -0.000000
      f+3     :    -0.000000
      f-3     :    -0.000000

 74 O s       :    -0.011374  s :    -0.011374
      pz      :     0.013617  p :    -0.020601
      px      :    -0.014033
      py      :    -0.020186
      dz2     :     0.000441  d :    -0.000220
      dxz     :    -0.000265
      dyz     :    -0.000427
      dx2y2   :     0.000975
      dxy     :    -0.000944
      f0      :    -0.000000  f :     0.000000
      f+1     :     0.000000
      f-1     :    -0.000000
      f+2     :     0.000000
      f-2     :    -0.000000
      f+3     :    -0.000000
      f-3     :     0.000000

 75 O s       :     0.002986  s :     0.002986
      pz      :    -0.003591  p :    -0.003322
      px      :     0.000049
      py      :     0.000220
      dz2     :     0.000551  d :     0.000369
      dxz     :    -0.000140
      dyz     :    -0.000070
      dx2y2   :     0.000011
      dxy     :     0.000017
      f0      :     0.000000  f :    -0.000000
      f+1     :    -0.000000
      f-1     :    -0.000000
      f+2     :    -0.000000
      f-2     :    -0.000000
      f+3     :    -0.000000
      f-3     :    -0.000000

 76 C s       :    -0.000180  s :    -0.000180
      pz      :     0.000338  p :     0.001387
      px      :    -0.000622
      py      :     0.001671
      dz2     :    -0.000534  d :     0.001280
      dxz     :     0.000530
      dyz     :     0.001325
      dx2y2   :     0.000333
      dxy     :    -0.000374
      f0      :     0.000000  f :     0.000000
      f+1     :    -0.000000
      f-1     :    -0.000000
      f+2     :     0.000000
      f-2     :    -0.000000
      f+3     :    -0.000000
      f-3     :     0.000000

 77 C s       :    -0.002666  s :    -0.002666
      pz      :     0.000602  p :     0.001121
      px      :     0.000552
      py      :    -0.000033
      dz2     :     0.000294  d :     0.000309
      dxz     :    -0.000036
      dyz     :    -0.000432
      dx2y2   :     0.000563
      dxy     :    -0.000081
      f0      :     0.000000  f :     0.000000
      f+1     :     0.000000
      f-1     :     0.000000
      f+2     :     0.000000
      f-2     :    -0.000000
      f+3     :     0.000000
      f-3     :     0.000000

 78 C s       :    -0.023668  s :    -0.023668
      pz      :    -0.001370  p :    -0.001015
      px      :     0.000055
      py      :     0.000299
      dz2     :     0.000366  d :     0.000710
      dxz     :     0.001922
      dyz     :    -0.000690
      dx2y2   :    -0.000411
      dxy     :    -0.000477
      f0      :     0.000000  f :     0.000000
      f+1     :     0.000000
      f-1     :    -0.000000
      f+2     :    -0.000000
      f-2     :     0.000000
      f+3     :     0.000000
      f-3     :    -0.000000

 79 C s       :     0.000504  s :     0.000504
      pz      :    -0.000033  p :     0.000131
      px      :     0.000017
      py      :     0.000148
      dz2     :     0.000007  d :     0.000201
      dxz     :     0.000043
      dyz     :     0.000112
      dx2y2   :     0.000003
      dxy     :     0.000036
      f0      :    -0.000000  f :    -0.000000
      f+1     :    -0.000000
      f-1     :    -0.000000
      f+2     :    -0.000000
      f-2     :    -0.000000
      f+3     :    -0.000000
      f-3     :    -0.000000

 80 C s       :     0.030930  s :     0.030930
      pz      :     0.001005  p :     0.007138
      px      :     0.002509
      py      :     0.003624
      dz2     :     0.000726  d :     0.003077
      dxz     :     0.001146
      dyz     :     0.003042
      dx2y2   :    -0.000611
      dxy     :    -0.001225
      f0      :    -0.000000  f :    -0.000000
      f+1     :    -0.000000
      f-1     :    -0.000000
      f+2     :     0.000000
      f-2     :    -0.000000
      f+3     :    -0.000000
      f-3     :     0.000000

 81 C s       :     0.000163  s :     0.000163
      pz      :    -0.000233  p :    -0.000272
      px      :     0.000005
      py      :    -0.000044
      dz2     :    -0.000025  d :    -0.000121
      dxz     :     0.000065
      dyz     :    -0.000032
      dx2y2   :    -0.000123
      dxy     :    -0.000006
      f0      :    -0.000000  f :    -0.000000
      f+1     :    -0.000000
      f-1     :    -0.000000
      f+2     :    -0.000000
      f-2     :    -0.000000
      f+3     :    -0.000000
      f-3     :    -0.000000

 82 C s       :    -0.010349  s :    -0.010349
      pz      :    -0.000832  p :    -0.003747
      px      :     0.000363
      py      :    -0.003278
      dz2     :    -0.000322  d :     0.001638
      dxz     :     0.001052
      dyz     :    -0.000287
      dx2y2   :     0.000520
      dxy     :     0.000674
      f0      :     0.000000  f :     0.000000
      f+1     :    -0.000000
      f-1     :     0.000000
      f+2     :     0.000000
      f-2     :     0.000000
      f+3     :    -0.000000
      f-3     :     0.000000

 83 C s       :     0.002500  s :     0.002500
      pz      :    -0.000833  p :    -0.001691
      px      :    -0.000197
      py      :    -0.000660
      dz2     :     0.000978  d :     0.000657
      dxz     :     0.000239
      dyz     :     0.000581
      dx2y2   :    -0.001169
      dxy     :     0.000028
      f0      :     0.000000  f :    -0.000000
      f+1     :    -0.000000
      f-1     :    -0.000000
      f+2     :    -0.000000
      f-2     :     0.000000
      f+3     :     0.000000
      f-3     :    -0.000000



                     *******************************
                     * LOEWDIN POPULATION ANALYSIS *
                     *******************************

------------------------
LOEWDIN FRAGMENT CHARGES
------------------------
 Fragment   0 :   1.240512
 Fragment   1 :  -0.240512

----------------------------
LOEWDIN FRAGMENT BOND ORDERS
----------------------------
                  0          1    
      0     331.728750   0.472819
      1       0.472819   0.245800

----------------------
LOEWDIN ATOMIC CHARGES
----------------------
   0 N :   -0.350942
   1 C :   -0.275403
   2 C :   -0.130263
   3 C :   -0.325034
   4 C :   -0.194041
   5 C :   -0.206447
   6 C :   -0.061675
   7 C :   -0.219699
   8 C :   -0.203653
   9 C :   -0.008052
  10 C :   -0.016567
  11 C :   -0.062663
  12 C :    0.007908
  13 C :    0.015588
  14 C :    0.015354
  15 C :   -0.019211
  16 C :   -0.026978
  17 C :   -0.087176
  18 C :   -0.030795
  19 C :   -0.043787
  20 C :   -0.077122
  21 C :   -0.086597
  22 C :   -0.095573
  23 H :    0.143000
  24 H :    0.126344
  25 H :    0.127270
  26 H :    0.132829
  27 H :    0.118198
  28 H :    0.118817
  29 H :    0.149727
  30 H :    0.149107
  31 H :    0.130935
  32 H :    0.130079
  33 H :    0.083827
  34 H :    0.085797
  35 H :    0.084780
  36 H :    0.118304
  37 H :    0.119364
  38 H :    0.119409
  39 H :    0.122202
  40 H :    0.105659
  41 H :    0.120149
  42 H :    0.109376
  43 H :    0.122280
  44 H :    0.119472
  45 H :    0.131547
  46 H :    0.129453
  47 H :    0.077821
  48 H :    0.077428
  49 H :    0.076858
  50 H :    0.128884
  51 H :    0.119356
  52 H :    0.117574
  53 H :    0.113819
  54 H :    0.113676
  55 S :   -0.026198
  56 F :   -0.011350
  57 F :   -0.000115
  58 F :   -0.000037
  59 F :   -0.006113
  60 F :   -0.030920
  61 F :   -0.000319
  62 F :   -0.000021
  63 F :   -0.000093
  64 F :   -0.032453
  65 F :   -0.000465
  66 F :   -0.000060
  67 F :   -0.000214
  68 F :   -0.018626
  69 F :   -0.000117
  70 F :   -0.027534
  71 F :   -0.001756
  72 F :   -0.000611
  73 O :   -0.002846
  74 O :   -0.048816
  75 O :   -0.020152
  76 C :   -0.000514
  77 C :   -0.000272
  78 C :   -0.001909
  79 C :   -0.000085
  80 C :   -0.002883
  81 C :   -0.000178
  82 C :   -0.002730
  83 C :   -0.003124

-------------------------------
LOEWDIN REDUCED ORBITAL CHARGES
-------------------------------
  0 N s       :     2.795737  s :     2.795737
      pz      :     1.082021  p :     3.279300
      px      :     1.098060
      py      :     1.099219
      dz2     :     0.252742  d :     1.250316
      dxz     :     0.236361
      dyz     :     0.238385
      dx2y2   :     0.277941
      dxy     :     0.244888
      f0      :     0.003437  f :     0.025588
      f+1     :     0.003284
      f-1     :     0.003764
      f+2     :     0.004660
      f-2     :     0.002795
      f+3     :     0.003731
      f-3     :     0.003918

  1 C s       :     2.605686  s :     2.605686
      pz      :     0.873482  p :     2.627949
      px      :     0.873855
      py      :     0.880612
      dz2     :     0.222340  d :     0.989117
      dxz     :     0.177263
      dyz     :     0.220083
      dx2y2   :     0.174289
      dxy     :     0.195141
      f0      :     0.008281  f :     0.052651
      f+1     :     0.006855
      f-1     :     0.009515
      f+2     :     0.008389
      f-2     :     0.006920
      f+3     :     0.005309
      f-3     :     0.007381

  2 C s       :     2.648686  s :     2.648686
      pz      :     0.894873  p :     2.684438
      px      :     0.900183
      py      :     0.889382
      dz2     :     0.168328  d :     0.758650
      dxz     :     0.135300
      dyz     :     0.176145
      dx2y2   :     0.112504
      dxy     :     0.166373
      f0      :     0.006286  f :     0.038490
      f+1     :     0.005127
      f-1     :     0.007199
      f+2     :     0.005055
      f-2     :     0.005179
      f+3     :     0.003735
      f-3     :     0.005909

  3 C s       :     2.613833  s :     2.613833
      pz      :     0.893131  p :     2.654929
      px      :     0.872647
      py      :     0.889151
      dz2     :     0.181354  d :     1.003027
      dxz     :     0.206770
      dyz     :     0.198350
      dx2y2   :     0.198712
      dxy     :     0.217842
      f0      :     0.008316  f :     0.053245
      f+1     :     0.006106
      f-1     :     0.007739
      f+2     :     0.006938
      f-2     :     0.007474
      f+3     :     0.009369
      f-3     :     0.007303

  4 C s       :     2.603016  s :     2.603016
      pz      :     0.784832  p :     2.533610
      px      :     0.875034
      py      :     0.873744
      dz2     :     0.176204  d :     0.998251
      dxz     :     0.183026
      dyz     :     0.183656
      dx2y2   :     0.219577
      dxy     :     0.235788
      f0      :     0.005716  f :     0.059164
      f+1     :     0.007769
      f-1     :     0.007494
      f+2     :     0.011115
      f-2     :     0.006421
      f+3     :     0.010231
      f-3     :     0.010418

  5 C s       :     2.663005  s :     2.663005
      pz      :     0.899201  p :     2.738661
      px      :     0.916677
      py      :     0.922783
      dz2     :     0.151928  d :     0.764925
      dxz     :     0.125170
      dyz     :     0.202764
      dx2y2   :     0.115779
      dxy     :     0.169284
      f0      :     0.006138  f :     0.039857
      f+1     :     0.004681
      f-1     :     0.007901
      f+2     :     0.004919
      f-2     :     0.006555
      f+3     :     0.004316
      f-3     :     0.005346

  6 C s       :     2.647677  s :     2.647677
      pz      :     0.763543  p :     2.606041
      px      :     0.917852
      py      :     0.924646
      dz2     :     0.229783  d :     0.760140
      dxz     :     0.151403
      dyz     :     0.155926
      dx2y2   :     0.163898
      dxy     :     0.059130
      f0      :     0.009366  f :     0.047817
      f+1     :     0.010790
      f-1     :     0.010014
      f+2     :     0.005171
      f-2     :     0.006277
      f+3     :     0.003079
      f-3     :     0.003119

  7 C s       :     2.606176  s :     2.606176
      pz      :     0.808811  p :     2.590730
      px      :     0.891195
      py      :     0.890725
      dz2     :     0.155737  d :     0.963324
      dxz     :     0.182640
      dyz     :     0.185766
      dx2y2   :     0.218373
      dxy     :     0.220807
      f0      :     0.005496  f :     0.059469
      f+1     :     0.008189
      f-1     :     0.007754
      f+2     :     0.011597
      f-2     :     0.006573
      f+3     :     0.009508
      f-3     :     0.010351

  8 C s       :     2.606996  s :     2.606996
      pz      :     0.875568  p :     2.547314
      px      :     0.874175
      py      :     0.797571
      dz2     :     0.209356  d :     0.990701
      dxz     :     0.228007
      dyz     :     0.165413
      dx2y2   :     0.197332
      dxy     :     0.190594
      f0      :     0.008152  f :     0.058642
      f+1     :     0.009939
      f-1     :     0.006395
      f+2     :     0.007570
      f-2     :     0.011451
      f+3     :     0.008704
      f-3     :     0.006431

  9 C s       :     2.653243  s :     2.653243
      pz      :     0.842953  p :     2.617434
      px      :     0.871465
      py      :     0.903016
      dz2     :     0.118724  d :     0.692794
      dxz     :     0.109223
      dyz     :     0.161930
      dx2y2   :     0.154515
      dxy     :     0.148402
      f0      :     0.005397  f :     0.044582
      f+1     :     0.004652
      f-1     :     0.006106
      f+2     :     0.008714
      f-2     :     0.005884
      f+3     :     0.005906
      f-3     :     0.007922

 10 C s       :     2.655940  s :     2.655940
      pz      :     0.847381  p :     2.626975
      px      :     0.903979
      py      :     0.875615
      dz2     :     0.128262  d :     0.689284
      dxz     :     0.158300
      dyz     :     0.102807
      dx2y2   :     0.145522
      dxy     :     0.154393
      f0      :     0.005186  f :     0.044368
      f+1     :     0.006325
      f-1     :     0.004865
      f+2     :     0.008780
      f-2     :     0.005819
      f+3     :     0.007429
      f-3     :     0.005965

 11 C s       :     2.721444  s :     2.721444
      pz      :     0.959578  p :     2.849267
      px      :     0.960254
      py      :     0.929435
      dz2     :     0.082510  d :     0.465892
      dxz     :     0.063325
      dyz     :     0.100597
      dx2y2   :     0.070971
      dxy     :     0.148488
      f0      :     0.002824  f :     0.026060
      f+1     :     0.003111
      f-1     :     0.003555
      f+2     :     0.004140
      f-2     :     0.002575
      f+3     :     0.004203
      f-3     :     0.005652

 12 C s       :     2.709155  s :     2.709155
      pz      :     0.898281  p :     2.734351
      px      :     0.924704
      py      :     0.911367
      dz2     :     0.157345  d :     0.511274
      dxz     :     0.067005
      dyz     :     0.070545
      dx2y2   :     0.155676
      dxy     :     0.060702
      f0      :     0.003729  f :     0.037312
      f+1     :     0.005634
      f-1     :     0.005580
      f+2     :     0.005648
      f-2     :     0.008297
      f+3     :     0.004279
      f-3     :     0.004145

 13 C s       :     2.702889  s :     2.702889
      pz      :     0.972633  p :     2.727438
      px      :     0.780000
      py      :     0.974805
      dz2     :     0.105593  d :     0.516728
      dxz     :     0.123438
      dyz     :     0.041858
      dx2y2   :     0.119364
      dxy     :     0.126475
      f0      :     0.005204  f :     0.037357
      f+1     :     0.005101
      f-1     :     0.001773
      f+2     :     0.005401
      f-2     :     0.003809
      f+3     :     0.007747
      f-3     :     0.008323

 14 C s       :     2.704661  s :     2.704661
      pz      :     0.966638  p :     2.729388
      px      :     0.974738
      py      :     0.788012
      dz2     :     0.109082  d :     0.513209
      dxz     :     0.039142
      dyz     :     0.121025
      dx2y2   :     0.121788
      dxy     :     0.122172
      f0      :     0.004742  f :     0.037388
      f+1     :     0.002442
      f-1     :     0.005009
      f+2     :     0.005375
      f-2     :     0.004461
      f+3     :     0.008215
      f-3     :     0.007143

 15 C s       :     2.656058  s :     2.656058
      pz      :     0.841345  p :     2.616601
      px      :     0.895291
      py      :     0.879966
      dz2     :     0.144597  d :     0.701549
      dxz     :     0.157653
      dyz     :     0.103936
      dx2y2   :     0.148818
      dxy     :     0.146545
      f0      :     0.005121  f :     0.045003
      f+1     :     0.006496
      f-1     :     0.005047
      f+2     :     0.008699
      f-2     :     0.006057
      f+3     :     0.007715
      f-3     :     0.005867

 16 C s       :     2.662201  s :     2.662201
      pz      :     0.844169  p :     2.625394
      px      :     0.878687
      py      :     0.902539
      dz2     :     0.135558  d :     0.694558
      dxz     :     0.105852
      dyz     :     0.159033
      dx2y2   :     0.154697
      dxy     :     0.139418
      f0      :     0.005512  f :     0.044825
      f+1     :     0.004780
      f-1     :     0.006259
      f+2     :     0.008547
      f-2     :     0.005951
      f+3     :     0.005680
      f-3     :     0.008097

 17 C s       :     2.718946  s :     2.718946
      pz      :     0.954302  p :     2.873613
      px      :     0.962245
      py      :     0.957066
      dz2     :     0.092411  d :     0.468008
      dxz     :     0.065983
      dyz     :     0.097238
      dx2y2   :     0.075650
      dxy     :     0.136726
      f0      :     0.002405  f :     0.026608
      f+1     :     0.003004
      f-1     :     0.004902
      f+2     :     0.003458
      f-2     :     0.003928
      f+3     :     0.003934
      f-3     :     0.004976

 18 C s       :     2.654054  s :     2.654054
      pz      :     0.868371  p :     2.628342
      px      :     0.935561
      py      :     0.824410
      dz2     :     0.114259  d :     0.704049
      dxz     :     0.160424
      dyz     :     0.115322
      dx2y2   :     0.166299
      dxy     :     0.147745
      f0      :     0.005327  f :     0.044350
      f+1     :     0.008079
      f-1     :     0.003511
      f+2     :     0.005450
      f-2     :     0.008121
      f+3     :     0.007909
      f-3     :     0.005953

 19 C s       :     2.663183  s :     2.663183
      pz      :     0.878693  p :     2.637444
      px      :     0.914831
      py      :     0.843920
      dz2     :     0.111936  d :     0.698940
      dxz     :     0.196415
      dyz     :     0.104034
      dx2y2   :     0.145590
      dxy     :     0.140965
      f0      :     0.007380  f :     0.044220
      f+1     :     0.004990
      f-1     :     0.005714
      f+2     :     0.005159
      f-2     :     0.008091
      f+3     :     0.007819
      f-3     :     0.005065

 20 C s       :     2.671531  s :     2.671531
      pz      :     0.889416  p :     2.668619
      px      :     0.925839
      py      :     0.853363
      dz2     :     0.113471  d :     0.691903
      dxz     :     0.199435
      dyz     :     0.109986
      dx2y2   :     0.141803
      dxy     :     0.127209
      f0      :     0.007794  f :     0.045068
      f+1     :     0.005195
      f-1     :     0.005759
      f+2     :     0.005146
      f-2     :     0.008202
      f+3     :     0.007874
      f-3     :     0.005097

 21 C s       :     2.675496  s :     2.675496
      pz      :     0.881695  p :     2.674588
      px      :     0.960709
      py      :     0.832184
      dz2     :     0.112385  d :     0.691556
      dxz     :     0.157822
      dyz     :     0.113441
      dx2y2   :     0.167652
      dxy     :     0.140255
      f0      :     0.005409  f :     0.044957
      f+1     :     0.008338
      f-1     :     0.003501
      f+2     :     0.005442
      f-2     :     0.008231
      f+3     :     0.008034
      f-3     :     0.006003

 22 C s       :     2.675206  s :     2.675206
      pz      :     0.918618  p :     2.683988
      px      :     0.920775
      py      :     0.844595
      dz2     :     0.187603  d :     0.691337
      dxz     :     0.149039
      dyz     :     0.126098
      dx2y2   :     0.092225
      dxy     :     0.136372
      f0      :     0.005838  f :     0.045042
      f+1     :     0.008721
      f-1     :     0.005846
      f+2     :     0.006926
      f-2     :     0.008881
      f+3     :     0.003810
      f-3     :     0.005020

 23 H s       :     0.635607  s :     0.635607
      pz      :     0.059318  p :     0.221393
      px      :     0.090898
      py      :     0.071177

 24 H s       :     0.656559  s :     0.656559
      pz      :     0.075857  p :     0.217098
      px      :     0.081922
      py      :     0.059318

 25 H s       :     0.658637  s :     0.658637
      pz      :     0.054688  p :     0.214093
      px      :     0.092612
      py      :     0.066792

 26 H s       :     0.646649  s :     0.646649
      pz      :     0.073667  p :     0.220522
      px      :     0.078445
      py      :     0.068409

 27 H s       :     0.671617  s :     0.671617
      pz      :     0.060804  p :     0.210185
      px      :     0.088498
      py      :     0.060883

 28 H s       :     0.671764  s :     0.671764
      pz      :     0.070699  p :     0.209419
      px      :     0.069675
      py      :     0.069045

 29 H s       :     0.645703  s :     0.645703
      pz      :     0.052294  p :     0.204570
      px      :     0.057041
      py      :     0.095235

 30 H s       :     0.646174  s :     0.646174
      pz      :     0.052073  p :     0.204719
      px      :     0.094530
      py      :     0.058116

 31 H s       :     0.660503  s :     0.660503
      pz      :     0.062699  p :     0.208562
      px      :     0.088393
      py      :     0.057469

 32 H s       :     0.667475  s :     0.667475
      pz      :     0.060759  p :     0.202445
      px      :     0.055603
      py      :     0.086083

 33 H s       :     0.697157  s :     0.697157
      pz      :     0.060056  p :     0.219016
      px      :     0.096645
      py      :     0.062315

 34 H s       :     0.699347  s :     0.699347
      pz      :     0.098204  p :     0.214856
      px      :     0.065124
      py      :     0.051528

 35 H s       :     0.690416  s :     0.690416
      pz      :     0.084509  p :     0.224804
      px      :     0.080522
      py      :     0.059773

 36 H s       :     0.672290  s :     0.672290
      pz      :     0.091688  p :     0.209406
      px      :     0.060225
      py      :     0.057492

 37 H s       :     0.672113  s :     0.672113
      pz      :     0.055484  p :     0.208523
      px      :     0.097252
      py      :     0.055787

 38 H s       :     0.672031  s :     0.672031
      pz      :     0.057860  p :     0.208560
      px      :     0.056389
      py      :     0.094312

 39 H s       :     0.668439  s :     0.668439
      pz      :     0.062089  p :     0.209359
      px      :     0.045108
      py      :     0.102163

 40 H s       :     0.663735  s :     0.663735
      pz      :     0.092470  p :     0.230606
      px      :     0.055892
      py      :     0.082244

 41 H s       :     0.671111  s :     0.671111
      pz      :     0.103538  p :     0.208740
      px      :     0.047171
      py      :     0.058031

 42 H s       :     0.665674  s :     0.665674
      pz      :     0.091499  p :     0.224949
      px      :     0.076560
      py      :     0.056890

 43 H s       :     0.670059  s :     0.670059
      pz      :     0.058885  p :     0.207661
      px      :     0.103580
      py      :     0.045195

 44 H s       :     0.671634  s :     0.671634
      pz      :     0.102084  p :     0.208894
      px      :     0.059740
      py      :     0.047071

 45 H s       :     0.663380  s :     0.663380
      pz      :     0.063201  p :     0.205073
      px      :     0.056446
      py      :     0.085426

 46 H s       :     0.672530  s :     0.672530
      pz      :     0.062126  p :     0.198016
      px      :     0.082672
      py      :     0.053218

 47 H s       :     0.705072  s :     0.705072
      pz      :     0.095840  p :     0.217107
      px      :     0.067877
      py      :     0.053391

 48 H s       :     0.691109  s :     0.691109
      pz      :     0.060646  p :     0.231463
      px      :     0.107215
      py      :     0.063602

 49 H s       :     0.693561  s :     0.693561
      pz      :     0.088793  p :     0.229581
      px      :     0.072827
      py      :     0.067961

 50 H s       :     0.663826  s :     0.663826
      pz      :     0.078274  p :     0.207290
      px      :     0.057387
      py      :     0.071629

 51 H s       :     0.675920  s :     0.675920
      pz      :     0.067894  p :     0.204725
      px      :     0.082391
      py      :     0.054439

 52 H s       :     0.683583  s :     0.683583
      pz      :     0.071314  p :     0.198843
      px      :     0.075292
      py      :     0.052237

 53 H s       :     0.688939  s :     0.688939
      pz      :     0.077496  p :     0.197241
      px      :     0.048808
      py      :     0.070937

 54 H s       :     0.689995  s :     0.689995
      pz      :     0.050053  p :     0.196329
      px      :     0.081885
      py      :     0.064391

 55 S s       :     0.001024  s :     0.001024
      pz      :     0.010538  p :     0.018788
      px      :     0.006613
      py      :     0.001637
      dz2     :     0.003642  d :     0.006384
      dxz     :     0.000946
      dyz     :     0.001038
      dx2y2   :     0.000577
      dxy     :     0.000181
      f0      :     0.000001  f :     0.000002
      f+1     :     0.000000
      f-1     :     0.000000
      f+2     :     0.000000
      f-2     :     0.000000
      f+3     :     0.000000
      f-3     :     0.000000

 56 F s       :     0.000375  s :     0.000375
      pz      :     0.004904  p :     0.010191
      px      :     0.000837
      py      :     0.004450
      dz2     :     0.000116  d :     0.000784
      dxz     :     0.000033
      dyz     :     0.000466
      dx2y2   :     0.000135
      dxy     :     0.000034
      f0      :     0.000000  f :     0.000000
      f+1     :     0.000000
      f-1     :     0.000000
      f+2     :     0.000000
      f-2     :     0.000000
      f+3     :     0.000000
      f-3     :     0.000000

 57 F s       :     0.000012  s :     0.000012
      pz      :     0.000043  p :     0.000099
      px      :     0.000011
      py      :     0.000045
      dz2     :     0.000001  d :     0.000004
      dxz     :     0.000000
      dyz     :     0.000001
      dx2y2   :     0.000001
      dxy     :     0.000001
      f0      :     0.000000  f :     0.000000
      f+1     :     0.000000
      f-1     :     0.000000
      f+2     :     0.000000
      f-2     :     0.000000
      f+3     :     0.000000
      f-3     :     0.000000

 58 F s       :     0.000009  s :     0.000009
      pz      :     0.000004  p :     0.000027
      px      :     0.000015
      py      :     0.000008
      dz2     :     0.000000  d :     0.000001
      dxz     :     0.000000
      dyz     :     0.000000
      dx2y2   :     0.000000
      dxy     :     0.000000
      f0      :     0.000000  f :     0.000000
      f+1     :     0.000000
      f-1     :     0.000000
      f+2     :     0.000000
      f-2     :     0.000000
      f+3     :     0.000000
      f-3     :     0.000000

 59 F s       :     0.000217  s :     0.000217
      pz      :     0.001292  p :     0.005460
      px      :     0.003539
      py      :     0.000629
      dz2     :     0.000019  d :     0.000435
      dxz     :     0.000178
      dyz     :     0.000027
      dx2y2   :     0.000102
      dxy     :     0.000109
      f0      :     0.000000  f :     0.000000
      f+1     :     0.000000
      f-1     :     0.000000
      f+2     :     0.000000
      f-2     :     0.000000
      f+3     :     0.000000
      f-3     :     0.000000

 60 F s       :     0.001314  s :     0.001314
      pz      :     0.008025  p :     0.024757
      px      :     0.009548
      py      :     0.007184
      dz2     :     0.000588  d :     0.004848
      dxz     :     0.001711
      dyz     :     0.000845
      dx2y2   :     0.000310
      dxy     :     0.001395
      f0      :     0.000000  f :     0.000000
      f+1     :     0.000000
      f-1     :     0.000000
      f+2     :     0.000000
      f-2     :     0.000000
      f+3     :     0.000000
      f-3     :     0.000000

 61 F s       :     0.000030  s :     0.000030
      pz      :     0.000038  p :     0.000282
      px      :     0.000106
      py      :     0.000138
      dz2     :     0.000000  d :     0.000007
      dxz     :     0.000001
      dyz     :     0.000001
      dx2y2   :     0.000002
      dxy     :     0.000002
      f0      :     0.000000  f :     0.000000
      f+1     :     0.000000
      f-1     :     0.000000
      f+2     :     0.000000
      f-2     :     0.000000
      f+3     :     0.000000
      f-3     :     0.000000

 62 F s       :     0.000011  s :     0.000011
      pz      :     0.000002  p :     0.000010
      px      :     0.000002
      py      :     0.000006
      dz2     :     0.000000  d :     0.000001
      dxz     :     0.000000
      dyz     :     0.000000
      dx2y2   :     0.000000
      dxy     :     0.000000
      f0      :     0.000000  f :     0.000000
      f+1     :     0.000000
      f-1     :     0.000000
      f+2     :     0.000000
      f-2     :     0.000000
      f+3     :     0.000000
      f-3     :     0.000000

 63 F s       :     0.000019  s :     0.000019
      pz      :     0.000037  p :     0.000070
      px      :     0.000007
      py      :     0.000026
      dz2     :     0.000002  d :     0.000004
      dxz     :     0.000000
      dyz     :     0.000001
      dx2y2   :     0.000000
      dxy     :     0.000000
      f0      :     0.000000  f :     0.000000
      f+1     :     0.000000
      f-1     :     0.000000
      f+2     :     0.000000
      f-2     :     0.000000
      f+3     :     0.000000
      f-3     :     0.000000

 64 F s       :     0.001694  s :     0.001694
      pz      :     0.005741  p :     0.026165
      px      :     0.006764
      py      :     0.013660
      dz2     :     0.000309  d :     0.004594
      dxz     :     0.000135
      dyz     :     0.001890
      dx2y2   :     0.001351
      dxy     :     0.000908
      f0      :     0.000000  f :     0.000000
      f+1     :     0.000000
      f-1     :     0.000000
      f+2     :     0.000000
      f-2     :     0.000000
      f+3     :     0.000000
      f-3     :     0.000000

 65 F s       :     0.000028  s :     0.000028
      pz      :     0.000075  p :     0.000427
      px      :     0.000029
      py      :     0.000323
      dz2     :     0.000001  d :     0.000010
      dxz     :     0.000001
      dyz     :     0.000002
      dx2y2   :     0.000003
      dxy     :     0.000002
      f0      :     0.000000  f :     0.000000
      f+1     :     0.000000
      f-1     :     0.000000
      f+2     :     0.000000
      f-2     :     0.000000
      f+3     :     0.000000
      f-3     :     0.000000

 66 F s       :     0.000034  s :     0.000034
      pz      :     0.000006  p :     0.000021
      px      :     0.000002
      py      :     0.000013
      dz2     :     0.000001  d :     0.000004
      dxz     :     0.000002
      dyz     :     0.000001
      dx2y2   :     0.000001
      dxy     :     0.000000
      f0      :     0.000000  f :     0.000000
      f+1     :     0.000000
      f-1     :     0.000000
      f+2     :     0.000000
      f-2     :     0.000000
      f+3     :     0.000000
      f-3     :     0.000000

 67 F s       :     0.000026  s :     0.000026
      pz      :     0.000095  p :     0.000177
      px      :     0.000060
      py      :     0.000022
      dz2     :     0.000002  d :     0.000011
      dxz     :     0.000005
      dyz     :     0.000001
      dx2y2   :     0.000002
      dxy     :     0.000001
      f0      :     0.000000  f :     0.000000
      f+1     :     0.000000
      f-1     :     0.000000
      f+2     :     0.000000
      f-2     :     0.000000
      f+3     :     0.000000
      f-3     :     0.000000

 68 F s       :     0.000597  s :     0.000597
      pz      :     0.002774  p :     0.015962
      px      :     0.003372
      py      :     0.009816
      dz2     :     0.000404  d :     0.002067
      dxz     :     0.000200
      dyz     :     0.000161
      dx2y2   :     0.000963
      dxy     :     0.000338
      f0      :     0.000000  f :     0.000000
      f+1     :     0.000000
      f-1     :     0.000000
      f+2     :     0.000000
      f-2     :     0.000000
      f+3     :     0.000000
      f-3     :     0.000000

 69 F s       :     0.000019  s :     0.000019
      pz      :     0.000010  p :     0.000090
      px      :     0.000042
      py      :     0.000039
      dz2     :     0.000002  d :     0.000008
      dxz     :     0.000002
      dyz     :     0.000001
      dx2y2   :     0.000001
      dxy     :     0.000003
      f0      :     0.000000  f :     0.000000
      f+1     :     0.000000
      f-1     :     0.000000
      f+2     :     0.000000
      f-2     :     0.000000
      f+3     :     0.000000
      f-3     :     0.000000

 70 F s       :     0.000840  s :     0.000840
      pz      :     0.002958  p :     0.023965
      px      :     0.012384
      py      :     0.008622
      dz2     :     0.000588  d :     0.002730
      dxz     :     0.000180
      dyz     :     0.000149
      dx2y2   :     0.001302
      dxy     :     0.000510
      f0      :     0.000000  f :     0.000000
      f+1     :     0.000000
      f-1     :     0.000000
      f+2     :     0.000000
      f-2     :     0.000000
      f+3     :     0.000000
      f-3     :     0.000000

 71 F s       :     0.000043  s :     0.000043
      pz      :     0.000136  p :     0.001682
      px      :     0.000620
      py      :     0.000927
      dz2     :     0.000004  d :     0.000031
      dxz     :     0.000004
      dyz     :     0.000004
      dx2y2   :     0.000008
      dxy     :     0.000011
      f0      :     0.000000  f :     0.000000
      f+1     :     0.000000
      f-1     :     0.000000
      f+2     :     0.000000
      f-2     :     0.000000
      f+3     :     0.000000
      f-3     :     0.000000

 72 F s       :     0.000029  s :     0.000029
      pz      :     0.000038  p :     0.000566
      px      :     0.000062
      py      :     0.000467
      dz2     :     0.000002  d :     0.000016
      dxz     :     0.000002
      dyz     :     0.000003
      dx2y2   :     0.000003
      dxy     :     0.000006
      f0      :     0.000000  f :     0.000000
      f+1     :     0.000000
      f-1     :     0.000000
      f+2     :     0.000000
      f-2     :     0.000000
      f+3     :     0.000000
      f-3     :     0.000000

 73 O s       :     0.000122  s :     0.000122
      pz      :     0.001445  p :     0.002650
      px      :     0.001073
      py      :     0.000132
      dz2     :     0.000013  d :     0.000075
      dxz     :     0.000022
      dyz     :     0.000009
      dx2y2   :     0.000018
      dxy     :     0.000012
      f0      :     0.000000  f :     0.000000
      f+1     :     0.000000
      f-1     :     0.000000
      f+2     :     0.000000
      f-2     :     0.000000
      f+3     :     0.000000
      f-3     :     0.000000

 74 O s       :     0.002511  s :     0.002511
      pz      :     0.012998  p :     0.035745
      px      :     0.017115
      py      :     0.005631
      dz2     :     0.002722  d :     0.010559
      dxz     :     0.003569
      dyz     :     0.000667
      dx2y2   :     0.001817
      dxy     :     0.001784
      f0      :     0.000000  f :     0.000001
      f+1     :     0.000000
      f-1     :     0.000000
      f+2     :     0.000000
      f-2     :     0.000000
      f+3     :     0.000000
      f-3     :     0.000000

 75 O s       :     0.001052  s :     0.001052
      pz      :     0.012532  p :     0.015330
      px      :     0.002006
      py      :     0.000792
      dz2     :     0.002517  d :     0.003770
      dxz     :     0.000798
      dyz     :     0.000324
      dx2y2   :     0.000049
      dxy     :     0.000083
      f0      :     0.000000  f :     0.000000
      f+1     :     0.000000
      f-1     :     0.000000
      f+2     :     0.000000
      f-2     :     0.000000
      f+3     :     0.000000
      f-3     :     0.000000

 76 C s       :     0.000264  s :     0.000264
      pz      :     0.000019  p :     0.000038
      px      :     0.000004
      py      :     0.000016
      dz2     :     0.000038  d :     0.000211
      dxz     :     0.000005
      dyz     :     0.000104
      dx2y2   :     0.000051
      dxy     :     0.000013
      f0      :     0.000000  f :     0.000000
      f+1     :     0.000000
      f-1     :     0.000000
      f+2     :     0.000000
      f-2     :     0.000000
      f+3     :     0.000000
      f-3     :     0.000000

 77 C s       :     0.000144  s :     0.000144
      pz      :     0.000004  p :     0.000012
      px      :     0.000005
      py      :     0.000003
      dz2     :     0.000015  d :     0.000116
      dxz     :     0.000023
      dyz     :     0.000007
      dx2y2   :     0.000048
      dxy     :     0.000022
      f0      :     0.000000  f :     0.000000
      f+1     :     0.000000
      f-1     :     0.000000
      f+2     :     0.000000
      f-2     :     0.000000
      f+3     :     0.000000
      f-3     :     0.000000

 78 C s       :     0.000608  s :     0.000608
      pz      :     0.000026  p :     0.000096
      px      :     0.000046
      py      :     0.000025
      dz2     :     0.000082  d :     0.001204
      dxz     :     0.000372
      dyz     :     0.000255
      dx2y2   :     0.000076
      dxy     :     0.000420
      f0      :     0.000000  f :     0.000001
      f+1     :     0.000000
      f-1     :     0.000000
      f+2     :     0.000000
      f-2     :     0.000000
      f+3     :     0.000000
      f-3     :     0.000000

 79 C s       :     0.000071  s :     0.000071
      pz      :     0.000002  p :     0.000005
      px      :     0.000001
      py      :     0.000003
      dz2     :     0.000002  d :     0.000009
      dxz     :     0.000001
      dyz     :     0.000002
      dx2y2   :     0.000001
      dxy     :     0.000001
      f0      :     0.000000  f :     0.000000
      f+1     :     0.000000
      f-1     :     0.000000
      f+2     :     0.000000
      f-2     :     0.000000
      f+3     :     0.000000
      f-3     :     0.000000

 80 C s       :     0.000797  s :     0.000797
      pz      :     0.000041  p :     0.000216
      px      :     0.000060
      py      :     0.000115
      dz2     :     0.000267  d :     0.001870
      dxz     :     0.000083
      dyz     :     0.000405
      dx2y2   :     0.000333
      dxy     :     0.000781
      f0      :     0.000000  f :     0.000001
      f+1     :     0.000000
      f-1     :     0.000000
      f+2     :     0.000000
      f-2     :     0.000000
      f+3     :     0.000000
      f-3     :     0.000000

 81 C s       :     0.000130  s :     0.000130
      pz      :     0.000004  p :     0.000010
      px      :     0.000004
      py      :     0.000002
      dz2     :     0.000011  d :     0.000038
      dxz     :     0.000008
      dyz     :     0.000006
      dx2y2   :     0.000006
      dxy     :     0.000007
      f0      :     0.000000  f :     0.000000
      f+1     :     0.000000
      f-1     :     0.000000
      f+2     :     0.000000
      f-2     :     0.000000
      f+3     :     0.000000
      f-3     :     0.000000

 82 C s       :     0.000670  s :     0.000670
      pz      :     0.000013  p :     0.000137
      px      :     0.000044
      py      :     0.000080
      dz2     :     0.000371  d :     0.001922
      dxz     :     0.000157
      dyz     :     0.000083
      dx2y2   :     0.000384
      dxy     :     0.000926
      f0      :     0.000000  f :     0.000001
      f+1     :     0.000000
      f-1     :     0.000000
      f+2     :     0.000000
      f-2     :     0.000000
      f+3     :     0.000000
      f-3     :     0.000000

 83 C s       :     0.000820  s :     0.000820
      pz      :     0.000011  p :     0.000170
      px      :     0.000104
      py      :     0.000055
      dz2     :     0.000439  d :     0.002134
      dxz     :     0.000073
      dyz     :     0.000144
      dx2y2   :     0.000487
      dxy     :     0.000991
      f0      :     0.000000  f :     0.000001
      f+1     :     0.000000
      f-1     :     0.000000
      f+2     :     0.000000
      f-2     :     0.000000
      f+3     :     0.000000
      f-3     :     0.000000



                      *****************************
                      * MAYER POPULATION ANALYSIS *
                      *****************************

  NA   - Mulliken gross atomic population
  ZA   - Total nuclear charge
  QA   - Mulliken gross atomic charge
  VA   - Mayer's total valence
  BVA  - Mayer's bonded valence
  FA   - Mayer's free valence

  ATOM       NA         ZA         QA         VA         BVA        FA
  0 N      7.2790     7.0000    -0.2790     3.9792     3.9792    -0.0000
  1 C      4.6354     6.0000     1.3646     3.6528     3.6528    -0.0000
  2 C      8.2163     6.0000    -2.2163     6.0325     6.0325     0.0000
  3 C      5.0527     6.0000     0.9473     2.5287     2.5287    -0.0000
  4 C      7.4181     6.0000    -1.4181     3.3056     3.3056    -0.0000
  5 C      7.1081     6.0000    -1.1081     2.7202     2.7202     0.0000
  6 C      6.9979     6.0000    -0.9979     2.5816     2.5816    -0.0000
  7 C      6.2395     6.0000    -0.2395     0.4954     0.4954    -0.0000
  8 C      5.9347     6.0000     0.0653     3.0492     3.0492     0.0000
  9 C      6.1467     6.0000    -0.1467     1.1320     1.1320    -0.0000
 10 C      6.3300     6.0000    -0.3300     2.5415     2.5415     0.0000
 11 C      8.1182     6.0000    -2.1182     2.6946     2.6946     0.0000
 12 C      6.8642     6.0000    -0.8642     3.3925     3.3925     0.0000
 13 C      6.9922     6.0000    -0.9922     3.5177     3.5177    -0.0000
 14 C      6.8303     6.0000    -0.8303     3.4715     3.4715    -0.0000
 15 C      6.7777     6.0000    -0.7777     1.6049     1.6049     0.0000
 16 C      7.2145     6.0000    -1.2145     2.7185     2.7185    -0.0000
 17 C      7.1887     6.0000    -1.1887     3.9571     3.9571    -0.0000
 18 C      6.1430     6.0000    -0.1430     2.7019     2.7019     0.0000
 19 C      6.3194     6.0000    -0.3194     2.8710     2.8710     0.0000
 20 C      6.9749     6.0000    -0.9749     3.2874     3.2874    -0.0000
 21 C      6.8144     6.0000    -0.8144     3.4883     3.4883     0.0000
 22 C      6.9022     6.0000    -0.9022     3.2634     3.2634    -0.0000
 23 H      0.6369     1.0000     0.3631     0.8510     0.8510     0.0000
 24 H      0.3548     1.0000     0.6452     0.7145     0.7145    -0.0000
 25 H      0.5360     1.0000     0.4640     0.8127     0.8127    -0.0000
 26 H      0.3249     1.0000     0.6751     0.2431     0.2431    -0.0000
 27 H      0.4985     1.0000     0.5015     0.6122     0.6122     0.0000
 28 H      0.4801     1.0000     0.5199     0.6678     0.6678    -0.0000
 29 H      0.4275     1.0000     0.5725     0.5994     0.5994     0.0000
 30 H      0.4763     1.0000     0.5237     0.6754     0.6754     0.0000
 31 H     -0.4041     1.0000     1.4041    -1.2744    -1.2744     0.0000
 32 H      0.4095     1.0000     0.5905     0.5364     0.5364     0.0000
 33 H      0.5538     1.0000     0.4462     0.8552     0.8552     0.0000
 34 H      0.5511     1.0000     0.4489     0.8575     0.8575     0.0000
 35 H      0.5968     1.0000     0.4032     0.8871     0.8871    -0.0000
 36 H      0.5419     1.0000     0.4581     0.8034     0.8034    -0.0000
 37 H      0.5903     1.0000     0.4097     0.8666     0.8666     0.0000
 38 H      0.6083     1.0000     0.3917     0.8931     0.8931     0.0000
 39 H      0.5099     1.0000     0.4901     0.7441     0.7441    -0.0000
 40 H      0.6280     1.0000     0.3720     0.9877     0.9877    -0.0000
 41 H      0.5370     1.0000     0.4630     0.8392     0.8392    -0.0000
 42 H      0.6320     1.0000     0.3680     0.9114     0.9114     0.0000
 43 H      0.5690     1.0000     0.4310     0.8012     0.8012     0.0000
 44 H      0.5755     1.0000     0.4245     0.8096     0.8096    -0.0000
 45 H      0.1129     1.0000     0.8871     0.0076     0.0076     0.0000
 46 H      0.4049     1.0000     0.5951     0.5541     0.5541     0.0000
 47 H      0.5618     1.0000     0.4382     0.8521     0.8521     0.0000
 48 H      1.0013     1.0000    -0.0013     1.2601     1.2601    -0.0000
 49 H      0.6128     1.0000     0.3872     0.9389     0.9389     0.0000
 50 H      0.4256     1.0000     0.5744     0.5394     0.5394    -0.0000
 51 H      0.4576     1.0000     0.5424     0.5621     0.5621    -0.0000
 52 H      0.3784     1.0000     0.6216     0.4683     0.4683     0.0000
 53 H      0.4642     1.0000     0.5358     0.6361     0.6361     0.0000
 54 H      0.4776     1.0000     0.5224     0.7097     0.7097    -0.0000
 55 S      0.0108     0.0000    -0.0108     0.0216     0.0216     0.0000
 56 F     -0.0151     0.0000     0.0151    -0.0303    -0.0303     0.0000
 57 F     -0.0003     0.0000     0.0003    -0.0006    -0.0006    -0.0000
 58 F      0.0000     0.0000    -0.0000     0.0001     0.0001    -0.0000
 59 F     -0.0051     0.0000     0.0051    -0.0103    -0.0103     0.0000
 60 F     -0.0052     0.0000     0.0052    -0.0121    -0.0121    -0.0000
 61 F     -0.0004     0.0000     0.0004    -0.0009    -0.0009     0.0000
 62 F      0.0000     0.0000    -0.0000     0.0000     0.0000    -0.0000
 63 F      0.0002     0.0000    -0.0002     0.0003     0.0003     0.0000
 64 F      0.0064     0.0000    -0.0064     0.0119     0.0119    -0.0000
 65 F     -0.0004     0.0000     0.0004    -0.0008    -0.0008    -0.0000
 66 F      0.0000     0.0000    -0.0000     0.0000     0.0000     0.0000
 67 F      0.0006     0.0000    -0.0006     0.0012     0.0012    -0.0000
 68 F      0.0064     0.0000    -0.0064     0.0129     0.0129    -0.0000
 69 F     -0.0001     0.0000     0.0001    -0.0001    -0.0001     0.0000
 70 F     -0.0045     0.0000     0.0045    -0.0090    -0.0090     0.0000
 71 F     -0.0012     0.0000     0.0012    -0.0024    -0.0024    -0.0000
 72 F      0.0000     0.0000    -0.0000     0.0001     0.0001    -0.0000
 73 O      0.0027     0.0000    -0.0027     0.0054     0.0054     0.0000
 74 O     -0.0322     0.0000     0.0322    -0.0703    -0.0703     0.0000
 75 O      0.0000     0.0000    -0.0000     0.0001     0.0001     0.0000
 76 C      0.0025     0.0000    -0.0025     0.0050     0.0050    -0.0000
 77 C     -0.0012     0.0000     0.0012    -0.0025    -0.0025     0.0000
 78 C     -0.0240     0.0000     0.0240    -0.0487    -0.0487     0.0000
 79 C      0.0008     0.0000    -0.0008     0.0017     0.0017    -0.0000
 80 C      0.0411     0.0000    -0.0411     0.0810     0.0810    -0.0000
 81 C     -0.0002     0.0000     0.0002    -0.0005    -0.0005    -0.0000
 82 C     -0.0125     0.0000     0.0125    -0.0251    -0.0251     0.0000
 83 C      0.0015     0.0000    -0.0015     0.0029     0.0029    -0.0000

  Mayer bond orders larger than 0.100000
B(  0-N ,  6-C ) :   0.9845 B(  0-N ,  7-C ) :   0.1908 B(  0-N , 12-C ) :   1.0337 
B(  0-N , 13-C ) :   1.0651 B(  0-N , 14-C ) :   1.0102 B(  1-C ,  2-C ) :   1.2975 
B(  1-C ,  3-C ) :   0.1903 B(  1-C ,  4-C ) :   1.7396 B(  1-C ,  7-C ) :   0.1504 
B(  1-C ,  9-C ) :  -0.3120 B(  1-C , 15-C ) :  -0.1330 B(  1-C , 16-C ) :  -0.1861 
B(  1-C , 17-C ) :   0.2680 B(  1-C , 20-C ) :   0.1290 B(  1-C , 23-H ) :   0.3346 
B(  1-C , 28-H ) :   0.1397 B(  1-C , 50-H ) :  -0.1021 B(  1-C , 74-O ) :   0.1004 
B(  2-C ,  3-C ) :   1.2750 B(  2-C ,  4-C ) :   0.1776 B(  2-C ,  5-C ) :   1.1514 
B(  2-C ,  6-C ) :  -0.1131 B(  2-C ,  8-C ) :   0.9263 B(  2-C ,  9-C ) :   0.1192 
B(  2-C , 11-C ) :   0.6294 B(  2-C , 18-C ) :  -0.1283 B(  2-C , 24-H ) :   0.3546 
B(  2-C , 25-H ) :   0.6466 B(  2-C , 26-H ) :  -0.1628 B(  2-C , 28-H ) :  -0.1150 
B(  3-C ,  4-C ) :   0.1902 B(  3-C ,  8-C ) :   0.8920 B(  3-C , 10-C ) :  -0.2434 
B(  3-C , 11-C ) :  -0.5266 B(  3-C , 16-C ) :   0.1401 B(  3-C , 18-C ) :   0.4822 
B(  3-C , 20-C ) :  -0.1044 B(  3-C , 25-H ) :  -0.1401 B(  3-C , 26-H ) :   0.6043 
B(  3-C , 33-H ) :  -0.1379 B(  3-C , 34-H ) :  -0.1110 B(  3-C , 35-H ) :  -0.1082 
B(  4-C ,  5-C ) :   0.2537 B(  4-C ,  6-C ) :   0.3388 B(  4-C ,  9-C ) :   0.4361 
B(  4-C , 10-C ) :  -0.2336 B(  4-C , 15-C ) :   0.1466 B(  4-C , 16-C ) :   0.2421 
B(  4-C , 17-C ) :   0.1324 B(  4-C , 19-C ) :   0.2200 B(  4-C , 20-C ) :  -0.1207 
B(  4-C , 23-H ) :   0.6849 B(  4-C , 24-H ) :   0.1141 B(  4-C , 25-H ) :  -0.1173 
B(  4-C , 31-H ) :  -0.4459 B(  4-C , 45-H ) :  -0.1177 B(  5-C ,  9-C ) :  -0.1526 
B(  5-C , 10-C ) :  -0.2322 B(  5-C , 16-C ) :   0.1438 B(  5-C , 17-C ) :   0.5450 
B(  5-C , 23-H ) :  -0.2188 B(  5-C , 25-H ) :   0.1452 B(  5-C , 27-H ) :   0.6357 
B(  5-C , 28-H ) :   0.6656 B(  5-C , 48-H ) :  -0.1857 B(  6-C ,  7-C ) :   0.8988 
B(  6-C ,  8-C ) :   0.1111 B(  6-C , 13-C ) :  -0.1998 B(  6-C , 14-C ) :  -0.2063 
B(  6-C , 15-C ) :  -0.1122 B(  6-C , 18-C ) :   0.1407 B(  6-C , 20-C ) :  -0.3289 
B(  6-C , 29-H ) :   0.5360 B(  6-C , 30-H ) :   0.5668 B(  6-C , 50-H ) :   0.1599 
B(  7-C ,  8-C ) :  -0.1150 B(  7-C ,  9-C ) :  -0.2496 B(  7-C , 10-C ) :   0.2635 
B(  7-C , 13-C ) :   0.1538 B(  7-C , 15-C ) :  -0.4267 B(  7-C , 18-C ) :  -0.3020 
B(  7-C , 20-C ) :   0.3873 B(  7-C , 45-H ) :  -0.1390 B(  7-C , 46-H ) :  -0.1408 
B(  7-C , 50-H ) :  -0.2361 B(  7-C , 52-H ) :   0.2165 B(  8-C , 13-C ) :   0.1499 
B(  8-C , 18-C ) :   0.3298 B(  8-C , 19-C ) :   0.9750 B(  8-C , 21-C ) :   0.1071 
B(  9-C , 10-C ) :   0.5591 B(  9-C , 15-C ) :   1.0500 B(  9-C , 23-H ) :   0.6320 
B(  9-C , 31-H ) :  -1.1221 B(  9-C , 32-H ) :   0.1888 B( 10-C , 15-C ) :   0.2941 
B( 10-C , 16-C ) :   1.5139 B( 10-C , 18-C ) :   0.2087 B( 10-C , 20-C ) :  -0.1368 
B( 10-C , 23-H ) :  -0.4144 B( 10-C , 25-H ) :   0.1259 B( 10-C , 31-H ) :   0.1676 
B( 10-C , 32-H ) :   0.6317 B( 11-C , 26-H ) :  -0.1860 B( 11-C , 33-H ) :   0.8666 
B( 11-C , 34-H ) :   0.8710 B( 11-C , 35-H ) :   0.8939 B( 12-C , 36-H ) :   0.7408 
B( 12-C , 37-H ) :   0.8408 B( 12-C , 38-H ) :   0.8544 B( 13-C , 15-C ) :   0.1822 
B( 13-C , 39-H ) :   0.6782 B( 13-C , 40-H ) :   1.0818 B( 13-C , 41-H ) :   0.7049 
B( 13-C , 45-H ) :  -0.1030 B( 14-C , 42-H ) :   1.0092 B( 14-C , 43-H ) :   0.7554 
B( 14-C , 44-H ) :   0.7668 B( 15-C , 16-C ) :   0.2633 B( 15-C , 18-C ) :   0.1325 
B( 15-C , 30-H ) :   0.1102 B( 15-C , 45-H ) :   0.1576 B( 15-C , 46-H ) :   0.1971 
B( 16-C , 18-C ) :  -0.1762 B( 16-C , 20-C ) :   0.1278 B( 16-C , 32-H ) :  -0.1524 
B( 16-C , 45-H ) :   0.1647 B( 16-C , 46-H ) :   0.4958 B( 16-C , 52-H ) :  -0.1279 
B( 17-C , 47-H ) :   0.7521 B( 17-C , 48-H ) :   1.3118 B( 17-C , 49-H ) :   0.9251 
B( 18-C , 19-C ) :  -0.2263 B( 18-C , 20-C ) :   1.4392 B( 18-C , 21-C ) :   0.1125 
B( 18-C , 26-H ) :   0.1721 B( 18-C , 50-H ) :   0.5757 B( 19-C , 21-C ) :   1.3076 
B( 19-C , 51-H ) :   0.6084 B( 20-C , 22-C ) :   1.3293 B( 20-C , 52-H ) :   0.4796 
B( 21-C , 22-C ) :   1.4615 B( 21-C , 51-H ) :  -0.1152 B( 21-C , 53-H ) :   0.6191 
B( 22-C , 54-H ) :   0.6596 

-------
TIMINGS
-------

Total SCF time: 0 days 0 hours 11 min 44 sec 

Total time                  ....     704.881 sec
Sum of individual times     ....     643.824 sec  ( 91.3%)

SCF preparation             ....       3.962 sec  (  0.6%)
Fock matrix formation       ....     615.975 sec  ( 87.4%)
  Startup                   ....       0.638 sec  (  0.1% of F)
  Split-RI-J                ....      26.446 sec  (  4.3% of F)
  Chain of spheres X        ....     581.921 sec  ( 94.5% of F)
  XC integration            ....      35.749 sec  (  5.8% of F)
    XC Preparation          ....       0.000 sec  (  0.0% of XC)
    Basis function eval.    ....       4.508 sec  ( 12.6% of XC)
    Density eval.           ....      15.500 sec  ( 43.4% of XC)
    XC-Functional eval.     ....       0.116 sec  (  0.3% of XC)
    XC-Potential eval.      ....      11.539 sec  ( 32.3% of XC)
  CPCM terms                ....      29.593 sec  (  4.8% of F)
Diagonalization             ....       0.000 sec  (  0.0%)
Density matrix formation    ....       2.125 sec  (  0.3%)
Total Energy calculation    ....       1.334 sec  (  0.2%)
Population analysis         ....       1.232 sec  (  0.2%)
Orbital Transformation      ....       2.931 sec  (  0.4%)
Orbital Orthonormalization  ....       0.000 sec  (  0.0%)
DIIS solution               ....      12.169 sec  (  1.7%)
SOSCF solution              ....       4.096 sec  (  0.6%)
Finished LeanSCF after 705.9 sec

Maximum memory used throughout the entire LEANSCF-calculation: 683.4 MB


-------------------------------------------------------------------------------
                          DFT DISPERSION CORRECTION                            
                                                                               
                              DFTD3 V3.1  Rev 1                                
                              USING zero damping                               
-------------------------------------------------------------------------------
The omegaB97X-D3 functional is recognized. Fit by Chai et al.
Active option DFTDOPT                   ...         3   

molecular C6(AA) [au] = 26517.713521 


            DFT-D V3
 parameters
 s6 scaling factor         :     1.0000 
 rs6 scaling factor        :     1.2810 
 s8 scaling factor         :     1.0000 
 rs8 scaling factor        :     1.0940 
 Damping factor alpha6     :    14.0000 
 Damping factor alpha8     :    16.0000 
 ad hoc parameters k1-k3   :    16.0000     1.3333    -4.0000 

 Edisp/kcal,au: -18.570989506110  -0.029594752418 
 E6   /kcal   :  -9.072794378 
 E8   /kcal   :  -9.498195129 
 % E8         :  51.145336792 

-------------------------   ----------------
Dispersion correction           -0.029594752
-------------------------   ----------------


-------------------------   --------------------
FINAL SINGLE POINT ENERGY      -912.342246768598
-------------------------   --------------------



           ************************************************************
           *        Program running with 32 parallel MPI-processes    *
           *              working on a common directory               *
           ************************************************************

------------------------------------------------------------------------------
                              ORCA PROPERTY CALCULATIONS
------------------------------------------------------------------------------

GBWName                                 ... R4N+PFOS-_frag1.gbw
Number of atoms                         ...     84
Number of basis functions               ...   2281
Max core memory                         ...   4000 MB

Electric properties:
Dipole moment                           ... YES
Quadrupole moment                       ...  NO
Static polarizability (Dipole/Dipole)   ...  NO
Static polarizability (Dipole/Quad.)    ...  NO
Static polarizability (Quad./Quad.)     ...  NO
Static polarizability (Velocity)        ...  NO
Static hyperpolarizability              ...  NO

Atomic electric properties:
Dipole moment                           ...  NO
Quadrupole moment                       ...  NO
Static polarizability                   ...  NO

Choice of electric origin               ... Center of mass
Position of electric origin             ...     3.361640    -4.507667     3.579731

General magnetic properties:
Magnetizability                         ...  NO

EPR properties:
g-Tensor (aka g-matrix)                 ...  NO
Zero-Field splitting spin-orbit         ...  NO
Zero-field splitting spin-spin          ...  NO
Hyperfine couplings                     ...  NO (   0 nuclei)
Quadrupole couplings                    ...  NO (   0 nuclei)
Contact density                         ...  NO (   0 nuclei)

NMR properties:
Chemical shifts                         ...  NO (   0 nuclei)
Spin-rotation constants                 ...  NO (   0 nuclei)
Spin-spin couplings                     ...  NO (   0 nuclei,    0 pairs)

Choice of magnetic origin               ... GIAO
Position of magnetic origin             ...     0.000000     0.000000     0.000000

Properties with geometric perturbations:
SCF Hessian                             ...  NO
IR spectrum                             ...  NO
VCD spectrum                            ...  NO
X-ray spectroscopy properties:
SCF XES/XAS/RIXS spectra                ...  NO

SCF SOC stabilization energy            ...  NO
Diagonal Born-Oppenheimer correction    ...  NO

-------------
DIPOLE MOMENT
-------------

Method             : SCF
Type of density    : Electron Density
Multiplicity       :   1
Irrep              :   0
Energy             :  -912.3126520161795270 Eh
Basis              : AO
                                X                 Y                 Z
Electronic contribution:      6.578366269       1.940086974       0.291408117
Nuclear contribution   :    -11.042083001       1.263259568       5.227879929
                        -----------------------------------------
Total Dipole Moment    :     -4.463716732       3.203346542       5.519288045
                        -----------------------------------------
Magnitude (a.u.)       :      7.787729878
Magnitude (Debye)      :     19.794836229



--------------------
Rotational spectrum 
--------------------
 
Rotational constants in cm-1:             0.011155             0.005415             0.004458 
Rotational constants in MHz :           334.417317           162.333891           133.652386 

Dipole components along the rotational axes: 
x,y,z [a.u.] :    -7.653561     1.342946    -0.517922 
x,y,z [Debye]:   -19.453805     3.413497    -1.316454 

 

Dipole moment calculation done in   0.3 sec 

Maximum memory used throughout the entire PROP-calculation: 436.1 MB

--------------------------------
SUGGESTED CITATIONS FOR THIS RUN
--------------------------------

Below you find a list of papers that are relevant to this ORCA run
We neither can nor want to force you to cite these papers, but we appreciate if you do
You receive ORCA, which is the product of decades of hard work by many enthusiastic individuals, for free
The only thing we kindly ask in return is that you cite our papers,
We deeply appreciate it, if you show your appreciation for ORCA by not just citing the generic ORCA reference.

Please note that relegating all ORCA citations to the supporting information does *not* help us.
SI sections are not indexed - citations you put there will not count into any citation statistics
But we need these citations in order to attract the funding resources that allow us to do what we are doing

Therefore, if you are a happy ORCA user, please consider citing a few of the papers listed below in the main body of your paper

In addition to the list printed below, the program has created the file R4N+PFOS-_frag1.bibtex that contains the list in bibtex format
You can import this file easily into all common literature databanks and citation aid programs


List of essential papers. We consider these as the minimum necessary citations

  1. Neese, F.
     Software update: the ORCA program system, version 6.0
     WIRES Comput. Molec. Sci. 2025 15(1), e70019
     doi.org/10.1002/wcms.7019

List of papers to cite with high priority. The work reported in these papers was absolutely
necessary for this run to complete.
Our perspective: the developers of density functionals and basis sets usually get cited in chemistry papers
Good! But without the algorithms to do something with them, the functionals or basis sets would not do anything.
Hence, in our opinion, the algorithm design and method developments papers are equally worthy of getting cited

  1. Neese, F.
     An improvement of the resolution of the identity approximation for the formation of the Coulomb matrix
     J. Comp. Chem. 2003 24(14), 1740-1747
     doi.org/10.1002/jcc.10318
  2. Neese, F.; Wennmohs, F.; Hansen, A.; Becker, U.
     Efficient, approximate and parallel Hartree-Fock and hybrid DFT calculations. A 'chain-of-spheres' algorithm for the Hartree-Fock exchange
     Chem. Phys. 2009 356(1-3), 98-109
     doi.org/10.1016/j.chemphys.2008.10.036
  3. Grimme, S.; Antony, J.; Ehrlich, S.; Krieg, H.
     A consistent and accurate ab initio parametrization of density functional dispersion correction (DFT-D) for the 94 elements H-Pu
     J. Chem. Phys. 2010 132 , 154104
     doi.org/10.1063/1.3382344
  4. Garcia-Rates, M.; Neese, F.
     Effect of the Solute Cavity on the Solvation Energy and its Derivatives within the Framework of the Gaussian Charge Scheme
     J. Comput. Chem. 2020 41 , 922-939
     doi.org/10.1002/jcc.26139
  5. Helmich-Paris, B.; de Souza, B.; Neese, F.; Izsák, R.
     An improved chain of spheres for exchange algorithm
     J. Chem. Phys. 2021 155(10), 104109
     doi.org/10.1063/5.0058766
  6. Neese, F.
     The SHARK Integral Generation and Digestion System
     J. Comp. Chem. 2022 44(3), 381
     doi.org/10.1002/jcc.26942

List of suggested additional citations. These are papers that are important in the 'surrounding' of 
of this run, or papers that preceded the highly important papers. If you like your results we are grateful for a citation.

  1. Izsak, R.; Neese, F.
     An overlap fitted chain of spheres exchange method
     J. Chem. Phys. 2011 135 , 144105
     doi.org/10.1063/1.3646921
  2. Izsak, R.; Hansen, A.; Neese, F.
     The resolution of identity and chain of spheres approximations for the LPNO-CCSD singles Fock term
     Molec. Phys. 2012 110 , 2413-2417
     doi.org/10.1080/00268976.2012.687466
  3. Neese, F.
     The ORCA program system
     WIRES Comput. Molec. Sci. 2012 2(1), 73-78
     doi.org/10.1002/wcms.81
  4. Izsak, R.; Neese, F.; Klopper, W.
     Robust fitting techniques in the chain of spheres approximation to the Fock exchange: The role of the complementary space
     J. Chem. Phys. 2013 139 , 
     doi.org/10.1063/1.4819264
  5. Neese, F.
     Software update: the ORCA program system, version 4.0
     WIRES Comput. Molec. Sci. 2018 8(1), 1-6
     doi.org/10.1002/wcms.1327
  6. Neese, F.; Wennmohs, F.; Becker, U.; Riplinger, C.
     The ORCA quantum chemistry program package
     J. Chem. Phys. 2020 152(22), 224108
     doi.org/10.1063/5.0004608
  7. Neese, F.
     Software update: The ORCA program system—Version 5.0
     WIRES Comput. Molec. Sci. 2022 12(1), e1606
     doi.org/10.1002/wcms.1606

List of optional additional citations

  1. Neese, F.
     Approximate second-order SCF convergence for spin unrestricted wavefunctions
     Chem. Phys. Lett. 2000 325(1-3), 93-98
     doi.org/10.1016/s0009-2614(00)00662-x

Timings for individual modules:

Sum of individual times          ...      731.252 sec (=  12.188 min)
Startup calculation              ...       14.562 sec (=   0.243 min)   2.0 %
SCF iterations                   ...      713.738 sec (=  11.896 min)  97.6 %
Property calculations            ...        2.952 sec (=   0.049 min)   0.4 %
                             ****ORCA TERMINATED NORMALLY****
TOTAL RUN TIME: 0 days 0 hours 12 minutes 12 seconds 488 msec
