53
Coordinates from ORCA-job R4N+PFOA-_0.15M E -2398.242098977966
C      9.5572116715   -3.4995197678   -6.3329854633
C      9.6792279131    0.0000000000    0.0000000000
F      8.3616430700   -1.3058186454   -4.5612022236
F      9.6920298085    0.0522644925   -3.4703481802
F      8.1094526779   -1.4398069162   -1.9561485065
F      8.8254670893   -3.2972646589   -2.8829219415
F     10.6449885491   -0.7033419930   -5.7672984648
F     11.8407865619   -1.4566747651   -4.0932638473
F      9.6564539295   -3.0196500726   -0.4504204900
F     11.3133561248   -2.8950626665   -1.8759980684
F     11.8469930092   -2.9925166692   -6.2388538544
F     10.9527798517   -3.9685469851   -4.4881463861
F     11.5704300185   -0.2748467931   -1.5150543024
F     11.5864680613   -1.4105841414    0.3595510529
F      9.1938597619   -2.5360541379   -7.1872197339
F      8.5045690915   -3.8418762848   -5.5835549342
F      9.9463277380   -4.5731694582   -7.0323311139
O      9.0734564616   -0.5066825864    0.9687239890
O      9.5675020275    1.1310688500   -0.5134611348
C      9.4949385959   -1.2376777113   -3.8164744179
C      9.1909477364   -2.0490125270   -2.5070721650
C     10.6822464878   -1.6173562530   -4.7679106998
C     10.2518347507   -2.2161808591   -1.3681910740
C     10.7541598646   -3.0337393631   -5.4406422578
C     10.7693055830   -0.9418667634   -0.6379589713
N      0.0000000000    0.0000000000    0.0000000000
C     -1.0982462400    0.6516133175    0.8473761219
C     -0.5026733998   -0.3293942508   -1.3726148091
C      1.1212536349    0.9925217380   -0.1158133950
C      0.5169216735   -1.2455803099    0.6532366049
C     -2.3069995279   -0.2081017055    1.0680237530
C     -3.3904456766   -0.1467195153    0.1861684510
C     -2.3847132912   -1.0467839017    2.1842246193
C     -4.5210556592   -0.9282859533    0.4029578396
C     -3.5151008369   -1.8285176601    2.4014807776
C     -4.5831649228   -1.7737707153    1.5085611086
H     -1.3581828598    1.5763328683    0.3256195019
H     -0.6187892690    0.9136350877    1.7941015924
H     -0.8924493678    0.5815514123   -1.8313476850
H     -1.2859369935   -1.0847348299   -1.2969082369
H      0.3346526819   -0.7188708691   -1.9557469101
H      0.7404898149    1.8947920649   -0.5979488393
H      1.9156222998    0.5466889410   -0.7175186611
H      1.4879978327    1.2237856695    0.8858664888
H     -0.2825161526   -1.9864071035    0.6973187310
H      0.8639948187   -0.9966572770    1.6580997254
H      1.3440561168   -1.6262060621    0.0500729107
H     -3.3479117774    0.5219292978   -0.6699620980
H     -1.5567722991   -1.0808246783    2.8879546702
H     -5.3576372319   -0.8713203544   -0.2875349818
H     -3.5654006117   -2.4750880931    3.2728634672
H     -5.4675056747   -2.3809737483    1.6801556747
Cl    -0.5013224366    4.0771554029    2.1387932188
