80
Coordinates from ORCA-job R4N+FHEA-_r2 E -2666.581462760050
  N           6.87082330039523     -1.74112997943207     -1.63569388055998
  C           1.83633209808880     -5.25098925855077     -4.28295727359635
  C           0.40995998865155     -5.04515399895562     -3.74640438695984
  C           0.24238969486391     -5.33800742935163     -2.24669921257405
  C           2.86053681330568     -4.49845566549751     -3.46297922066746
  C           1.91043501087736     -4.85892401559135     -5.76967714512098
  C           5.66825918365157     -2.39818355676205     -0.94544211772214
  C           4.72951352554613     -3.11659522525882     -1.86591568849547
  C           0.63598226373905     -6.75683881416913     -1.89358371691976
  C           3.95588036826467     -5.16055715394331     -2.90443838343379
  C           2.72381578127002     -3.12617052234040     -3.22326458203769
  C          -1.18983123893091     -5.02627403783602     -1.79685193547417
  C           7.75504557717742     -2.77805041954962     -2.25901943013273
  C           7.64029079240910     -1.00080893713521     -0.58057852713135
  C           6.42846434476700     -0.76920684837997     -2.68827512958250
  C           4.87751315235704     -4.48250859125176     -2.11309153294802
  C           3.63944414504744     -2.44625654597132     -2.43157605185513
  C           3.26521550623131     -5.14912356528446     -6.40767865188373
  C           1.68584208029297     -7.00316471694704     -1.00499000812178
  C          -0.03900475229006     -7.85290245353672     -2.44380150159000
  C           2.05266874922386     -8.30481458092585     -0.66717238198984
  C           0.32554791856887     -9.15474764679679     -2.11188029912902
  C           1.37303926210804     -9.38667971942765     -1.22060567815408
  H           2.08069178388144     -6.32074874867723     -4.20630839159984
  H          -0.27357390723125     -5.68400435735749     -4.32217088584451
  H           0.09779152363436     -4.00820903735582     -3.93177143430023
  H           0.92022161776262     -4.67022054722092     -1.69975834568178
  H           1.67184470196848     -3.79054574461056     -5.86665551243937
  H           1.12417737222769     -5.40667534772223     -6.30611571567189
  H           5.15629593135191     -1.58354375618315     -0.42451984250806
  H           6.10200734849831     -3.08176088622559     -0.20975502147546
  H           4.07323333677360     -6.22896823639955     -3.07094531766866
  H           1.87704414298558     -2.58508857677441     -3.63858249509291
  H          -1.31559119898839     -5.20828447482108     -0.72382586439441
  H          -1.91529443620935     -5.64917063780202     -2.33313067516536
  H          -1.43421361837775     -3.97676215990739     -1.99742158256584
  H           8.07614803567189     -3.47739493953634     -1.48438463426008
  H           8.61922876979280     -2.27307333618010     -2.69560964001062
  H           7.19660029198010     -3.30062935695626     -3.03716147077212
  H           7.95132058096625     -1.71034606276671      0.18879515512750
  H           6.99054983048749     -0.23515293775096     -0.14978073345611
  H           8.51335132639406     -0.53954310282404     -1.04604726711661
  H           5.75926405724702     -0.03745650988369     -2.23173482032910
  H           5.91664260578961     -1.31135615573110     -3.48452058569518
  H           7.31697437833798     -0.27447286495837     -3.08580920960864
  H           5.70716949514148     -5.02347989797231     -1.66386290635837
  H           3.49638237847942     -1.38728340812612     -2.22984505012208
  H           3.25679152013800     -4.90629253014711     -7.47560952530967
  H           3.52815014961694     -6.20887848580172     -6.30596755589162
  H           4.06250140211282     -4.56164087297356     -5.93848141549614
  H           2.23021378873734     -6.16283374733421     -0.58134490298057
  H          -0.85809755880805     -7.68788788210047     -3.14013447582235
  H           2.87276125532793     -8.47128401936497      0.02686425620599
  H          -0.21009481152355     -9.99307003888654     -2.54974633437218
  H           1.65590622324726    -10.40323400720028     -0.96142076903784
  F           2.47929569788907     -1.88928052855424      0.49523808881468
  F           0.48995933002622     -2.35553341113785     -0.28810565391646
  F           0.91650111979350     -4.43843222615742      0.97818917902340
  F          -0.03740543882368     -3.23326699959406      2.52931357125999
  F           0.96466395386097     -0.67978890818029      2.75953189625999
  F          -0.75367642571869     -0.88945507639354      1.40990014272303
  F           1.02354733526058      0.31515173540671     -0.61339591213057
  F          -0.05423099950295      1.42447325693881      0.94487476020448
  F           1.81122573411218     -4.21855655386856      3.85916115637144
  F           2.91220723186752     -2.49613841026331      3.07525007732779
  F           2.90397110309683     -5.87629217163568      2.10785312819430
  F           4.43626306598947     -4.60973929933547      2.98423130520937
  F           3.77426360421307     -4.25230463436556      0.94196935872338
  O           4.29869458398755      0.13850847490257      1.76917093629606
  O           3.95533660966414      0.70805202240428     -0.38039041434836
  C           1.18523334076628     -2.07961748913663      0.83822747190914
  C           0.59636406919897     -0.76625580348042      1.45567942662694
  C           1.07543510577845     -3.35388411006322      1.77327236578254
  C           1.00701452110221      0.57284750021935      0.73248607593098
  C           2.29472193449816     -3.64733537084020      2.73440392745479
  C           2.25880606110352      1.27261118041821      1.20578985277994
  C           3.37609807103825     -4.62605739055975      2.16468429152611
  C           3.61785703683009      0.63257160023717      0.83082068138329
  H           2.17598368839719      1.40194268008963      2.28737065492639
  H           2.21754270754428      2.26199713342570      0.73632227585107
