80
Coordinates from ORCA-job R4N+FHEA-_wb E -2667.277442792270
  N           6.87414314582457     -1.75473284351835     -1.62584399251983
  C           1.82238898275619     -5.22579669711457     -4.28259610950563
  C           0.40388354916176     -5.03466193543044     -3.73264692433919
  C           0.23230356442484     -5.34480487502279     -2.24141856078030
  C           2.85376140686677     -4.47797466794146     -3.46627580155632
  C           1.87774939002625     -4.83035207078573     -5.76355859657015
  C           5.67897894145466     -2.40519457568446     -0.95700530640342
  C           4.73150178478725     -3.11561992097957     -1.87740947587705
  C           0.64608392058683     -6.75900697795668     -1.89298361566684
  C           3.94506895085663     -5.14331514659391     -2.91832541545817
  C           2.72474271613292     -3.11226849784923     -3.21781618904448
  C          -1.20046242210119     -5.05472204372760     -1.79619542855567
  C           7.75959566483545     -2.77803491536219     -2.24207750256435
  C           7.62847755002145     -1.02972706749562     -0.56638234268984
  C           6.45216030445170     -0.78020502594480     -2.66792541879315
  C           4.87086070287683     -4.47470276281786     -2.13139715385681
  C           3.64444247631561     -2.44251192097402     -2.43057394369862
  C           3.21491765025200     -5.12239798311082     -6.42815694143371
  C           1.68955562735012     -6.98998723418230     -1.00161294014673
  C          -0.00072795276489     -7.86120535918106     -2.45083122918310
  C           2.07840089609128     -8.28135753464641     -0.66964959660998
  C           0.38453972137727     -9.15330286562424     -2.12531831902839
  C           1.42677165539186     -9.36911228670628     -1.23183047289587
  H           2.07297442174230     -6.29034308240027     -4.21545285010684
  H          -0.27730778886046     -5.66443022613133     -4.31445205629056
  H           0.08630297998211     -4.00068189986460     -3.90380285926507
  H           0.89331203014393     -4.67693189259346     -1.68262172123613
  H           1.64198615519446     -3.76472227549286     -5.85639086338816
  H           1.08367882750923     -5.36965664248853     -6.28878668409535
  H           5.16921712084103     -1.60019275540062     -0.42946232144904
  H           6.10042384029456     -3.09325559475510     -0.22511731795186
  H           4.05838084583392     -6.20826784048949     -3.08968481459274
  H           1.87908567379022     -2.56648239195536     -3.62185784777893
  H          -1.32570048925439     -5.23507500663432     -0.72633720016824
  H          -1.91598319532097     -5.68578668445129     -2.32984544523171
  H          -1.46025282818630     -4.01254810648941     -1.99621525833558
  H           8.06817644040753     -3.48382605963903     -1.47398654573226
  H           8.62823133286010     -2.27252711847911     -2.65836703662225
  H           7.21798215539269     -3.29070532006132     -3.03282013519561
  H           7.93254832356795     -1.74285591697102      0.19660442572315
  H           6.97898954977259     -0.27088602092846     -0.13415258227525
  H           8.50257616853066     -0.56583360381001     -1.01727374123869
  H           5.77878266770801     -0.05379073771985     -2.21888842407539
  H           5.95590919419383     -1.31006508586657     -3.47652457088938
  H           7.34284555945817     -0.28322723122517     -3.04581611083497
  H           5.69813848726317     -5.02132215137541     -1.69194515041291
  H           3.50405833159601     -1.38745614700982     -2.22212445580989
  H           3.18771967476392     -4.87179302090922     -7.49053905914132
  H           3.47391169455252     -6.18119197443151     -6.34206519587766
  H           4.02417059484621     -4.54563413511201     -5.97371430209101
  H           2.21125129998031     -6.14400329632699     -0.56796050071971
  H          -0.81535451407196     -7.70884723415731     -3.15117057271892
  H           2.89397987021315     -8.43464394455349      0.02802822417351
  H          -0.13044979353152     -9.99672827644062     -2.57091689069660
  H           1.72713036252668    -10.37875754196033     -0.97738651185880
  F           2.48268692051383     -1.92041385297873      0.52105702192589
  F           0.51950454542936     -2.38202681923054     -0.27650960676637
  F           0.89992211651026     -4.43607345680298      1.02378888274560
  F          -0.04560178901673     -3.21239705627454      2.53754442258077
  F           0.94638450304665     -0.66880807228362      2.73194134355106
  F          -0.73536828615205     -0.89234102873557      1.37064486065816
  F           1.02499019411262      0.28193774753111     -0.63570846597986
  F          -0.01869674603696      1.40220729380632      0.90910815993901
  F           1.77703368608492     -4.18277563474971      3.88785079228101
  F           2.87896533200454     -2.48723574201055      3.10099808002738
  F           2.87686142571200     -5.85744859770216      2.18005649685518
  F           4.39490943039656     -4.59439573877183      3.04140019945869
  F           3.75438830217168     -4.26983322998606      1.00704409482707
  O           4.33257421650576      0.14842465912509      1.69458287114292
  O           3.95893179754315      0.69241119121901     -0.43750627825085
  C           1.19355497252870     -2.09693519307186      0.84598422830535
  C           0.60331981213013     -0.77542457690337      1.43477811319141
  C           1.06218574669099     -3.35089859808904      1.79661615597051
  C           1.02179543977094      0.54690921175138      0.69586956278757
  C           2.26849169888040     -3.63214516414355      2.76955752317311
  C           2.28071712533664      1.24509787454221      1.15548331493211
  C           3.34943991665448     -4.61854944226017      2.22151529916659
  C           3.63532663672767      0.62317753632295      0.76939866311633
  H           2.21133603400554      1.37057519758993      2.23395575255120
  H           2.23072867273609      2.23180676690978      0.69193510356178
