74
Coordinates from ORCA-job R4N+PFHxA-_wb E -2390.127347605598
  N           1.15011034631644     -8.01519135659681      1.07541131673321
  C           2.86008210868805     -3.53278933867136     -3.49237409244402
  C           4.32204380748017     -3.20360632496548     -3.81014715949039
  C           5.11921121127547     -2.60295389985842     -2.64532013188921
  C           2.73678812440387     -4.48867751387889     -2.32581672700555
  C           2.12648908160785     -4.05251303118532     -4.73351632597954
  C           2.39898215547242     -7.15469700072714      1.04694312075721
  C           2.51099857331785     -6.23566913554278     -0.13337848833386
  C           4.47259166984521     -1.35307214133706     -2.08143638155666
  C           2.09655489382500     -4.09405378018516     -1.15717387156326
  C           3.27161910845723     -5.77532469578368     -2.37830819764417
  C           6.56181397472910     -2.33389404443531     -3.07266649296718
  C           1.20102061601825     -8.83395114076921      2.31822682696865
  C           1.10122638556080     -8.92442829811737     -0.10031410115867
  C          -0.07985768058736     -7.17746824533178      1.10147426581537
  C           1.99401430079892     -4.94741256454235     -0.07058768525750
  C           3.15982595268524     -6.63682524023122     -1.29950251473886
  C           0.62459500743790     -4.18853990927086     -4.52682083236380
  C           4.10403216834796     -1.28876878818136     -0.74071145030889
  C           4.22988403646605     -0.23858507111355     -2.88429351595960
  C           3.50577391112363     -0.15137316160616     -0.21277008346075
  C           3.63680689942346      0.90136242251565     -2.36208186037737
  C           3.27025912043181      0.94943598431220     -1.02269460637067
  H           2.36732946648910     -2.60239887239669     -3.19373919741210
  H           4.34105567587061     -2.50747476808594     -4.65524497982502
  H           4.83553543878680     -4.11066453966396     -4.14651033288853
  H           5.14278675719572     -3.34014120228444     -1.83667155237326
  H           2.55330162120900     -5.01562740952880     -5.03253578644188
  H           2.31828872145734     -3.35984550409872     -5.55840082408004
  H           3.23384133577874     -7.85339450697704      1.07906239252393
  H           2.37941515573259     -6.58626581192553      1.97589800257675
  H           1.68373220659266     -3.09516086394933     -1.09283125440355
  H           3.78811648359727     -6.10948761404409     -3.27162291386999
  H           7.03616819394518     -3.25313352657028     -3.42423731034254
  H           7.15379085908997     -1.94410826280704     -2.24184016937943
  H           6.60154748390497     -1.60427181168318     -3.88577616581942
  H           2.09828840276954     -9.44841084199604      2.29726169098280
  H           0.31536120142181     -9.46391558464400      2.35401594128803
  H           1.22142024229063     -8.16627207850673      3.17674520608586
  H           0.22924029032312     -9.56652102200454      0.00151369301415
  H           2.00819106902048     -9.52471896327108     -0.11934822136895
  H           1.01795198468536     -8.33335078166450     -1.00838317438075
  H          -0.15915048136392     -6.63071835837642      0.16641423170659
  H          -0.01849066612821     -6.49066294500058      1.94268128489453
  H          -0.93720429628664     -7.83697907048154      1.21564591659402
  H           1.50904760311564     -4.60607501959661      0.83709958073259
  H           3.58781505306401     -7.63160184533933     -1.35957793263247
  H           0.13146601148458     -4.54256914341079     -5.43435827728555
  H           0.18055278389439     -3.22577448580194     -4.25942293131624
  H           0.39043438966962     -4.89493327490339     -3.72622072878309
  H           4.28033104485440     -2.14775429429200     -0.10176780275029
  H           4.50377006748722     -0.26175286622804     -3.93390983181484
  H           3.21919998646170     -0.12985268171877      0.83247100191007
  H           3.45461825941395      1.75506190710954     -3.00484712914615
  H           2.79920706243754      1.83687619368521     -0.61672229199130
  F           0.20976620395480     -1.73216305018404      0.44495311830737
  F          -1.60124746614896     -0.65022801416313      0.99525361440178
  F          -3.01433655928764     -3.09132735854093      0.46925332783476
  F          -1.06129369256083     -4.04481804005720      0.31570481856146
  F          -2.71997587083863     -0.99490531312700     -1.30264286894188
  F          -1.36190210473635     -2.59075593033927     -1.90114450835027
  F          -2.57827401299892     -2.30892539526458      2.93471890403526
  F          -2.13056911427465     -4.41695832416991      2.66027511779684
  F          -1.07233509010131     -0.05223365673833     -3.07099531904622
  F          -0.39492995298679      0.68727121042030     -1.15782955739335
  F           0.66542871093098     -0.91905083531639     -2.14165621438517
  O          -0.04195324646461     -1.82788857715068      3.50882368484381
  O           0.48051242360345     -3.95685400216572      3.01764655513564
  C          -1.12629913614061     -1.69047349530950      0.29518151878800
  C          -1.72572358237301     -3.01294644999031      0.86018564986189
  C          -1.46112226555753     -1.44402697993948     -1.21289016017937
  C          -1.67454660350318     -3.16435626582858      2.40982287145410
  C          -0.53159081878229     -0.40036497107641     -1.90886248017338
  C          -0.25764401382581     -2.96050612879907      3.05310845957261
