25
Coordinates from ORCA-job PFOA_wb E -1953.444903069113
  F      -0.823962     -2.473920      0.426745
  F      -0.972267     -1.179735      2.194848
  F       1.522491     -1.964541      1.173526
  F       1.128285     -0.735507     -0.599425
  F      -2.940170     -1.032408      0.380528
  F      -1.897531      0.850603      0.769009
  F       0.581468      1.415171      1.318882
  F       1.413175      0.058306      2.822609
  F      -0.804526      0.907141     -1.606194
  F      -1.200337     -1.227614     -1.983896
  F       3.683443     -0.231737      1.483703
  F       3.157951      1.868602      1.861312
  F      -3.818538     -0.807475     -2.164027
  F      -2.765173      0.710235     -3.305830
  F      -3.650967      1.222238     -1.382545
  O       3.923580      0.471872     -1.040133
  O       2.396368      2.127427     -0.812232
  C      -0.671133     -1.205814      0.874630
  C       0.859063     -0.874801      0.721726
  C      -1.788586     -0.344821      0.160798
  C       1.411054      0.362594      1.497293
  C      -1.663373     -0.110352     -1.381743
  C       2.857861      0.777075      1.085299
  C      -3.020952      0.260695     -2.070802
  C       3.082875      1.156768     -0.424281
25
Coordinates from ORCA-job PFOA_wb E -1953.446918632763
  F      -0.819002     -2.443282      0.416602
  F      -0.963902     -1.156687      2.167242
  F       1.509805     -1.945550      1.133297
  F       1.122228     -0.707507     -0.612278
  F      -2.929279     -1.009244      0.398664
  F      -1.887825      0.864105      0.733884
  F       0.616395      1.427000      1.323218
  F       1.406545      0.047292      2.800551
  F      -0.847046      0.877862     -1.658017
  F      -1.245542     -1.246284     -1.984809
  F       3.675024     -0.259112      1.491748
  F       3.182723      1.821343      1.910324
  F      -3.857018     -0.829931     -2.120597
  F      -2.831230      0.647206     -3.307265
  F      -3.674621      1.201437     -1.396808
  O       3.968862      0.494935     -0.997428
  O       2.494819      2.175515     -0.750621
  C      -0.668070     -1.181639      0.855308
  C       0.856978     -0.853816      0.699454
  C      -1.788961     -0.332808      0.146919
  C       1.421830      0.365446      1.489034
  C      -1.695757     -0.126826     -1.397560
  C       2.877188      0.763828      1.107562
  C      -3.060537      0.229866     -2.066273
  C       3.136494      1.176853     -0.382353
25
Coordinates from ORCA-job PFOA_wb E -1953.445116254572
  F      -0.805104     -2.473140      0.402159
  F      -0.960974     -1.221063      2.170411
  F       1.527788     -1.950034      1.180557
  F       1.136831     -0.760347     -0.592017
  F      -2.911223     -1.032170      0.386335
  F      -1.864697      0.821615      0.783497
  F       0.558232      1.398127      1.274094
  F       1.379481      0.088730      2.791963
  F      -0.784938      0.895450     -1.577702
  F      -1.195143     -1.205910     -1.979776
  F       3.663094     -0.177612      1.508946
  F       3.098302      1.893142      1.840831
  F      -3.800064     -0.757425     -2.144414
  F      -2.736720      0.732497     -3.269749
  F      -3.605517      1.246415     -1.366666
  O       3.876611      0.427053     -1.022912
  O       2.323478      2.034271     -0.858791
  C      -0.658367     -1.223318      0.863889
  C       0.862764     -0.883153      0.716235
  C      -1.768165     -0.356672      0.167430
  C       1.390363      0.368665      1.475886
  C      -1.645906     -0.104992     -1.367102
  C       2.833680      0.797057      1.085016
  C      -2.993827      0.287266     -2.048286
  C       3.080121      1.155549     -0.420033
25
Coordinates from ORCA-job PFOA_wb E -1953.446785703424
  F      -0.809401     -2.491181      0.404556
  F      -0.965870     -1.243718      2.178169
  F       1.528043     -1.953217      1.197076
  F       1.128327     -0.786075     -0.590692
  F      -2.918585     -1.052631      0.383767
  F      -1.876252      0.800505      0.805086
  F       0.535748      1.391959      1.238217
  F       1.360448      0.112018      2.782754
  F      -0.775727      0.899138     -1.542941
  F      -1.186187     -1.197287     -1.975930
  F       3.648675     -0.162639      1.512714
  F       3.073506      1.914024      1.800595
  F      -3.791774     -0.741477     -2.152465
  F      -2.714742      0.758120     -3.255189
  F      -3.596849      1.255140     -1.351825
  O       3.918118      0.435207     -1.015709
  O       2.398863      2.079886     -0.876158
  C      -0.664797     -1.242304      0.870900
  C       0.855894     -0.896216      0.719285
  C      -1.775433     -0.372260      0.178157
  C       1.373054      0.370767      1.461870
  C      -1.640342     -0.102891     -1.353145
  C       2.816401      0.800316      1.067456
  C      -2.983543      0.300910     -2.040005
  C       3.062524      1.123907     -0.446744
25
Coordinates from ORCA-job PFOA_wb E -1953.446524341276
  F      -0.778029     -2.460607      0.398911
  F      -0.947375     -1.201512      2.166781
  F       1.530793     -1.898401      1.137498
  F       1.111296     -0.709527     -0.634372
  F      -2.930182     -1.127949      0.365058
  F      -2.000916      0.782881      0.797995
  F       0.633046      1.487276      1.187377
  F       1.327991      0.159291      2.762877
  F      -0.893115      0.944573     -1.561134
  F      -1.217513     -1.173631     -2.002819
  F       3.642700     -0.258435      1.566141
  F       3.182146      1.848821      1.885193
  F      -3.843664     -0.833404     -2.153837
  F      -2.842812      0.723181     -3.263343
  F      -3.731252      1.172214     -1.342710
  O       4.043951      0.380088     -0.945290
  O       2.629024      2.124020     -0.814051
  C      -0.664790     -1.199777      0.851722
  C       0.854298     -0.830730      0.681479
  C      -1.825111     -0.380746      0.163010
  C       1.404722      0.417913      1.440362
  C      -1.713403     -0.099140     -1.369638
  C       2.888153      0.767788      1.110525
  C      -3.080479      0.247513     -2.044214
  C       3.220621      1.118302     -0.383721
25
Coordinates from ORCA-job PFOA_wb E -1953.447466511114
  F      -0.761153     -2.497004      0.364723
  F      -0.941408     -1.282239      2.159946
  F       1.551421     -1.904644      1.182035
  F       1.130357     -0.766610     -0.621672
  F      -2.916207     -1.144817      0.364616
  F      -1.958986      0.741923      0.836114
  F       0.565703      1.452500      1.112593
  F       1.275279      0.206321      2.744332
  F      -0.830006      0.922338     -1.511816
  F      -1.217851     -1.169424     -2.002184
  F       3.623370     -0.167732      1.607463
  F       3.083665      1.930219      1.812490
  F      -3.831603     -0.744299     -2.147328
  F      -2.779633      0.797016     -3.222739
  F      -3.656653      1.237044     -1.299648
  O       4.029214      0.346341     -0.927656
  O       2.563198      2.047383     -0.902244
  C      -0.653038     -1.249848      0.849234
  C       0.860791     -0.864425      0.691079
  C      -1.803602     -0.409399      0.177928
  C       1.364821      0.419735      1.416990
  C      -1.682047     -0.097202     -1.346888
  C       2.840423      0.803598      1.092156
  C      -3.035322      0.306967     -2.015703
  C       3.179366      1.086258     -0.414017
25
Coordinates from ORCA-job PFOA_wb E -1953.447325181621
  F      -0.706147     -2.558954      0.301711
  F      -0.913221     -1.422446      2.143172
  F       1.590970     -1.875526      1.242946
  F       1.152076     -0.851352     -0.624456
  F      -2.891736     -1.249339      0.329908
  F      -1.973151      0.617519      0.939221
  F       0.476117      1.421484      0.883364
  F       1.123472      0.353961      2.662161
  F      -0.783152      0.952502     -1.357575
  F      -1.183753     -1.089182     -2.008587
  F       3.547620     -0.009094      1.727502
  F       2.922021      2.069556      1.658999
  F      -3.792086     -0.625663     -2.156831
  F      -2.705253      0.967305     -3.110600
  F      -3.606405      1.289967     -1.179162
  O       4.088770      0.214056     -0.819532
  O       2.595069      1.867655     -1.075401
  C      -0.630418     -1.331845      0.836741
  C       0.867085     -0.895502      0.685727
  C      -1.793785     -0.483684      0.207737
  C       1.288164      0.454693      1.330716
  C      -1.648814     -0.064423     -1.286090
  C       2.768022      0.862409      1.058966
  C      -2.986182      0.402618     -1.944632
  C       3.194820      0.983284     -0.446207
25
Coordinates from ORCA-job PFOA_wb E -1953.448008398886
  F      -0.693348     -2.520526      0.264506
  F      -0.900601     -1.392124      2.112545
  F       1.596080     -1.866794      1.184775
  F       1.166318     -0.775638     -0.648774
  F      -2.893190     -1.202977      0.368835
  F      -1.940952      0.678836      0.875653
  F       0.537878      1.461333      0.948090
  F       1.148725      0.308484      2.687610
  F      -0.827759      0.893512     -1.502850
  F      -1.296167     -1.171423     -2.032511
  F       3.573834     -0.064945      1.759597
  F       2.988306      2.029549      1.758442
  F      -3.902121     -0.661863     -2.076512
  F      -2.830418      0.856679     -3.165437
  F      -3.631183      1.300042     -1.210775
  O       4.131223      0.229928     -0.780847
  O       2.678284      1.930455     -0.984240
  C      -0.619462     -1.293563      0.804571
  C       0.881280     -0.859412      0.661425
  C      -1.792760     -0.451748      0.179582
  C       1.325640      0.457876      1.360356
  C      -1.707189     -0.102428     -1.338530
  C       2.815771      0.845513      1.114281
  C      -3.065644      0.359198     -1.957472
  C       3.257553      1.012036     -0.382520
25
Coordinates from ORCA-job PFOA_wb E -1953.448205855034
  F      -0.670256     -2.525979      0.238870
  F      -0.887612     -1.426298      2.102162
  F       1.607309     -1.846749      1.179597
  F       1.163620     -0.773282     -0.661324
  F      -2.887498     -1.246081      0.361515
  F      -1.965832      0.642394      0.899737
  F       0.547999      1.477872      0.886390
  F       1.106802      0.354283      2.662722
  F      -0.834759      0.894834     -1.480536
  F      -1.305977     -1.160852     -2.035782
  F       3.556769     -0.041101      1.801309
  F       2.974022      2.052882      1.740014
  F      -3.917756     -0.640583     -2.063358
  F      -2.835987      0.873447     -3.147851
  F      -3.629443      1.315567     -1.190473
  O       4.149362      0.181364     -0.741597
  O       2.733554      1.906079     -0.997926
  C      -0.612695     -1.305157      0.794994
  C       0.881849     -0.849924      0.650098
  C      -1.799724     -0.473812      0.184851
  C       1.316900      0.476924      1.337786
  C      -1.716194     -0.100790     -1.327853
  C       2.813848      0.854876      1.119402
  C      -3.072935      0.373130     -1.941476
  C       3.284731      0.986956     -0.371473
25
Coordinates from ORCA-job PFOA_wb E -1953.448264765811
  F      -0.645199     -2.537091      0.213308
  F      -0.869131     -1.460201      2.089972
  F       1.622992     -1.832137      1.171146
  F       1.163703     -0.772699     -0.676240
  F      -2.880807     -1.272855      0.361586
  F      -1.964083      0.616232      0.913705
  F       0.542773      1.481089      0.833052
  F       1.061509      0.382582      2.638441
  F      -0.826389      0.877408     -1.473770
  F      -1.330628     -1.168681     -2.039729
  F       3.537159     -0.007265      1.842858
  F       2.943716      2.081243      1.725328
  F      -3.944284     -0.602781     -2.025185
  F      -2.839408      0.875945     -3.136952
  F      -3.598750      1.354564     -1.173642
  O       4.151089      0.139152     -0.705361
  O       2.777570      1.892054     -1.006351
  C      -0.601744     -1.320910      0.782900
  C       0.884984     -0.846015      0.636596
  C      -1.797649     -0.493307      0.187420
  C       1.303448      0.488296      1.317381
  C      -1.721147     -0.107036     -1.321581
  C       2.803444      0.869417      1.126194
  C      -3.074072      0.392105     -1.922715
  C       3.301002      0.970893     -0.358561
25
Coordinates from ORCA-job PFOA_wb E -1953.448291359276
  F      -0.639050     -2.536175      0.210101
  F      -0.866948     -1.464128      2.088363
  F       1.627589     -1.827845      1.166598
  F       1.162396     -0.765550     -0.677204
  F      -2.877087     -1.281584      0.352763
  F      -1.972778      0.609220      0.920408
  F       0.542393      1.484151      0.840091
  F       1.064398      0.380459      2.641839
  F      -0.836489      0.899762     -1.461259
  F      -1.313512     -1.150035     -2.040718
  F       3.538965      0.004685      1.851993
  F       2.941497      2.090557      1.714229
  F      -3.938594     -0.610271     -2.023272
  F      -2.840623      0.870707     -3.139164
  F      -3.606569      1.352580     -1.178993
  O       4.127805      0.104858     -0.705760
  O       2.788144      1.883193     -1.011674
  C      -0.599653     -1.320588      0.781637
  C       0.885719     -0.841750      0.635953
  C      -1.797879     -0.494966      0.187610
  C       1.304399      0.490035      1.320804
  C      -1.719498     -0.096734     -1.318070
  C       2.803255      0.872769      1.126897
  C      -3.074622      0.390366     -1.923170
  C       3.296845      0.956285     -0.360203
25
Coordinates from ORCA-job PFOA_wb E -1953.448328132819
  F      -0.630801     -2.536227      0.202973
  F      -0.860577     -1.468583      2.082931
  F       1.637372     -1.821518      1.153724
  F       1.161098     -0.753490     -0.683933
  F      -2.872559     -1.287717      0.355389
  F      -1.970770      0.605792      0.917679
  F       0.542171      1.488234      0.839995
  F       1.059919      0.379282      2.639848
  F      -0.841548      0.894939     -1.468458
  F      -1.325299     -1.154115     -2.046320
  F       3.536209      0.017733      1.869574
  F       2.934654      2.100329      1.712085
  F      -3.952453     -0.603536     -2.010559
  F      -2.851295      0.864927     -3.139243
  F      -3.602341      1.360327     -1.176706
  O       4.117940      0.077944     -0.691816
  O       2.815749      1.881821     -1.008902
  C      -0.594642     -1.321620      0.776334
  C       0.888770     -0.836617      0.629490
  C      -1.796299     -0.498799      0.185192
  C       1.303976      0.493215      1.320174
  C      -1.725250     -0.100124     -1.320920
  C       2.803174      0.878342      1.133107
  C      -3.081246      0.391527     -1.919751
  C       3.304148      0.947934     -0.352086
25
Coordinates from ORCA-job PFOA_wb E -1953.448431544499
  F      -0.611501     -2.527914      0.164518
  F      -0.838064     -1.485174      2.058157
  F       1.655823     -1.801590      1.123596
  F       1.165681     -0.732517     -0.710484
  F      -2.863750     -1.293881      0.365110
  F      -1.960890      0.602046      0.919944
  F       0.560886      1.505774      0.788658
  F       1.019031      0.404542      2.609885
  F      -0.883171      0.911315     -1.483957
  F      -1.349074     -1.143326     -2.057883
  F       3.512454      0.031555      1.929864
  F       2.929068      2.113252      1.717829
  F      -3.986343     -0.621490     -1.971265
  F      -2.915675      0.846267     -3.129537
  F      -3.636672      1.350805     -1.158186
  O       4.144713      0.012987     -0.621936
  O       2.934964      1.870149     -0.991815
  C      -0.581341     -1.319983      0.752059
  C       0.897366     -0.821711      0.603147
  C      -1.794201     -0.499609      0.180875
  C       1.302227      0.509012      1.297480
  C      -1.750943     -0.095477     -1.324547
  C       2.809822      0.883266      1.154701
  C      -3.121221      0.380447     -1.902755
  C       3.360912      0.921255     -0.313656
25
Coordinates from ORCA-job PFOA_wb E -1953.448532574107
  F      -0.583850     -2.516886      0.115998
  F      -0.803614     -1.505811      2.027233
  F       1.682713     -1.771486      1.064247
  F       1.157726     -0.686610     -0.752438
  F      -2.853634     -1.304672      0.385340
  F      -1.947805      0.597878      0.918286
  F       0.588968      1.534185      0.723455
  F       0.966995      0.440764      2.569058
  F      -0.929179      0.912368     -1.507112
  F      -1.390760     -1.145200     -2.071129
  F       3.474926      0.051065      2.008262
  F       2.921432      2.131583      1.724457
  F      -4.032624     -0.638521     -1.928677
  F      -2.992281      0.831660     -3.110977
  F      -3.674107      1.335948     -1.125321
  O       4.172066     -0.074439     -0.523337
  O       3.099451      1.850752     -0.961942
  C      -0.563665     -1.317528      0.721023
  C       0.905990     -0.795852      0.562755
  C      -1.793229     -0.504494      0.176565
  C       1.299608      0.533178      1.267213
  C      -1.785544     -0.100654     -1.329352
  C       2.816354      0.891281      1.183427
  C      -3.170413      0.366816     -1.879350
  C       3.434576      0.884676     -0.257884
25
Coordinates from ORCA-job PFOA_wb E -1953.448625850287
  F      -0.567402     -2.510311      0.076731
  F      -0.778919     -1.525403      2.002126
  F       1.699598     -1.752096      1.029161
  F       1.159555     -0.664850     -0.782507
  F      -2.847473     -1.298623      0.410116
  F      -1.919488      0.602727      0.913614
  F       0.623313      1.552588      0.644296
  F       0.910142      0.489845      2.524368
  F      -0.960009      0.905435     -1.532519
  F      -1.428688     -1.153730     -2.081229
  F       3.438393      0.050407      2.060950
  F       2.915871      2.134536      1.742786
  F      -4.065700     -0.655467     -1.896571
  F      -3.054669      0.826029     -3.089990
  F      -3.702959      1.316836     -1.089289
  O       4.184238     -0.127424     -0.458055
  O       3.232319      1.856195     -0.916856
  C      -0.550464     -1.318693      0.696498
  C       0.913473     -0.781855      0.533043
  C      -1.788049     -0.504818      0.173774
  C       1.296113      0.552481      1.235246
  C      -1.810856     -0.108513     -1.334434
  C       2.819540      0.892061      1.206561
  C      -3.208062      0.354136     -1.857568
  C       3.490284      0.868505     -0.210455
25
Coordinates from ORCA-job PFOA_wb E -1953.448696200809
  F      -0.547868     -2.505881      0.016438
  F      -0.737725     -1.557979      1.961334
  F       1.722634     -1.731217      0.980708
  F       1.169519     -0.649172     -0.830876
  F      -2.834888     -1.274501      0.453781
  F      -1.851835      0.614384      0.907047
  F       0.681456      1.569052      0.503527
  F       0.807896      0.571207      2.434672
  F      -1.000244      0.895891     -1.572090
  F      -1.484771     -1.163825     -2.096503
  F       3.370496      0.057380      2.142463
  F       2.890522      2.142694      1.767060
  F      -4.107289     -0.680997     -1.845810
  F      -3.148995      0.828971     -3.046669
  F      -3.743037      1.283866     -1.020184
  O       4.205364     -0.194403     -0.351879
  O       3.417061      1.853638     -0.841191
  C      -0.528662     -1.325718      0.656643
  C       0.926780     -0.770248      0.485046
  C      -1.771438     -0.501839      0.170479
  C       1.287266      0.578002      1.175791
  C      -1.843479     -0.117650     -1.340773
  C       2.814332      0.895014      1.241052
  C      -3.260296      0.337897     -1.817188
  C       3.567300      0.845431     -0.133077
25
Coordinates from ORCA-job PFOA_wb E -1953.448734979522
  F      -0.562847     -2.513263      0.048732
  F      -0.758774     -1.545799      1.983326
  F       1.708080     -1.747713      1.011501
  F       1.168583     -0.670270     -0.805312
  F      -2.844106     -1.273192      0.436680
  F      -1.869109      0.613439      0.910223
  F       0.652433      1.555708      0.557431
  F       0.845657      0.538182      2.472358
  F      -0.971537      0.898119     -1.553051
  F      -1.454379     -1.159486     -2.088883
  F       3.401865      0.052392      2.099791
  F       2.896173      2.136927      1.758710
  F      -4.077798     -0.669876     -1.878652
  F      -3.098464      0.841711     -3.060361
  F      -3.722985      1.292152     -1.042574
  O       4.194242     -0.153030     -0.409569
  O       3.315880      1.862035     -0.880039
  C      -0.540583     -1.327188      0.677766
  C       0.919680     -0.783337      0.510288
  C      -1.775154     -0.501032      0.173698
  C       1.287856      0.563327      1.200516
  C      -1.821698     -0.113074     -1.337393
  C       2.812644      0.893202      1.223231
  C      -3.229512      0.347454     -1.834404
  C       3.523954      0.862613     -0.174213
25
Coordinates from ORCA-job PFOA_wb E -1953.448744550030
  F      -0.559263     -2.512358      0.043011
  F      -0.756191     -1.551314      1.980051
  F       1.712103     -1.744059      1.009498
  F       1.169555     -0.667145     -0.806427
  F      -2.841919     -1.273133      0.434821
  F      -1.865608      0.611748      0.912798
  F       0.650431      1.557552      0.557866
  F       0.842545      0.536832      2.471906
  F      -0.972861      0.904207     -1.550859
  F      -1.449666     -1.153998     -2.089715
  F       3.399714      0.063046      2.107302
  F       2.893639      2.144162      1.751876
  F      -4.073898     -0.672922     -1.878514
  F      -3.100098      0.844462     -3.057289
  F      -3.725909      1.288616     -1.038709
  O       4.181455     -0.168896     -0.404857
  O       3.318396      1.850504     -0.884370
  C      -0.538482     -1.328084      0.675222
  C       0.920812     -0.781208      0.509185
  C      -1.772664     -0.501130      0.173752
  C       1.286566      0.565015      1.201118
  C      -1.819985     -0.109648     -1.336560
  C       2.810396      0.896871      1.224598
  C      -3.229125      0.347321     -1.832428
  C       3.520156      0.853560     -0.173479
25
Coordinates from ORCA-job PFOA_wb E -1953.448748222313
  F      -0.561627     -2.510096      0.038462
  F      -0.753952     -1.551325      1.976785
  F       1.712338     -1.743675      1.005321
  F       1.169463     -0.666956     -0.810948
  F      -2.842072     -1.263199      0.439809
  F      -1.855326      0.617950      0.911617
  F       0.656019      1.559041      0.548237
  F       0.835204      0.539852      2.464370
  F      -0.978986      0.908869     -1.555340
  F      -1.449298     -1.151194     -2.090096
  F       3.395296      0.062344      2.113699
  F       2.893386      2.143171      1.754512
  F      -4.071091     -0.684353     -1.882171
  F      -3.110713      0.848844     -3.051151
  F      -3.738737      1.274199     -1.029375
  O       4.191785     -0.171423     -0.392367
  O       3.327138      1.844762     -0.881684
  C      -0.537994     -1.326770      0.671902
  C       0.921476     -0.780714      0.504866
  C      -1.770322     -0.496383      0.173782
  C       1.286756      0.566047      1.196397
  C      -1.821887     -0.107442     -1.337455
  C       2.810834      0.895789      1.227622
  C      -3.234657      0.342470     -1.829780
  C       3.527066      0.850192     -0.167216
25
Coordinates from ORCA-job PFOA_wb E -1953.448748527607
  F      -0.559583     -2.509536      0.035873
  F      -0.752599     -1.552842      1.975050
  F       1.713596     -1.741695      1.004081
  F       1.169681     -0.665741     -0.812467
  F      -2.841248     -1.264611      0.439609
  F      -1.855630      0.616952      0.912015
  F       0.658072      1.560514      0.544752
  F       0.832720      0.542556      2.461965
  F      -0.981801      0.910427     -1.555716
  F      -1.450218     -1.149787     -2.091383
  F       3.392946      0.064185      2.117816
  F       2.893209      2.144643      1.752923
  F      -4.072488     -0.685571     -1.881151
  F      -3.114556      0.849773     -3.049334
  F      -3.741201      1.272430     -1.026506
  O       4.193727     -0.175741     -0.386676
  O       3.333014      1.840911     -0.881093
  C      -0.537000     -1.326722      0.670365
  C       0.922002     -0.779374      0.503392
  C      -1.770218     -0.496811      0.173374
  C       1.286743      0.567513      1.194803
  C      -1.823286     -0.106908     -1.337666
  C       2.811067      0.896203      1.228689
  C      -3.236974      0.342015     -1.828376
  C       3.530124      0.847218     -0.164538
25
Coordinates from ORCA-job PFOA_wb E -1953.448749149795
  F      -0.558891     -2.509227      0.035040
  F      -0.752244     -1.553184      1.974533
  F       1.713983     -1.740783      1.003602
  F       1.169618     -0.665069     -0.812978
  F      -2.841059     -1.264891      0.439395
  F      -1.855682      0.616789      0.912100
  F       0.658587      1.561265      0.544009
  F       0.831962      0.543397      2.461339
  F      -0.982678      0.911194     -1.555700
  F      -1.450061     -1.149126     -2.091733
  F       3.391883      0.064422      2.119097
  F       2.893585      2.144981      1.752249
  F      -4.072554     -0.686469     -1.881287
  F      -3.115917      0.850363     -3.048557
  F      -3.742443      1.271192     -1.025287
  O       4.195033     -0.177080     -0.384624
  O       3.334204      1.838986     -0.881326
  C      -0.536729     -1.326584      0.669904
  C       0.922045     -0.778697      0.502885
  C      -1.770167     -0.496795      0.173226
  C       1.286649      0.568135      1.194356
  C      -1.823578     -0.106590     -1.337731
  C       2.811156      0.896169      1.228964
  C      -3.237726      0.341668     -1.827929
  C       3.531123      0.845935     -0.163750
