29
Coordinates from ORCA-job PFOS_wb E -2626.594360689935
  S       4.353821     -0.842989      0.030475
  F      -0.765509     -1.636228     -0.756883
  F       0.754900     -1.601890      0.819536
  F       0.151266      0.609247     -1.842220
  F       1.602049     -1.020620     -1.653178
  F      -0.236046      0.648424      1.858447
  F      -1.635144     -1.029742      1.685588
  F       2.590593      1.458591     -1.578646
  F       1.325678      1.996817      0.127100
  F      -2.704808      1.395015      1.559864
  F      -1.468832      1.955377     -0.160568
  F       2.577859      0.218682      1.715423
  F       3.877500      1.669747      0.708546
  F      -2.646544      0.106037     -1.714678
  F      -4.012804      1.498372     -0.710005
  F      -4.577195     -0.570373      1.157226
  F      -3.457014     -1.921082     -0.137122
  F      -5.158460     -0.827983     -0.925603
  O       5.431006     -0.642475      1.033992
  O       4.737072     -0.520041     -1.366674
  O       3.582921     -2.098200      0.200492
  C      -0.009422     -0.825922      0.022421
  C       0.940924     -0.061308     -0.967593
  C      -0.985650     -0.063575      0.989505
  C       2.001551      0.973488     -0.459548
  C      -2.083231      0.921203      0.453722
  C       3.135952      0.544542      0.524537
  C      -3.204188      0.427504     -0.529025
  C      -4.118348     -0.760818     -0.085030
29
Coordinates from ORCA-job PFOS_wb E -2626.601068950054
  S       4.355549     -0.824267      0.026379
  F      -0.754421     -1.622236     -0.763037
  F       0.740039     -1.594558      0.813865
  F       0.172115      0.617384     -1.828518
  F       1.596127     -1.012869     -1.647626
  F      -0.250246      0.651511      1.839629
  F      -1.629353     -1.020584      1.669144
  F       2.592743      1.453867     -1.556720
  F       1.348603      1.975471      0.145910
  F      -2.696421      1.396106      1.534911
  F      -1.480328      1.937618     -0.183573
  F       2.598542      0.187036      1.706019
  F       3.877665      1.645449      0.722734
  F      -2.664198      0.077760     -1.706549
  F      -4.005612      1.482728     -0.723370
  F      -4.588543     -0.544625      1.159521
  F      -3.485644     -1.912972     -0.101700
  F      -5.163532     -0.827682     -0.903834
  O       5.413708     -0.637165      1.020884
  O       4.737923     -0.486147     -1.344354
  O       3.603750     -2.068570      0.172377
  C      -0.009354     -0.819153      0.017726
  C       0.947502     -0.059076     -0.960551
  C      -0.988503     -0.060462      0.975234
  C       2.012138      0.961737     -0.447639
  C      -2.086147      0.914330      0.437390
  C       3.147159      0.527465      0.526114
  C      -3.210216      0.415819     -0.530424
  C      -4.131142     -0.754114     -0.069841
29
Coordinates from ORCA-job PFOS_wb E -2626.601734697550
  S       4.289916     -0.797903      0.072472
  F      -0.785905     -1.660027     -0.730975
  F       0.755954     -1.634969      0.793818
  F       0.110800      0.546189     -1.848509
  F       1.559983     -1.055468     -1.670479
  F      -0.189875      0.588243      1.865647
  F      -1.606242     -1.046445      1.698074
  F       2.540769      1.407258     -1.625621
  F       1.284915      1.966947      0.049943
  F      -2.649665      1.365508      1.600893
  F      -1.410039      1.947112     -0.081831
  F       2.529073      0.268626      1.679552
  F       3.812057      1.685307      0.648632
  F      -2.588054      0.185385     -1.687637
  F      -3.945719      1.530206     -0.653650
  F      -4.535005     -0.595236      1.114549
  F      -3.398306     -1.882725     -0.194119
  F      -5.076706     -0.782419     -0.964103
  O       5.312766     -0.592835      1.073391
  O       4.703836     -0.509211     -1.280940
  O       3.535604     -2.017347      0.233754
  C      -0.014215     -0.861104      0.021761
  C       0.910807     -0.103607     -0.988066
  C      -0.956961     -0.094421      1.008015
  C       1.962038      0.946196     -0.506516
  C      -2.035177      0.914998      0.496753
  C       3.091117      0.557939      0.495123
  C      -3.147682      0.462417     -0.505723
  C      -4.060186     -0.738812     -0.114108
29
Coordinates from ORCA-job PFOS_wb E -2626.601388786794
  S       4.369981     -0.832329     -0.003252
  F      -0.740437     -1.585973     -0.776637
  F       0.723259     -1.559074      0.822168
  F       0.210311      0.683113     -1.803742
  F       1.594639     -0.976822     -1.652466
  F      -0.283774      0.716959      1.806140
  F      -1.631496     -0.976404      1.662367
  F       2.625881      1.482909     -1.507764
  F       1.409123      1.963277      0.220488
  F      -2.721109      1.436942      1.473736
  F      -1.528358      1.928380     -0.270118
  F       2.636915      0.104463      1.705780
  F       3.917424      1.594963      0.779661
  F      -2.707144     -0.010207     -1.708290
  F      -4.046257      1.427868     -0.780947
  F      -4.611765     -0.508493      1.188653
  F      -3.494994     -1.925258      0.001494
  F      -5.181635     -0.901169     -0.854180
  O       5.388334     -0.737450      1.006488
  O       4.785576     -0.421674     -1.315140
  O       3.605897     -2.045636      0.038534
  C      -0.009168     -0.786418      0.013883
  C       0.966155     -0.025797     -0.950601
  C      -1.004267     -0.022399      0.955702
  C       2.051222      0.964945     -0.412087
  C      -2.116384      0.925290      0.391594
  C       3.190840      0.484704      0.542315
  C      -3.244770      0.378379     -0.548210
  C      -4.154103     -0.777290     -0.025471
29
Coordinates from ORCA-job PFOS_wb E -2626.602256108696
  S       4.363868     -0.813604      0.037375
  F      -0.754260     -1.627521     -0.764930
  F       0.738046     -1.602956      0.809823
  F       0.174217      0.616004     -1.827792
  F       1.587193     -1.019955     -1.659754
  F      -0.251789      0.642356      1.840875
  F      -1.626663     -1.028673      1.669729
  F       2.595812      1.439571     -1.569221
  F       1.362367      1.968772      0.135213
  F      -2.696605      1.386295      1.543130
  F      -1.484698      1.936393     -0.172076
  F       2.611097      0.198855      1.703826
  F       3.881369      1.652603      0.703517
  F      -2.674670      0.083463     -1.704251
  F      -4.006755      1.489091     -0.714143
  F      -4.601917     -0.541164      1.157165
  F      -3.501271     -1.909536     -0.104027
  F      -5.171959     -0.815371     -0.906979
  O       5.397934     -0.637084      1.035479
  O       4.759558     -0.472058     -1.311761
  O       3.614697     -2.043037      0.163861
  C      -0.009294     -0.827008      0.015235
  C       0.948744     -0.066522     -0.966617
  C      -0.989080     -0.068132      0.977324
  C       2.020619      0.953246     -0.456860
  C      -2.088857      0.911226      0.443574
  C       3.161652      0.525016      0.520157
  C      -3.216462      0.419549     -0.527597
  C      -4.142992     -0.750018     -0.070174
29
Coordinates from ORCA-job PFOS_wb E -2626.602321200317
  S       4.324606     -0.820280      0.038305
  F      -0.766529     -1.630156     -0.749187
  F       0.747011     -1.600102      0.808553
  F       0.147686      0.609061     -1.828268
  F       1.573965     -1.019431     -1.665628
  F      -0.226937      0.647674      1.841022
  F      -1.615854     -1.016311      1.685958
  F       2.574469      1.443941     -1.576734
  F       1.333245      1.968842      0.126083
  F      -2.681273      1.396809      1.548372
  F      -1.458765      1.942226     -0.162983
  F       2.573913      0.205495      1.696213
  F       3.859051      1.651952      0.701843
  F      -2.636026      0.099626     -1.700114
  F      -3.988339      1.487838     -0.710938
  F      -4.570393     -0.558129      1.147475
  F      -3.436657     -1.905610     -0.106010
  F      -5.119840     -0.840134     -0.921489
  O       5.345497     -0.669261      1.054086
  O       4.744960     -0.469770     -1.301180
  O       3.554520     -2.039329      0.139840
  C      -0.010828     -0.828449      0.019534
  C       0.932901     -0.068000     -0.972177
  C      -0.975809     -0.062407      0.986959
  C       1.997987      0.957111     -0.465302
  C      -2.069127      0.920283      0.451935
  C       3.133361      0.528330      0.515813
  C      -3.187818      0.425786     -0.525419
  C      -4.099075     -0.757802     -0.076461
29
Coordinates from ORCA-job PFOS_wb E -2626.602376876558
  S       4.336713     -0.813835      0.047200
  F      -0.761101     -1.632455     -0.760322
  F       0.747452     -1.607330      0.800022
  F       0.154889      0.609388     -1.831924
  F       1.577775     -1.019632     -1.672296
  F      -0.230867      0.634267      1.841494
  F      -1.615830     -1.029793      1.675824
  F       2.583104      1.438248     -1.580127
  F       1.341300      1.969158      0.118457
  F      -2.680897      1.385220      1.552411
  F      -1.463770      1.938020     -0.158771
  F       2.580886      0.212328      1.697543
  F       3.862018      1.657075      0.697556
  F      -2.648980      0.094684     -1.698887
  F      -3.988342      1.492878     -0.708088
  F      -4.583930     -0.545451      1.152543
  F      -3.467635     -1.904509     -0.103850
  F      -5.141180     -0.821024     -0.914660
  O       5.358203     -0.648888      1.057310
  O       4.751009     -0.472089     -1.294360
  O       3.576275     -2.035517      0.160304
  C      -0.008251     -0.832698      0.012526
  C       0.938206     -0.069726     -0.976219
  C      -0.976883     -0.071787      0.982113
  C       2.004972      0.954648     -0.468507
  C      -2.072154      0.913145      0.452562
  C       3.140365      0.530268      0.515927
  C      -3.195821      0.425133     -0.523365
  C      -4.117627     -0.749927     -0.072318
29
Coordinates from ORCA-job PFOS_wb E -2626.602372762776
  S       4.341147     -0.816676      0.034169
  F      -0.764135     -1.632079     -0.744274
  F       0.742515     -1.598547      0.817660
  F       0.152905      0.608528     -1.823694
  F       1.571757     -1.023680     -1.660661
  F      -0.238765      0.648536      1.846662
  F      -1.621601     -1.017855      1.687413
  F       2.578774      1.436204     -1.577564
  F       1.346809      1.967529      0.128162
  F      -2.694514      1.389403      1.550344
  F      -1.471101      1.944702     -0.155549
  F       2.593704      0.204174      1.697758
  F       3.869088      1.652358      0.695099
  F      -2.642139      0.099811     -1.701185
  F      -3.993560      1.489178     -0.714153
  F      -4.584917     -0.556180      1.141392
  F      -3.456262     -1.906546     -0.113681
  F      -5.132890     -0.830619     -0.928565
  O       5.366855     -0.657138      1.041178
  O       4.750073     -0.467846     -1.307524
  O       3.580629     -2.038900      0.143871
  C      -0.012266     -0.828002      0.025221
  C       0.935306     -0.070140     -0.966578
  C      -0.982772     -0.062644      0.989640
  C       2.005935      0.952463     -0.463161
  C      -2.078858      0.918218      0.453842
  C       3.146850      0.525568      0.513923
  C      -3.195850      0.425540     -0.527452
  C      -4.112818     -0.755558     -0.082193
29
Coordinates from ORCA-job PFOS_wb E -2626.602381050860
  S       4.336114     -0.817352      0.041641
  F      -0.760589     -1.631635     -0.754022
  F       0.747381     -1.601408      0.807021
  F       0.154225      0.612150     -1.828082
  F       1.575879     -1.018381     -1.668867
  F      -0.233731      0.642506      1.842424
  F      -1.616607     -1.023912      1.680517
  F       2.582405      1.439679     -1.578056
  F       1.344255      1.969776      0.123902
  F      -2.687001      1.386941      1.550563
  F      -1.468009      1.941057     -0.159061
  F       2.585501      0.209929      1.698193
  F       3.867031      1.654042      0.697003
  F      -2.646127      0.093942     -1.699871
  F      -3.991187      1.489219     -0.712297
  F      -4.584806     -0.549206      1.148788
  F      -3.461936     -1.906470     -0.103977
  F      -5.137086     -0.828589     -0.919459
  O       5.358551     -0.659306      1.052460
  O       4.750812     -0.470633     -1.299056
  O       3.571963     -2.037704      0.149687
  C      -0.008695     -0.829247      0.017275
  C       0.937559     -0.067633     -0.972599
  C      -0.978583     -0.066821      0.984488
  C       2.005969      0.955318     -0.465695
  C      -2.075205      0.915201      0.452087
  C       3.143131      0.528235      0.515530
  C      -3.195976      0.423705     -0.525408
  C      -4.115339     -0.753601     -0.075029
29
Coordinates from ORCA-job PFOS_wb E -2626.602376306600
  S       4.337691     -0.814732      0.042298
  F      -0.762112     -1.633633     -0.753816
  F       0.746618     -1.604240      0.806507
  F       0.152524      0.609503     -1.828059
  F       1.574733     -1.020483     -1.669717
  F      -0.232648      0.639332      1.842942
  F      -1.617504     -1.025419      1.680344
  F       2.580202      1.438156     -1.578823
  F       1.341600      1.967625      0.122841
  F      -2.685088      1.386710      1.551411
  F      -1.464999      1.940252     -0.157640
  F       2.584492      0.209584      1.697905
  F       3.863623      1.655502      0.696668
  F      -2.644801      0.095167     -1.699549
  F      -3.988648      1.491558     -0.711937
  F      -4.585502     -0.546535      1.147949
  F      -3.462781     -1.904696     -0.103867
  F      -5.136431     -0.825534     -0.920680
  O       5.359743     -0.653727      1.052781
  O       4.751408     -0.467750     -1.298484
  O       3.576659     -2.036765      0.151053
  C      -0.009424     -0.831730      0.017158
  C       0.936426     -0.070126     -0.973015
  C      -0.978364     -0.068774      0.984785
  C       2.004235      0.953584     -0.466340
  C      -2.073649      0.914868      0.452803
  C       3.141868      0.528309      0.515257
  C      -3.194664      0.425150     -0.525198
  C      -4.115308     -0.751356     -0.075478
29
Coordinates from ORCA-job PFOS_wb E -2626.602381598422
  S       4.336152     -0.816989      0.042495
  F      -0.761449     -1.632157     -0.753574
  F       0.747129     -1.602037      0.806789
  F       0.153069      0.611807     -1.827815
  F       1.574459     -1.018896     -1.670006
  F      -0.233116      0.641819      1.842600
  F      -1.616522     -1.024107      1.680880
  F       2.581826      1.438457     -1.579026
  F       1.343850      1.969263      0.122689
  F      -2.686837      1.386230      1.551685
  F      -1.467542      1.941579     -0.157272
  F       2.585152      0.211068      1.698078
  F       3.866337      1.654390      0.695590
  F      -2.645309      0.095696     -1.699651
  F      -3.990799      1.489972     -0.711325
  F      -4.584719     -0.549722      1.147848
  F      -3.460582     -1.905893     -0.104872
  F      -5.135701     -0.828342     -0.920804
  O       5.358383     -0.657801      1.053061
  O       4.750585     -0.470793     -1.298275
  O       3.572845     -2.037604      0.151214
  C      -0.009070     -0.829847      0.017270
  C       0.936789     -0.068349     -0.973007
  C      -0.978416     -0.067159      0.984800
  C       2.005461      0.954542     -0.466453
  C      -2.074892      0.915311      0.452954
  C       3.142729      0.528197      0.515085
  C      -3.195414      0.424522     -0.525091
  C      -4.114498     -0.753357     -0.075767
29
Coordinates from ORCA-job PFOS_wb E -2626.602379865576
  S       4.336830     -0.816199      0.041485
  F      -0.760878     -1.633314     -0.752638
  F       0.747445     -1.602115      0.807988
  F       0.153070      0.610643     -1.827515
  F       1.574999     -1.019609     -1.668955
  F      -0.233490      0.641477      1.843032
  F      -1.616943     -1.024421      1.681177
  F       2.580979      1.438620     -1.578700
  F       1.343222      1.968681      0.123482
  F      -2.686933      1.386077      1.551405
  F      -1.467052      1.941109     -0.157238
  F       2.585918      0.210587      1.698135
  F       3.866160      1.654830      0.695654
  F      -2.644878      0.094809     -1.699700
  F      -3.989828      1.490365     -0.712436
  F      -4.586084     -0.547988      1.147274
  F      -3.462472     -1.905652     -0.104329
  F      -5.136325     -0.827072     -0.921523
  O       5.358942     -0.657682      1.052357
  O       4.751313     -0.468608     -1.298989
  O       3.573754     -2.037145      0.148965
  C      -0.008870     -0.830466      0.018026
  C       0.936889     -0.069036     -0.972373
  C      -0.978573     -0.067613      0.985106
  C       2.005164      0.954332     -0.465980
  C      -2.074788      0.914963      0.452843
  C       3.142987      0.528320      0.515045
  C      -3.195227      0.424450     -0.525460
  C      -4.115433     -0.752543     -0.076040
