56
Coordinates from ORCA-job R4N+Cl-_wb E -1372.712001905325
  N      -2.192861     -0.281790     -4.054067
  C       1.246346      1.105601      1.451317
  C       2.095415      0.049416      2.175567
  C       1.300271     -1.136025      2.746076
  C       0.421110      0.506149      0.334604
  C       2.139483      2.247723      0.933560
  C      -1.948710     -1.199776     -2.848382
  C      -1.120880     -0.591086     -1.758058
  C       0.198041     -0.689383      3.684014
  C       1.029398     -0.191250     -0.715461
  C      -0.969312      0.638630      0.321485
  C       2.246511     -2.122974      3.441129
  C      -2.897019      0.974274     -3.634998
  C      -3.074409     -1.033865     -5.009649
  C      -0.906702      0.067952     -4.735118
  C       0.270691     -0.734643     -1.744462
  C      -1.733115      0.094405     -0.706052
  C       1.354812      3.389208      0.294563
  C      -1.130973     -1.047390      3.444279
  C       0.483438      0.085915      4.814322
  C      -2.150869     -0.641662      4.303917
  C      -0.531501      0.493654      5.674950
  C      -1.854714      0.132454      5.422443
  H       0.544351      1.537353      2.179528
  H       2.641911      0.544602      2.989846
  H       2.854778     -0.344249      1.486106
  H       0.820767     -1.658143      1.906576
  H       2.860243      1.838863      0.211890
  H       2.725273      2.630683      1.779713
  H      -1.466223     -2.091015     -3.260101
  H      -2.950675     -1.453839     -2.482709
  H       2.109088     -0.318773     -0.726052
  H      -1.461125      1.167002      1.135154
  H       1.699436     -2.991257      3.823998
  H       2.757544     -1.644765      4.284885
  H       3.010387     -2.480621      2.741286
  H      -3.816790      0.693171     -3.112768
  H      -3.125055      1.549316     -4.535164
  H      -2.239801      1.551405     -2.982911
  H      -4.013597     -1.263531     -4.498379
  H      -2.563087     -1.951779     -5.307684
  H      -3.256498     -0.403172     -5.881993
  H      -1.140173      0.666159     -5.618598
  H      -0.399929     -0.854646     -5.026252
  H      -0.283911      0.645140     -4.050111
  H       0.760200     -1.284768     -2.544732
  H      -2.815864      0.196189     -0.692022
  H       0.616012      3.797520      0.994620
  H       0.816732      3.054273     -0.599503
  H       2.021257      4.205399     -0.004101
  H      -1.369803     -1.647383      2.568566
  H       1.510221      0.377511      5.023247
  H      -3.178218     -0.929764      4.096756
  H      -0.289933      1.097108      6.546095
  H      -2.647170      0.452285      6.093460
  Cl     -5.567670     -1.152720     -2.089222
56
Coordinates from ORCA-job R4N+Cl-_wb E -1372.713077472206
  N      -2.187785     -0.277353     -4.060468
  C       1.234528      1.097895      1.441786
  C       2.080032      0.047758      2.173356
  C       1.293143     -1.132908      2.758290
  C       0.412051      0.497061      0.323855
  C       2.125881      2.238573      0.928922
  C      -1.948827     -1.190882     -2.865528
  C      -1.123094     -0.590891     -1.768583
  C       0.199404     -0.687183      3.706095
  C       1.018588     -0.196710     -0.723550
  C      -0.973607      0.627461      0.309404
  C       2.244769     -2.116775      3.441702
  C      -2.889976      0.971180     -3.650005
  C      -3.057896     -1.024629     -5.013631
  C      -0.910210      0.071520     -4.736023
  C       0.263255     -0.735712     -1.751870
  C      -1.733615      0.088290     -0.718283
  C       1.347849      3.382667      0.293377
  C      -1.126790     -1.045097      3.478189
  C       0.490660      0.087359      4.830018
  C      -2.138011     -0.640146      4.341748
  C      -0.515030      0.494913      5.694707
  C      -1.835599      0.133391      5.453322
  H       0.532350      1.529930      2.162839
  H       2.627847      0.548592      2.978173
  H       2.835523     -0.350190      1.488128
  H       0.806479     -1.656929      1.930083
  H       2.845346      1.832861      0.209869
  H       2.709663      2.616830      1.773425
  H      -1.469674     -2.077353     -3.278591
  H      -2.946439     -1.446572     -2.504290
  H       2.095452     -0.323386     -0.734251
  H      -1.465281      1.153216      1.120663
  H       1.704076     -2.982293      3.830539
  H       2.764757     -1.640039      4.276655
  H       2.998013     -2.474755      2.735952
  H      -3.808390      0.693483     -3.132965
  H      -3.113524      1.540767     -4.549571
  H      -2.237821      1.548637     -3.000075
  H      -3.996129     -1.256280     -4.510636
  H      -2.544753     -1.937538     -5.308533
  H      -3.235315     -0.395148     -5.882588
  H      -1.144221      0.664787     -5.617507
  H      -0.403806     -0.847454     -5.023557
  H      -0.292049      0.649969     -4.054620
  H       0.752919     -1.280998     -2.551283
  H      -2.813506      0.190703     -0.705133
  H       0.611224      3.790358      0.991042
  H       0.811817      3.054556     -0.600677
  H       2.015359      4.195352     -0.000294
  H      -1.371070     -1.644115      2.607136
  H       1.515665      0.380519      5.030181
  H      -3.163833     -0.928024      4.142372
  H      -0.268210      1.098877      6.560346
  H      -2.621360      0.453221      6.127409
  Cl     -5.563695     -1.152271     -2.111667
56
Coordinates from ORCA-job R4N+Cl-_wb E -1372.713130275472
  N      -2.187098     -0.276014     -4.063358
  C       1.232561      1.093747      1.440851
  C       2.075687      0.044506      2.173510
  C       1.288793     -1.132917      2.761309
  C       0.412071      0.492513      0.321396
  C       2.123241      2.235048      0.931594
  C      -1.943483     -1.189656     -2.874352
  C      -1.119322     -0.593148     -1.773138
  C       0.198740     -0.683603      3.711964
  C       1.019747     -0.196412     -0.727162
  C      -0.973101      0.617278      0.308078
  C       2.239020     -2.120066      3.439762
  C      -2.893939      0.966936     -3.650414
  C      -3.053507     -1.024089     -5.016709
  C      -0.913549      0.080940     -4.739960
  C       0.266441     -0.733519     -1.756843
  C      -1.731094      0.078783     -0.720484
  C       1.347574      3.380429      0.297160
  C      -1.128582     -1.034480      3.485551
  C       0.494240      0.088841      4.835005
  C      -2.136429     -0.626179      4.350197
  C      -0.507662      0.499780      5.701054
  C      -1.829346      0.144315      5.461466
  H       0.527928      1.524935      2.160003
  H       2.625131      0.546499      2.976423
  H       2.830302     -0.356140      1.488926
  H       0.797062     -1.655721      1.935356
  H       2.844430      1.831598      0.213065
  H       2.705834      2.611961      1.777276
  H      -1.462332     -2.073879     -3.289667
  H      -2.938658     -1.452060     -2.512576
  H       2.097032     -0.320096     -0.738643
  H      -1.466699      1.138236      1.121295
  H       1.697125     -2.984004      3.830026
  H       2.764817     -1.646960      4.273074
  H       2.987910     -2.480805      2.731052
  H      -3.810626      0.685182     -3.133432
  H      -3.121603      1.537379     -4.548225
  H      -2.244946      1.547440     -3.000048
  H      -3.990106     -1.262306     -4.514654
  H      -2.537147     -1.933900     -5.315264
  H      -3.235725     -0.393643     -5.883782
  H      -1.151488      0.673788     -5.620481
  H      -0.401454     -0.833964     -5.029996
  H      -0.296836      0.662788     -4.060280
  H       0.758214     -1.274324     -2.558004
  H      -2.811452      0.176460     -0.705158
  H       0.610639      3.788305      0.994187
  H       0.812142      3.055217     -0.598248
  H       2.016176      4.192716      0.005541
  H      -1.376825     -1.631604      2.614243
  H       1.520770      0.377744      5.034037
  H      -3.163727     -0.909298      4.151679
  H      -0.256880      1.102022      6.566731
  H      -2.612759      0.466998      6.136919
  Cl     -5.560121     -1.174505     -2.112446
56
Coordinates from ORCA-job R4N+Cl-_wb E -1372.713145834463
  N      -2.186415     -0.278624     -4.065649
  C       1.231706      1.095305      1.440973
  C       2.072837      0.045044      2.173499
  C       1.285509     -1.131769      2.760645
  C       0.412045      0.494896      0.320045
  C       2.122668      2.236946      0.934640
  C      -1.941975     -1.188819     -2.876722
  C      -1.118250     -0.591630     -1.774851
  C       0.198028     -0.682176      3.714444
  C       1.020254     -0.192197     -0.729180
  C      -0.973163      0.617879      0.306814
  C       2.234634     -2.122969      3.433756
  C      -2.894306      0.964067     -3.654975
  C      -3.051962     -1.028781     -5.017859
  C      -0.913485      0.078879     -4.743092
  C       0.267584     -0.729575     -1.759079
  C      -1.730489      0.078970     -0.721993
  C       1.348810      3.383612      0.300925
  C      -1.130719     -1.026864      3.487735
  C       0.497151      0.083794      4.840734
  C      -2.136360     -0.618483      4.354760
  C      -0.502281      0.494703      5.709446
  C      -1.825485      0.145720      5.469165
  H       0.525337      1.525825      2.159103
  H       2.623163      0.546473      2.976371
  H       2.827667     -0.356066      1.489161
  H       0.790075     -1.652017      1.935040
  H       2.845348      1.835152      0.216461
  H       2.704431      2.612771      1.781504
  H      -1.460555     -2.074476     -3.289116
  H      -2.936294     -1.453061     -2.513713
  H       2.097742     -0.315014     -0.740918
  H      -1.467737      1.137526      1.120363
  H       1.691708     -2.986704      3.823269
  H       2.764789     -1.654454      4.267049
  H       2.980546     -2.484386      2.722150
  H      -3.810892      0.683303     -3.137231
  H      -3.123531      1.533119     -4.553371
  H      -2.246695      1.547611     -3.005805
  H      -3.988342     -1.268211     -4.515887
  H      -2.535433     -1.938631     -5.316279
  H      -3.236215     -0.400063     -5.885841
  H      -1.151575      0.668826     -5.625619
  H      -0.398862     -0.835423     -5.030887
  H      -0.297240      0.664330     -4.065869
  H       0.760455     -1.269054     -2.560576
  H      -2.811060      0.175011     -0.705470
  H       0.611760      3.792098      0.997598
  H       0.813450      3.060624     -0.595434
  H       2.018515      4.195498      0.010491
  H      -1.382095     -1.619415      2.614100
  H       1.525035      0.367733      5.040554
  H      -3.164916     -0.896769      4.155587
  H      -0.248334      1.091915      6.577761
  H      -2.607146      0.468366      6.146779
  Cl     -5.562307     -1.181273     -2.110100
56
Coordinates from ORCA-job R4N+Cl-_wb E -1372.713150375157
  N      -2.184558     -0.280787     -4.071829
  C       1.227629      1.094447      1.441894
  C       2.067764      0.042259      2.172596
  C       1.279632     -1.133260      2.760743
  C       0.409752      0.496131      0.318204
  C       2.118734      2.237649      0.940163
  C      -1.939089     -1.188858     -2.882610
  C      -1.117146     -0.590130     -1.779836
  C       0.197952     -0.681161      3.720094
  C       1.020059     -0.187137     -0.732425
  C      -0.975828      0.616299      0.304186
  C       2.228245     -2.128974      3.427479
  C      -2.895405      0.960762     -3.662623
  C      -3.047745     -1.033178     -5.024507
  C      -0.911937      0.079332     -4.748815
  C       0.269147     -0.724420     -1.763821
  C      -1.731417      0.077498     -0.726231
  C       1.345796      3.386244      0.308992
  C      -1.133501     -1.018910      3.498030
  C       0.505139      0.081592      4.846480
  C      -2.133792     -0.607196      4.369830
  C      -0.488850      0.496031      5.719915
  C      -1.814771      0.153681      5.484374
  H       0.519386      1.522733      2.159733
  H       2.620645      0.542403      2.974688
  H       2.821130     -0.359787      1.486995
  H       0.778266     -1.650612      1.936755
  H       2.842926      1.838797      0.221715
  H       2.699494      2.611287      1.788818
  H      -1.455815     -2.074992     -3.292154
  H      -2.932630     -1.456121     -2.519383
  H       2.097854     -0.307654     -0.743990
  H      -1.472388      1.133157      1.118336
  H       1.684196     -2.991506      3.818298
  H       2.765001     -1.664704      4.259022
  H       2.969184     -2.492395      2.711591
  H      -3.811965      0.679461     -3.144962
  H      -3.125940      1.529051     -4.561261
  H      -2.250109      1.547094     -3.013625
  H      -3.984028     -1.275249     -4.523431
  H      -2.529467     -1.942043     -5.323082
  H      -3.233738     -0.405441     -5.892895
  H      -1.150459      0.666788     -5.632981
  H      -0.393745     -0.833698     -5.034449
  H      -0.297846      0.668398     -4.072671
  H       0.764115     -1.261207     -2.565872
  H      -2.812247      0.170804     -0.709235
  H       0.608428      3.793692      1.006052
  H       0.810704      3.066409     -0.588697
  H       2.016097      4.198610      0.021014
  H      -1.391397     -1.608802      2.624440
  H       1.535182      0.360415      5.042690
  H      -3.164454     -0.880248      4.174169
  H      -0.228453      1.090530      6.588215
  H      -2.592168      0.478912      6.165715
  Cl     -5.564438     -1.192902     -2.114433
56
Coordinates from ORCA-job R4N+Cl-_wb E -1372.713152701645
  N      -2.186223     -0.282776     -4.068664
  C       1.231155      1.096820      1.442800
  C       2.070390      0.043247      2.172746
  C       1.280991     -1.133056      2.757830
  C       0.412513      0.499466      0.319103
  C       2.123321      2.239583      0.941782
  C      -1.939466     -1.188796     -2.877977
  C      -1.116380     -0.587976     -1.777211
  C       0.196847     -0.681902      3.714834
  C       1.022001     -0.183854     -0.732149
  C      -0.973171      0.619611      0.306220
  C       2.228189     -2.129265      3.425939
  C      -2.896834      0.959420     -3.660642
  C      -3.050214     -1.036760     -5.019446
  C      -0.914210      0.076444     -4.747476
  C       0.270120     -0.721734     -1.762682
  C      -1.729733      0.080338     -0.723383
  C       1.351275      3.389294      0.311436
  C      -1.134178     -1.018893      3.488501
  C       0.501191      0.079089      4.843313
  C      -2.136864     -0.607929      4.358053
  C      -0.495233      0.492739      5.714536
  C      -1.820708      0.151279      5.474668
  H       0.523204      1.525128      2.160887
  H       2.622406      0.541915      2.976330
  H       2.824716     -0.357576      1.487512
  H       0.781801     -1.649818      1.932150
  H       2.847242      1.840731      0.223069
  H       2.704410      2.612224      1.790661
  H      -1.456374     -2.075838     -3.285817
  H      -2.932510     -1.455840     -2.513166
  H       2.099786     -0.304117     -0.744847
  H      -1.469151      1.136631      1.120621
  H       1.683327     -2.992104      3.814981
  H       2.763310     -1.665776      4.258971
  H       2.970651     -2.492213      2.711359
  H      -3.812957      0.679281     -3.141540
  H      -3.128310      1.526443     -4.559843
  H      -2.250999      1.546868     -3.013210
  H      -3.986005     -1.278381     -4.517201
  H      -2.532016     -1.945921     -5.317264
  H      -3.237224     -0.410384     -5.888600
  H      -1.153763      0.661780     -5.632781
  H      -0.395857     -0.837030     -5.031385
  H      -0.300005      0.667346     -4.073039
  H       0.764513     -1.258780     -2.564894
  H      -2.810528      0.173522     -0.705137
  H       0.614472      3.797136      1.008870
  H       0.815639      3.070555     -0.586298
  H       2.022296      4.201193      0.023749
  H      -1.389863     -1.607482      2.613390
  H       1.530774      0.357016      5.043008
  H      -3.167047     -0.880342      4.159050
  H      -0.237060      1.085825      6.584457
  H      -2.599909      0.475846      6.154247
  Cl     -5.566615     -1.193132     -2.105012
56
Coordinates from ORCA-job R4N+Cl-_wb E -1372.713155587532
  N      -2.186613     -0.284681     -4.069192
  C       1.231489      1.098538      1.443219
  C       2.069873      0.043289      2.172217
  C       1.279470     -1.133211      2.756087
  C       0.412848      0.502717      0.318706
  C       2.125171      2.240951      0.943891
  C      -1.939317     -1.188687     -2.876741
  C      -1.116133     -0.585537     -1.777373
  C       0.195921     -0.682317      3.713845
  C       1.022404     -0.180398     -0.732750
  C      -0.972857      0.623092      0.305615
  C       2.226274     -2.130579      3.423203
  C      -2.897963      0.957750     -3.663022
  C      -3.050098     -1.040746     -5.018790
  C      -0.914683      0.074186     -4.748526
  C       0.270496     -0.718799     -1.763067
  C      -1.729459      0.083498     -0.723899
  C       1.354447      3.392583      0.315311
  C      -1.135388     -1.018610      3.487851
  C       0.501253      0.077392      4.843011
  C      -2.137495     -0.607851      4.358243
  C      -0.494660      0.490739      5.715076
  C      -1.820469      0.150256      5.475422
  H       0.523747      1.526620      2.161554
  H       2.622256      0.540475      2.976427
  H       2.823934     -0.357154      1.486529
  H       0.780010     -1.648866      1.929943
  H       2.848643      1.842314      0.224658
  H       2.706620      2.611597      1.793382
  H      -1.455708     -2.076238     -3.282833
  H      -2.932183     -1.455654     -2.511438
  H       2.100190     -0.300474     -0.745570
  H      -1.468941      1.140224      1.119856
  H       1.680975     -2.993360      3.811764
  H       2.761968     -1.668076      4.256387
  H       2.968288     -2.493377      2.708076
  H      -3.813989      0.678294     -3.143405
  H      -3.129576      1.523368     -4.563068
  H      -2.252369      1.546383     -3.016487
  H      -3.985745     -1.282148     -4.516233
  H      -2.531098     -1.949947     -5.315058
  H      -3.237346     -0.415842     -5.888938
  H      -1.154824      0.657266     -5.635148
  H      -0.395653     -0.839598     -5.030120
  H      -0.301412      0.667108     -4.075041
  H       0.764980     -1.256132     -2.565004
  H      -2.810223      0.176644     -0.705543
  H       0.618170      3.800232      1.013396
  H       0.818453      3.075804     -0.582846
  H       2.026439      4.204126      0.028874
  H      -1.391783     -1.606350      2.612415
  H       1.531051      0.354510      5.042563
  H      -3.167880     -0.879614      4.159464
  H      -0.235794      1.082872      6.585425
  H      -2.599198      0.474619      6.155619
  Cl     -5.569382     -1.194106     -2.102535
56
Coordinates from ORCA-job R4N+Cl-_wb E -1372.713154689651
  N      -2.186960     -0.287429     -4.070420
  C       1.231705      1.100840      1.443600
  C       2.068227      0.043105      2.171482
  C       1.275544     -1.133005      2.753326
  C       0.413495      0.507208      0.317671
  C       2.127712      2.242713      0.947075
  C      -1.937431     -1.188946     -2.876256
  C      -1.114698     -0.582512     -1.778362
  C       0.193972     -0.681750      3.713056
  C       1.023591     -0.175002     -0.734109
  C      -0.972244      0.626919      0.304314
  C       2.220898     -2.133649      3.417814
  C      -2.901252      0.953866     -3.666126
  C      -3.048586     -1.047359     -5.018548
  C      -0.915827      0.073315     -4.750436
  C       0.272117     -0.714141     -1.764318
  C      -1.728445      0.086580     -0.725160
  C       1.359094      3.397217      0.321116
  C      -1.138426     -1.014103      3.487600
  C       0.502550      0.073939      4.844044
  C      -2.138461     -0.603340      4.360403
  C      -0.491323      0.487146      5.718500
  C      -1.818227      0.150652      5.479446
  H       0.524082      1.528619      2.162158
  H       2.621081      0.537971      2.976755
  H       2.821735     -0.357370      1.485260
  H       0.774545     -1.645808      1.926412
  H       2.850555      1.844351      0.227119
  H       2.709542      2.610256      1.797619
  H      -1.452070     -2.076119     -3.281009
  H      -2.929690     -1.457286     -2.510482
  H       2.101455     -0.294213     -0.747005
  H      -1.468828      1.143521      1.118572
  H       1.674109     -2.995922      3.805349
  H       2.758284     -1.673640      4.251264
  H       2.961474     -2.496596      2.701297
  H      -3.816595      0.673399     -3.145922
  H      -3.134005      1.517583     -4.567058
  H      -2.256884      1.544797     -3.020513
  H      -3.983568     -1.290054     -4.515497
  H      -2.527046     -1.955678     -5.313007
  H      -3.237210     -0.424416     -5.889792
  H      -1.157813      0.653453     -5.638461
  H      -0.394498     -0.839899     -5.029525
  H      -0.304620      0.669520     -4.078031
  H       0.767094     -1.251294     -2.566052
  H      -2.809257      0.178735     -0.706730
  H       0.623434      3.804386      1.020096
  H       0.822793      3.083376     -0.577839
  H       2.032534      4.208281      0.036788
  H      -1.397315     -1.598706      2.610826
  H       1.533249      0.347830      5.043243
  H      -3.169746     -0.871956      4.162048
  H      -0.229954      1.076058      6.590272
  H      -2.595338      0.475003      6.161473
  Cl     -5.571427     -1.201351     -2.099935
56
Coordinates from ORCA-job R4N+Cl-_wb E -1372.713156000932
  N      -2.187977     -0.287078     -4.069508
  C       1.233085      1.100414      1.443649
  C       2.069065      0.042388      2.171745
  C       1.275951     -1.133494      2.753366
  C       0.414740      0.507178      0.317624
  C       2.129739      2.241919      0.947457
  C      -1.936634     -1.188914     -2.875924
  C      -1.113829     -0.582389     -1.778138
  C       0.193521     -0.682000      3.711999
  C       1.024642     -0.174601     -0.734495
  C      -0.970976      0.626681      0.304628
  C       2.220844     -2.133841      3.418989
  C      -2.903743      0.953009     -3.664311
  C      -3.049164     -1.047816     -5.017370
  C      -0.917687      0.075593     -4.750044
  C       0.272980     -0.713672     -1.764528
  C      -1.727357      0.086360     -0.724662
  C       1.361802      3.397191      0.322145
  C      -1.138519     -1.015026      3.485758
  C       0.500836      0.075187      4.842281
  C      -2.139419     -0.603684      4.357211
  C      -0.493916      0.489069      5.715335
  C      -1.820450      0.151777      5.475563
  H       0.525660      1.528492      2.162254
  H       2.621629      0.537112      2.977301
  H       2.822644     -0.358320      1.485737
  H       0.775762     -1.646572      1.926131
  H       2.852120      1.843260      0.227204
  H       2.711924      2.608639      1.798101
  H      -1.450642     -2.075167     -3.281907
  H      -2.928516     -1.458277     -2.509944
  H       2.102529     -0.293597     -0.747716
  H      -1.467384      1.143018      1.119162
  H       1.673759     -2.995966      3.806410
  H       2.757397     -1.673297      4.252667
  H       2.962019     -2.496939      2.703191
  H      -3.818397      0.670820     -3.143842
  H      -3.137611      1.516782     -4.564917
  H      -2.259833      1.544376     -3.018659
  H      -3.983537     -1.291652     -4.513772
  H      -2.526614     -1.955404     -5.312244
  H      -3.238942     -0.424793     -5.888308
  H      -1.160970      0.655919     -5.637584
  H      -0.395467     -0.836860     -5.029946
  H      -0.306827      0.672121     -4.077615
  H       0.767774     -1.250521     -2.566589
  H      -2.808189      0.178244     -0.706050
  H       0.626365      3.804270      1.021400
  H       0.825407      3.084024     -0.576967
  H       2.035670      4.208047      0.038278
  H      -1.396423     -1.600604      2.609336
  H       1.531241      0.349908      5.041897
  H      -3.170441     -0.872897      4.158288
  H      -0.233539      1.079179      6.586601
  H      -2.598279      0.476637      6.156535
  Cl     -5.570695     -1.205136     -2.097794
56
Coordinates from ORCA-job R4N+Cl-_wb E -1372.713156858348
  N      -2.188567     -0.286519     -4.069342
  C       1.233790      1.100119      1.443279
  C       2.069012      0.042050      2.172034
  C       1.275646     -1.133434      2.753880
  C       0.415442      0.506854      0.317263
  C       2.131202      2.241026      0.947186
  C      -1.935754     -1.188759     -2.876513
  C      -1.113168     -0.582458     -1.778460
  C       0.192995     -0.681739      3.712179
  C       1.025272     -0.174918     -0.734826
  C      -0.970252      0.626394      0.304292
  C       2.220263     -2.133762      3.419879
  C      -2.906100      0.952242     -3.663371
  C      -3.049065     -1.047911     -5.017328
  C      -0.918923      0.078182     -4.749856
  C       0.273575     -0.713825     -1.764847
  C      -1.726643      0.086281     -0.725023
  C       1.364246      3.396877      0.321871
  C      -1.138762     -1.016129      3.486522
  C       0.499799      0.076779      4.841649
  C      -2.139860     -0.604839      4.357689
  C      -0.495135      0.490775      5.714332
  C      -1.821382      0.152094      5.475131
  H       0.526420      1.528825      2.161614
  H       2.621412      0.536986      2.977558
  H       2.822592     -0.359294      1.486369
  H       0.775537     -1.646647      1.926635
  H       2.853317      1.841791      0.226961
  H       2.713565      2.607239      1.797926
  H      -1.449177     -2.074078     -3.283827
  H      -2.927401     -1.459125     -2.510655
  H       2.103168     -0.294014     -0.747989
  H      -1.466536      1.142815      1.118861
  H       1.672970     -2.995771      3.807251
  H       2.756465     -1.672950      4.253646
  H       2.961634     -2.496965      2.704353
  H      -3.820145      0.667887     -3.142997
  H      -3.140991      1.516118     -4.563648
  H      -2.263055      1.544150     -3.017376
  H      -3.982974     -1.292874     -4.513385
  H      -2.525619     -1.954825     -5.312654
  H      -3.239837     -0.424701     -5.887921
  H      -1.162970      0.659166     -5.636766
  H      -0.395754     -0.833391     -5.030895
  H      -0.308382      0.674653     -4.077053
  H       0.768226     -1.250573     -2.567089
  H      -2.807470      0.178448     -0.706800
  H       0.628717      3.804079      1.020958
  H       0.828155      3.084179     -0.577571
  H       2.038665      4.207442      0.038509
  H      -1.396251     -1.602829      2.610707
  H       1.530016      0.352554      5.040863
  H      -3.170690     -0.875149      4.159238
  H      -0.235149      1.082010      6.584965
  H      -2.599388      0.476964      6.155906
  Cl     -5.569572     -1.208406     -2.097908
56
Coordinates from ORCA-job R4N+Cl-_wb E -1372.713157520506
  N      -2.188917     -0.286881     -4.069222
  C       1.234435      1.100412      1.443414
  C       2.069041      0.041824      2.172032
  C       1.275118     -1.133443      2.753398
  C       0.416081      0.507646      0.317147
  C       2.132288      2.241149      0.947874
  C      -1.935029     -1.188631     -2.876360
  C      -1.112584     -0.581754     -1.778498
  C       0.192565     -0.681614      3.711763
  C       1.025878     -0.174181     -0.734905
  C      -0.969602      0.627462      0.304036
  C       2.219106     -2.134570      3.419038
  C      -2.907859      0.951118     -3.663399
  C      -3.048794     -1.049327     -5.016943
  C      -0.919757      0.079037     -4.749880
  C       0.274150     -0.713182     -1.764851
  C      -1.726016      0.087317     -0.725243
  C       1.365839      3.397529      0.322969
  C      -1.139255     -1.015690      3.486066
  C       0.499478      0.076719      4.841315
  C      -2.140296     -0.604273      4.357236
  C      -0.495353      0.490779      5.714089
  C      -1.821681      0.152430      5.474794
  H       0.527001      1.529159      2.161686
  H       2.621519      0.536416      2.977734
  H       2.822553     -0.359753      1.486413
  H       0.774736     -1.646086      1.925940
  H       2.854332      1.841959      0.227537
  H       2.714722      2.606789      1.798818
  H      -1.447968     -2.073662     -3.283738
  H      -2.926404     -1.459732     -2.510276
  H       2.103760     -0.293466     -0.747949
  H      -1.465829      1.144053      1.118534
  H       1.671293     -2.996439      3.805990
  H       2.755482     -1.674406      4.253066
  H       2.960335     -2.497915      2.703432
  H      -3.821437      0.665476     -3.142865
  H      -3.143666      1.514539     -4.563718
  H      -2.265529      1.543986     -3.017557
  H      -3.982339     -1.295045     -4.512675
  H      -2.524631     -1.955843     -5.312214
  H      -3.240435     -0.426476     -5.887606
  H      -1.164315      0.659852     -5.636772
  H      -0.395691     -0.831985     -5.031083
  H      -0.309579      0.676044     -4.077200
  H       0.768723     -1.250117     -2.567021
  H      -2.806821      0.179798     -0.707273
  H       0.630296      3.804639      1.022105
  H       0.829835      3.085440     -0.576746
  H       2.040557      4.208011      0.040072
  H      -1.396836     -1.602204      2.610149
  H       1.529762      0.352233      5.040593
  H      -3.171187     -0.874336      4.158732
  H      -0.235254      1.081838      6.584809
  H      -2.599643      0.477380      6.155588
  Cl     -5.569050     -1.210932     -2.096967
56
Coordinates from ORCA-job R4N+Cl-_wb E -1372.713157364441
  N      -2.190059     -0.287770     -4.067375
  C       1.236844      1.102111      1.443599
  C       2.070426      0.042927      2.172426
  C       1.275858     -1.132651      2.752050
  C       0.417940      0.509810      0.317453
  C       2.135538      2.242087      0.948068
  C      -1.935039     -1.188083     -2.873817
  C      -1.112085     -0.580088     -1.776949
  C       0.191824     -0.681826      3.709240
  C       1.026944     -0.173744     -0.733940
  C      -0.967607      0.631534      0.304077
  C       2.218847     -2.134379      3.418136
  C      -2.910180      0.949915     -3.662527
  C      -3.049764     -1.051791     -5.014006
  C      -0.921484      0.078483     -4.748699
  C       0.274520     -0.713058     -1.763247
  C      -1.724701      0.091186     -0.724588
  C       1.370009      3.399024      0.323109
  C      -1.139484     -1.016523      3.481453
  C       0.496678      0.075690      4.839904
  C      -2.141989     -0.606585      4.351645
  C      -0.499567      0.488222      5.711830
  C      -1.825374      0.149206      5.470418
  H       0.529532      1.531503      2.161635
  H       2.622271      0.537097      2.978853
  H       2.824607     -0.358430      1.487393
  H       0.776448     -1.644721      1.923621
  H       2.857343      1.842408      0.227739
  H       2.718268      2.607307      1.799003
  H      -1.448051     -2.073443     -3.280591
  H      -2.926096     -1.459278     -2.506847
  H       2.104678     -0.294445     -0.746741
  H      -1.463126      1.149694      1.118013
  H       1.670451     -2.996564      3.803561
  H       2.754078     -1.675005      4.253360
  H       2.961066     -2.497230      2.703295
  H      -3.823080      0.663192     -3.141328
  H      -3.147282      1.512105     -4.563266
  H      -2.268392      1.544330     -3.017557
  H      -3.982830     -1.297639     -4.508860
  H      -2.525309     -1.958309     -5.308747
  H      -3.242467     -0.429926     -5.885143
  H      -1.166383      0.658879     -5.635790
  H      -0.396925     -0.832293     -5.029861
  H      -0.311109      0.676034     -4.076657
  H       0.768319     -1.251568     -2.564843
  H      -2.805352      0.185561     -0.707134
  H       0.634559      3.806602      1.022084
  H       0.833999      3.087436     -0.576794
  H       2.045313      4.209075      0.040344
  H      -1.395457     -1.602447      2.604663
  H       1.526536      0.351642      5.040857
  H      -3.172436     -0.877159      4.151517
  H      -0.241025      1.078616      6.583459
  H      -2.604479      0.472966      6.150483
  Cl     -5.568633     -1.210600     -2.092575
56
Coordinates from ORCA-job R4N+Cl-_wb E -1372.713157338013
  N      -2.189807     -0.287475     -4.067995
  C       1.236139      1.101426      1.443655
  C       2.070141      0.042429      2.172362
  C       1.275764     -1.133074      2.752529
  C       0.417384      0.509061      0.317403
  C       2.134523      2.241693      0.948089
  C      -1.935080     -1.188205     -2.874602
  C      -1.112243     -0.580388     -1.777558
  C       0.192127     -0.681849      3.709966
  C       1.026624     -0.174013     -0.734189
  C      -0.968194      0.630445      0.303995
  C       2.219048     -2.134480      3.418718
  C      -2.909696      0.950244     -3.662768
  C      -3.049453     -1.051031     -5.015034
  C      -0.921068      0.078809     -4.749058
  C       0.274406     -0.713034     -1.763819
  C      -1.725099      0.090307     -0.724942
  C       1.368635      3.398433      0.323144
  C      -1.139354     -1.016340      3.482745
  C       0.497564      0.076026      4.840248
  C      -2.141464     -0.605820      4.353147
  C      -0.498317      0.489175      5.712315
  C      -1.824276      0.150340      5.471521
  H       0.528771      1.530557      2.161770
  H       2.622227      0.536716      2.978540
  H       2.824152     -0.358917      1.487148
  H       0.776139     -1.645440      1.924442
  H       2.856435      1.842241      0.227754
  H       2.717181      2.607103      1.798990
  H      -1.447985     -2.073520     -3.281338
  H      -2.926122     -1.459540     -2.507709
  H       2.104389     -0.294350     -0.747044
  H      -1.463918      1.148186      1.118071
  H       1.670848     -2.996584      3.804610
  H       2.754516     -1.674826      4.253622
  H       2.961099     -2.497520      2.703794
  H      -3.822717      0.663745     -3.141686
  H      -3.146572      1.512778     -4.563355
  H      -2.267750      1.544300     -3.017639
  H      -3.982621     -1.297122     -4.510210
  H      -2.524930     -1.957411     -5.310086
  H      -3.241951     -0.428800     -5.885952
  H      -1.165875      0.659438     -5.636014
  H      -0.396612     -0.831979     -5.030339
  H      -0.310790      0.676133     -4.076737
  H       0.768428     -1.251087     -2.565577
  H      -2.805770      0.184420     -0.707408
  H       0.633185      3.805923      1.022163
  H       0.832564      3.086704     -0.576664
  H       2.043740      4.208615      0.040277
  H      -1.395789     -1.602517      2.606265
  H       1.527536      0.351864      5.040709
  H      -3.172043     -0.876192      4.153454
  H      -0.239338      1.079875      6.583606
  H      -2.603059      0.474556      6.151727
  Cl     -5.568543     -1.210931     -2.093652
56
Coordinates from ORCA-job R4N+Cl-_wb E -1372.713157213607
  N      -2.189260     -0.286838     -4.069306
  C       1.234766      1.100383      1.443664
  C       2.069720      0.041897      2.172099
  C       1.276058     -1.133567      2.753490
  C       0.416035      0.507753      0.317499
  C       2.132450      2.241130      0.947682
  C      -1.935986     -1.187908     -2.875734
  C      -1.113207     -0.580606     -1.778352
  C       0.192961     -0.681999      3.711380
  C       1.025375     -0.175746     -0.733784
  C      -0.969473      0.629885      0.303486
  C       2.220239     -2.133974      3.419962
  C      -2.908269      0.951500     -3.664283
  C      -3.048890     -1.049561     -5.017011
  C      -0.919787      0.078455     -4.749597
  C       0.273341     -0.714271     -1.763832
  C      -1.726195      0.090357     -0.725939
  C       1.365780      3.397542      0.322996
  C      -1.138525     -1.017697      3.485792
  C       0.498996      0.077402      4.840495
  C      -2.140053     -0.607055      4.356833
  C      -0.496363      0.490739      5.713101
  C      -1.822288      0.150537      5.474092
  H       0.527473      1.529131      2.162033
  H       2.622313      0.536583      2.977656
  H       2.823363     -0.359411      1.486471
  H       0.776198     -1.646770      1.926112
  H       2.854295      1.842021      0.227107
  H       2.715286      2.606871      1.798320
  H      -1.449221     -2.073633     -3.281958
  H      -2.927285     -1.458651     -2.509105
  H       2.103078     -0.296564     -0.746232
  H      -1.465308      1.147982      1.117267
  H       1.672720     -2.996131      3.806709
  H       2.755865     -1.673529      4.254307
  H       2.962186     -2.497095      2.704966
  H      -3.821753      0.665954     -3.143523
  H      -3.144246      1.514234     -4.564987
  H      -2.265940      1.544968     -3.019016
  H      -3.982506     -1.295392     -4.512926
  H      -2.524631     -1.956100     -5.312046
  H      -3.240444     -0.426959     -5.887869
  H      -1.163728      0.659403     -5.636572
  H      -0.396007     -0.832775     -5.030658
  H      -0.309472      0.675166     -4.076780
  H       0.767466     -1.252586     -2.565338
  H      -2.806791      0.185412     -0.708935
  H       0.630481      3.804828      1.022282
  H       0.829404      3.085603     -0.576543
  H       2.040463      4.207975      0.039836
  H      -1.395424     -1.605030      2.610235
  H       1.528943      0.354247      5.039607
  H      -3.170620     -0.878421      4.158472
  H      -0.236952      1.082571      6.583490
  H      -2.600601      0.474834      6.154781
  Cl     -5.568898     -1.208002     -2.096487
56
Coordinates from ORCA-job R4N+Cl-_wb E -1372.713157796988
  N      -2.189666     -0.287015     -4.068794
  C       1.235468      1.100697      1.443703
  C       2.070058      0.042033      2.172275
  C       1.276029     -1.133406      2.753198
  C       0.416712      0.508200      0.317504
  C       2.133423      2.241226      0.947771
  C      -1.935604     -1.187880     -2.875301
  C      -1.112718     -0.580253     -1.778153
  C       0.192617     -0.681918      3.710775
  C       1.025959     -0.175359     -0.733788
  C      -0.968780      0.630469      0.303518
  C       2.219779     -2.134126      3.419799
  C      -2.909323      0.950898     -3.663629
  C      -3.049071     -1.050246     -5.016288
  C      -0.920551      0.078990     -4.749353
  C       0.273829     -0.713916     -1.763752
  C      -1.725592      0.090888     -0.725800
  C       1.367059      3.397734      0.322917
  C      -1.138843     -1.017208      3.484436
  C       0.498308      0.076876      4.840387
  C      -2.140677     -0.606692      4.355171
  C      -0.497350      0.490068      5.712712
  C      -1.823256      0.150362      5.472890
  H       0.528168      1.529639      2.161956
  H       2.622477      0.536548      2.978061
  H       2.823864     -0.359293      1.486842
  H       0.776367     -1.646373      1.925541
  H       2.855274      1.841935      0.227301
  H       2.716222      2.606912      1.798458
  H      -1.448581     -2.073413     -3.281643
  H      -2.926650     -1.459084     -2.508334
  H       2.103653     -0.296274     -0.746270
  H      -1.464539      1.148630      1.117305
  H       1.671972     -2.996290      3.806126
  H       2.755147     -1.673959      4.254468
  H       2.961950     -2.497202      2.705012
  H      -3.822461      0.664748     -3.142585
  H      -3.145937      1.513432     -4.564289
  H      -2.267181      1.544817     -3.018586
  H      -3.982391     -1.296712     -4.511956
  H      -2.524325     -1.956441     -5.311520
  H      -3.241277     -0.427729     -5.887061
  H      -1.164990      0.659870     -5.636239
  H      -0.396350     -0.831939     -5.030605
  H      -0.310376      0.675974     -4.076649
  H       0.767865     -1.252324     -2.565255
  H      -2.806168      0.186148     -0.708804
  H       0.631748      3.805210      1.022083
  H       0.830738      3.085839     -0.576676
  H       2.041934      4.208016      0.039782
  H      -1.395478     -1.604061      2.608475
  H       1.528234      0.353370      5.040110
  H      -3.171221     -0.877705      4.156199
  H      -0.238200      1.081468      6.583475
  H      -2.601817      0.474583      6.153337
  Cl     -5.568351     -1.209669     -2.094852
56
Coordinates from ORCA-job R4N+Cl-_wb E -1372.713157015200
  N      -2.192219     -0.289242     -4.065260
  C       1.239729      1.104150      1.444078
  C       2.072021      0.044356      2.173509
  C       1.276049     -1.131637      2.750558
  C       0.420778      0.512479      0.317709
  C       2.139637      2.243113      0.948470
  C      -1.933895     -1.187615     -2.871245
  C      -1.110159     -0.577293     -1.776107
  C       0.190533     -0.681771      3.706520
  C       1.029222     -0.172286     -0.733212
  C      -0.964562      0.636259      0.303658
  C       2.217452     -2.134591      3.417056
  C      -2.915091      0.946975     -3.660739
  C      -3.050509     -1.056231     -5.010688
  C      -0.925017      0.079591     -4.747811
  C       0.276285     -0.711653     -1.762189
  C      -1.722084      0.096167     -0.724786
  C       1.375503      3.400328      0.322375
  C      -1.140977     -1.012114      3.473552
  C       0.494159      0.069911      4.841415
  C      -2.144938     -0.603017      4.342419
  C      -0.503551      0.481026      5.712332
  C      -1.829571      0.146977      5.465395
  H       0.532424      1.534395      2.161600
  H       2.622651      0.537637      2.981334
  H       2.827393     -0.356401      1.489457
  H       0.777855     -1.642531      1.920665
  H       2.861513      1.842458      0.228766
  H       2.722177      2.608410      1.799503
  H      -1.445717     -2.072660     -3.277290
  H      -2.923580     -1.460643     -2.501991
  H       2.106804     -0.294364     -0.745738
  H      -1.459711      1.155701      1.117003
  H       1.668120     -2.997291      3.800015
  H       2.751084     -1.676716      4.254115
  H       2.961109     -2.496507      2.703229
  H      -3.826343      0.658466     -3.137635
  H      -3.155136      1.507391     -4.561806
  H      -2.273715      1.543972     -3.017726
  H      -3.982123     -1.305779     -4.504692
  H      -2.523065     -1.960785     -5.306147
  H      -3.246421     -0.435059     -5.881598
  H      -1.172163      0.658930     -5.634973
  H      -0.398700     -0.830194     -5.028868
  H      -0.315531      0.678859     -4.076489
  H       0.769600     -1.251533     -2.563179
  H      -2.802467      0.193471     -0.708159
  H       0.640207      3.809270      1.020714
  H       0.839471      3.088686     -0.577516
  H       2.051791      4.209446      0.039303
  H      -1.396042     -1.593349      2.593368
  H       1.524143      0.342197      5.046612
  H      -3.175524     -0.869811      4.138010
  H      -0.245964      1.066816      6.587355
  H      -2.609791      0.469965      6.144542
  Cl     -5.566013     -1.217236     -2.083388
56
Coordinates from ORCA-job R4N+Cl-_wb E -1372.713158065624
  N      -2.190635     -0.287688     -4.067364
  C       1.236953      1.101765      1.443920
  C       2.070973      0.042885      2.172786
  C       1.276505     -1.132905      2.752362
  C       0.418098      0.509420      0.317761
  C       2.135375      2.241860      0.947924
  C      -1.935268     -1.187745     -2.873708
  C      -1.111960     -0.579332     -1.777251
  C       0.192102     -0.682063      3.709108
  C       1.026978     -0.174822     -0.733278
  C      -0.967312      0.632514      0.303662
  C       2.219617     -2.134065      3.419184
  C      -2.911138      0.949803     -3.662449
  C      -3.049742     -1.052057     -5.014194
  C      -0.922074      0.079061     -4.748587
  C       0.274511     -0.713595     -1.762895
  C      -1.724421      0.092862     -0.725365
  C       1.369571      3.398446      0.322580
  C      -1.139350     -1.015434      3.479974
  C       0.496788      0.074232      4.840656
  C      -2.142148     -0.605396      4.349795
  C      -0.499825      0.486851      5.712142
  C      -1.825717      0.149153      5.469462
  H       0.529674      1.531109      2.161975
  H       2.622621      0.537074      2.979322
  H       2.825421     -0.358082      1.487843
  H       0.777626     -1.645370      1.923904
  H       2.857231      1.842116      0.227706
  H       2.718095      2.607581      1.798652
  H      -1.447992     -2.073185     -3.279960
  H      -2.925873     -1.459393     -2.505889
  H       2.104609     -0.296378     -0.745703
  H      -1.462794      1.151354      1.117183
  H       1.671456     -2.996512      3.804372
  H       2.754153     -1.674447      4.254694
  H       2.962492     -2.496627      2.704870
  H      -3.823658      0.663111     -3.140603
  H      -3.148858      1.511600     -4.563277
  H      -2.269069      1.544682     -3.018198
  H      -3.982465     -1.299697     -4.509320
  H      -2.524068     -1.957639     -5.309664
  H      -3.243244     -0.429874     -5.884921
  H      -1.167344      0.659441     -5.635574
  H      -0.397319     -0.831585     -5.029734
  H      -0.312067      0.676726     -4.076328
  H       0.768230     -1.252692     -2.564142
  H      -2.804900      0.189222     -0.708635
  H       0.634289      3.806419      1.021492
  H       0.833288      3.086459     -0.577017
  H       2.044810      4.208376      0.039312
  H      -1.395222     -1.600297      2.602455
  H       1.526702      0.349199      5.042581
  H      -3.172672     -0.874866      4.148612
  H      -0.241437      1.076287      6.584466
  H      -2.605038      0.472991      6.149227
  Cl     -5.567425     -1.211762     -2.090522
56
Coordinates from ORCA-job R4N+Cl-_wb E -1372.713157859061
  N      -2.190328     -0.286896     -4.067888
  C       1.236193      1.100813      1.443813
  C       2.070713      0.042364      2.172748
  C       1.276830     -1.133388      2.753223
  C       0.417373      0.508148      0.317774
  C       2.134277      2.241093      0.947546
  C      -1.935559     -1.187785     -2.874650
  C      -1.112403     -0.580176     -1.777655
  C       0.192570     -0.682245      3.709984
  C       1.026382     -0.175950     -0.733282
  C      -0.968061      0.631048      0.303647
  C       2.220577     -2.133695      3.420433
  C      -2.910309      0.950728     -3.662427
  C      -3.049606     -1.050361     -5.015306
  C      -0.921484      0.079672     -4.748709
  C       0.274061     -0.714464     -1.763129
  C      -1.725039      0.091571     -0.725574
  C       1.368113      3.397449      0.322196
  C      -1.138729     -1.016988      3.482030
  C       0.497279      0.075929      4.840263
  C      -2.141413     -0.606334      4.351717
  C      -0.499210      0.489156      5.711615
  C      -1.824974      0.150094      5.470125
  H       0.528923      1.530067      2.161926
  H       2.622511      0.537010      2.978889
  H       2.825012     -0.358679      1.487693
  H       0.777939     -1.646572      1.925232
  H       2.856111      1.841415      0.227268
  H       2.717046      2.607027      1.798144
  H      -1.448471     -2.073129     -3.281324
  H      -2.926375     -1.459240     -2.507238
  H       2.104023     -0.297377     -0.745670
  H      -1.463643      1.149727      1.117209
  H       1.672887     -2.996084      3.806421
  H       2.755217     -1.673266      4.255422
  H       2.963344     -2.496459      2.706109
  H      -3.823087      0.664280     -3.140915
  H      -3.147539      1.513137     -4.563001
  H      -2.268058      1.544911     -3.017721
  H      -3.982517     -1.297903     -4.510738
  H      -2.524244     -1.955985     -5.311201
  H      -3.242687     -0.427590     -5.885705
  H      -1.166374      0.660583     -5.635451
  H      -0.397054     -0.831055     -5.030196
  H      -0.311385      0.676766     -4.076032
  H       0.767900     -1.253284     -2.564482
  H      -2.805541      0.187709     -0.708873
  H       0.632860      3.805324      1.021193
  H       0.831757      3.085243     -0.577271
  H       2.043131      4.207499      0.038747
  H      -1.394593     -1.603371      2.605530
  H       1.527091      0.351994      5.041211
  H      -3.171834     -0.876868      4.151459
  H      -0.240826      1.080128      6.582896
  H      -2.604188      0.474359      6.149809
  Cl     -5.567460     -1.211010     -2.092431
56
Coordinates from ORCA-job R4N+Cl-_wb E -1372.713157832215
  N      -2.190394     -0.286538     -4.067704
  C       1.236232      1.100495      1.443789
  C       2.070985      0.042249      2.172749
  C       1.277402     -1.133589      2.753474
  C       0.417277      0.507708      0.317926
  C       2.134145      2.240809      0.947254
  C      -1.935953     -1.187649     -2.874563
  C      -1.112697     -0.580375     -1.777478
  C       0.192806     -0.682454      3.709863
  C       1.026136     -0.176713     -0.733002
  C      -0.968131      0.630934      0.303765
  C       2.221412     -2.133293      3.421206
  C      -2.910098      0.951228     -3.662193
  C      -3.049739     -1.049689     -5.015309
  C      -0.921376      0.079805     -4.748340
  C       0.273713     -0.715122     -1.762832
  C      -1.725205      0.091593     -0.725458
  C       1.367780      3.397046      0.321917
  C      -1.138297     -1.018028      3.481973
  C       0.496995      0.076609      4.839688
  C      -2.141287     -0.607382      4.351309
  C      -0.499826      0.489942      5.710617
  C      -1.825390      0.150047      5.469185
  H       0.529054      1.529766      2.161972
  H       2.622752      0.537087      2.978794
  H       2.825297     -0.358736      1.487668
  H       0.778855     -1.647254      1.925571
  H       2.855882      1.841101      0.226897
  H       2.717028      2.606873      1.797718
  H      -1.449065     -2.073055     -3.281343
  H      -2.926868     -1.458859     -2.507223
  H       2.103747     -0.298431     -0.745331
  H      -1.463602      1.149841      1.117250
  H       1.673989     -2.995756      3.807403
  H       2.755723     -1.672344      4.256122
  H       2.964450     -2.496014      2.707143
  H      -3.822956      0.665011     -3.140695
  H      -3.147158      1.513739     -4.562748
  H      -2.267712      1.545217     -3.017447
  H      -3.982669     -1.297317     -4.510819
  H      -2.524441     -1.955273     -5.311430
  H      -3.242764     -0.426679     -5.885551
  H      -1.166028      0.660834     -5.635069
  H      -0.397116     -0.831024     -5.029817
  H      -0.311245      0.676706     -4.075522
  H       0.767440     -1.254134     -2.564125
  H      -2.805675      0.188117     -0.708896
  H       0.632614      3.804925      1.021001
  H       0.831301      3.084707     -0.577429
  H       2.042689      4.207122      0.038286
  H      -1.393748     -1.605145      2.605842
  H       1.526642      0.353306      5.040591
  H      -3.171541     -0.878605      4.151120
  H      -0.241856      1.081635      6.581534
  H      -2.604861      0.474403      6.148530
  Cl     -5.567513     -1.210305     -2.092425
