19
Coordinates from ORCA-job PFHxA_Opt E -1477.788662039296
  F           0.90118203014420     -0.17060491845408     -2.11458977831363
  F          -0.41730566681946     -1.57631269326769     -1.10233663485345
  F          -0.01065245544186      1.86078924151924     -0.57914907276591
  F          -1.44365047935236      0.81375060864816     -1.83188526415655
  F           2.14703085690782     -1.74651420620310     -0.48266799553958
  F           0.87227075606638     -1.25770446736016      1.20831334178265
  F          -0.97648185353584      0.74337994088064      1.62564904907977
  F          -2.49741565533649      1.70780607409127      0.41029744497767
  F           1.83272698389890      1.23159665780747      1.30656966940103
  F           3.43913752138900     -0.18915307120444      1.12266117204254
  F           2.86163865586987      1.00302178289659     -0.58125160437468
  O          -3.49446685668830     -0.70286984776113     -0.32940116562491
  O          -2.30890400524996     -1.51379250039170      1.39821019426570
  C           0.28976344866749     -0.44284338321753     -0.94881680113727
  C          -0.72008645542795      0.72061782139689     -0.70221007922098
  C           1.41678243476228     -0.77231273070915      0.08734625629437
  C          -1.70384595936954      0.61033096612446      0.49586527497960
  C           2.40920756454929      0.36200216341614      0.48936614809953
  C          -2.59723086523344     -0.68128743831189      0.52802984506410
