19
Coordinates from ORCA-job PFHxA_0.15M E -1477.497684670925
  F       0.901182     -0.170605     -2.114590
  F      -0.417306     -1.576313     -1.102337
  F      -0.010652      1.860789     -0.579149
  F      -1.443650      0.813751     -1.831885
  F       2.147031     -1.746514     -0.482668
  F       0.872271     -1.257704      1.208313
  F      -0.976482      0.743380      1.625649
  F      -2.497416      1.707806      0.410297
  F       1.832727      1.231597      1.306570
  F       3.439138     -0.189153      1.122661
  F       2.861639      1.003022     -0.581252
  O      -3.494467     -0.702870     -0.329401
  O      -2.308904     -1.513793      1.398210
  C       0.289763     -0.442843     -0.948817
  C      -0.720086      0.720618     -0.702210
  C       1.416782     -0.772313      0.087346
  C      -1.703846      0.610331      0.495865
  C       2.409208      0.362002      0.489366
  C      -2.597231     -0.681287      0.528030
19
Coordinates from ORCA-job PFHxA_0.15M E -1477.499241122293
  F       0.905307     -0.174251     -2.131263
  F      -0.441586     -1.574788     -1.108336
  F       0.001710      1.878332     -0.595203
  F      -1.456621      0.824252     -1.845642
  F       2.143886     -1.758780     -0.485171
  F       0.846708     -1.266911      1.210130
  F      -0.955865      0.767606      1.625923
  F      -2.511359      1.714607      0.407651
  F       1.813846      1.225845      1.328717
  F       3.436137     -0.201078      1.136198
  F       2.853248      1.010633     -0.574093
  O      -3.475477     -0.728368     -0.324786
  O      -2.260955     -1.520611      1.410012
  C       0.283240     -0.441048     -0.959184
  C      -0.719970      0.733613     -0.713293
  C       1.406237     -0.778708      0.087110
  C      -1.696533      0.620634      0.494773
  C       2.399461      0.358174      0.500732
  C      -2.571717     -0.689253      0.535727
19
Coordinates from ORCA-job PFHxA_0.15M E -1477.498719447406
  F       0.895527     -0.186382     -2.114388
  F      -0.428835     -1.589008     -1.057068
  F       0.002613      1.870221     -0.535697
  F      -1.432444      0.830335     -1.829821
  F       2.161640     -1.760717     -0.474192
  F       0.905052     -1.236406      1.246548
  F      -1.014756      0.707832      1.657615
  F      -2.523202      1.705869      0.415321
  F       1.889322      1.257634      1.300951
  F       3.504053     -0.179520      1.078939
  F       2.868967      1.009399     -0.634149
  O      -3.520682     -0.685789     -0.392110
  O      -2.411463     -1.522558      1.396653
  C       0.291757     -0.446235     -0.927776
  C      -0.717781      0.723693     -0.681112
  C       1.437985     -0.766886      0.099757
  C      -1.726015      0.594136      0.499769
  C       2.446164      0.373129      0.466488
  C      -2.628203     -0.698848      0.484271
19
Coordinates from ORCA-job PFHxA_0.15M E -1477.498937774674
  F       0.885155     -0.194299     -2.110167
  F      -0.440608     -1.588252     -1.043781
  F       0.002586      1.871547     -0.537379
  F      -1.437075      0.832242     -1.825895
  F       2.150952     -1.764364     -0.469970
  F       0.900716     -1.233261      1.253027
  F      -1.016156      0.723658      1.660716
  F      -2.523638      1.719405      0.416929
  F       1.895284      1.254738      1.305225
  F       3.505575     -0.184551      1.069976
  F       2.860862      1.007546     -0.636959
  O      -3.485895     -0.705227     -0.420320
  O      -2.368126     -1.542748      1.363998
  C       0.283591     -0.446414     -0.920369
  C      -0.722049      0.726273     -0.676719
  C       1.431536     -0.766708      0.103769
  C      -1.729727      0.604680      0.504074
  C       2.443752      0.369846      0.465339
  C      -2.637035     -0.684210      0.498506
19
Coordinates from ORCA-job PFHxA_0.15M E -1477.498242340032
  F       0.928560     -0.157729     -2.159853
  F      -0.444811     -1.563490     -1.183956
  F       0.003699      1.884223     -0.672220
  F      -1.480251      0.815982     -1.876176
  F       2.140331     -1.747512     -0.515180
  F       0.780575     -1.323045      1.147434
  F      -0.877548      0.844554      1.574957
  F      -2.496926      1.716055      0.387252
  F       1.711702      1.158769      1.397815
  F       3.363032     -0.228091      1.190373
  F       2.806397      1.045186     -0.480625
  O      -3.427873     -0.776960     -0.223232
  O      -2.128384     -1.473711      1.489750
  C       0.281191     -0.435016     -1.004486
  C      -0.719282      0.737840     -0.759118
  C       1.373695     -0.792965      0.061666
  C      -1.655370      0.641970      0.477331
  C       2.334201      0.338180      0.549945
  C      -2.493236     -0.684339      0.598324
19
Coordinates from ORCA-job PFHxA_0.15M E -1477.499310384793
  F       0.905272     -0.166478     -2.123288
  F      -0.441003     -1.568571     -1.098167
  F      -0.002923      1.884928     -0.571326
  F      -1.448594      0.837902     -1.844446
  F       2.131349     -1.765891     -0.475960
  F       0.848101     -1.245178      1.223832
  F      -0.988096      0.772929      1.633054
  F      -2.538952      1.702911      0.393893
  F       1.863815      1.231134      1.328261
  F       3.464552     -0.216958      1.108249
  F       2.866309      1.000456     -0.594291
  O      -3.467980     -0.751389     -0.351194
  O      -2.289757     -1.516937      1.423770
  C       0.283556     -0.431813     -0.948497
  C      -0.723289      0.737847     -0.702995
  C       1.408272     -0.770339      0.093373
  C      -1.713578      0.613598      0.490523
  C       2.421373      0.353254      0.489604
  C      -2.578729     -0.701508      0.525604
19
Coordinates from ORCA-job PFHxA_0.15M E -1477.499312604018
  F       0.897055     -0.192825     -2.127952
  F      -0.437915     -1.590052     -1.078916
  F       0.013431      1.865380     -0.568555
  F      -1.442836      0.826336     -1.837654
  F       2.163011     -1.755254     -0.487070
  F       0.877782     -1.263583      1.221493
  F      -0.970652      0.737012      1.640965
  F      -2.501748      1.718401      0.416032
  F       1.829900      1.234705      1.323260
  F       3.465813     -0.176898      1.106471
  F       2.841580      1.026748     -0.598145
  O      -3.488043     -0.702041     -0.367315
  O      -2.342095     -1.517985      1.407309
  C       0.286913     -0.450673     -0.944973
  C      -0.715117      0.722438     -0.697471
  C       1.422721     -0.775380      0.088878
  C      -1.703715      0.607095      0.498471
  C       2.410452      0.369492      0.485892
  C      -2.606836     -0.683016      0.519280
19
Coordinates from ORCA-job PFHxA_0.15M E -1477.499355249213
  F       0.901272     -0.180577     -2.128038
  F      -0.440208     -1.579641     -1.091833
  F       0.005027      1.875374     -0.577184
  F      -1.447911      0.829979     -1.843432
  F       2.148416     -1.759135     -0.483984
  F       0.860574     -1.259870      1.218936
  F      -0.971803      0.759129      1.633257
  F      -2.517616      1.712507      0.404959
  F       1.838893      1.227110      1.333041
  F       3.461261     -0.197502      1.110092
  F       2.848749      1.018641     -0.588968
  O      -3.474999     -0.727881     -0.354269
  O      -2.308002     -1.514885      1.419212
  C       0.284758     -0.441774     -0.949500
  C      -0.719337      0.729907     -0.703858
  C       1.413962     -0.774067      0.089520
  C      -1.705340      0.612252      0.493528
  C       2.411220      0.360762      0.491777
  C      -2.589215     -0.690430      0.526745
19
Coordinates from ORCA-job PFHxA_0.15M E -1477.499355936408
  F       0.901210     -0.181015     -2.127951
  F      -0.440657     -1.579533     -1.091521
  F       0.005629      1.875291     -0.576401
  F      -1.447236      0.831038     -1.843589
  F       2.147967     -1.759252     -0.483703
  F       0.860428     -1.259909      1.219197
  F      -0.970416      0.757760      1.632740
  F      -2.517064      1.712236      0.406182
  F       1.837447      1.227958      1.331558
  F       3.460327     -0.196425      1.110870
  F       2.848644      1.017950     -0.589557
  O      -3.474624     -0.727690     -0.354453
  O      -2.308395     -1.514753      1.419395
  C       0.284593     -0.441848     -0.949506
  C      -0.719057      0.730139     -0.703947
  C       1.413638     -0.774130      0.089626
  C      -1.704776      0.611885      0.493395
  C       2.410583      0.361039      0.491502
  C      -2.588541     -0.690841      0.526164
19
Coordinates from ORCA-job PFHxA_0.15M E -1477.499356211760
  F       0.901114     -0.181588     -2.128077
  F      -0.440708     -1.579834     -1.091344
  F       0.005481      1.875356     -0.577407
  F      -1.447255      0.830608     -1.844062
  F       2.148782     -1.758614     -0.484936
  F       0.861496     -1.261869      1.218678
  F      -0.969387      0.758088      1.632125
  F      -2.516686      1.712533      0.406274
  F       1.836411      1.226525      1.333320
  F       3.460587     -0.196036      1.110426
  F       2.847133      1.019528     -0.588458
  O      -3.473872     -0.727771     -0.354837
  O      -2.309792     -1.513262      1.421144
  C       0.284572     -0.442103     -0.949567
  C      -0.719099      0.730031     -0.704426
  C       1.413935     -0.774469      0.089349
  C      -1.704455      0.612075      0.493143
  C       2.410069      0.361074      0.492087
  C      -2.588627     -0.690371      0.526569
19
Coordinates from ORCA-job PFHxA_0.15M E -1477.499356288847
  F       0.901121     -0.181570     -2.127957
  F      -0.440876     -1.579654     -1.091164
  F       0.005286      1.875583     -0.577384
  F      -1.447259      0.830846     -1.844193
  F       2.148428     -1.758760     -0.484664
  F       0.861358     -1.261553      1.218944
  F      -0.968948      0.757632      1.631944
  F      -2.516748      1.712365      0.406862
  F       1.836611      1.226841      1.332965
  F       3.460566     -0.196041      1.110499
  F       2.847371      1.019133     -0.588728
  O      -3.473351     -0.728070     -0.355427
  O      -2.309992     -1.513310      1.421165
  C       0.284470     -0.441936     -0.949482
  C      -0.719237      0.730217     -0.704513
  C       1.413811     -0.774374      0.089506
  C      -1.704413      0.611946      0.493118
  C       2.410154      0.361059      0.491999
  C      -2.588651     -0.690453      0.526511
19
Coordinates from ORCA-job PFHxA_0.15M E -1477.499356306281
  F       0.901055     -0.181516     -2.127927
  F      -0.441030     -1.579484     -1.091043
  F       0.005292      1.875712     -0.577140
  F      -1.447116      0.831157     -1.844220
  F       2.148285     -1.758823     -0.484720
  F       0.861325     -1.261487      1.218952
  F      -0.969140      0.757827      1.631936
  F      -2.517116      1.712155      0.406760
  F       1.836853      1.226911      1.332817
  F       3.460602     -0.196225      1.110491
  F       2.847578      1.018903     -0.588843
  O      -3.472932     -0.728599     -0.355729
  O      -2.310097     -1.513152      1.421521
  C       0.284415     -0.441811     -0.949424
  C      -0.719263      0.730389     -0.704471
  C       1.413790     -0.774368      0.089512
  C      -1.704526      0.611948      0.493067
  C       2.410272      0.360966      0.491940
  C      -2.588548     -0.690604      0.526521
