19
Coordinates from ORCA-job PFHxA_wb E -1477.788095271733
  F           0.30012123602493     -0.07932162430079      1.31628554039867
  F          -0.21641052419388      1.90424803490650      0.59010282115823
  F          -1.08720618494158      0.92698871800202     -1.74465440840423
  F          -0.39700535163002     -1.07651582865429     -1.22937750977782
  F           2.15476707456569      2.00597263116400     -0.03187171719358
  F           1.55103182003732      0.84037011938462     -1.76214230542254
  F          -2.80947685797380      0.99303214997472      0.23256780344646
  F          -3.02056774381724     -0.76362110349364     -1.03200944649660
  F           2.98090299710562     -0.17398339448695      1.26194694926604
  F           2.17816629876829     -1.48404570883780     -0.25995720198317
  F           3.76378054143847     -0.10418472925172     -0.74434609272236
  O          -1.98208934331646     -2.33678361295760      0.93681881277313
  O          -2.52363373519107     -0.61965695934626      2.28074332491693
  C           0.19892596713899      0.68924585264950      0.21488688431032
  C          -0.87824867310965      0.07240560218937     -0.72434233780819
  C           1.63606207607399      0.83547935670327     -0.42373279005011
  C          -2.25845325786128     -0.20595351737624     -0.05509093280722
  C           2.66063929293049     -0.27112313887844     -0.02173964274643
  C          -2.25160563224879     -1.15265284749029      1.19591224914248
