19
Coordinates from ORCA-job PFHxA_wb E -1477.786449738294
  F       0.286248     -0.065202      1.323597
  F      -0.225091      1.931889      0.572296
  F      -1.100457      0.943063     -1.760983
  F      -0.391599     -1.074721     -1.244152
  F       2.173399      2.011169     -0.019259
  F       1.558020      0.847942     -1.771121
  F      -2.816416      0.999599      0.241764
  F      -3.032913     -0.776212     -1.031154
  F       2.979463     -0.182984      1.277260
  F       2.152765     -1.499099     -0.253242
  F       3.768509     -0.128126     -0.746949
  O      -1.932184     -2.343722      0.934720
  O      -2.531064     -0.633641      2.292350
  C       0.193240      0.702908      0.206674
  C      -0.883556      0.080106     -0.733074
  C       1.639934      0.838040     -0.421377
  C      -2.257718     -0.209346     -0.051420
  C       2.654649     -0.281496     -0.016587
  C      -2.235527     -1.160266      1.200658
19
Coordinates from ORCA-job PFHxA_wb E -1477.788018143647
  F       0.302870     -0.066740      1.321650
  F      -0.214125      1.912878      0.578459
  F      -1.087687      0.924517     -1.744809
  F      -0.395414     -1.078018     -1.228126
  F       2.159659      2.005469     -0.032005
  F       1.549667      0.841725     -1.763630
  F      -2.802459      0.996721      0.240567
  F      -3.023738     -0.756913     -1.029329
  F       2.988624     -0.170201      1.260068
  F       2.177791     -1.486595     -0.253576
  F       3.763644     -0.109262     -0.750752
  O      -1.972636     -2.339591      0.931212
  O      -2.556586     -0.636252      2.279276
  C       0.201078      0.693294      0.211308
  C      -0.877942      0.071438     -0.720535
  C       1.637275      0.834206     -0.423320
  C      -2.254848     -0.206759     -0.049256
  C       2.661188     -0.270985     -0.022955
  C      -2.256660     -1.159031      1.195754
19
Coordinates from ORCA-job PFHxA_wb E -1477.787658762463
  F       0.280455     -0.059123      1.317740
  F      -0.221680      1.918912      0.569985
  F      -1.099280      0.935332     -1.747782
  F      -0.396492     -1.064445     -1.240844
  F       2.159924      1.997460     -0.020570
  F       1.556021      0.844389     -1.757853
  F      -2.812803      0.986644      0.234304
  F      -3.022447     -0.768660     -1.031052
  F       2.959527     -0.189822      1.269816
  F       2.153198     -1.490225     -0.256455
  F       3.751999     -0.124165     -0.731618
  O      -1.920470     -2.328682      0.934116
  O      -2.473636     -0.620414      2.282423
  C       0.191056      0.699371      0.207965
  C      -0.883422      0.079287     -0.730307
  C       1.632512      0.833375     -0.419057
  C      -2.257267     -0.209552     -0.057101
  C       2.644368     -0.282067     -0.014937
  C      -2.241863     -1.157714      1.191227
19
Coordinates from ORCA-job PFHxA_wb E -1477.788022478029
  F       0.281870     -0.052324      1.317185
  F      -0.219132      1.923769      0.566581
  F      -1.101323      0.936928     -1.747017
  F      -0.390302     -1.060151     -1.240897
  F       2.166241      1.998178     -0.020407
  F       1.561042      0.849441     -1.759077
  F      -2.812922      0.980769      0.235727
  F      -3.013538     -0.779872     -1.023031
  F       2.957046     -0.194975      1.266701
  F       2.148879     -1.487905     -0.264256
  F       3.752197     -0.125949     -0.733202
  O      -1.942282     -2.335066      0.939590
  O      -2.508701     -0.627147      2.280977
  C       0.193826      0.704500      0.207517
  C      -0.879516      0.081899     -0.731394
  C       1.636259      0.837163     -0.421183
  C      -2.251343     -0.211375     -0.054089
  C       2.644468     -0.283324     -0.018236
  C      -2.223069     -1.154661      1.198511
19
Coordinates from ORCA-job PFHxA_wb E -1477.788020620603
  F       0.314061     -0.077618      1.325671
  F      -0.215556      1.901737      0.590626
  F      -1.072726      0.910063     -1.744537
  F      -0.394757     -1.092776     -1.212950
  F       2.153994      2.009130     -0.029213
  F       1.542309      0.848333     -1.761775
  F      -2.799413      1.002368      0.233544
  F      -3.022939     -0.751277     -1.035166
  F       3.002235     -0.167176      1.251408
  F       2.191386     -1.482331     -0.263249
  F       3.767052     -0.094629     -0.762995
  O      -1.998707     -2.338398      0.936160
  O      -2.571853     -0.627323      2.277478
  C       0.204116      0.685611      0.219865
  C      -0.873189      0.061845     -0.715668
  C       1.637367      0.836993     -0.422803
  C      -2.258999     -0.203742     -0.051993
  C       2.670054     -0.265901     -0.030191
  C      -2.274734     -1.155009      1.195790
19
Coordinates from ORCA-job PFHxA_wb E -1477.788094248705
  F       0.296792     -0.065961      1.319811
  F      -0.216442      1.912984      0.578458
  F      -1.090353      0.927295     -1.745527
  F      -0.395321     -1.073982     -1.230720
  F       2.159397      2.003561     -0.028302
  F       1.552785      0.843938     -1.761647
  F      -2.807684      0.991466      0.237181
  F      -3.021002     -0.763635     -1.029526
  F       2.979118     -0.177294      1.262103
  F       2.171083     -1.486233     -0.257520
  F       3.760578     -0.111956     -0.744928
  O      -1.968481     -2.337818      0.934554
  O      -2.529653     -0.628558      2.280452
  C       0.198290      0.694862      0.212609
  C      -0.878355      0.073691     -0.724900
  C       1.636689      0.835693     -0.423050
  C      -2.256794     -0.207064     -0.053355
  C       2.657509     -0.274602     -0.021272
  C      -2.248456     -1.156487      1.195580
19
Coordinates from ORCA-job PFHxA_wb E -1477.788097720952
  F       0.296728     -0.067864      1.319609
  F      -0.217581      1.911554      0.580365
  F      -1.088668      0.926398     -1.745823
  F      -0.394308     -1.074918     -1.229658
  F       2.158788      2.003901     -0.026752
  F       1.552145      0.845701     -1.760980
  F      -2.808000      0.991302      0.234892
  F      -3.019819     -0.765156     -1.030104
  F       2.978338     -0.179051      1.261407
  F       2.170565     -1.485689     -0.260351
  F       3.760248     -0.110778     -0.745330
  O      -1.970460     -2.337120      0.936427
  O      -2.527377     -0.625141      2.280491
  C       0.198063      0.694129      0.213414
  C      -0.877659      0.073018     -0.724902
  C       1.636311      0.836330     -0.422528
  C      -2.256626     -0.207215     -0.054119
  C       2.657081     -0.274511     -0.022149
  C      -2.248069     -1.154989      1.196091
19
Coordinates from ORCA-job PFHxA_wb E -1477.788094344204
  F       0.297487     -0.070901      1.318654
  F      -0.217347      1.909588      0.582724
  F      -1.088433      0.926667     -1.745563
  F      -0.395336     -1.075364     -1.229886
  F       2.157619      2.004395     -0.027994
  F       1.551975      0.844307     -1.761295
  F      -2.808436      0.991746      0.234504
  F      -3.020229     -0.764575     -1.030601
  F       2.979173     -0.177272      1.261690
  F       2.172826     -1.485380     -0.259663
  F       3.761245     -0.109115     -0.745022
  O      -1.974259     -2.337265      0.936185
  O      -2.525237     -0.623637      2.280678
  C       0.198211      0.692721      0.213745
  C      -0.877915      0.072804     -0.724925
  C       1.636238      0.836026     -0.422891
  C      -2.257243     -0.206821     -0.054418
  C       2.658116     -0.273601     -0.021879
  C      -2.248754     -1.154424      1.195955
19
Coordinates from ORCA-job PFHxA_wb E -1477.788094871937
  F       0.299750     -0.076704      1.317097
  F      -0.216759      1.905821      0.587890
  F      -1.087380      0.926674     -1.744927
  F      -0.396601     -1.076424     -1.229269
  F       2.155703      2.005588     -0.030490
  F       1.551354      0.841908     -1.761875
  F      -2.809478      0.992514      0.233131
  F      -3.020419     -0.763761     -1.031933
  F       2.980626     -0.174472      1.261779
  F       2.176617     -1.484439     -0.259444
  F       3.763009     -0.105779     -0.744853
  O      -1.981401     -2.337355      0.936313
  O      -2.522835     -0.620633      2.280866
  C       0.198786      0.690186      0.214708
  C      -0.878079      0.072312     -0.724409
  C       1.636160      0.835757     -0.423545
  C      -2.258326     -0.206219     -0.054992
  C       2.659939     -0.271766     -0.021846
  C      -2.250966     -1.153309      1.195799
19
Coordinates from ORCA-job PFHxA_wb E -1477.788094959360
  F       0.299903     -0.077938      1.316763
  F      -0.216642      1.905060      0.588925
  F      -1.087279      0.926876     -1.744759
  F      -0.396830     -1.076461     -1.229332
  F       2.155253      2.005728     -0.030970
  F       1.551194      0.841336     -1.761951
  F      -2.809609      0.992702      0.232763
  F      -3.020432     -0.763775     -1.032087
  F       2.980962     -0.174171      1.261788
  F       2.177376     -1.484303     -0.259562
  F       3.763322     -0.105116     -0.744789
  O      -1.981834     -2.337090      0.936603
  O      -2.523031     -0.620031      2.280805
  C       0.198835      0.689698      0.214829
  C      -0.878173      0.072346     -0.724354
  C       1.636103      0.835611     -0.423595
  C      -2.258435     -0.206123     -0.055091
  C       2.660292     -0.271480     -0.021828
  C      -2.251277     -1.152967      1.195843
19
Coordinates from ORCA-job PFHxA_wb E -1477.788095067031
  F       0.300130     -0.079080      1.316383
  F      -0.216435      1.904392      0.589948
  F      -1.087219      0.926985     -1.744638
  F      -0.396945     -1.076490     -1.229325
  F       2.154874      2.005908     -0.031630
  F       1.551060      0.840640     -1.762094
  F      -2.809600      0.992927      0.232471
  F      -3.020438     -0.763788     -1.032066
  F       2.980863     -0.174162      1.261871
  F       2.177990     -1.484094     -0.260064
  F       3.763697     -0.104338     -0.744438
  O      -1.981884     -2.336762      0.936939
  O      -2.523706     -0.619618      2.280727
  C       0.198926      0.689334      0.214889
  C      -0.878232      0.072414     -0.724300
  C       1.636070      0.835513     -0.423692
  C      -2.258443     -0.206017     -0.055104
  C       2.660553     -0.271216     -0.021817
  C      -2.251561     -1.152650      1.195940
19
Coordinates from ORCA-job PFHxA_wb E -1477.788095271733
  F       0.300121     -0.079322      1.316286
  F      -0.216411      1.904248      0.590103
  F      -1.087206      0.926989     -1.744654
  F      -0.397005     -1.076516     -1.229378
  F       2.154767      2.005973     -0.031872
  F       1.551032      0.840370     -1.762142
  F      -2.809477      0.993032      0.232568
  F      -3.020568     -0.763621     -1.032009
  F       2.980903     -0.173983      1.261947
  F       2.178166     -1.484046     -0.259957
  F       3.763781     -0.104185     -0.744346
  O      -1.982089     -2.336784      0.936819
  O      -2.523634     -0.619657      2.280743
  C       0.198926      0.689246      0.214887
  C      -0.878249      0.072406     -0.724342
  C       1.636062      0.835479     -0.423733
  C      -2.258453     -0.205954     -0.055091
  C       2.660639     -0.271123     -0.021740
  C      -2.251606     -1.152653      1.195912
