start: Sun Mar  8 05:05:38 PM EDT 2026
job: PFHxA_GOAT
host: node2414.oscar.ccv.brown.edu
scratch: /users/rzwa/jobtmp/orca_jobtmp/PFHxA_GOAT_20260308_170538

                                 *****************
                                 * O   R   C   A *
                                 *****************

                                            #,                                       
                                            ###                                      
                                            ####                                     
                                            #####                                    
                                            ######                                   
                                           ########,                                 
                                     ,,################,,,,,                         
                               ,,#################################,,                 
                          ,,##########################################,,             
                       ,#########################################, ''#####,          
                    ,#############################################,,   '####,        
                  ,##################################################,,,,####,       
                ,###########''''           ''''###############################       
              ,#####''   ,,,,##########,,,,          '''####'''          '####       
            ,##' ,,,,###########################,,,                        '##       
           ' ,,###''''                  '''############,,,                           
         ,,##''                                '''############,,,,        ,,,,,,###''
      ,#''                                            '''#######################'''  
     '                                                          ''''####''''         
             ,#######,   #######,   ,#######,      ##                                
            ,#'     '#,  ##    ##  ,#'     '#,    #''#        ,####,    ,#,          
            ##       ##  ##   ,#'  ##            #'  '#       #'       ,# #          
            ##       ##  #######   ##           ,######,      #####,      #          
            '#,     ,#'  ##    ##  '#,     ,#' ,#      #,     #,   #      #          
             '#######'   ##     ##  '#######'  #'      '#     '####' #    #          



                #########################################################
                #                        -***-                          #
                #          Department of theory and spectroscopy        #
                #                                                       #
                #                      Frank Neese                      #
                #                                                       #
                #     Directorship, Architecture, Infrastructure        #
                #                    SHARK, DRIVERS                     #
                #        Core code/Algorithms in most modules           #
                #                                                       #
                #        Max Planck Institute fuer Kohlenforschung      #
                #                Kaiser Wilhelm Platz 1                 #
                #                 D-45470 Muelheim/Ruhr                 #
                #                      Germany                          #
                #                                                       #
                #                  All rights reserved                  #
                #                        -***-                          #
                #########################################################


                         Program Version 6.1.0  -  RELEASE   -
                                (GIT: $679e74b$)
                          ($2025-06-10 18:02:51 +0200$)


 With contributions from (in alphabetic order):
[Max-Planck-Institut fuer Kohlenforschung]                               
  Daniel Aravena         : Magnetic Suceptibility                        
  Michael Atanasov       : Ab Initio Ligand Field Theory (pilot matlab implementation)
  Alexander A. Auer      : GIAO ZORA, VPT2 properties, NMR spectrum      
  Ute Becker             : All parallelization in ORCA, NUMFREQ, NUMCALC 
  Giovanni Bistoni       : ED, misc. LED, open-shell LED, HFLD           
  Dmytro Bykov           : pre 5.0 version of the SCF Hessian            
  Marcos Casanova-Páez   : Triplet and SCS-CIS(D). UHF-(DLPNO)-IP/EA/STEOM-CCSD. UHF-CVS-IP/STEOM-CCSD   
  Vijay G. Chilkuri      : MRCI spin determinant printing, contributions to CSF-ICE 
  Pauline Colinet        : FMM embedding                                 
  Dipayan Datta          : RHF DLPNO-CCSD density                        
  Achintya Kumar Dutta   : EOM-CC, STEOM-CC                              
  Nicolas Foglia         : Exact transition moments, OPA infrastructure, MCD improvements    
  Dmitry Ganyushin       : Spin-Orbit,Spin-Spin,Magnetic field MRCI      
  Miquel Garcia-Rates    : C-PCM and meta-GGA Hessian, CCSD/C-PCM, Gaussian charge scheme 
  Tiago L. C. Gouveia    : GS-ROHF, GS-ROCIS                             
  Yang Guo               : DLPNO-NEVPT2, F12-NEVPT2, CIM, IAO-localization        
  Andreas Hansen         : Spin unrestricted coupled pair/coupled cluster methods 
  Ingolf Harden          : AUTO-CI MPn and infrastructure                
  Benjamin Helmich-Paris : MC-RPA, TRAH-(SCF,CASSCF), AVAS, COSX integrals, SCF dyn. polar., MC-PDFT, srDFT 
  Lee Huntington         : MR-EOM, pCC                                   
  Robert Izsak           : Overlap fitted RIJCOSX, COSX-SCS-MP3, EOM     
  Riya Kayal             : Wick's Theorem for AUTO-CI, AUTO-CI UHF-CCSDT 
  Emily Kempfer          : AUTO-CI RHF CISDT and CCSDT, approximate NEVPT4
  Christian Kollmar      : KDIIS, OOCD, Brueckner-CCSD(T), CCSD density, CASPT2, CASPT2-K, improved NEVPT2 
  Axel Koslowski         : Symmetry handling                             
  Simone Kossmann        : meta-GGA functionals, TD-DFT gradient, OOMP2, (MP2 Hessian; deprecated post 5.0) 
  Lucas Lang             : DCDCAS, Hyperfine gauge corrections, ICE-SOC+SSC
  Marvin Lechner         : AUTO-CI (C++ implementation), FIC-MRCC        
  Spencer Leger          : CASSCF response                               
  Dagmar Lenk            : GEPOL surface, SMD, ORCA-2-JSON               
  Dimitrios Liakos       : Extrapolation schemes; Compound Job, Property file
  Dimitrios Manganas     : Further ROCIS development; embedding schemes. LFT, Crystal Embedding 
  Dimitrios Pantazis     : SARC Basis sets                               
  Anastasios Papadopoulos: AUTO-CI, single reference methods and gradients 
  Taras Petrenko         : pre 6.0 DFT Hessian and TD-DFT gradient,  ECA, NRVS 
  Petra Pikulova         : Analytic Raman intensities                    
  Peter Pinski           : DLPNO-MP2, DLPNO-MP2 Gradient                 
  Shashank Vittal Rao    : ES-AILFT, MagRelax                            
  Christoph Reimann      : Effective Core Potentials                     
  Marius Retegan         : Local ZFS, SOC                                
  Christoph Riplinger    : Optimizer, TS searches, QM/MM, DLPNO-CCSD(T), (RO)-DLPNO pert. Triples 
  Michael Roemelt        : Original ROCIS implementation, recursive CI coupling coefficients
  Masaaki Saitow         : Open-shell DLPNO-CCSD energy and density      
  Barbara Sandhoefer     : DKH picture change effects                    
  Yorick L. A. Schmerwitz: GMF and freeze-and-release deltaSCF, NEB S-IDPP initial path                    
  Kantharuban Sivalingam : CASSCF convergence/infrastructure, NEVPT2, NEVPT3, NEVPT4(SD), FIC-MRCI and CEPA variants
  Bernardo de Souza      : ESD, SOC TD-DFT                               
  Georgi L. Stoychev     : AutoAux, RI-MP2 NMR, DLPNO-MP2 response, X2C  
  Van Anh Tran           : RI-MP2 g-tensors                              
  Willem Van den Heuvel  : Paramagnetic NMR                              
  Zikuan Wang            : NOTCH, Electric field optimization            
  Frank Wennmohs         : Technical directorship and infrastructure     
  Hang Xu                : AUTO-CI-Response properties                   
                                                                         
[FACCTs GmbH]                                                            
  Markus Bursch, Nicolas Foglia, Miquel Garcia-Rates, Ingolf Harden, Hagen Neugebauer, Anastasios Papadopoulos, 
  Christoph Riplinger, Bernardo de Souza, Georgi L. Stoychev                                                    
                                                                 
  APM, various basis sets, CI-OPT, improved COSX, DLPNO-Multilevel,           
  DOCKER, DRACO, updates on ESD, Fragmentator, GOAT, IRC, LR-CPCM, L-BFGS, MBIS, meta-GGA TD-DFT gradient, ML-optimized integration grids, 
  MM, NACMEs, nearIR, NEB, NEB-TS, NL-DFT gradient (VV10), 2- and 3-layer-ONIOM, interface openCOSMO-RS, QMMM,   
  Crystal-QMMM, RESP, rigid body optimization, SF, symmetry and pop. for TD-DFT, various functionals, SOLVATOR                                   
                                                                         
[Other institutions]                                                     
  V. Asgeirsson          : NEB                                           
  Christoph Bannwarth    : sTDA-DFT, sTD-DFT, PBEh-3c, B97-3c, D3        
  Giovanni Bistoni       : ETS/NOCV, ADLD/ADEX, COVALED                  
  Martin Brehm           : Molecular dynamics                            
  Ronald Cardenas        : ETS/NOCV                                      
  Martina Colucci        : COVALED                                       
  Sebastian Ehlert       : rSCAN, r2SCAN, r2SCAN-3c, D4, dhf basis sets  
  Marvin Friede          : D4 for Fr, Ra, Ac-Lr                          
  Lars Goerigk           : TD-DFT with DH, B97 family of functionals     
  Stefan Grimme          : VdW corrections, initial TS optimization, DFT functionals, gCP, sTDA/sTD-DF 
  Waldemar Hujo          : DFT-NL                                        
  H. Jonsson             : NEB                                           
  Holger Kruse           : gCP                                           
  Marcel Mueller         : wB97X-3c, vDZP basis set                      
  Hagen Neugebauer       : wr2SCAN, Native XTB                           
  Gianluca Regni         : ADLD/ADEX                                     
  Tobias Risthaus        : pre 6.0 range-separated hybrid DFT and stability analysis
  Lukas Wittmann         : regularized MP2, r2SCAN double-hybrids, wr2SCAN        
                                                                         
We gratefully acknowledge several colleagues who have allowed us to      
interface, adapt or use parts of their codes:                            
  Ed Valeev, F. Pavosevic, A. Kumar             : LibInt (2-el integral package), F12 methods 
  Garnet Chan, S. Sharma, J. Yang, R. Olivares  : DMRG                   
  Ulf Ekstrom                                   : XCFun DFT Library      
  Mihaly Kallay                                 : mrcc  (arbitrary order and MRCC methods)
  Frank Weinhold                                : gennbo (NPA and NBO analysis)           
  Simon Mueller                                 : openCOSMO-RS                            
  Christopher J. Cramer and Donald G. Truhlar   : smd solvation model                     
  S Lehtola, MJT Oliveira, MAL Marques          : LibXC Library                           
  Liviu Ungur et al                             : ANISO software                          


 Your calculation uses the libint2 library for the computation of 2-el integrals
 For citations please refer to: http://libint.valeyev.net

 Your ORCA version has been built with support for libXC version: 7.0.0
 For citations please refer to: https://libxc.gitlab.io

 This ORCA versions uses:
   CBLAS   interface :  Fast vector & matrix operations
   LAPACKE interface :  Fast linear algebra routines
   SCALAPACK package :  Parallel linear algebra routines
   Shared memory     :  Shared parallel matrices
   BLAS/LAPACK       :  OpenBLAS 0.3.29  USE64BITINT DYNAMIC_ARCH NO_AFFINITY Cooperlake SINGLE_THREADED
        Core in use  :  Cooperlake
   Copyright (c) 2011-2014, The OpenBLAS Project


  ***********************************
  * Starting time: Sun Mar  8 17:05:38 2026
  * Host name:     node2414.oscar.ccv.brown.edu
  * Process ID:    2462253
  * Working dir.:  /sss/jobtmp/rzwa/orca_jobtmp/PFHxA_GOAT_20260308_170538
  ***********************************

NOTE: MaxCore=2500 MB was set to SCF,MP2,MDCI,CIPSI,MRCI,RASCI and CIS
      => If you want to overwrite this, your respective input block should be placed after the MaxCore statement


***************************************
The coordinates will be read from file: PFHxA_Opt.xyz
***************************************


Your calculation utilizes the semiempirical GFN2-xTB method
Please cite in your paper:
Bannwarth, C.; Ehlert S.; Grimme, S. J. Chem. Theory Comput. 2019, 15, 1652.
   

================================================================================

================================================================================
                                        WARNINGS
                       Please study these warnings very carefully!
================================================================================


================================================================================
 STARTING AUTOMATIC FRAGMENTATION: 
================================================================================

WARNING: The total number of processors given is larger than MAXCORESOPT for GOAT!
  ===> : For the first optimization step, it will be reduced to that ammount (32).
         This can be changed by setting MAXCORESOPT inside %GOAT to a different number.

WARNING: Geometry Optimization
  ===> : Switching off AutoStart
         For restart on a previous wavefunction, please use MOREAD

WARNING: Found dipole moment calculation with XTB calculation
  ===> : Switching off dipole moment calculation

--------------------------------------------------------------------------
The library attempted to open the following supporting CUDA libraries,
but each of them failed.  CUDA-aware support is disabled.
libcuda.so.1: cannot open shared object file: No such file or directory
libcuda.dylib: cannot open shared object file: No such file or directory
/usr/lib64/libcuda.so.1: cannot open shared object file: No such file or directory
/usr/lib64/libcuda.dylib: cannot open shared object file: No such file or directory
If you are not interested in CUDA-aware support, then run with
--mca opal_warn_on_missing_libcuda 0 to suppress this message.  If you are interested
in CUDA-aware support, then try setting LD_LIBRARY_PATH to the location
of libcuda.so.1 to get passed this issue.
--------------------------------------------------------------------------
--------------------------------------------------------------------------
WARNING: There was an error initializing an OpenFabrics device.

  Local host:   node2414
  Local device: mlx5_0
--------------------------------------------------------------------------
[node2414.oscar.ccv.brown.edu:2462262] 63 more processes have sent help message help-mpi-common-cuda.txt / dlopen failed
[node2414.oscar.ccv.brown.edu:2462262] Set MCA parameter "orte_base_help_aggregate" to 0 to see all help / error messages
[node2414.oscar.ccv.brown.edu:2462262] 63 more processes have sent help message help-mpi-btl-openib.txt / error in device init

================================================================================
                                       INPUT FILE
================================================================================
NAME = PFHxA_GOAT.inp
|  1> # avogadro generated ORCA file
|  2> # C8O2F15 | Frequencies | wB97X-D3/ma-def2-TZVP
|  3> # 
|  4> ! XTB GOAT ALPB(Water)
|  5> 
|  6> %maxcore 2500
|  7> 
|  8> %pal
|  9>    nprocs 64
| 10> end
| 11> 
| 12> * xyzfile -1 1 PFHxA_Opt.xyz
| 13> 
| 14> 
| 15>                          ****END OF INPUT****
================================================================================

                       *****************************
                       * Geometry Optimization Run *
                       *****************************


                       *********************************
                       *              GOAT             *
                       * Global Optimization Algorithm *
                       *********************************

Geometry optimization settings:
Update method            Update   .... BFGS
Choice of coordinates    CoordSys .... (2022) Redundant Internals
Initial Hessian          InHess   .... Almloef's Model
Max. no of cycles        MaxIter  .... 57

Convergence Tolerances:
Energy Change            TolE     ....  5.0000e-06 Eh
Max. Gradient            TolMAXG  ....  3.0000e-04 Eh/bohr
RMS Gradient             TolRMSG  ....  1.0000e-04 Eh/bohr
Max. Displacement        TolMAXD  ....  4.0000e-03 bohr
RMS Displacement         TolRMSD  ....  2.0000e-03 bohr
Strict Convergence                .... True

------------------------------------------------------------------------------
                        ORCA OPTIMIZATION COORDINATE SETUP
------------------------------------------------------------------------------

The optimization will be done in redundant internal coordinates (2022)
Making redundant internal coordinates   ...  (2022 redundants) done
Evaluating the initial hessian          ...  (Almloef) done
Evaluating the coordinates              ...  done
Calculating the B-matrix                .... done
Calculating the G-matrix                .... done
The number of degrees of freedom        ....   80

    -----------------------------------------------------------------
                    Redundant Internal Coordinates


    -----------------------------------------------------------------
         Definition                    Initial Value    Approx d2E/dq
    -----------------------------------------------------------------
      1. B(C  13,F   1)                  1.3447         0.614060   
      2. B(C  13,F   0)                  1.3442         0.615147   
      3. B(C  14,F   2)                  1.3485         0.605605   
      4. B(C  14,C  13)                  1.5602         0.334334   
      5. B(C  14,F   3)                  1.3448         0.613962   
      6. B(C  15,F   5)                  1.3374         0.630770   
      7. B(C  15,F   4)                  1.3443         0.614916   
      8. B(C  15,C  13)                  1.5660         0.327297   
      9. B(C  16,C  14)                  1.5541         0.341880   
     10. B(C  16,F   7)                  1.3570         0.586909   
     11. B(C  16,F   6)                  1.3502         0.601710   
     12. B(C  17,F  10)                  1.3273         0.654549   
     13. B(C  17,F   9)                  1.3288         0.651147   
     14. B(C  17,C  15)                  1.5599         0.334750   
     15. B(C  17,F   8)                  1.3253         0.659532   
     16. B(C  18,C  16)                  1.5708         0.321562   
     17. B(C  18,O  12)                  1.2383         0.976984   
     18. B(C  18,O  11)                  1.2412         0.966510   
     19. A(F   1,C  13,C  15)          106.0584         0.382858   
     20. A(F   1,C  13,C  14)          107.8347         0.384277   
     21. A(F   0,C  13,C  15)          106.8032         0.382976   
     22. A(C  14,C  13,C  15)          121.2063         0.348656   
     23. A(F   0,C  13,F   1)          108.1112         0.423305   
     24. A(F   0,C  13,C  14)          106.2872         0.384395   
     25. A(F   3,C  14,C  13)          105.4934         0.384266   
     26. A(F   2,C  14,C  16)          108.8242         0.384842   
     27. A(F   2,C  14,C  13)          107.7231         0.383352   
     28. A(F   3,C  14,C  16)          108.1750         0.385761   
     29. A(F   2,C  14,F   3)          107.5282         0.422112   
     30. A(C  13,C  14,C  16)          118.5965         0.351231   
     31. A(F   4,C  15,F   5)          108.2728         0.425314   
     32. A(F   5,C  15,C  13)          109.7507         0.384650   
     33. A(C  13,C  15,C  17)          118.3862         0.348729   
     34. A(F   4,C  15,C  17)          106.8969         0.384453   
     35. A(F   4,C  15,C  13)          105.2388         0.382951   
     36. A(F   5,C  15,C  17)          107.8746         0.386160   
     37. A(F   7,C  16,C  18)          109.4930         0.378705   
     38. A(F   6,C  16,C  18)          111.7319         0.380342   
     39. A(F   6,C  16,F   7)          106.7435         0.418250   
     40. A(C  14,C  16,C  18)          115.7310         0.348929   
     41. A(F   7,C  16,C  14)          105.3174         0.382750   
     42. A(F   6,C  16,C  14)          107.2803         0.384411   
     43. A(F  10,C  17,C  15)          111.1103         0.388659   
     44. A(F   9,C  17,C  15)          108.3214         0.388306   
     45. A(F   8,C  17,C  15)          111.0586         0.389174   
     46. A(F   9,C  17,F  10)          108.6959         0.432566   
     47. A(F   8,C  17,F  10)          109.1931         0.433562   
     48. A(F   8,C  17,F   9)          108.3876         0.433156   
     49. A(O  11,C  18,O  12)          129.9444         0.504975   
     50. A(O  12,C  18,C  16)          115.7703         0.415949   
     51. A(O  11,C  18,C  16)          114.2845         0.415152   
     52. D(F   2,C  14,C  13,F   1)   -178.6176         0.010000   
     53. D(F   3,C  14,C  13,F   0)     51.7435         0.010000   
     54. D(F   2,C  14,C  13,F   0)    -62.8825         0.010000   
     55. D(F   3,C  14,C  13,C  15)    173.6891         0.010000   
     56. D(F   2,C  14,C  13,C  15)     59.0631         0.010000   
     57. D(F   3,C  14,C  13,F   1)    -63.9916         0.010000   
     58. D(F   4,C  15,C  13,F   0)    -53.9150         0.010000   
     59. D(F   5,C  15,C  13,F   0)   -170.2164         0.010000   
     60. D(F   5,C  15,C  13,C  14)     68.0850         0.010000   
     61. D(F   5,C  15,C  13,F   1)    -55.0761         0.010000   
     62. D(F   4,C  15,C  13,C  14)   -175.6135         0.010000   
     63. D(F   4,C  15,C  13,F   1)     61.2253         0.010000   
     64. D(F   6,C  16,C  14,C  13)     70.1185         0.010000   
     65. D(F   6,C  16,C  14,F   3)   -169.9354         0.010000   
     66. D(F   6,C  16,C  14,F   2)    -53.3955         0.010000   
     67. D(F   7,C  16,C  14,C  13)   -176.4269         0.010000   
     68. D(F   7,C  16,C  14,F   3)    -56.4807         0.010000   
     69. D(F   7,C  16,C  14,F   2)     60.0592         0.010000   
     70. D(F   9,C  17,C  15,C  13)   -166.1852         0.010000   
     71. D(F   9,C  17,C  15,F   5)     68.5140         0.010000   
     72. D(F   9,C  17,C  15,F   4)    -47.7349         0.010000   
     73. D(F   8,C  17,C  15,C  13)     74.8962         0.010000   
     74. D(F   8,C  17,C  15,F   5)    -50.4047         0.010000   
     75. D(F   8,C  17,C  15,F   4)   -166.6536         0.010000   
     76. D(O  12,C  18,C  16,F   7)   -133.0122         0.010000   
     77. D(O  12,C  18,C  16,F   6)    -14.9727         0.010000   
     78. D(O  11,C  18,C  16,C  14)    -72.1076         0.010000   
     79. D(O  11,C  18,C  16,F   7)     46.6869         0.010000   
     80. D(O  11,C  18,C  16,F   6)    164.7264         0.010000   
    -----------------------------------------------------------------

Number of atoms                         .... 19
Number of degrees of freedom            .... 80


         *************************************************************
         *                GEOMETRY OPTIMIZATION CYCLE   1            *
         *************************************************************
---------------------------------
CARTESIAN COORDINATES (ANGSTROEM)
---------------------------------
  F     0.901182   -0.170605   -2.114590
  F    -0.417306   -1.576313   -1.102337
  F    -0.010652    1.860789   -0.579149
  F    -1.443650    0.813751   -1.831885
  F     2.147031   -1.746514   -0.482668
  F     0.872271   -1.257704    1.208313
  F    -0.976482    0.743380    1.625649
  F    -2.497416    1.707806    0.410297
  F     1.832727    1.231597    1.306570
  F     3.439138   -0.189153    1.122661
  F     2.861639    1.003022   -0.581252
  O    -3.494467   -0.702870   -0.329401
  O    -2.308904   -1.513793    1.398210
  C     0.289763   -0.442843   -0.948817
  C    -0.720086    0.720618   -0.702210
  C     1.416782   -0.772313    0.087346
  C    -1.703846    0.610331    0.495865
  C     2.409208    0.362002    0.489366
  C    -2.597231   -0.681287    0.528030

----------------------------
CARTESIAN COORDINATES (A.U.)
----------------------------
  NO LB    ZA    FRAG    MASS        X           Y           Z
   0 F   9.0000    1    18.998    1.702987   -0.322397   -3.995996
   1 F   9.0000    1    18.998   -0.788593   -2.978799   -2.083114
   2 F   9.0000    1    18.998   -0.020130    3.516382   -1.094433
   3 F   9.0000    1    18.998   -2.728104    1.537766   -3.461761
   4 F   9.0000    1    18.998    4.057300   -3.300434   -0.912110
   5 F   9.0000    1    18.998    1.648353   -2.376717    2.283381
   6 F   9.0000    1    18.998   -1.845283    1.404785    3.072031
   7 F   9.0000    1    18.998   -4.719432    3.227286    0.775350
   8 F   9.0000    1    18.998    3.463352    2.327380    2.469059
   9 F   9.0000    1    18.998    6.499028   -0.357448    2.121522
  10 F   9.0000    1    18.998    5.407713    1.895436   -1.098406
  11 O   8.0000    1    15.999   -6.603585   -1.328232   -0.622478
  12 O   8.0000    1    15.999   -4.363196   -2.860653    2.642234
  13 C   6.0000    1    12.011    0.547574   -0.836853   -1.793004
  14 C   6.0000    1    12.011   -1.360766    1.361770   -1.326985
  15 C   6.0000    1    12.011    2.677331   -1.459460    0.165061
  16 C   6.0000    1    12.011   -3.219802    1.153358    0.937050
  17 C   6.0000    1    12.011    4.552742    0.684085    0.924768
  18 C   6.0000    1    12.011   -4.908055   -1.287447    0.997832

      -----------------------------------------------------------      
     |                   =====================                   |     
     |                           x T B                           |     
     |                   =====================                   |     
     |                         S. Grimme                         |     
     |          Mulliken Center for Theoretical Chemistry        |     
     |                    University of Bonn                     |     
      -----------------------------------------------------------      

   * xtb version 6.7.1 (edcfbbe) compiled by 'albert@albert-system' on 2024-07-22

   xtb is free software: you can redistribute it and/or modify it under
   the terms of the GNU Lesser General Public License as published by
   the Free Software Foundation, either version 3 of the License, or
   (at your option) any later version.
   
   xtb is distributed in the hope that it will be useful,
   but WITHOUT ANY WARRANTY; without even the implied warranty of
   MERCHANTABILITY or FITNESS FOR A PARTICULAR PURPOSE.  See the
   GNU Lesser General Public License for more details.
   
   Cite this work as:
   * C. Bannwarth, E. Caldeweyher, S. Ehlert, A. Hansen, P. Pracht,
     J. Seibert, S. Spicher, S. Grimme, WIREs Comput. Mol. Sci., 2020, 11,
     e01493. DOI: 10.1002/wcms.1493
   
   for GFN2-xTB:
   * C. Bannwarth, S. Ehlert and S. Grimme., J. Chem. Theory Comput., 2019,
     15, 1652-1671. DOI: 10.1021/acs.jctc.8b01176
   for GFN1-xTB:
   * S. Grimme, C. Bannwarth, P. Shushkov, J. Chem. Theory Comput., 2017,
     13, 1989-2009. DOI: 10.1021/acs.jctc.7b00118
   for GFN0-xTB:
   * P. Pracht, E. Caldeweyher, S. Ehlert, S. Grimme, ChemRxiv, 2019, preprint.
     DOI: 10.26434/chemrxiv.8326202.v1
   for GFN-FF:
   * S. Spicher and S. Grimme, Angew. Chem. Int. Ed., 2020, 59, 15665-15673.
     DOI: 10.1002/anie.202004239
   
   for ALPB and GBSA implicit solvation:
   * S. Ehlert, M. Stahn, S. Spicher, S. Grimme, J. Chem. Theory Comput.,
     2021, 17, 4250-4261. DOI: 10.1021/acs.jctc.1c00471
   
   for ddCOSMO and CPCM-X implicit solvation:
   * M. Stahn, S. Ehlert, S. Grimme, J. Phys. Chem. A,
     2023, XX, XXXX-XXXX. DOI: 10.1021/acs.jpca.3c04382
   
   for DFT-D4:
   * E. Caldeweyher, C. Bannwarth and S. Grimme, J. Chem. Phys., 2017,
     147, 034112. DOI: 10.1063/1.4993215
   * E. Caldeweyher, S. Ehlert, A. Hansen, H. Neugebauer, S. Spicher,
     C. Bannwarth and S. Grimme, J. Chem. Phys., 2019, 150, 154122.
     DOI: 10.1063/1.5090222
   * E. Caldeweyher, J.-M. Mewes, S. Ehlert and S. Grimme, Phys. Chem. Chem. Phys.
     2020, 22, 8499-8512. DOI: 10.1039/D0CP00502A
   
   for sTDA-xTB:
   * S. Grimme and C. Bannwarth, J. Chem. Phys., 2016, 145, 054103.
     DOI: 10.1063/1.4959605
   
   in the mass-spec context:
   * V. Asgeirsson, C. Bauer and S. Grimme, Chem. Sci., 2017, 8, 4879.
     DOI: 10.1039/c7sc00601b
   * J. Koopman and S. Grimme, ACS Omega 2019, 4, 12, 15120-15133.
     DOI: 10.1021/acsomega.9b02011
   
   for metadynamics refer to:
   * S. Grimme, J. Chem. Theory Comput., 2019, 155, 2847-2862
     DOI: 10.1021/acs.jctc.9b00143
   
   for SPH calculations refer to:
   * S. Spicher and S. Grimme, J. Chem. Theory Comput., 2021, 17, 1701-1714
     DOI: 10.1021/acs.jctc.0c01306
   
   for ONIOM refer to:
   * C. Plett, A. Katbashev, S. Ehlert, S. Grimme, M. Bursch,
     Phys. Chem. Chem. Phys., 2023, 25, 17860-17868. DOI: 10.1039/D3CP02178E
   
   for DIPRO refer to:
   * J. Kohn, N. Gildemeister, S. Grimme, D. Fazzi, A. Hansen,
     J. Chem. Phys., 2023, just accepted.
   
   for PTB refer to:
   * S. Grimme, M. Mueller, A. Hansen, J. Chem. Phys., 2023, 158, 124111.
     DOI: 10.1063/5.0137838
   
   with help from (in alphabetical order)
   P. Atkinson, C. Bannwarth, F. Bohle, G. Brandenburg, E. Caldeweyher
   M. Checinski, S. Dohm, S. Ehlert, S. Ehrlich, I. Gerasimov, C. Hölzer
   A. Katbashev, J. Kohn, J. Koopman, C. Lavigne, S. Lehtola, F. März, M. Müller,
   F. Musil, H. Neugebauer, J. Pisarek, C. Plett, P. Pracht, F. Pultar,
   J. Seibert, P. Shushkov, S. Spicher, M. Stahn, M. Steiner, T. Strunk,
   J. Stückrath, T. Rose, and J. Unsleber
   
 * started run on 2026/03/08 at 17:05:41.728     
   ID    Z sym.   atoms
    1    9 F      1-11
    2    8 O      12, 13
    3    6 C      14-19

           -------------------------------------------------
          |                Calculation Setup                |
           -------------------------------------------------

          program call               : /users/rzwa/work/orca/orca-6.1.0/otool_xtb PFHxA_GOAT_XTB.xyz --grad -c -1 -u 0 -P 32 --namespace PFHxA_GOAT --input PFHxA_GOAT_XTB.input.tmp --alpb WATER --acc 0.200000
          hostname                   : node2414
          calculation namespace      : PFHxA_GOAT
          coordinate file            : PFHxA_GOAT_XTB.xyz
          omp threads                :                    32


           -------------------------------------------------
          |                 G F N 2 - x T B                 |
           -------------------------------------------------

        Reference                      10.1021/acs.jctc.8b01176
      * Hamiltonian:
        H0-scaling (s, p, d)           1.850000    2.230000    2.230000
        zeta-weighting                 0.500000
      * Dispersion:
        s8                             2.700000
        a1                             0.520000
        a2                             5.000000
        s9                             5.000000
      * Repulsion:
        kExp                           1.500000    1.000000
        rExp                           1.000000
      * Coulomb:
        alpha                          2.000000
        third order                    shell-resolved
        anisotropic                    true
        a3                             3.000000
        a5                             4.000000
        cn-shift                       1.200000
        cn-exp                         4.000000
        max-rad                        5.000000

      * Solvation model:               ALPB
        Solvent                        WATER
        Parameter file                 internal GFN2-xTB/ALPB
        Dielectric constant                8.0200E+01
        Reference state                gsolv [1 M gas/solution]
        Free energy shift                  1.0808E-03 Eh       6.7819E-01 kcal/mol
        Temperature                        2.9815E+02 K
        Density                            1.0000E+00 kg/L
        Solvent mass                       1.8000E+01 g/mol
        Interaction kernel             P16
        Born radius scaling (c1)           1.4744E+00
        Born radii integrator          GBOBC
        Born offset                        0.0000E+00 a0       0.0000E+00 AA
        H-bond correction              true
        Ion screening                  false
        Surface tension                    1.0000E-05 Eh       1.5569E+01 dyn/cm
        Grid points                               230 per atom

          ...................................................
          :                      SETUP                      :
          :.................................................:
          :  # basis functions                  76          :
          :  # atomic orbitals                  76          :
          :  # shells                           38          :
          :  # electrons                       114          :
          :  max. iterations                   250          :
          :  Hamiltonian                  GFN2-xTB          :
          :  restarted?                      false          :
          :  GBSA solvation                   true          :
          :  PC potential                    false          :
          :  electronic temp.          300.0000000     K    :
          :  accuracy                    0.2000000          :
          :  -> integral cutoff          0.3198970E+02      :
          :  -> integral neglect         0.2000000E-08      :
          :  -> SCF convergence          0.2000000E-06 Eh   :
          :  -> wf. convergence          0.2000000E-04 e    :
          :  Broyden damping             0.4000000          :
          :  net charge                         -1          :
          :  unpaired electrons                  0          :
          ...................................................

 iter      E             dE          RMSdq      gap      omega  full diag
   1    -73.4415551 -0.734416E+02  0.570E+00    4.88       0.0  T
   2    -73.5782354 -0.136680E+00  0.279E+00    4.87       1.0  T
   3    -73.5821099 -0.387458E-02  0.136E+00    5.10       1.0  T
   4    -73.5832870 -0.117711E-02  0.203E-01    5.06       1.0  T
   5    -73.5834417 -0.154681E-03  0.940E-02    5.11       1.0  T
   6    -73.5834592 -0.174819E-04  0.155E-02    5.09       1.5  T
   7    -73.5834611 -0.191835E-05  0.654E-03    5.09       3.5  T
   8    -73.5834611 -0.596394E-08  0.195E-03    5.09      11.7  T
   9    -73.5834612 -0.369188E-07  0.443E-04    5.09      51.8  T
  10    -73.5834612 -0.141796E-09  0.127E-04    5.09     180.8  T
  11    -73.5834612 -0.580656E-10  0.416E-05    5.09     551.7  T

   *** convergence criteria satisfied after 11 iterations ***

         #    Occupation            Energy/Eh            Energy/eV
      -------------------------------------------------------------
         1        2.0000           -0.9458640             -25.7383
       ...           ...                  ...                  ...
        51        2.0000           -0.5454671             -14.8429
        52        2.0000           -0.5362134             -14.5911
        53        2.0000           -0.5319857             -14.4761
        54        2.0000           -0.5142757             -13.9942
        55        2.0000           -0.4446702             -12.1001
        56        2.0000           -0.4312251             -11.7342
        57        2.0000           -0.4192390             -11.4081 (HOMO)
        58                         -0.2322271              -6.3192 (LUMO)
        59                         -0.1344972              -3.6599
        60                         -0.1118636              -3.0440
        61                         -0.0877559              -2.3880
        62                         -0.0804816              -2.1900
       ...                                ...                  ...
        76                          0.6278189              17.0838
      -------------------------------------------------------------
                  HL-Gap            0.1870119 Eh            5.0889 eV
             Fermi-level           -0.3257331 Eh           -8.8636 eV

 SCC (total)                   0 d,  0 h,  0 min,  0.047 sec
 SCC setup                      ...        0 min,  0.001 sec (  1.669%)
 Dispersion                     ...        0 min,  0.001 sec (  1.660%)
 classical contributions        ...        0 min,  0.000 sec (  0.856%)
 integral evaluation            ...        0 min,  0.002 sec (  4.930%)
 iterations                     ...        0 min,  0.039 sec ( 82.214%)
 molecular gradient             ...        0 min,  0.004 sec (  8.078%)
 printout                       ...        0 min,  0.000 sec (  0.483%)

         :::::::::::::::::::::::::::::::::::::::::::::::::::::
         ::                     SUMMARY                     ::
         :::::::::::::::::::::::::::::::::::::::::::::::::::::
         :: total energy             -73.355122768897 Eh    ::
         :: total w/o Gsasa/hb       -73.365755019494 Eh    ::
         :: gradient norm              0.051883436740 Eh/a0 ::
         :: HOMO-LUMO gap              5.088852592946 eV    ::
         ::.................................................::
         :: SCC energy               -73.583322284796 Eh    ::
         :: -> isotropic ES            0.321770936388 Eh    ::
         :: -> anisotropic ES          0.004397934367 Eh    ::
         :: -> anisotropic XC         -0.077748265393 Eh    ::
         :: -> dispersion             -0.019407339525 Eh    ::
         :: -> Gsolv                  -0.084251817762 Eh    ::
         ::    -> Gelec               -0.094884068360 Eh    ::
         ::    -> Gsasa                0.013842232548 Eh    ::
         ::    -> Ghb                 -0.004290741648 Eh    ::
         ::    -> Gshift               0.001080759698 Eh    ::
         :: repulsion energy           0.228199515900 Eh    ::
         :: add. restraining           0.000000000000 Eh    ::
         :: total charge              -1.000000000000 e     ::
         :::::::::::::::::::::::::::::::::::::::::::::::::::::


Property printout bound to 'properties.out'

           -------------------------------------------------
          | TOTAL ENERGY              -73.355122768897 Eh   |
          | GRADIENT NORM               0.051883436740 Eh/α |
          | HOMO-LUMO GAP               5.088852592946 eV   |
           -------------------------------------------------

------------------------------------------------------------------------
 * finished run on 2026/03/08 at 17:05:41.827     
------------------------------------------------------------------------
 total:
 * wall-time:     0 d,  0 h,  0 min,  0.098 sec
 *  cpu-time:     0 d,  0 h,  0 min,  1.953 sec
 * ratio c/w:    19.890 speedup
 SCF:
 * wall-time:     0 d,  0 h,  0 min,  0.047 sec
 *  cpu-time:     0 d,  0 h,  0 min,  1.122 sec
 * ratio c/w:    23.778 speedup


-------------------------   --------------------
FINAL SINGLE POINT ENERGY       -73.355122768900
-------------------------   --------------------


-------------
DIPOLE MOMENT
-------------
                                X             Y             Z
Total Dipole Moment    :      4.75000       1.32200      -0.73000
                        -----------------------------------------
Magnitude (a.u.)       :      4.98428
Magnitude (Debye)      :     12.66904


------------------
CARTESIAN GRADIENT
------------------

   1   F   :   -0.001049326    0.002736109    0.004970301
   2   F   :   -0.001044494    0.002620938    0.004490656
   3   F   :   -0.003110573   -0.006034799    0.003407174
   4   F   :   -0.001112360   -0.003774084    0.003015658
   5   F   :   -0.002210134    0.004667987   -0.001529772
   6   F   :   -0.000598999    0.003522238   -0.002532728
   7   F   :   -0.003165515   -0.003074910   -0.006720354
   8   F   :    0.000548056   -0.005029180   -0.002776256
   9   F   :   -0.002640945   -0.001639249    0.000564139
  10   F   :   -0.000641471   -0.003516634    0.000998209
  11   F   :   -0.001687169   -0.001465371   -0.002348916
  12   O   :   -0.013799205   -0.002946756   -0.010031625
  13   O   :   -0.000561761   -0.012967268    0.010651450
  14   C   :    0.003950182   -0.005015850   -0.010398425
  15   C   :    0.003064416    0.009096558   -0.007645680
  16   C   :    0.007210926   -0.006778963    0.002993380
  17   C   :   -0.009675392   -0.001931098    0.008526106
  18   C   :    0.006603818    0.004305788    0.002330884
  19   C   :    0.019919948    0.027224543    0.002035798

Difference to translation invariance:
           :   -0.0000000000    0.0000000000    0.0000000000

Difference to rotation invariance:
           :   -0.0001362725   -0.0001424538   -0.0000441219

Norm of the Cartesian gradient     ...    0.0518834367
RMS gradient                       ...    0.0068721291
MAX gradient                       ...    0.0272245435
------------------------------------------------------------------------------
                         ORCA GEOMETRY RELAXATION STEP
------------------------------------------------------------------------------

Reading the OPT-File                    .... done
Getting information on internals        .... done
Copying old internal coords+grads       .... done
Making the new internal coordinates     .... (2022 redundants) done
Validating the new internal coordinates .... (2022 redundants) done
Calculating the B-matrix                .... done
Calculating the G,G- and P matrices     .... done
Transforming gradient to internals      .... done
Projecting the internal gradient        .... done
Number of atoms                         ....  19
Number of internal coordinates          ....  80
Current Energy                          ....   -73.355122769 Eh
Current gradient norm                   ....     0.051883437 Eh/bohr
Maximum allowed component of the step   ....  0.300
Current trust radius                    ....  0.300
Evaluating the initial hessian          ....  (Almloef) done
Projecting the Hessian                  .... done
Forming the augmented Hessian           .... done
Diagonalizing the augmented Hessian     .... done
Last element of RFO vector              ....  0.983179999
Lowest eigenvalues of augmented Hessian:
 -0.004613524  0.010000000  0.010000000  0.010000000  0.010000000
Length of the computed step             ....  0.185763778
The final length of the internal step   ....  0.185763778
Converting the step to Cartesian space:
 Initial RMS(Int)=    0.0207690218
Transforming coordinates:
 Iter   0:  RMS(Cart)=    0.0880676606 RMS(Int)=    0.0206382858
 Iter   5:  RMS(Cart)=    0.0000006058 RMS(Int)=    0.0000005080
done
Storing new coordinates                 .... done

                                .--------------------.
          ----------------------|Geometry convergence|-------------------------
          Item                value                   Tolerance       Converged
          ---------------------------------------------------------------------
          RMS gradient        0.0049293975            0.0001000000      NO
          MAX gradient        0.0169546909            0.0003000000      NO
          RMS step            0.0207690218            0.0020000000      NO
          MAX step            0.0942032520            0.0040000000      NO
          -------------------------------------------------------------------------
          ........................................................
          Max(Bonds)      0.0201      Max(Angles)    1.97
          Max(Dihed)        5.40      Max(Improp)    0.00
          ---------------------------------------------------------------------

    ---------------------------------------------------------------------------
                         Redundant Internal Coordinates
                            (Angstroem and degrees)

        Definition                    Value    dE/dq     Step     New-Value
    ----------------------------------------------------------------------------
     1. B(C  13,F   1)                1.3447 -0.002174  0.0019    1.3466   
     2. B(C  13,F   0)                1.3442 -0.004233  0.0036    1.3479   
     3. B(C  14,F   2)                1.3485 -0.006427  0.0056    1.3541   
     4. B(C  14,C  13)                1.5602  0.005600 -0.0087    1.5515   
     5. B(C  14,F   3)                1.3448 -0.002197  0.0019    1.3466   
     6. B(C  15,F   5)                1.3374 -0.003159  0.0026    1.3400   
     7. B(C  15,F   4)                1.3443 -0.003934  0.0034    1.3477   
     8. B(C  15,C  13)                1.5660  0.004842 -0.0077    1.5583   
     9. B(C  16,C  14)                1.5541  0.005478 -0.0084    1.5458   
    10. B(C  16,F   7)                1.3570 -0.004214  0.0038    1.3608   
    11. B(C  16,F   6)                1.3502 -0.007629  0.0067    1.3569   
    12. B(C  17,F  10)                1.3273  0.000613 -0.0005    1.3268   
    13. B(C  17,F   9)                1.3288  0.001437 -0.0012    1.3276   
    14. B(C  17,C  15)                1.5599 -0.000247  0.0004    1.5603   
    15. B(C  17,F   8)                1.3253  0.000420 -0.0003    1.3249   
    16. B(C  18,C  16)                1.5708 -0.012405  0.0201    1.5909   
    17. B(C  18,O  12)                1.2383  0.016074 -0.0087    1.2296   
    18. B(C  18,O  11)                1.2412  0.016955 -0.0092    1.2320   
    19. A(F   1,C  13,C  15)          106.06 -0.003840    0.67    106.72   
    20. A(F   1,C  13,C  14)          107.83 -0.005713    1.06    108.90   
    21. A(F   0,C  13,C  15)          106.80 -0.003426    0.39    107.20   
    22. A(C  14,C  13,C  15)          121.21  0.013054   -1.97    119.24   
    23. A(F   0,C  13,F   1)          108.11  0.004811   -0.90    107.21   
    24. A(F   0,C  13,C  14)          106.29 -0.004939    0.72    107.00   
    25. A(F   3,C  14,C  13)          105.49 -0.004088    0.72    106.21   
    26. A(F   2,C  14,C  16)          108.82 -0.004977    0.78    109.60   
    27. A(F   2,C  14,C  13)          107.72 -0.002539    0.13    107.85   
    28. A(F   3,C  14,C  16)          108.17 -0.005567    1.09    109.27   
    29. A(F   2,C  14,F   3)          107.53  0.004352   -0.80    106.72   
    30. A(C  13,C  14,C  16)          118.60  0.012593   -1.90    116.70   
    31. A(F   4,C  15,F   5)          108.27  0.003588   -0.67    107.61   
    32. A(F   5,C  15,C  13)          109.75 -0.003757    0.56    110.31   
    33. A(C  13,C  15,C  17)          118.39  0.009103   -1.36    117.02   
    34. A(F   4,C  15,C  17)          106.90 -0.002324    0.37    107.27   
    35. A(F   4,C  15,C  13)          105.24 -0.004408    0.85    106.09   
    36. A(F   5,C  15,C  17)          107.87 -0.002266    0.25    108.12   
    37. A(F   7,C  16,C  18)          109.49 -0.004791    0.92    110.42   
    38. A(F   6,C  16,C  18)          111.73 -0.001644    0.24    111.97   
    39. A(F   6,C  16,F   7)          106.74  0.003386   -0.68    106.07   
    40. A(C  14,C  16,C  18)          115.73  0.008199   -1.22    114.52   
    41. A(F   7,C  16,C  14)          105.32 -0.003791    0.71    106.03   
    42. A(F   6,C  16,C  14)          107.28 -0.001639    0.05    107.33   
    43. A(F  10,C  17,C  15)          111.11 -0.003595    0.44    111.55   
    44. A(F   9,C  17,C  15)          108.32 -0.004296    0.63    108.95   
    45. A(F   8,C  17,C  15)          111.06 -0.003834    0.55    111.61   
    46. A(F   9,C  17,F  10)          108.70  0.004465   -0.66    108.04   
    47. A(F   8,C  17,F  10)          109.19  0.004064   -0.61    108.58   
    48. A(F   8,C  17,F   9)          108.39  0.003488   -0.38    108.00   
    49. A(O  11,C  18,O  12)          129.94 -0.006308    0.77    130.71   
    50. A(O  12,C  18,C  16)          115.77  0.004640   -0.56    115.21   
    51. A(O  11,C  18,C  16)          114.28  0.001652   -0.16    114.13   
    52. D(F   2,C  14,C  13,F   1)   -178.62 -0.001419    1.04   -177.58   
    53. D(F   3,C  14,C  13,F   0)     51.74  0.000808    0.35     52.09   
    54. D(F   2,C  14,C  13,F   0)    -62.88 -0.001063    0.86    -62.02   
    55. D(F   3,C  14,C  13,C  15)    173.69  0.001100    0.11    173.80   
    56. D(F   2,C  14,C  13,C  15)     59.06 -0.000771    0.63     59.69   
    57. D(F   3,C  14,C  13,F   1)    -63.99  0.000451    0.52    -63.47   
    58. D(F   4,C  15,C  13,F   0)    -53.91 -0.000853    0.26    -53.66   
    59. D(F   5,C  15,C  13,F   0)   -170.22 -0.000870    0.31   -169.91   
    60. D(F   5,C  15,C  13,C  14)     68.09 -0.000504    0.40     68.49   
    61. D(F   5,C  15,C  13,F   1)    -55.08  0.001245   -0.23    -55.30   
    62. D(F   4,C  15,C  13,C  14)   -175.61 -0.000487    0.35   -175.26   
    63. D(F   4,C  15,C  13,F   1)     61.23  0.001263   -0.28     60.95   
    64. D(F   6,C  16,C  14,C  13)     70.12  0.000454   -0.62     69.50   
    65. D(F   6,C  16,C  14,F   3)   -169.94 -0.000825   -0.08   -170.01   
    66. D(F   6,C  16,C  14,F   2)    -53.40 -0.001374   -0.02    -53.41   
    67. D(F   7,C  16,C  14,C  13)   -176.43  0.001846   -1.04   -177.46   
    68. D(F   7,C  16,C  14,F   3)    -56.48  0.000566   -0.50    -56.98   
    69. D(F   7,C  16,C  14,F   2)     60.06  0.000018   -0.44     59.62   
    70. D(F   9,C  17,C  15,C  13)   -166.19  0.000180    0.03   -166.15   
    71. D(F   9,C  17,C  15,F   5)     68.51  0.000293    0.10     68.61   
    72. D(F   9,C  17,C  15,F   4)    -47.73 -0.001567    0.56    -47.17   
    73. D(F   8,C  17,C  15,C  13)     74.90  0.000854   -0.21     74.68   
    74. D(F   8,C  17,C  15,F   5)    -50.40  0.000967   -0.15    -50.55   
    75. D(F   8,C  17,C  15,F   4)   -166.65 -0.000893    0.31   -166.34   
    76. D(O  12,C  18,C  16,F   7)   -133.01  0.001305   -5.30   -138.31   
    77. D(O  12,C  18,C  16,F   6)    -14.97  0.001425   -5.40    -20.37   
    78. D(O  11,C  18,C  16,C  14)    -72.11  0.001361    1.84    -70.27   
    79. D(O  11,C  18,C  16,F   7)     46.69 -0.001636    2.64     49.32   
    80. D(O  11,C  18,C  16,F   6)    164.73 -0.001517    2.54    167.26   
    ----------------------------------------------------------------------------

Geometry step timings:
Preparation and reading OPT file:      0.000 s ( 1.513 %)
Internal coordinates            :      0.000 s ( 1.051 %)
B/P matrices and projection     :      0.001 s (23.455 %)
Hessian update/contruction      :      0.001 s (32.409 %)
Making the step                 :      0.000 s (20.303 %)
Converting the step to Cartesian:      0.000 s ( 3.111 %)
Storing new data                :      0.000 s ( 2.312 %)
Checking convergence            :      0.000 s ( 0.841 %)
Final printing                  :      0.000 s (14.964 %)
Total time                      :      0.002 s

Time for energy+gradient        :      0.126 s
Time for complete geometry iter :      0.130 s

         *************************************************************
         *                GEOMETRY OPTIMIZATION CYCLE   2            *
         *************************************************************
---------------------------------
CARTESIAN COORDINATES (ANGSTROEM)
---------------------------------
  F     0.891433   -0.219020   -2.121599
  F    -0.462519   -1.582039   -1.115249
  F     0.041914    1.856182   -0.602254
  F    -1.439319    0.857059   -1.828491
  F     2.101719   -1.775856   -0.418592
  F     0.798782   -1.240380    1.230629
  F    -0.880444    0.717897    1.626639
  F    -2.425700    1.734155    0.488967
  F     1.751192    1.272409    1.264798
  F     3.367935   -0.133886    1.148363
  F     2.805213    0.992504   -0.591849
  O    -3.435426   -0.696699   -0.332475
  O    -2.168982   -1.578856    1.284907
  C     0.261685   -0.458270   -0.954174
  C    -0.703799    0.730873   -0.707540
  C     1.359440   -0.779775    0.104034
  C    -1.647318    0.618189    0.511669
  C     2.336685    0.375264    0.485190
  C    -2.552791   -0.689849    0.527027

----------------------------
CARTESIAN COORDINATES (A.U.)
----------------------------
  NO LB    ZA    FRAG    MASS        X           Y           Z
   0 F   9.0000    1    18.998    1.684564   -0.413888   -4.009240
   1 F   9.0000    1    18.998   -0.874034   -2.989620   -2.107515
   2 F   9.0000    1    18.998    0.079207    3.507676   -1.138096
   3 F   9.0000    1    18.998   -2.719918    1.619606   -3.455347
   4 F   9.0000    1    18.998    3.971672   -3.355882   -0.791023
   5 F   9.0000    1    18.998    1.509478   -2.343979    2.325551
   6 F   9.0000    1    18.998   -1.663797    1.356628    3.073903
   7 F   9.0000    1    18.998   -4.583908    3.277077    0.924014
   8 F   9.0000    1    18.998    3.309273    2.404504    2.390121
   9 F   9.0000    1    18.998    6.364475   -0.253008    2.170092
  10 F   9.0000    1    18.998    5.301085    1.875560   -1.118433
  11 O   8.0000    1    15.999   -6.492015   -1.316570   -0.628287
  12 O   8.0000    1    15.999   -4.098782   -2.983606    2.428122
  13 C   6.0000    1    12.011    0.494513   -0.866005   -1.803128
  14 C   6.0000    1    12.011   -1.329987    1.381149   -1.337056
  15 C   6.0000    1    12.011    2.568970   -1.473561    0.196596
  16 C   6.0000    1    12.011   -3.112981    1.168208    0.966914
  17 C   6.0000    1    12.011    4.415695    0.709146    0.916876
  18 C   6.0000    1    12.011   -4.824076   -1.303625    0.995937

      -----------------------------------------------------------      
     |                   =====================                   |     
     |                           x T B                           |     
     |                   =====================                   |     
     |                         S. Grimme                         |     
     |          Mulliken Center for Theoretical Chemistry        |     
     |                    University of Bonn                     |     
      -----------------------------------------------------------      

   * xtb version 6.7.1 (edcfbbe) compiled by 'albert@albert-system' on 2024-07-22

   xtb is free software: you can redistribute it and/or modify it under
   the terms of the GNU Lesser General Public License as published by
   the Free Software Foundation, either version 3 of the License, or
   (at your option) any later version.
   
   xtb is distributed in the hope that it will be useful,
   but WITHOUT ANY WARRANTY; without even the implied warranty of
   MERCHANTABILITY or FITNESS FOR A PARTICULAR PURPOSE.  See the
   GNU Lesser General Public License for more details.
   
   Cite this work as:
   * C. Bannwarth, E. Caldeweyher, S. Ehlert, A. Hansen, P. Pracht,
     J. Seibert, S. Spicher, S. Grimme, WIREs Comput. Mol. Sci., 2020, 11,
     e01493. DOI: 10.1002/wcms.1493
   
   for GFN2-xTB:
   * C. Bannwarth, S. Ehlert and S. Grimme., J. Chem. Theory Comput., 2019,
     15, 1652-1671. DOI: 10.1021/acs.jctc.8b01176
   for GFN1-xTB:
   * S. Grimme, C. Bannwarth, P. Shushkov, J. Chem. Theory Comput., 2017,
     13, 1989-2009. DOI: 10.1021/acs.jctc.7b00118
   for GFN0-xTB:
   * P. Pracht, E. Caldeweyher, S. Ehlert, S. Grimme, ChemRxiv, 2019, preprint.
     DOI: 10.26434/chemrxiv.8326202.v1
   for GFN-FF:
   * S. Spicher and S. Grimme, Angew. Chem. Int. Ed., 2020, 59, 15665-15673.
     DOI: 10.1002/anie.202004239
   
   for ALPB and GBSA implicit solvation:
   * S. Ehlert, M. Stahn, S. Spicher, S. Grimme, J. Chem. Theory Comput.,
     2021, 17, 4250-4261. DOI: 10.1021/acs.jctc.1c00471
   
   for ddCOSMO and CPCM-X implicit solvation:
   * M. Stahn, S. Ehlert, S. Grimme, J. Phys. Chem. A,
     2023, XX, XXXX-XXXX. DOI: 10.1021/acs.jpca.3c04382
   
   for DFT-D4:
   * E. Caldeweyher, C. Bannwarth and S. Grimme, J. Chem. Phys., 2017,
     147, 034112. DOI: 10.1063/1.4993215
   * E. Caldeweyher, S. Ehlert, A. Hansen, H. Neugebauer, S. Spicher,
     C. Bannwarth and S. Grimme, J. Chem. Phys., 2019, 150, 154122.
     DOI: 10.1063/1.5090222
   * E. Caldeweyher, J.-M. Mewes, S. Ehlert and S. Grimme, Phys. Chem. Chem. Phys.
     2020, 22, 8499-8512. DOI: 10.1039/D0CP00502A
   
   for sTDA-xTB:
   * S. Grimme and C. Bannwarth, J. Chem. Phys., 2016, 145, 054103.
     DOI: 10.1063/1.4959605
   
   in the mass-spec context:
   * V. Asgeirsson, C. Bauer and S. Grimme, Chem. Sci., 2017, 8, 4879.
     DOI: 10.1039/c7sc00601b
   * J. Koopman and S. Grimme, ACS Omega 2019, 4, 12, 15120-15133.
     DOI: 10.1021/acsomega.9b02011
   
   for metadynamics refer to:
   * S. Grimme, J. Chem. Theory Comput., 2019, 155, 2847-2862
     DOI: 10.1021/acs.jctc.9b00143
   
   for SPH calculations refer to:
   * S. Spicher and S. Grimme, J. Chem. Theory Comput., 2021, 17, 1701-1714
     DOI: 10.1021/acs.jctc.0c01306
   
   for ONIOM refer to:
   * C. Plett, A. Katbashev, S. Ehlert, S. Grimme, M. Bursch,
     Phys. Chem. Chem. Phys., 2023, 25, 17860-17868. DOI: 10.1039/D3CP02178E
   
   for DIPRO refer to:
   * J. Kohn, N. Gildemeister, S. Grimme, D. Fazzi, A. Hansen,
     J. Chem. Phys., 2023, just accepted.
   
   for PTB refer to:
   * S. Grimme, M. Mueller, A. Hansen, J. Chem. Phys., 2023, 158, 124111.
     DOI: 10.1063/5.0137838
   
   with help from (in alphabetical order)
   P. Atkinson, C. Bannwarth, F. Bohle, G. Brandenburg, E. Caldeweyher
   M. Checinski, S. Dohm, S. Ehlert, S. Ehrlich, I. Gerasimov, C. Hölzer
   A. Katbashev, J. Kohn, J. Koopman, C. Lavigne, S. Lehtola, F. März, M. Müller,
   F. Musil, H. Neugebauer, J. Pisarek, C. Plett, P. Pracht, F. Pultar,
   J. Seibert, P. Shushkov, S. Spicher, M. Stahn, M. Steiner, T. Strunk,
   J. Stückrath, T. Rose, and J. Unsleber
   
 * started run on 2026/03/08 at 17:05:41.856     
   ID    Z sym.   atoms
    1    9 F      1-11
    2    8 O      12, 13
    3    6 C      14-19

           -------------------------------------------------
          |                Calculation Setup                |
           -------------------------------------------------

          program call               : /users/rzwa/work/orca/orca-6.1.0/otool_xtb PFHxA_GOAT_XTB.xyz --grad -c -1 -u 0 -P 32 --namespace PFHxA_GOAT --input PFHxA_GOAT_XTB.input.tmp --alpb WATER --acc 0.200000
          hostname                   : node2414
          calculation namespace      : PFHxA_GOAT
          coordinate file            : PFHxA_GOAT_XTB.xyz
          omp threads                :                    32


           -------------------------------------------------
          |                 G F N 2 - x T B                 |
           -------------------------------------------------

        Reference                      10.1021/acs.jctc.8b01176
      * Hamiltonian:
        H0-scaling (s, p, d)           1.850000    2.230000    2.230000
        zeta-weighting                 0.500000
      * Dispersion:
        s8                             2.700000
        a1                             0.520000
        a2                             5.000000
        s9                             5.000000
      * Repulsion:
        kExp                           1.500000    1.000000
        rExp                           1.000000
      * Coulomb:
        alpha                          2.000000
        third order                    shell-resolved
        anisotropic                    true
        a3                             3.000000
        a5                             4.000000
        cn-shift                       1.200000
        cn-exp                         4.000000
        max-rad                        5.000000

      * Solvation model:               ALPB
        Solvent                        WATER
        Parameter file                 internal GFN2-xTB/ALPB
        Dielectric constant                8.0200E+01
        Reference state                gsolv [1 M gas/solution]
        Free energy shift                  1.0808E-03 Eh       6.7819E-01 kcal/mol
        Temperature                        2.9815E+02 K
        Density                            1.0000E+00 kg/L
        Solvent mass                       1.8000E+01 g/mol
        Interaction kernel             P16
        Born radius scaling (c1)           1.4744E+00
        Born radii integrator          GBOBC
        Born offset                        0.0000E+00 a0       0.0000E+00 AA
        H-bond correction              true
        Ion screening                  false
        Surface tension                    1.0000E-05 Eh       1.5569E+01 dyn/cm
        Grid points                               230 per atom
q/qsh data taken from xtbrestart
CAMM data taken from xtbrestart

          ...................................................
          :                      SETUP                      :
          :.................................................:
          :  # basis functions                  76          :
          :  # atomic orbitals                  76          :
          :  # shells                           38          :
          :  # electrons                       114          :
          :  max. iterations                   250          :
          :  Hamiltonian                  GFN2-xTB          :
          :  restarted?                       true          :
          :  GBSA solvation                   true          :
          :  PC potential                    false          :
          :  electronic temp.          300.0000000     K    :
          :  accuracy                    0.2000000          :
          :  -> integral cutoff          0.3198970E+02      :
          :  -> integral neglect         0.2000000E-08      :
          :  -> SCF convergence          0.2000000E-06 Eh   :
          :  -> wf. convergence          0.2000000E-04 e    :
          :  Broyden damping             0.4000000          :
          :  net charge                         -1          :
          :  unpaired electrons                  0          :
          ...................................................

 iter      E             dE          RMSdq      gap      omega  full diag
   1    -73.5883813 -0.735884E+02  0.295E-01    5.21       0.0  T
   2    -73.5884883 -0.107067E-03  0.178E-01    5.16       1.0  T
   3    -73.5884839  0.447599E-05  0.589E-02    5.18       1.0  T
   4    -73.5885055 -0.216490E-04  0.901E-03    5.17       2.5  T
   5    -73.5885056 -0.949162E-07  0.349E-03    5.17       6.6  T
   6    -73.5885056 -0.285780E-07  0.117E-03    5.17      19.6  T
   7    -73.5885056 -0.127812E-08  0.361E-04    5.17      63.5  T
   8    -73.5885056 -0.245478E-09  0.632E-05    5.17     362.8  T
   9    -73.5885056 -0.190568E-10  0.272E-05    5.17     842.1  T

   *** convergence criteria satisfied after 9 iterations ***

         #    Occupation            Energy/Eh            Energy/eV
      -------------------------------------------------------------
         1        2.0000           -0.9460467             -25.7432
       ...           ...                  ...                  ...
        51        2.0000           -0.5471764             -14.8894
        52        2.0000           -0.5382863             -14.6475
        53        2.0000           -0.5324407             -14.4884
        54        2.0000           -0.5153586             -14.0236
        55        2.0000           -0.4476303             -12.1806
        56        2.0000           -0.4337991             -11.8043
        57        2.0000           -0.4200332             -11.4297 (HOMO)
        58                         -0.2300746              -6.2606 (LUMO)
        59                         -0.1255322              -3.4159
        60                         -0.1095714              -2.9816
        61                         -0.0940114              -2.5582
        62                         -0.0855886              -2.3290
       ...                                ...                  ...
        76                          0.6576470              17.8955
      -------------------------------------------------------------
                  HL-Gap            0.1899586 Eh            5.1690 eV
             Fermi-level           -0.3250539 Eh           -8.8452 eV

 SCC (total)                   0 d,  0 h,  0 min,  0.069 sec
 SCC setup                      ...        0 min,  0.001 sec (  1.000%)
 Dispersion                     ...        0 min,  0.000 sec (  0.708%)
 classical contributions        ...        0 min,  0.000 sec (  0.302%)
 integral evaluation            ...        0 min,  0.002 sec (  2.512%)
 iterations                     ...        0 min,  0.061 sec ( 88.575%)
 molecular gradient             ...        0 min,  0.004 sec (  6.239%)
 printout                       ...        0 min,  0.000 sec (  0.591%)

         :::::::::::::::::::::::::::::::::::::::::::::::::::::
         ::                     SUMMARY                     ::
         :::::::::::::::::::::::::::::::::::::::::::::::::::::
         :: total energy             -73.357655478793 Eh    ::
         :: total w/o Gsasa/hb       -73.368141972888 Eh    ::
         :: gradient norm              0.036035816873 Eh/a0 ::
         :: HOMO-LUMO gap              5.169037860534 eV    ::
         ::.................................................::
         :: SCC energy               -73.588366966757 Eh    ::
         :: -> isotropic ES            0.319104683900 Eh    ::
         :: -> anisotropic ES          0.003610591993 Eh    ::
         :: -> anisotropic XC         -0.077570027983 Eh    ::
         :: -> dispersion             -0.019771695594 Eh    ::
         :: -> Gsolv                  -0.083117382074 Eh    ::
         ::    -> Gelec               -0.093603876169 Eh    ::
         ::    -> Gsasa                0.013599945776 Eh    ::
         ::    -> Ghb                 -0.004194211379 Eh    ::
         ::    -> Gshift               0.001080759698 Eh    ::
         :: repulsion energy           0.230711487964 Eh    ::
         :: add. restraining           0.000000000000 Eh    ::
         :: total charge              -1.000000000000 e     ::
         :::::::::::::::::::::::::::::::::::::::::::::::::::::


Property printout bound to 'properties.out'

           -------------------------------------------------
          | TOTAL ENERGY              -73.357655478793 Eh   |
          | GRADIENT NORM               0.036035816873 Eh/α |
          | HOMO-LUMO GAP               5.169037860534 eV   |
           -------------------------------------------------

------------------------------------------------------------------------
 * finished run on 2026/03/08 at 17:05:41.957     
------------------------------------------------------------------------
 total:
 * wall-time:     0 d,  0 h,  0 min,  0.100 sec
 *  cpu-time:     0 d,  0 h,  0 min,  2.221 sec
 * ratio c/w:    22.181 speedup
 SCF:
 * wall-time:     0 d,  0 h,  0 min,  0.069 sec
 *  cpu-time:     0 d,  0 h,  0 min,  1.688 sec
 * ratio c/w:    24.538 speedup


-------------------------   --------------------
FINAL SINGLE POINT ENERGY       -73.357655478790
-------------------------   --------------------


-------------
DIPOLE MOMENT
-------------
                                X             Y             Z
Total Dipole Moment    :      4.42600       1.30700      -0.61900
                        -----------------------------------------
Magnitude (a.u.)       :      4.65627
Magnitude (Debye)      :     11.83531


------------------
CARTESIAN GRADIENT
------------------

   1   F   :   -0.000743370    0.001984528    0.002865556
   2   F   :   -0.001407399    0.000450601    0.003582308
   3   F   :   -0.001147256   -0.003284495    0.003085915
   4   F   :   -0.000845497   -0.002756327    0.000844244
   5   F   :   -0.001266515    0.001900572   -0.001635837
   6   F   :   -0.002044498    0.002252468   -0.000533308
   7   F   :   -0.000562008   -0.002118029   -0.003848664
   8   F   :    0.000029523   -0.002875099   -0.002056510
   9   F   :   -0.001966430   -0.000823446   -0.000479369
  10   F   :   -0.000949436   -0.001233706    0.000122858
  11   F   :   -0.001052906   -0.000887288   -0.000023616
  12   O   :   -0.002760459   -0.005834665   -0.007630477
  13   O   :    0.001640523   -0.009180609   -0.001329466
  14   C   :    0.002522630   -0.001469767   -0.006014344
  15   C   :    0.003540345    0.005965395   -0.004450454
  16   C   :    0.003869413   -0.003865929    0.000599441
  17   C   :   -0.003760580   -0.005280192    0.002323051
  18   C   :    0.003969319    0.002814082    0.001109343
  19   C   :    0.002934601    0.024241907    0.013469330

Difference to translation invariance:
           :   -0.0000000000    0.0000000000    0.0000000000

Difference to rotation invariance:
           :   -0.0001972300   -0.0001439896    0.0000168516

Norm of the Cartesian gradient     ...    0.0360358169
RMS gradient                       ...    0.0047730605
MAX gradient                       ...    0.0242419067
------------------------------------------------------------------------------
                         ORCA GEOMETRY RELAXATION STEP
------------------------------------------------------------------------------

Reading the OPT-File                    .... done
Getting information on internals        .... done
Copying old internal coords+grads       .... done
Making the new internal coordinates     .... (2022 redundants) done
Validating the new internal coordinates .... (2022 redundants) done
Calculating the B-matrix                .... done
Calculating the G,G- and P matrices     .... done
Transforming gradient to internals      .... done
Projecting the internal gradient        .... done
Number of atoms                         ....  19
Number of internal coordinates          ....  80
Current Energy                          ....   -73.357655479 Eh
Current gradient norm                   ....     0.036035817 Eh/bohr
Maximum allowed component of the step   ....  0.300
Current trust radius                    ....  0.300
Updating the Hessian (BFGS)             .... done
Forming the augmented Hessian           .... done
Diagonalizing the augmented Hessian     .... done
Last element of RFO vector              ....  0.889663546
Lowest eigenvalues of augmented Hessian:
 -0.009413921  0.009959338  0.010000000  0.010000000  0.010000000
Length of the computed step             ....  0.513246455
Warning: the length of the step is outside the trust region - taking restricted step instead
The input lambda is                     ....     0.008768
   iter:   5  x=   -0.008917  g=   52.882680 f(x)=     0.440813
   iter:  10  x=   -0.032286  g=    3.157231 f(x)=     0.000026
The output lambda is                    ....    -0.032286 (12 iterations)
The final length of the internal step   ....  0.300000000
Converting the step to Cartesian space:
 Initial RMS(Int)=    0.0335410197
Transforming coordinates:
 Iter   0:  RMS(Cart)=    0.0873255103 RMS(Int)=    0.0331783632
 Iter   5:  RMS(Cart)=    0.0000004689 RMS(Int)=    0.0000004068
done
Storing new coordinates                 .... done
The predicted energy change is          ....    -0.004411038
Previously predicted energy change      ....    -0.002386364
Actually observed energy change         ....    -0.002532710
Ratio of predicted to observed change   ....     1.061325799
New trust radius                        ....     0.450000000

                                .--------------------.
          ----------------------|Geometry convergence|-------------------------
          Item                value                   Tolerance       Converged
          ---------------------------------------------------------------------
          Energy change      -0.0025327099            0.0000050000      NO
          RMS gradient        0.0026948735            0.0001000000      NO
          MAX gradient        0.0085734430            0.0003000000      NO
          RMS step            0.0335410197            0.0020000000      NO
          MAX step            0.1241350251            0.0040000000      NO
          -------------------------------------------------------------------------
          ........................................................
          Max(Bonds)      0.0396      Max(Angles)    2.70
          Max(Dihed)        7.11      Max(Improp)    0.00
          ---------------------------------------------------------------------

    ---------------------------------------------------------------------------
                         Redundant Internal Coordinates
                            (Angstroem and degrees)

        Definition                    Value    dE/dq     Step     New-Value
    ----------------------------------------------------------------------------
     1. B(C  13,F   1)                1.3466 -0.000049  0.0024    1.3490   
     2. B(C  13,F   0)                1.3479 -0.002476  0.0070    1.3548   
     3. B(C  14,F   2)                1.3541 -0.003120  0.0101    1.3642   
     4. B(C  14,C  13)                1.5515 -0.000214 -0.0103    1.5412   
     5. B(C  14,F   3)                1.3466 -0.000501  0.0029    1.3495   
     6. B(C  15,F   5)                1.3400 -0.000370  0.0037    1.3437   
     7. B(C  15,F   4)                1.3477 -0.001466  0.0057    1.3534   
     8. B(C  15,C  13)                1.5583 -0.000216 -0.0090    1.5493   
     9. B(C  16,C  14)                1.5458  0.002328 -0.0141    1.5317   
    10. B(C  16,F   7)                1.3608 -0.002342  0.0071    1.3679   
    11. B(C  16,F   6)                1.3569 -0.003633  0.0120    1.3689   
    12. B(C  17,F  10)                1.3268 -0.000765  0.0001    1.3269   
    13. B(C  17,F   9)                1.3276 -0.000203 -0.0013    1.3263   
    14. B(C  17,C  15)                1.5603  0.000078  0.0003    1.5606   
    15. B(C  17,F   8)                1.3249  0.000028 -0.0005    1.3245   
    16. B(C  18,C  16)                1.5909 -0.008573  0.0396    1.6306   
    17. B(C  18,O  12)                1.2296  0.006331 -0.0151    1.2145   
    18. B(C  18,O  11)                1.2320  0.007333 -0.0166    1.2155   
    19. A(F   1,C  13,C  15)          106.73 -0.001426    1.20    107.94   
    20. A(F   1,C  13,C  14)          108.90 -0.001637    1.75    110.66   
    21. A(F   0,C  13,C  15)          107.20  0.000252    0.32    107.52   
    22. A(C  14,C  13,C  15)          119.25  0.001833   -2.54    116.71   
    23. A(F   0,C  13,F   1)          107.21  0.002866   -1.97    105.24   
    24. A(F   0,C  13,C  14)          107.00 -0.001568    1.07    108.08   
    25. A(F   3,C  14,C  13)          106.22 -0.001699    1.11    107.33   
    26. A(F   2,C  14,C  16)          109.60 -0.002989    1.55    111.14   
    27. A(F   2,C  14,C  13)          107.86 -0.000545    0.32    108.18   
    28. A(F   3,C  14,C  16)          109.27 -0.000474    1.44    110.71   
    29. A(F   2,C  14,F   3)          106.72  0.002672   -1.78    104.94   
    30. A(C  13,C  14,C  16)          116.70  0.003162   -2.70    114.00   
    31. A(F   4,C  15,F   5)          107.60  0.002285   -1.44    106.16   
    32. A(F   5,C  15,C  13)          110.31 -0.002949    1.48    111.79   
    33. A(C  13,C  15,C  17)          117.03  0.002676   -2.01    115.02   
    34. A(F   4,C  15,C  17)          107.27  0.001266    0.06    107.33   
    35. A(F   4,C  15,C  13)          106.09 -0.001736    1.20    107.29   
    36. A(F   5,C  15,C  17)          108.13 -0.001306    0.61    108.74   
    37. A(F   7,C  16,C  18)          110.42 -0.002187    1.43    111.84   
    38. A(F   6,C  16,C  18)          111.97 -0.001960    0.73    112.70   
    39. A(F   6,C  16,F   7)          106.06  0.002690   -1.39    104.67   
    40. A(C  14,C  16,C  18)          114.52  0.006326   -2.53    111.99   
    41. A(F   7,C  16,C  14)          106.03 -0.000860    0.89    106.92   
    42. A(F   6,C  16,C  14)          107.32 -0.004183    0.91    108.23   
    43. A(F  10,C  17,C  15)          111.55 -0.000896    0.67    112.22   
    44. A(F   9,C  17,C  15)          108.94 -0.001441    0.99    109.93   
    45. A(F   8,C  17,C  15)          111.61 -0.003338    1.20    112.81   
    46. A(F   9,C  17,F  10)          108.04  0.002161   -1.15    106.89   
    47. A(F   8,C  17,F  10)          108.58  0.001522   -0.99    107.59   
    48. A(F   8,C  17,F   9)          108.00  0.002278   -0.82    107.18   
    49. A(O  11,C  18,O  12)          130.51 -0.006676    1.45    131.96   
    50. A(O  12,C  18,C  16)          115.01  0.003479   -1.59    113.42   
    51. A(O  11,C  18,C  16)          113.93  0.001864   -0.84    113.08   
    52. D(F   2,C  14,C  13,F   1)   -177.59 -0.002212    1.54   -176.05   
    53. D(F   3,C  14,C  13,F   0)     52.10  0.001490   -0.69     51.41   
    54. D(F   2,C  14,C  13,F   0)    -62.01 -0.000505    0.67    -61.35   
    55. D(F   3,C  14,C  13,C  15)    173.80  0.001794   -1.13    172.67   
    56. D(F   2,C  14,C  13,C  15)     59.69 -0.000200    0.23     59.92   
    57. D(F   3,C  14,C  13,F   1)    -63.48 -0.000218    0.18    -63.30   
    58. D(F   4,C  15,C  13,F   0)    -53.66 -0.000841    0.13    -53.53   
    59. D(F   5,C  15,C  13,F   0)   -169.91 -0.001086    0.44   -169.47   
    60. D(F   5,C  15,C  13,C  14)     68.48 -0.000485    0.52     69.01   
    61. D(F   5,C  15,C  13,F   1)    -55.30  0.001643   -1.09    -56.39   
    62. D(F   4,C  15,C  13,C  14)   -175.26 -0.000240    0.21   -175.05   
    63. D(F   4,C  15,C  13,F   1)     60.95  0.001888   -1.40     59.55   
    64. D(F   6,C  16,C  14,C  13)     69.51 -0.000546   -0.09     69.42   
    65. D(F   6,C  16,C  14,F   3)   -170.02 -0.000946    0.65   -169.37   
    66. D(F   6,C  16,C  14,F   2)    -53.41  0.000298    0.19    -53.22   
    67. D(F   7,C  16,C  14,C  13)   -177.46  0.000257   -0.87   -178.33   
    68. D(F   7,C  16,C  14,F   3)    -56.99 -0.000143   -0.12    -57.11   
    69. D(F   7,C  16,C  14,F   2)     59.62  0.001101   -0.59     59.03   
    70. D(F   9,C  17,C  15,C  13)   -166.15 -0.001521    0.87   -165.27   
    71. D(F   9,C  17,C  15,F   5)     68.61  0.001560   -0.15     68.46   
    72. D(F   9,C  17,C  15,F   4)    -47.17 -0.001099    1.20    -45.98   
    73. D(F   8,C  17,C  15,C  13)     74.69 -0.001362    0.54     75.23   
    74. D(F   8,C  17,C  15,F   5)    -50.55  0.001718   -0.48    -51.04   
    75. D(F   8,C  17,C  15,F   4)   -166.34 -0.000940    0.86   -165.48   
    76. D(O  12,C  18,C  16,F   7)   -138.31 -0.005624    7.11   -131.20   
    77. D(O  12,C  18,C  16,F   6)    -20.37 -0.004933    6.75    -13.62   
    78. D(O  11,C  18,C  16,C  14)    -70.26  0.002435   -5.57    -75.83   
    79. D(O  11,C  18,C  16,F   7)     49.32  0.004057   -5.06     44.26   
    80. D(O  11,C  18,C  16,F   6)    167.26  0.004747   -5.42    161.84   
    ----------------------------------------------------------------------------

Geometry step timings:
Preparation and reading OPT file:      0.000 s ( 1.105 %)
Internal coordinates            :      0.000 s ( 0.811 %)
B/P matrices and projection     :      0.001 s (20.302 %)
Hessian update/contruction      :      0.001 s (27.045 %)
Making the step                 :      0.001 s (30.730 %)
Converting the step to Cartesian:      0.000 s ( 2.211 %)
Storing new data                :      0.000 s ( 1.916 %)
Checking convergence            :      0.000 s ( 0.884 %)
Final printing                  :      0.000 s (14.996 %)
Total time                      :      0.003 s

Time for energy+gradient        :      0.132 s
Time for complete geometry iter :      0.136 s

         *************************************************************
         *                GEOMETRY OPTIMIZATION CYCLE   3            *
         *************************************************************
---------------------------------
CARTESIAN COORDINATES (ANGSTROEM)
---------------------------------
  F     0.895465   -0.273160   -2.123643
  F    -0.493054   -1.589374   -1.146458
  F     0.113614    1.852397   -0.604535
  F    -1.404635    0.933223   -1.821067
  F     2.062612   -1.804184   -0.331067
  F     0.743224   -1.216784    1.269657
  F    -0.798282    0.645391    1.643029
  F    -2.347664    1.728375    0.584979
  F     1.694590    1.337771    1.199729
  F     3.313705   -0.049666    1.144708
  F     2.743841    0.982631   -0.630553
  O    -3.428639   -0.664165   -0.323948
  O    -2.161048   -1.613531    1.236657
  C     0.240748   -0.473814   -0.954595
  C    -0.672618    0.741955   -0.703593
  C     1.304490   -0.781765    0.128890
  C    -1.581098    0.597198    0.521028
  C     2.268678    0.399155    0.462377
  C    -2.494227   -0.751751    0.448404

----------------------------
CARTESIAN COORDINATES (A.U.)
----------------------------
  NO LB    ZA    FRAG    MASS        X           Y           Z
   0 F   9.0000    1    18.998    1.692183   -0.516198   -4.013103
   1 F   9.0000    1    18.998   -0.931737   -3.003481   -2.166492
   2 F   9.0000    1    18.998    0.214699    3.500522   -1.142407
   3 F   9.0000    1    18.998   -2.654375    1.763535   -3.441317
   4 F   9.0000    1    18.998    3.897771   -3.409413   -0.625626
   5 F   9.0000    1    18.998    1.404489   -2.299389    2.399305
   6 F   9.0000    1    18.998   -1.508534    1.219613    3.104874
   7 F   9.0000    1    18.998   -4.436443    3.266155    1.105451
   8 F   9.0000    1    18.998    3.202310    2.528020    2.267160
   9 F   9.0000    1    18.998    6.261994   -0.093854    2.163184
  10 F   9.0000    1    18.998    5.185108    1.856903   -1.191572
  11 O   8.0000    1    15.999   -6.479188   -1.255090   -0.612174
  12 O   8.0000    1    15.999   -4.083790   -3.049132    2.336943
  13 C   6.0000    1    12.011    0.454947   -0.895379   -1.803923
  14 C   6.0000    1    12.011   -1.271063    1.402091   -1.329598
  15 C   6.0000    1    12.011    2.465130   -1.477323    0.243566
  16 C   6.0000    1    12.011   -2.987843    1.128540    0.984600
  17 C   6.0000    1    12.011    4.287180    0.754294    0.873766
  18 C   6.0000    1    12.011   -4.713406   -1.420604    0.847362

      -----------------------------------------------------------      
     |                   =====================                   |     
     |                           x T B                           |     
     |                   =====================                   |     
     |                         S. Grimme                         |     
     |          Mulliken Center for Theoretical Chemistry        |     
     |                    University of Bonn                     |     
      -----------------------------------------------------------      

   * xtb version 6.7.1 (edcfbbe) compiled by 'albert@albert-system' on 2024-07-22

   xtb is free software: you can redistribute it and/or modify it under
   the terms of the GNU Lesser General Public License as published by
   the Free Software Foundation, either version 3 of the License, or
   (at your option) any later version.
   
   xtb is distributed in the hope that it will be useful,
   but WITHOUT ANY WARRANTY; without even the implied warranty of
   MERCHANTABILITY or FITNESS FOR A PARTICULAR PURPOSE.  See the
   GNU Lesser General Public License for more details.
   
   Cite this work as:
   * C. Bannwarth, E. Caldeweyher, S. Ehlert, A. Hansen, P. Pracht,
     J. Seibert, S. Spicher, S. Grimme, WIREs Comput. Mol. Sci., 2020, 11,
     e01493. DOI: 10.1002/wcms.1493
   
   for GFN2-xTB:
   * C. Bannwarth, S. Ehlert and S. Grimme., J. Chem. Theory Comput., 2019,
     15, 1652-1671. DOI: 10.1021/acs.jctc.8b01176
   for GFN1-xTB:
   * S. Grimme, C. Bannwarth, P. Shushkov, J. Chem. Theory Comput., 2017,
     13, 1989-2009. DOI: 10.1021/acs.jctc.7b00118
   for GFN0-xTB:
   * P. Pracht, E. Caldeweyher, S. Ehlert, S. Grimme, ChemRxiv, 2019, preprint.
     DOI: 10.26434/chemrxiv.8326202.v1
   for GFN-FF:
   * S. Spicher and S. Grimme, Angew. Chem. Int. Ed., 2020, 59, 15665-15673.
     DOI: 10.1002/anie.202004239
   
   for ALPB and GBSA implicit solvation:
   * S. Ehlert, M. Stahn, S. Spicher, S. Grimme, J. Chem. Theory Comput.,
     2021, 17, 4250-4261. DOI: 10.1021/acs.jctc.1c00471
   
   for ddCOSMO and CPCM-X implicit solvation:
   * M. Stahn, S. Ehlert, S. Grimme, J. Phys. Chem. A,
     2023, XX, XXXX-XXXX. DOI: 10.1021/acs.jpca.3c04382
   
   for DFT-D4:
   * E. Caldeweyher, C. Bannwarth and S. Grimme, J. Chem. Phys., 2017,
     147, 034112. DOI: 10.1063/1.4993215
   * E. Caldeweyher, S. Ehlert, A. Hansen, H. Neugebauer, S. Spicher,
     C. Bannwarth and S. Grimme, J. Chem. Phys., 2019, 150, 154122.
     DOI: 10.1063/1.5090222
   * E. Caldeweyher, J.-M. Mewes, S. Ehlert and S. Grimme, Phys. Chem. Chem. Phys.
     2020, 22, 8499-8512. DOI: 10.1039/D0CP00502A
   
   for sTDA-xTB:
   * S. Grimme and C. Bannwarth, J. Chem. Phys., 2016, 145, 054103.
     DOI: 10.1063/1.4959605
   
   in the mass-spec context:
   * V. Asgeirsson, C. Bauer and S. Grimme, Chem. Sci., 2017, 8, 4879.
     DOI: 10.1039/c7sc00601b
   * J. Koopman and S. Grimme, ACS Omega 2019, 4, 12, 15120-15133.
     DOI: 10.1021/acsomega.9b02011
   
   for metadynamics refer to:
   * S. Grimme, J. Chem. Theory Comput., 2019, 155, 2847-2862
     DOI: 10.1021/acs.jctc.9b00143
   
   for SPH calculations refer to:
   * S. Spicher and S. Grimme, J. Chem. Theory Comput., 2021, 17, 1701-1714
     DOI: 10.1021/acs.jctc.0c01306
   
   for ONIOM refer to:
   * C. Plett, A. Katbashev, S. Ehlert, S. Grimme, M. Bursch,
     Phys. Chem. Chem. Phys., 2023, 25, 17860-17868. DOI: 10.1039/D3CP02178E
   
   for DIPRO refer to:
   * J. Kohn, N. Gildemeister, S. Grimme, D. Fazzi, A. Hansen,
     J. Chem. Phys., 2023, just accepted.
   
   for PTB refer to:
   * S. Grimme, M. Mueller, A. Hansen, J. Chem. Phys., 2023, 158, 124111.
     DOI: 10.1063/5.0137838
   
   with help from (in alphabetical order)
   P. Atkinson, C. Bannwarth, F. Bohle, G. Brandenburg, E. Caldeweyher
   M. Checinski, S. Dohm, S. Ehlert, S. Ehrlich, I. Gerasimov, C. Hölzer
   A. Katbashev, J. Kohn, J. Koopman, C. Lavigne, S. Lehtola, F. März, M. Müller,
   F. Musil, H. Neugebauer, J. Pisarek, C. Plett, P. Pracht, F. Pultar,
   J. Seibert, P. Shushkov, S. Spicher, M. Stahn, M. Steiner, T. Strunk,
   J. Stückrath, T. Rose, and J. Unsleber
   
 * started run on 2026/03/08 at 17:05:41.999     
   ID    Z sym.   atoms
    1    9 F      1-11
    2    8 O      12, 13
    3    6 C      14-19

           -------------------------------------------------
          |                Calculation Setup                |
           -------------------------------------------------

          program call               : /users/rzwa/work/orca/orca-6.1.0/otool_xtb PFHxA_GOAT_XTB.xyz --grad -c -1 -u 0 -P 32 --namespace PFHxA_GOAT --input PFHxA_GOAT_XTB.input.tmp --alpb WATER --acc 0.200000
          hostname                   : node2414
          calculation namespace      : PFHxA_GOAT
          coordinate file            : PFHxA_GOAT_XTB.xyz
          omp threads                :                    32


           -------------------------------------------------
          |                 G F N 2 - x T B                 |
           -------------------------------------------------

        Reference                      10.1021/acs.jctc.8b01176
      * Hamiltonian:
        H0-scaling (s, p, d)           1.850000    2.230000    2.230000
        zeta-weighting                 0.500000
      * Dispersion:
        s8                             2.700000
        a1                             0.520000
        a2                             5.000000
        s9                             5.000000
      * Repulsion:
        kExp                           1.500000    1.000000
        rExp                           1.000000
      * Coulomb:
        alpha                          2.000000
        third order                    shell-resolved
        anisotropic                    true
        a3                             3.000000
        a5                             4.000000
        cn-shift                       1.200000
        cn-exp                         4.000000
        max-rad                        5.000000

      * Solvation model:               ALPB
        Solvent                        WATER
        Parameter file                 internal GFN2-xTB/ALPB
        Dielectric constant                8.0200E+01
        Reference state                gsolv [1 M gas/solution]
        Free energy shift                  1.0808E-03 Eh       6.7819E-01 kcal/mol
        Temperature                        2.9815E+02 K
        Density                            1.0000E+00 kg/L
        Solvent mass                       1.8000E+01 g/mol
        Interaction kernel             P16
        Born radius scaling (c1)           1.4744E+00
        Born radii integrator          GBOBC
        Born offset                        0.0000E+00 a0       0.0000E+00 AA
        H-bond correction              true
        Ion screening                  false
        Surface tension                    1.0000E-05 Eh       1.5569E+01 dyn/cm
        Grid points                               230 per atom
q/qsh data taken from xtbrestart
CAMM data taken from xtbrestart

          ...................................................
          :                      SETUP                      :
          :.................................................:
          :  # basis functions                  76          :
          :  # atomic orbitals                  76          :
          :  # shells                           38          :
          :  # electrons                       114          :
          :  max. iterations                   250          :
          :  Hamiltonian                  GFN2-xTB          :
          :  restarted?                       true          :
          :  GBSA solvation                   true          :
          :  PC potential                    false          :
          :  electronic temp.          300.0000000     K    :
          :  accuracy                    0.2000000          :
          :  -> integral cutoff          0.3198970E+02      :
          :  -> integral neglect         0.2000000E-08      :
          :  -> SCF convergence          0.2000000E-06 Eh   :
          :  -> wf. convergence          0.2000000E-04 e    :
          :  Broyden damping             0.4000000          :
          :  net charge                         -1          :
          :  unpaired electrons                  0          :
          ...................................................

 iter      E             dE          RMSdq      gap      omega  full diag
   1    -73.5934511 -0.735935E+02  0.342E-01    5.51       0.0  T
   2    -73.5938451 -0.394078E-03  0.203E-01    5.42       1.0  T
   3    -73.5938723 -0.271422E-04  0.964E-02    5.45       1.0  T
   4    -73.5938931 -0.207922E-04  0.132E-02    5.42       1.7  T
   5    -73.5938935 -0.376934E-06  0.577E-03    5.43       4.0  T
   6    -73.5938936 -0.102511E-06  0.134E-03    5.43      17.2  T
   7    -73.5938936 -0.869306E-09  0.474E-04    5.43      48.4  T
   8    -73.5938936 -0.523329E-09  0.995E-05    5.43     230.6  T
   9    -73.5938936 -0.309939E-10  0.365E-05    5.43     627.8  T

   *** convergence criteria satisfied after 9 iterations ***

         #    Occupation            Energy/Eh            Energy/eV
      -------------------------------------------------------------
         1        2.0000           -0.9466986             -25.7610
       ...           ...                  ...                  ...
        51        2.0000           -0.5478438             -14.9076
        52        2.0000           -0.5419049             -14.7460
        53        2.0000           -0.5346993             -14.5499
        54        2.0000           -0.5174723             -14.0811
        55        2.0000           -0.4527426             -12.3198
        56        2.0000           -0.4394387             -11.9577
        57        2.0000           -0.4213751             -11.4662 (HOMO)
        58                         -0.2219100              -6.0385 (LUMO)
        59                         -0.1259131              -3.4263
        60                         -0.1153780              -3.1396
        61                         -0.1037867              -2.8242
        62                         -0.0919318              -2.5016
       ...                                ...                  ...
        76                          0.7238559              19.6971
      -------------------------------------------------------------
                  HL-Gap            0.1994651 Eh            5.4277 eV
             Fermi-level           -0.3216425 Eh           -8.7523 eV

 SCC (total)                   0 d,  0 h,  0 min,  0.037 sec
 SCC setup                      ...        0 min,  0.001 sec (  2.016%)
 Dispersion                     ...        0 min,  0.000 sec (  1.243%)
 classical contributions        ...        0 min,  0.000 sec (  0.722%)
 integral evaluation            ...        0 min,  0.002 sec (  5.766%)
 iterations                     ...        0 min,  0.030 sec ( 80.707%)
 molecular gradient             ...        0 min,  0.003 sec (  8.792%)
 printout                       ...        0 min,  0.000 sec (  0.627%)

         :::::::::::::::::::::::::::::::::::::::::::::::::::::
         ::                     SUMMARY                     ::
         :::::::::::::::::::::::::::::::::::::::::::::::::::::
         :: total energy             -73.358130698854 Eh    ::
         :: total w/o Gsasa/hb       -73.368694252589 Eh    ::
         :: gradient norm              0.026323180253 Eh/a0 ::
         :: HOMO-LUMO gap              5.427720971422 eV    ::
         ::.................................................::
         :: SCC energy               -73.593756715815 Eh    ::
         :: -> isotropic ES            0.313431669767 Eh    ::
         :: -> anisotropic ES          0.002970398792 Eh    ::
         :: -> anisotropic XC         -0.076977692218 Eh    ::
         :: -> dispersion             -0.020027477855 Eh    ::
         :: -> Gsolv                  -0.080920790725 Eh    ::
         ::    -> Gelec               -0.091484344460 Eh    ::
         ::    -> Gsasa                0.013612814784 Eh    ::
         ::    -> Ghb                 -0.004130020747 Eh    ::
         ::    -> Gshift               0.001080759698 Eh    ::
         :: repulsion energy           0.235626016961 Eh    ::
         :: add. restraining           0.000000000000 Eh    ::
         :: total charge              -1.000000000000 e     ::
         :::::::::::::::::::::::::::::::::::::::::::::::::::::


Property printout bound to 'properties.out'

           -------------------------------------------------
          | TOTAL ENERGY              -73.358130698854 Eh   |
          | GRADIENT NORM               0.026323180253 Eh/α |
          | HOMO-LUMO GAP               5.427720971422 eV   |
           -------------------------------------------------

------------------------------------------------------------------------
 * finished run on 2026/03/08 at 17:05:42.065     
------------------------------------------------------------------------
 total:
 * wall-time:     0 d,  0 h,  0 min,  0.065 sec
 *  cpu-time:     0 d,  0 h,  0 min,  1.154 sec
 * ratio c/w:    17.795 speedup
 SCF:
 * wall-time:     0 d,  0 h,  0 min,  0.037 sec
 *  cpu-time:     0 d,  0 h,  0 min,  0.769 sec
 * ratio c/w:    20.684 speedup


-------------------------   --------------------
FINAL SINGLE POINT ENERGY       -73.358130698850
-------------------------   --------------------


-------------
DIPOLE MOMENT
-------------
                                X             Y             Z
Total Dipole Moment    :      4.24800       1.09800      -0.69100
                        -----------------------------------------
Magnitude (a.u.)       :      4.44169
Magnitude (Debye)      :     11.28987


------------------
CARTESIAN GRADIENT
------------------

   1   F   :   -0.000578344   -0.000092607   -0.001049708
   2   F   :   -0.000359258   -0.002183656    0.000053063
   3   F   :    0.000970148    0.000530487    0.002890782
   4   F   :    0.000510983    0.000347259   -0.002031986
   5   F   :    0.000287950   -0.001987750   -0.000519200
   6   F   :   -0.003210715    0.000505214    0.003025486
   7   F   :    0.004440704   -0.000403652    0.002573617
   8   F   :    0.000070821    0.003118187   -0.000443896
   9   F   :   -0.000235918    0.000713325   -0.002729835
  10   F   :   -0.001228987    0.002781174   -0.001345854
  11   F   :    0.000176892    0.000633321    0.003372825
  12   O   :    0.002170231   -0.002950946    0.010261301
  13   O   :   -0.008462507    0.006441483   -0.003626776
  14   C   :   -0.001153867    0.003312034    0.002358929
  15   C   :    0.001287239   -0.001836648    0.000561482
  16   C   :   -0.002219516    0.000962859   -0.003020982
  17   C   :   -0.002872627   -0.007090408    0.000859692
  18   C   :   -0.000927226   -0.001172482   -0.000969828
  19   C   :    0.011333998   -0.001627195   -0.010219110

Difference to translation invariance:
           :    0.0000000000    0.0000000000   -0.0000000000

Difference to rotation invariance:
           :   -0.0000243253    0.0000018611   -0.0000764779

Norm of the Cartesian gradient     ...    0.0263231803
RMS gradient                       ...    0.0034865904
MAX gradient                       ...    0.0113339979
------------------------------------------------------------------------------
                         ORCA GEOMETRY RELAXATION STEP
------------------------------------------------------------------------------

Reading the OPT-File                    .... done
Getting information on internals        .... done
Copying old internal coords+grads       .... done
Making the new internal coordinates     .... (2022 redundants) done
Validating the new internal coordinates .... (2022 redundants) done
Calculating the B-matrix                .... done
Calculating the G,G- and P matrices     .... done
Transforming gradient to internals      .... done
Projecting the internal gradient        .... done
Number of atoms                         ....  19
Number of internal coordinates          ....  80
Current Energy                          ....   -73.358130699 Eh
Current gradient norm                   ....     0.026323180 Eh/bohr
Maximum allowed component of the step   ....  0.300
Current trust radius                    ....  0.450
Updating the Hessian (BFGS)             .... done
Forming the augmented Hessian           .... done
Diagonalizing the augmented Hessian     .... done
Last element of RFO vector              ....  0.984805022
Lowest eigenvalues of augmented Hessian:
 -0.004170754  0.009917418  0.010000000  0.010000000  0.010000008
Length of the computed step             ....  0.176343193
The final length of the internal step   ....  0.176343193
Converting the step to Cartesian space:
 Initial RMS(Int)=    0.0197157684
Transforming coordinates:
 Iter   0:  RMS(Cart)=    0.0836282711 RMS(Int)=    0.0197653832
 Iter   5:  RMS(Cart)=    0.0000000680 RMS(Int)=    0.0000000548
done
Storing new coordinates                 .... done
The predicted energy change is          ....    -0.002150226
Previously predicted energy change      ....    -0.004411038
Actually observed energy change         ....    -0.000475220
Ratio of predicted to observed change   ....     0.107734283
New trust radius                        ....     0.300000000

                                .--------------------.
          ----------------------|Geometry convergence|-------------------------
          Item                value                   Tolerance       Converged
          ---------------------------------------------------------------------
          Energy change      -0.0004752201            0.0000050000      NO
          RMS gradient        0.0043566381            0.0001000000      NO
          MAX gradient        0.0186311129            0.0003000000      NO
          RMS step            0.0197157684            0.0020000000      NO
          MAX step            0.0655991775            0.0040000000      NO
          -------------------------------------------------------------------------
          ........................................................
          Max(Bonds)      0.0090      Max(Angles)    2.19
          Max(Dihed)        3.76      Max(Improp)    0.00
          ---------------------------------------------------------------------

    ---------------------------------------------------------------------------
                         Redundant Internal Coordinates
                            (Angstroem and degrees)

        Definition                    Value    dE/dq     Step     New-Value
    ----------------------------------------------------------------------------
     1. B(C  13,F   1)                1.3490  0.001993 -0.0013    1.3477   
     2. B(C  13,F   0)                1.3548  0.000613 -0.0004    1.3544   
     3. B(C  14,F   2)                1.3642  0.001201 -0.0009    1.3633   
     4. B(C  14,C  13)                1.5412 -0.008208  0.0090    1.5502   
     5. B(C  14,F   3)                1.3495  0.001455 -0.0010    1.3486   
     6. B(C  15,F   5)                1.3437  0.003746 -0.0022    1.3416   
     7. B(C  15,F   4)                1.3534  0.001839 -0.0012    1.3522   
     8. B(C  15,C  13)                1.5493 -0.007066  0.0079    1.5572   
     9. B(C  16,C  14)                1.5317 -0.004200  0.0042    1.5358   
    10. B(C  16,F   7)                1.3679  0.002517 -0.0014    1.3666   
    11. B(C  16,F   6)                1.3689  0.004634 -0.0027    1.3663   
    12. B(C  17,F  10)                1.3269 -0.002436  0.0014    1.3283   
    13. B(C  17,F   9)                1.3263 -0.002602  0.0014    1.3278   
    14. B(C  17,C  15)                1.5606  0.000513 -0.0006    1.5600   
    15. B(C  17,F   8)                1.3245 -0.000911  0.0005    1.3249   
    16. B(C  18,C  16)                1.6306 -0.004203  0.0037    1.6343   
    17. B(C  18,O  12)                1.2145 -0.009245  0.0036    1.2181   
    18. B(C  18,O  11)                1.2155 -0.008402  0.0033    1.2187   
    19. A(F   1,C  13,C  15)          107.97  0.004683   -0.28    107.69   
    20. A(F   1,C  13,C  14)          110.68  0.006320   -0.52    110.16   
    21. A(F   0,C  13,C  15)          107.52  0.006454   -0.73    106.79   
    22. A(C  14,C  13,C  15)          116.73 -0.018631    2.19    118.92   
    23. A(F   0,C  13,F   1)          105.23 -0.002140   -0.32    104.91   
    24. A(F   0,C  13,C  14)          108.06  0.004766   -0.56    107.51   
    25. A(F   3,C  14,C  13)          107.36  0.003297   -0.59    106.77   
    26. A(F   2,C  14,C  16)          111.14 -0.001332    0.28    111.43   
    27. A(F   2,C  14,C  13)          108.20  0.002905    0.04    108.25   
    28. A(F   3,C  14,C  16)          110.72  0.007803   -0.96    109.75   
    29. A(F   2,C  14,F   3)          104.91 -0.000729   -0.41    104.51   
    30. A(C  13,C  14,C  16)          114.03 -0.011034    1.44    115.47   
    31. A(F   4,C  15,F   5)          106.14 -0.000539   -0.34    105.79   
    32. A(F   5,C  15,C  13)          111.79 -0.000052    0.44    112.24   
    33. A(C  13,C  15,C  17)          115.04 -0.009443    1.19    116.23   
    34. A(F   4,C  15,C  17)          107.35  0.005781   -0.85    106.49   
    35. A(F   4,C  15,C  13)          107.28  0.003728   -0.71    106.57   
    36. A(F   5,C  15,C  17)          108.76  0.001481    0.09    108.85   
    37. A(F   7,C  16,C  18)          111.86  0.001971   -0.34    111.52   
    38. A(F   6,C  16,C  18)          112.70  0.001561   -0.13    112.57   
    39. A(F   6,C  16,F   7)          104.66  0.000311   -0.17    104.49   
    40. A(C  14,C  16,C  18)          112.01 -0.001845    0.20    112.21   
    41. A(F   7,C  16,C  14)          106.95 -0.001531    0.07    107.03   
    42. A(F   6,C  16,C  14)          108.23 -0.000523    0.34    108.57   
    43. A(F  10,C  17,C  15)          112.21  0.003176   -0.26    111.94   
    44. A(F   9,C  17,C  15)          109.92  0.003782   -0.39    109.53   
    45. A(F   8,C  17,C  15)          112.79 -0.001535    0.14    112.93   
    46. A(F   9,C  17,F  10)          106.88 -0.002178    0.25    107.13   
    47. A(F   8,C  17,F  10)          107.59 -0.003094    0.33    107.91   
    48. A(F   8,C  17,F   9)          107.15 -0.000458   -0.05    107.10   
    49. A(O  11,C  18,O  12)          132.41 -0.006490    0.54    132.95   
    50. A(O  12,C  18,C  16)          113.86  0.001853   -0.08    113.77   
    51. A(O  11,C  18,C  16)          113.53  0.003872   -0.25    113.27   
    52. D(F   2,C  14,C  13,F   1)   -176.06 -0.003393    1.21   -174.85   
    53. D(F   3,C  14,C  13,F   0)     51.42  0.002267   -0.42     51.00   
    54. D(F   2,C  14,C  13,F   0)    -61.33  0.000116    0.31    -61.02   
    55. D(F   3,C  14,C  13,C  15)    172.67  0.001694   -0.34    172.34   
    56. D(F   2,C  14,C  13,C  15)     59.92 -0.000458    0.39     60.32   
    57. D(F   3,C  14,C  13,F   1)    -63.31 -0.001242    0.48    -62.83   
    58. D(F   4,C  15,C  13,F   0)    -53.51 -0.000831    0.22    -53.29   
    59. D(F   5,C  15,C  13,F   0)   -169.48 -0.002376    0.79   -168.69   
    60. D(F   5,C  15,C  13,C  14)     68.98 -0.001021    0.61     69.60   
    61. D(F   5,C  15,C  13,F   1)    -56.40  0.000548   -0.04    -56.44   
    62. D(F   4,C  15,C  13,C  14)   -175.05  0.000524    0.04   -175.00   
    63. D(F   4,C  15,C  13,F   1)     59.57  0.002093   -0.61     58.96   
    64. D(F   6,C  16,C  14,C  13)     69.42 -0.002704    1.68     71.09   
    65. D(F   6,C  16,C  14,F   3)   -169.39 -0.000400    1.12   -168.28   
    66. D(F   6,C  16,C  14,F   2)    -53.21  0.002700    0.25    -52.95   
    67. D(F   7,C  16,C  14,C  13)   -178.32 -0.003325    1.67   -176.65   
    68. D(F   7,C  16,C  14,F   3)    -57.13 -0.001021    1.11    -56.02   
    69. D(F   7,C  16,C  14,F   2)     59.06  0.002079    0.25     59.30   
    70. D(F   9,C  17,C  15,C  13)   -165.27 -0.003384    3.00   -162.27   
    71. D(F   9,C  17,C  15,F   5)     68.47  0.002673    1.38     69.85   
    72. D(F   9,C  17,C  15,F   4)    -45.97 -0.000412    2.17    -43.80   
    73. D(F   8,C  17,C  15,C  13)     75.22 -0.004401    3.22     78.44   
    74. D(F   8,C  17,C  15,F   5)    -51.04  0.001655    1.61    -49.44   
    75. D(F   8,C  17,C  15,F   4)   -165.48 -0.001430    2.39   -163.08   
    76. D(O  12,C  18,C  16,F   7)   -131.24  0.003835   -3.25   -134.49   
    77. D(O  12,C  18,C  16,F   6)    -13.64  0.006623   -3.76    -17.40   
    78. D(O  11,C  18,C  16,C  14)    -75.80 -0.003194    2.39    -73.41   
    79. D(O  11,C  18,C  16,F   7)     44.27 -0.005070    2.38     46.64   
    80. D(O  11,C  18,C  16,F   6)    161.87 -0.002282    1.87    163.74   
    ----------------------------------------------------------------------------

Geometry step timings:
Preparation and reading OPT file:      0.000 s ( 2.236 %)
Internal coordinates            :      0.000 s ( 0.886 %)
B/P matrices and projection     :      0.001 s (25.127 %)
Hessian update/contruction      :      0.001 s (29.177 %)
Making the step                 :      0.001 s (20.063 %)
Converting the step to Cartesian:      0.000 s ( 2.532 %)
Storing new data                :      0.000 s ( 2.173 %)
Checking convergence            :      0.000 s ( 1.139 %)
Final printing                  :      0.001 s (16.561 %)
Total time                      :      0.005 s

Time for energy+gradient        :      0.120 s
Time for complete geometry iter :      0.127 s

         *************************************************************
         *                GEOMETRY OPTIMIZATION CYCLE   4            *
         *************************************************************
---------------------------------
CARTESIAN COORDINATES (ANGSTROEM)
---------------------------------
  F     0.887408   -0.250898   -2.099412
  F    -0.480473   -1.579435   -1.122010
  F     0.061847    1.877291   -0.615650
  F    -1.420804    0.905273   -1.822350
  F     2.072995   -1.793971   -0.363791
  F     0.806753   -1.240008    1.281265
  F    -0.906333    0.734715    1.656482
  F    -2.439870    1.738432    0.512239
  F     1.815894    1.283090    1.283651
  F     3.403088   -0.127230    1.070630
  F     2.751468    0.997107   -0.625638
  O    -3.417794   -0.716691   -0.371930
  O    -2.162685   -1.595873    1.253954
  C     0.241841   -0.458539   -0.926985
  C    -0.700567    0.749804   -0.692887
  C     1.333105   -0.778845    0.136689
  C    -1.644883    0.626916    0.512084
  C     2.330594    0.373639    0.469116
  C    -2.531883   -0.744877    0.464543

----------------------------
CARTESIAN COORDINATES (A.U.)
----------------------------
  NO LB    ZA    FRAG    MASS        X           Y           Z
   0 F   9.0000    1    18.998    1.676959   -0.474128   -3.967314
   1 F   9.0000    1    18.998   -0.907963   -2.984699   -2.120292
   2 F   9.0000    1    18.998    0.116874    3.547567   -1.163409
   3 F   9.0000    1    18.998   -2.684931    1.710717   -3.443743
   4 F   9.0000    1    18.998    3.917392   -3.390114   -0.687465
   5 F   9.0000    1    18.998    1.524543   -2.343275    2.421239
   6 F   9.0000    1    18.998   -1.712721    1.388410    3.130298
   7 F   9.0000    1    18.998   -4.610687    3.285159    0.967991
   8 F   9.0000    1    18.998    3.431543    2.424689    2.425749
   9 F   9.0000    1    18.998    6.430905   -0.240430    2.023198
  10 F   9.0000    1    18.998    5.199521    1.884260   -1.182284
  11 O   8.0000    1    15.999   -6.458695   -1.354350   -0.702845
  12 O   8.0000    1    15.999   -4.086883   -3.015764    2.369630
  13 C   6.0000    1    12.011    0.457012   -0.866513   -1.751748
  14 C   6.0000    1    12.011   -1.323879    1.416924   -1.309367
  15 C   6.0000    1    12.011    2.519203   -1.471804    0.258305
  16 C   6.0000    1    12.011   -3.108379    1.184700    0.967698
  17 C   6.0000    1    12.011    4.404184    0.706075    0.886501
  18 C   6.0000    1    12.011   -4.784566   -1.407614    0.877858

      -----------------------------------------------------------      
     |                   =====================                   |     
     |                           x T B                           |     
     |                   =====================                   |     
     |                         S. Grimme                         |     
     |          Mulliken Center for Theoretical Chemistry        |     
     |                    University of Bonn                     |     
      -----------------------------------------------------------      

   * xtb version 6.7.1 (edcfbbe) compiled by 'albert@albert-system' on 2024-07-22

   xtb is free software: you can redistribute it and/or modify it under
   the terms of the GNU Lesser General Public License as published by
   the Free Software Foundation, either version 3 of the License, or
   (at your option) any later version.
   
   xtb is distributed in the hope that it will be useful,
   but WITHOUT ANY WARRANTY; without even the implied warranty of
   MERCHANTABILITY or FITNESS FOR A PARTICULAR PURPOSE.  See the
   GNU Lesser General Public License for more details.
   
   Cite this work as:
   * C. Bannwarth, E. Caldeweyher, S. Ehlert, A. Hansen, P. Pracht,
     J. Seibert, S. Spicher, S. Grimme, WIREs Comput. Mol. Sci., 2020, 11,
     e01493. DOI: 10.1002/wcms.1493
   
   for GFN2-xTB:
   * C. Bannwarth, S. Ehlert and S. Grimme., J. Chem. Theory Comput., 2019,
     15, 1652-1671. DOI: 10.1021/acs.jctc.8b01176
   for GFN1-xTB:
   * S. Grimme, C. Bannwarth, P. Shushkov, J. Chem. Theory Comput., 2017,
     13, 1989-2009. DOI: 10.1021/acs.jctc.7b00118
   for GFN0-xTB:
   * P. Pracht, E. Caldeweyher, S. Ehlert, S. Grimme, ChemRxiv, 2019, preprint.
     DOI: 10.26434/chemrxiv.8326202.v1
   for GFN-FF:
   * S. Spicher and S. Grimme, Angew. Chem. Int. Ed., 2020, 59, 15665-15673.
     DOI: 10.1002/anie.202004239
   
   for ALPB and GBSA implicit solvation:
   * S. Ehlert, M. Stahn, S. Spicher, S. Grimme, J. Chem. Theory Comput.,
     2021, 17, 4250-4261. DOI: 10.1021/acs.jctc.1c00471
   
   for ddCOSMO and CPCM-X implicit solvation:
   * M. Stahn, S. Ehlert, S. Grimme, J. Phys. Chem. A,
     2023, XX, XXXX-XXXX. DOI: 10.1021/acs.jpca.3c04382
   
   for DFT-D4:
   * E. Caldeweyher, C. Bannwarth and S. Grimme, J. Chem. Phys., 2017,
     147, 034112. DOI: 10.1063/1.4993215
   * E. Caldeweyher, S. Ehlert, A. Hansen, H. Neugebauer, S. Spicher,
     C. Bannwarth and S. Grimme, J. Chem. Phys., 2019, 150, 154122.
     DOI: 10.1063/1.5090222
   * E. Caldeweyher, J.-M. Mewes, S. Ehlert and S. Grimme, Phys. Chem. Chem. Phys.
     2020, 22, 8499-8512. DOI: 10.1039/D0CP00502A
   
   for sTDA-xTB:
   * S. Grimme and C. Bannwarth, J. Chem. Phys., 2016, 145, 054103.
     DOI: 10.1063/1.4959605
   
   in the mass-spec context:
   * V. Asgeirsson, C. Bauer and S. Grimme, Chem. Sci., 2017, 8, 4879.
     DOI: 10.1039/c7sc00601b
   * J. Koopman and S. Grimme, ACS Omega 2019, 4, 12, 15120-15133.
     DOI: 10.1021/acsomega.9b02011
   
   for metadynamics refer to:
   * S. Grimme, J. Chem. Theory Comput., 2019, 155, 2847-2862
     DOI: 10.1021/acs.jctc.9b00143
   
   for SPH calculations refer to:
   * S. Spicher and S. Grimme, J. Chem. Theory Comput., 2021, 17, 1701-1714
     DOI: 10.1021/acs.jctc.0c01306
   
   for ONIOM refer to:
   * C. Plett, A. Katbashev, S. Ehlert, S. Grimme, M. Bursch,
     Phys. Chem. Chem. Phys., 2023, 25, 17860-17868. DOI: 10.1039/D3CP02178E
   
   for DIPRO refer to:
   * J. Kohn, N. Gildemeister, S. Grimme, D. Fazzi, A. Hansen,
     J. Chem. Phys., 2023, just accepted.
   
   for PTB refer to:
   * S. Grimme, M. Mueller, A. Hansen, J. Chem. Phys., 2023, 158, 124111.
     DOI: 10.1063/5.0137838
   
   with help from (in alphabetical order)
   P. Atkinson, C. Bannwarth, F. Bohle, G. Brandenburg, E. Caldeweyher
   M. Checinski, S. Dohm, S. Ehlert, S. Ehrlich, I. Gerasimov, C. Hölzer
   A. Katbashev, J. Kohn, J. Koopman, C. Lavigne, S. Lehtola, F. März, M. Müller,
   F. Musil, H. Neugebauer, J. Pisarek, C. Plett, P. Pracht, F. Pultar,
   J. Seibert, P. Shushkov, S. Spicher, M. Stahn, M. Steiner, T. Strunk,
   J. Stückrath, T. Rose, and J. Unsleber
   
 * started run on 2026/03/08 at 17:05:42.121     
   ID    Z sym.   atoms
    1    9 F      1-11
    2    8 O      12, 13
    3    6 C      14-19

           -------------------------------------------------
          |                Calculation Setup                |
           -------------------------------------------------

          program call               : /users/rzwa/work/orca/orca-6.1.0/otool_xtb PFHxA_GOAT_XTB.xyz --grad -c -1 -u 0 -P 32 --namespace PFHxA_GOAT --input PFHxA_GOAT_XTB.input.tmp --alpb WATER --acc 0.200000
          hostname                   : node2414
          calculation namespace      : PFHxA_GOAT
          coordinate file            : PFHxA_GOAT_XTB.xyz
          omp threads                :                    32


           -------------------------------------------------
          |                 G F N 2 - x T B                 |
           -------------------------------------------------

        Reference                      10.1021/acs.jctc.8b01176
      * Hamiltonian:
        H0-scaling (s, p, d)           1.850000    2.230000    2.230000
        zeta-weighting                 0.500000
      * Dispersion:
        s8                             2.700000
        a1                             0.520000
        a2                             5.000000
        s9                             5.000000
      * Repulsion:
        kExp                           1.500000    1.000000
        rExp                           1.000000
      * Coulomb:
        alpha                          2.000000
        third order                    shell-resolved
        anisotropic                    true
        a3                             3.000000
        a5                             4.000000
        cn-shift                       1.200000
        cn-exp                         4.000000
        max-rad                        5.000000

      * Solvation model:               ALPB
        Solvent                        WATER
        Parameter file                 internal GFN2-xTB/ALPB
        Dielectric constant                8.0200E+01
        Reference state                gsolv [1 M gas/solution]
        Free energy shift                  1.0808E-03 Eh       6.7819E-01 kcal/mol
        Temperature                        2.9815E+02 K
        Density                            1.0000E+00 kg/L
        Solvent mass                       1.8000E+01 g/mol
        Interaction kernel             P16
        Born radius scaling (c1)           1.4744E+00
        Born radii integrator          GBOBC
        Born offset                        0.0000E+00 a0       0.0000E+00 AA
        H-bond correction              true
        Ion screening                  false
        Surface tension                    1.0000E-05 Eh       1.5569E+01 dyn/cm
        Grid points                               230 per atom
q/qsh data taken from xtbrestart
CAMM data taken from xtbrestart

          ...................................................
          :                      SETUP                      :
          :.................................................:
          :  # basis functions                  76          :
          :  # atomic orbitals                  76          :
          :  # shells                           38          :
          :  # electrons                       114          :
          :  max. iterations                   250          :
          :  Hamiltonian                  GFN2-xTB          :
          :  restarted?                       true          :
          :  GBSA solvation                   true          :
          :  PC potential                    false          :
          :  electronic temp.          300.0000000     K    :
          :  accuracy                    0.2000000          :
          :  -> integral cutoff          0.3198970E+02      :
          :  -> integral neglect         0.2000000E-08      :
          :  -> SCF convergence          0.2000000E-06 Eh   :
          :  -> wf. convergence          0.2000000E-04 e    :
          :  Broyden damping             0.4000000          :
          :  net charge                         -1          :
          :  unpaired electrons                  0          :
          ...................................................

 iter      E             dE          RMSdq      gap      omega  full diag
   1    -73.5924844 -0.735925E+02  0.229E-01    5.37       0.0  T
   2    -73.5924962 -0.118294E-04  0.139E-01    5.38       1.0  T
   3    -73.5925006 -0.442666E-05  0.128E-02    5.37       1.8  T
   4    -73.5925021 -0.147717E-05  0.569E-03    5.38       4.0  T
   5    -73.5925021 -0.207010E-07  0.171E-03    5.37      13.4  T
   6    -73.5925021 -0.659305E-08  0.375E-04    5.38      61.1  T
   7    -73.5925021 -0.396568E-09  0.116E-04    5.38     197.5  T
   8    -73.5925021 -0.349871E-10  0.289E-05    5.38     793.1  T

   *** convergence criteria satisfied after 8 iterations ***

         #    Occupation            Energy/Eh            Energy/eV
      -------------------------------------------------------------
         1        2.0000           -0.9462079             -25.7476
       ...           ...                  ...                  ...
        51        2.0000           -0.5476994             -14.9037
        52        2.0000           -0.5417394             -14.7415
        53        2.0000           -0.5342184             -14.5368
        54        2.0000           -0.5168327             -14.0637
        55        2.0000           -0.4527329             -12.3195
        56        2.0000           -0.4399780             -11.9724
        57        2.0000           -0.4208472             -11.4518 (HOMO)
        58                         -0.2233141              -6.0767 (LUMO)
        59                         -0.1289454              -3.5088
        60                         -0.1159976              -3.1565
        61                         -0.1063010              -2.8926
        62                         -0.0969476              -2.6381
       ...                                ...                  ...
        76                          0.7157147              19.4756
      -------------------------------------------------------------
                  HL-Gap            0.1975331 Eh            5.3752 eV
             Fermi-level           -0.3220806 Eh           -8.7643 eV

 SCC (total)                   0 d,  0 h,  0 min,  0.031 sec
 SCC setup                      ...        0 min,  0.001 sec (  2.104%)
 Dispersion                     ...        0 min,  0.000 sec (  1.105%)
 classical contributions        ...        0 min,  0.000 sec (  0.560%)
 integral evaluation            ...        0 min,  0.002 sec (  5.067%)
 iterations                     ...        0 min,  0.025 sec ( 80.723%)
 molecular gradient             ...        0 min,  0.003 sec (  9.556%)
 printout                       ...        0 min,  0.000 sec (  0.711%)

         :::::::::::::::::::::::::::::::::::::::::::::::::::::
         ::                     SUMMARY                     ::
         :::::::::::::::::::::::::::::::::::::::::::::::::::::
         :: total energy             -73.359875822580 Eh    ::
         :: total w/o Gsasa/hb       -73.370456712862 Eh    ::
         :: gradient norm              0.011947171749 Eh/a0 ::
         :: HOMO-LUMO gap              5.375150004572 eV    ::
         ::.................................................::
         :: SCC energy               -73.592361719635 Eh    ::
         :: -> isotropic ES            0.312847404339 Eh    ::
         :: -> anisotropic ES          0.003704095738 Eh    ::
         :: -> anisotropic XC         -0.076973013771 Eh    ::
         :: -> dispersion             -0.019766794254 Eh    ::
         :: -> Gsolv                  -0.080803854801 Eh    ::
         ::    -> Gelec               -0.091384745083 Eh    ::
         ::    -> Gsasa                0.013649607026 Eh    ::
         ::    -> Ghb                 -0.004149476443 Eh    ::
         ::    -> Gshift               0.001080759698 Eh    ::
         :: repulsion energy           0.232485897055 Eh    ::
         :: add. restraining           0.000000000000 Eh    ::
         :: total charge              -1.000000000000 e     ::
         :::::::::::::::::::::::::::::::::::::::::::::::::::::


Property printout bound to 'properties.out'

           -------------------------------------------------
          | TOTAL ENERGY              -73.359875822580 Eh   |
          | GRADIENT NORM               0.011947171749 Eh/α |
          | HOMO-LUMO GAP               5.375150004572 eV   |
           -------------------------------------------------

------------------------------------------------------------------------
 * finished run on 2026/03/08 at 17:05:42.181     
------------------------------------------------------------------------
 total:
 * wall-time:     0 d,  0 h,  0 min,  0.059 sec
 *  cpu-time:     0 d,  0 h,  0 min,  1.380 sec
 * ratio c/w:    23.379 speedup
 SCF:
 * wall-time:     0 d,  0 h,  0 min,  0.031 sec
 *  cpu-time:     0 d,  0 h,  0 min,  0.849 sec
 * ratio c/w:    27.024 speedup


-------------------------   --------------------
FINAL SINGLE POINT ENERGY       -73.359875822580
-------------------------   --------------------


-------------
DIPOLE MOMENT
-------------
                                X             Y             Z
Total Dipole Moment    :      4.24300       1.15400      -0.57600
                        -----------------------------------------
Magnitude (a.u.)       :      4.43470
Magnitude (Debye)      :     11.27210


------------------
CARTESIAN GRADIENT
------------------

   1   F   :   -0.000972426   -0.001069121   -0.000584575
   2   F   :    0.000098775   -0.001321946   -0.000980782
   3   F   :   -0.001378132    0.001431832   -0.000873885
   4   F   :    0.000886163    0.000906710   -0.000461926
   5   F   :   -0.000174312   -0.000327991    0.000864675
   6   F   :    0.000327049   -0.002189573    0.001314538
   7   F   :    0.000020444    0.001578512    0.001890491
   8   F   :    0.000007672    0.001637273    0.000391150
   9   F   :    0.002049701    0.000313699   -0.000253562
  10   F   :   -0.000562613    0.001805339   -0.000293536
  11   F   :    0.000482420    0.000292980    0.001429099
  12   O   :    0.000821565   -0.002918389    0.002443218
  13   O   :   -0.003243269    0.000196329   -0.002565465
  14   C   :   -0.000481917    0.001454928    0.000319760
  15   C   :    0.000596291   -0.000035296   -0.000129819
  16   C   :   -0.000318951    0.000491652   -0.001403810
  17   C   :   -0.001860208   -0.005136863   -0.000379350
  18   C   :   -0.000218288   -0.001465950   -0.000267257
  19   C   :    0.003920036    0.004355875   -0.000458966

Difference to translation invariance:
           :   -0.0000000000   -0.0000000000    0.0000000000

Difference to rotation invariance:
           :   -0.0000659905   -0.0001429378   -0.0000684057

Norm of the Cartesian gradient     ...    0.0119471717
RMS gradient                       ...    0.0015824416
MAX gradient                       ...    0.0051368629
------------------------------------------------------------------------------
                         ORCA GEOMETRY RELAXATION STEP
------------------------------------------------------------------------------

Reading the OPT-File                    .... done
Getting information on internals        .... done
Copying old internal coords+grads       .... done
Making the new internal coordinates     .... (2022 redundants) done
Validating the new internal coordinates .... (2022 redundants) done
Calculating the B-matrix                .... done
Calculating the G,G- and P matrices     .... done
Transforming gradient to internals      .... done
Projecting the internal gradient        .... done
Number of atoms                         ....  19
Number of internal coordinates          ....  80
Current Energy                          ....   -73.359875823 Eh
Current gradient norm                   ....     0.011947172 Eh/bohr
Maximum allowed component of the step   ....  0.300
Current trust radius                    ....  0.300
Updating the Hessian (BFGS)             .... done
Forming the augmented Hessian           .... done
Diagonalizing the augmented Hessian     .... done
Last element of RFO vector              ....  0.996455061
Lowest eigenvalues of augmented Hessian:
 -0.000490975  0.009825107  0.009996172  0.010000000  0.010000009
Length of the computed step             ....  0.084426048
The final length of the internal step   ....  0.084426048
Converting the step to Cartesian space:
 Initial RMS(Int)=    0.0094391192
Transforming coordinates:
 Iter   0:  RMS(Cart)=    0.0288903414 RMS(Int)=    0.0094381560
done
Storing new coordinates                 .... done
The predicted energy change is          ....    -0.000247237
Previously predicted energy change      ....    -0.002150226
Actually observed energy change         ....    -0.001745124
Ratio of predicted to observed change   ....     0.811600153
New trust radius                        ....     0.450000000

                                .--------------------.
          ----------------------|Geometry convergence|-------------------------
          Item                value                   Tolerance       Converged
          ---------------------------------------------------------------------
          Energy change      -0.0017451237            0.0000050000      NO
          RMS gradient        0.0013687276            0.0001000000      NO
          MAX gradient        0.0047238058            0.0003000000      NO
          RMS step            0.0094391192            0.0020000000      NO
          MAX step            0.0308237706            0.0040000000      NO
          -------------------------------------------------------------------------
          ........................................................
          Max(Bonds)      0.0030      Max(Angles)    0.59
          Max(Dihed)        1.77      Max(Improp)    0.00
          ---------------------------------------------------------------------

    ---------------------------------------------------------------------------
                         Redundant Internal Coordinates
                            (Angstroem and degrees)

        Definition                    Value    dE/dq     Step     New-Value
    ----------------------------------------------------------------------------
     1. B(C  13,F   1)                1.3477  0.001188 -0.0013    1.3464   
     2. B(C  13,F   0)                1.3544 -0.000121 -0.0005    1.3540   
     3. B(C  14,F   2)                1.3633  0.000364 -0.0012    1.3621   
     4. B(C  14,C  13)                1.5502  0.001687 -0.0009    1.5493   
     5. B(C  14,F   3)                1.3486  0.000018 -0.0003    1.3482   
     6. B(C  15,F   5)                1.3416  0.001744 -0.0019    1.3397   
     7. B(C  15,F   4)                1.3522 -0.000169 -0.0004    1.3518   
     8. B(C  15,C  13)                1.5572  0.002275 -0.0020    1.5552   
     9. B(C  16,C  14)                1.5358  0.001272 -0.0004    1.5354   
    10. B(C  16,F   7)                1.3666  0.001326 -0.0018    1.3648   
    11. B(C  16,F   6)                1.3663  0.001721 -0.0026    1.3637   
    12. B(C  17,F  10)                1.3283 -0.000886  0.0008    1.3291   
    13. B(C  17,F   9)                1.3278 -0.001269  0.0012    1.3290   
    14. B(C  17,C  15)                1.5600  0.001950 -0.0030    1.5571   
    15. B(C  17,F   8)                1.3249 -0.000738  0.0006    1.3256   
    16. B(C  18,C  16)                1.6343 -0.002166  0.0008    1.6351   
    17. B(C  18,O  12)                1.2181 -0.002781  0.0029    1.2210   
    18. B(C  18,O  11)                1.2187 -0.002343  0.0028    1.2215   
    19. A(F   1,C  13,C  15)          107.66 -0.001283    0.08    107.74   
    20. A(F   1,C  13,C  14)          110.14 -0.000217   -0.15    109.99   
    21. A(F   0,C  13,C  15)          106.79 -0.000189   -0.13    106.66   
    22. A(C  14,C  13,C  15)          118.90  0.002915   -0.20    118.70   
    23. A(F   0,C  13,F   1)          104.93 -0.000816    0.55    105.48   
    24. A(F   0,C  13,C  14)          107.52 -0.000826   -0.06    107.46   
    25. A(F   3,C  14,C  13)          106.74 -0.000788    0.16    106.90   
    26. A(F   2,C  14,C  16)          111.44 -0.000190   -0.20    111.24   
    27. A(F   2,C  14,C  13)          108.25  0.002185   -0.59    107.67   
    28. A(F   3,C  14,C  16)          109.75  0.000162   -0.08    109.67   
    29. A(F   2,C  14,F   3)          104.52 -0.001192    0.52    105.04   
    30. A(C  13,C  14,C  16)          115.46 -0.000295    0.25    115.71   
    31. A(F   4,C  15,F   5)          105.81 -0.000919    0.49    106.30   
    32. A(F   5,C  15,C  13)          112.24  0.000525   -0.29    111.95   
    33. A(C  13,C  15,C  17)          116.21  0.001062   -0.05    116.16   
    34. A(F   4,C  15,C  17)          106.48 -0.001088    0.13    106.60   
    35. A(F   4,C  15,C  13)          106.56 -0.000176   -0.02    106.55   
    36. A(F   5,C  15,C  17)          108.85  0.000284   -0.18    108.67   
    37. A(F   7,C  16,C  18)          111.53  0.001002   -0.27    111.26   
    38. A(F   6,C  16,C  18)          112.58  0.000543   -0.23    112.36   
    39. A(F   6,C  16,F   7)          104.49 -0.001111    0.41    104.90   
    40. A(C  14,C  16,C  18)          112.21 -0.001296    0.31    112.53   
    41. A(F   7,C  16,C  14)          107.02 -0.000728    0.13    107.15   
    42. A(F   6,C  16,C  14)          108.57  0.001578   -0.32    108.26   
    43. A(F  10,C  17,C  15)          111.95  0.001256   -0.25    111.69   
    44. A(F   9,C  17,C  15)          109.53  0.001378   -0.28    109.25   
    45. A(F   8,C  17,C  15)          112.94  0.002726   -0.44    112.50   
    46. A(F   9,C  17,F  10)          107.13 -0.001830    0.33    107.46   
    47. A(F   8,C  17,F  10)          107.91 -0.001692    0.31    108.22   
    48. A(F   8,C  17,F   9)          107.11 -0.002251    0.37    107.48   
    49. A(O  11,C  18,O  12)          132.95 -0.004724    0.42    133.36   
    50. A(O  12,C  18,C  16)          113.77  0.002299   -0.21    113.56   
    51. A(O  11,C  18,C  16)          113.27  0.002446   -0.30    112.97   
    52. D(F   2,C  14,C  13,F   1)   -174.84  0.000829    0.55   -174.29   
    53. D(F   3,C  14,C  13,F   0)     50.99 -0.001435    1.47     52.46   
    54. D(F   2,C  14,C  13,F   0)    -61.03 -0.000690    1.07    -59.96   
    55. D(F   3,C  14,C  13,C  15)    172.33 -0.000325    1.10    173.43   
    56. D(F   2,C  14,C  13,C  15)     60.31  0.000420    0.70     61.00   
    57. D(F   3,C  14,C  13,F   1)    -62.81  0.000084    0.95    -61.87   
    58. D(F   4,C  15,C  13,F   0)    -53.30  0.000338   -0.20    -53.49   
    59. D(F   5,C  15,C  13,F   0)   -168.68  0.001271   -0.61   -169.29   
    60. D(F   5,C  15,C  13,C  14)     69.61  0.000507   -0.26     69.35   
    61. D(F   5,C  15,C  13,F   1)    -56.44 -0.000336   -0.01    -56.45   
    62. D(F   4,C  15,C  13,C  14)   -175.01 -0.000427    0.15   -174.86   
    63. D(F   4,C  15,C  13,F   1)     58.94 -0.001270    0.41     59.35   
    64. D(F   6,C  16,C  14,C  13)     71.08  0.001936   -1.77     69.31   
    65. D(F   6,C  16,C  14,F   3)   -168.26  0.000821   -1.43   -169.69   
    66. D(F   6,C  16,C  14,F   2)    -52.96 -0.000649   -0.98    -53.95   
    67. D(F   7,C  16,C  14,C  13)   -176.66  0.001037   -1.38   -178.04   
    68. D(F   7,C  16,C  14,F   3)    -56.00 -0.000078   -1.05    -57.05   
    69. D(F   7,C  16,C  14,F   2)     59.30 -0.001548   -0.60     58.70   
    70. D(F   9,C  17,C  15,C  13)   -162.28  0.000676   -0.01   -162.29   
    71. D(F   9,C  17,C  15,F   5)     69.85 -0.001166    0.59     70.44   
    72. D(F   9,C  17,C  15,F   4)    -43.80  0.000310    0.04    -43.76   
    73. D(F   8,C  17,C  15,C  13)     78.44  0.000820   -0.02     78.42   
    74. D(F   8,C  17,C  15,F   5)    -49.43 -0.001023    0.58    -48.85   
    75. D(F   8,C  17,C  15,F   4)   -163.08  0.000453    0.03   -163.04   
    76. D(O  12,C  18,C  16,F   7)   -134.49  0.000556   -1.20   -135.69   
    77. D(O  12,C  18,C  16,F   6)    -17.40  0.000176   -1.01    -18.41   
    78. D(O  11,C  18,C  16,C  14)    -73.42  0.000826   -0.48    -73.89   
    79. D(O  11,C  18,C  16,F   7)     46.65 -0.000304   -0.29     46.36   
    80. D(O  11,C  18,C  16,F   6)    163.74 -0.000684   -0.11    163.63   
    ----------------------------------------------------------------------------

Geometry step timings:
Preparation and reading OPT file:      0.000 s ( 1.588 %)
Internal coordinates            :      0.000 s ( 1.043 %)
B/P matrices and projection     :      0.001 s (27.454 %)
Hessian update/contruction      :      0.001 s (19.701 %)
Making the step                 :      0.001 s (23.139 %)
Converting the step to Cartesian:      0.000 s ( 2.560 %)
Storing new data                :      0.000 s ( 2.442 %)
Checking convergence            :      0.000 s ( 1.636 %)
Final printing                  :      0.001 s (20.413 %)
Total time                      :      0.004 s

Time for energy+gradient        :      0.095 s
Time for complete geometry iter :      0.101 s

         *************************************************************
         *                GEOMETRY OPTIMIZATION CYCLE   5            *
         *************************************************************
---------------------------------
CARTESIAN COORDINATES (ANGSTROEM)
---------------------------------
  F     0.906098   -0.244217   -2.101138
  F    -0.467780   -1.586118   -1.136511
  F     0.067349    1.861779   -0.636251
  F    -1.432468    0.881441   -1.825979
  F     2.085818   -1.786199   -0.365545
  F     0.796234   -1.238791    1.270159
  F    -0.870526    0.712866    1.640835
  F    -2.410313    1.744625    0.525527
  F     1.775385    1.275661    1.292106
  F     3.386045   -0.118957    1.085860
  F     2.734136    1.010425   -0.614780
  O    -3.444516   -0.680848   -0.341572
  O    -2.155124   -1.598243    1.248202
  C     0.250139   -0.464646   -0.937381
  C    -0.698764    0.737586   -0.704054
  C     1.334080   -0.779154    0.132505
  C    -1.629949    0.625047    0.511543
  C     2.314958    0.379857    0.477520
  C    -2.541101   -0.732215    0.478954

----------------------------
CARTESIAN COORDINATES (A.U.)
----------------------------
  NO LB    ZA    FRAG    MASS        X           Y           Z
   0 F   9.0000    1    18.998    1.712277   -0.461504   -3.970574
   1 F   9.0000    1    18.998   -0.883976   -2.997328   -2.147695
   2 F   9.0000    1    18.998    0.127271    3.518252   -1.202340
   3 F   9.0000    1    18.998   -2.706971    1.665682   -3.450601
   4 F   9.0000    1    18.998    3.941624   -3.375427   -0.690781
   5 F   9.0000    1    18.998    1.504664   -2.340976    2.400253
   6 F   9.0000    1    18.998   -1.645055    1.347122    3.100728
   7 F   9.0000    1    18.998   -4.554832    3.296863    0.993102
   8 F   9.0000    1    18.998    3.354991    2.410651    2.441726
   9 F   9.0000    1    18.998    6.398698   -0.224796    2.051977
  10 F   9.0000    1    18.998    5.166769    1.909427   -1.161766
  11 O   8.0000    1    15.999   -6.509193   -1.286616   -0.645477
  12 O   8.0000    1    15.999   -4.072594   -3.020241    2.358760
  13 C   6.0000    1    12.011    0.472694   -0.878054   -1.771393
  14 C   6.0000    1    12.011   -1.320472    1.393836   -1.330469
  15 C   6.0000    1    12.011    2.521045   -1.472388    0.250398
  16 C   6.0000    1    12.011   -3.080158    1.181168    0.966676
  17 C   6.0000    1    12.011    4.374636    0.717825    0.902383
  18 C   6.0000    1    12.011   -4.801986   -1.383685    0.905092

      -----------------------------------------------------------      
     |                   =====================                   |     
     |                           x T B                           |     
     |                   =====================                   |     
     |                         S. Grimme                         |     
     |          Mulliken Center for Theoretical Chemistry        |     
     |                    University of Bonn                     |     
      -----------------------------------------------------------      

   * xtb version 6.7.1 (edcfbbe) compiled by 'albert@albert-system' on 2024-07-22

   xtb is free software: you can redistribute it and/or modify it under
   the terms of the GNU Lesser General Public License as published by
   the Free Software Foundation, either version 3 of the License, or
   (at your option) any later version.
   
   xtb is distributed in the hope that it will be useful,
   but WITHOUT ANY WARRANTY; without even the implied warranty of
   MERCHANTABILITY or FITNESS FOR A PARTICULAR PURPOSE.  See the
   GNU Lesser General Public License for more details.
   
   Cite this work as:
   * C. Bannwarth, E. Caldeweyher, S. Ehlert, A. Hansen, P. Pracht,
     J. Seibert, S. Spicher, S. Grimme, WIREs Comput. Mol. Sci., 2020, 11,
     e01493. DOI: 10.1002/wcms.1493
   
   for GFN2-xTB:
   * C. Bannwarth, S. Ehlert and S. Grimme., J. Chem. Theory Comput., 2019,
     15, 1652-1671. DOI: 10.1021/acs.jctc.8b01176
   for GFN1-xTB:
   * S. Grimme, C. Bannwarth, P. Shushkov, J. Chem. Theory Comput., 2017,
     13, 1989-2009. DOI: 10.1021/acs.jctc.7b00118
   for GFN0-xTB:
   * P. Pracht, E. Caldeweyher, S. Ehlert, S. Grimme, ChemRxiv, 2019, preprint.
     DOI: 10.26434/chemrxiv.8326202.v1
   for GFN-FF:
   * S. Spicher and S. Grimme, Angew. Chem. Int. Ed., 2020, 59, 15665-15673.
     DOI: 10.1002/anie.202004239
   
   for ALPB and GBSA implicit solvation:
   * S. Ehlert, M. Stahn, S. Spicher, S. Grimme, J. Chem. Theory Comput.,
     2021, 17, 4250-4261. DOI: 10.1021/acs.jctc.1c00471
   
   for ddCOSMO and CPCM-X implicit solvation:
   * M. Stahn, S. Ehlert, S. Grimme, J. Phys. Chem. A,
     2023, XX, XXXX-XXXX. DOI: 10.1021/acs.jpca.3c04382
   
   for DFT-D4:
   * E. Caldeweyher, C. Bannwarth and S. Grimme, J. Chem. Phys., 2017,
     147, 034112. DOI: 10.1063/1.4993215
   * E. Caldeweyher, S. Ehlert, A. Hansen, H. Neugebauer, S. Spicher,
     C. Bannwarth and S. Grimme, J. Chem. Phys., 2019, 150, 154122.
     DOI: 10.1063/1.5090222
   * E. Caldeweyher, J.-M. Mewes, S. Ehlert and S. Grimme, Phys. Chem. Chem. Phys.
     2020, 22, 8499-8512. DOI: 10.1039/D0CP00502A
   
   for sTDA-xTB:
   * S. Grimme and C. Bannwarth, J. Chem. Phys., 2016, 145, 054103.
     DOI: 10.1063/1.4959605
   
   in the mass-spec context:
   * V. Asgeirsson, C. Bauer and S. Grimme, Chem. Sci., 2017, 8, 4879.
     DOI: 10.1039/c7sc00601b
   * J. Koopman and S. Grimme, ACS Omega 2019, 4, 12, 15120-15133.
     DOI: 10.1021/acsomega.9b02011
   
   for metadynamics refer to:
   * S. Grimme, J. Chem. Theory Comput., 2019, 155, 2847-2862
     DOI: 10.1021/acs.jctc.9b00143
   
   for SPH calculations refer to:
   * S. Spicher and S. Grimme, J. Chem. Theory Comput., 2021, 17, 1701-1714
     DOI: 10.1021/acs.jctc.0c01306
   
   for ONIOM refer to:
   * C. Plett, A. Katbashev, S. Ehlert, S. Grimme, M. Bursch,
     Phys. Chem. Chem. Phys., 2023, 25, 17860-17868. DOI: 10.1039/D3CP02178E
   
   for DIPRO refer to:
   * J. Kohn, N. Gildemeister, S. Grimme, D. Fazzi, A. Hansen,
     J. Chem. Phys., 2023, just accepted.
   
   for PTB refer to:
   * S. Grimme, M. Mueller, A. Hansen, J. Chem. Phys., 2023, 158, 124111.
     DOI: 10.1063/5.0137838
   
   with help from (in alphabetical order)
   P. Atkinson, C. Bannwarth, F. Bohle, G. Brandenburg, E. Caldeweyher
   M. Checinski, S. Dohm, S. Ehlert, S. Ehrlich, I. Gerasimov, C. Hölzer
   A. Katbashev, J. Kohn, J. Koopman, C. Lavigne, S. Lehtola, F. März, M. Müller,
   F. Musil, H. Neugebauer, J. Pisarek, C. Plett, P. Pracht, F. Pultar,
   J. Seibert, P. Shushkov, S. Spicher, M. Stahn, M. Steiner, T. Strunk,
   J. Stückrath, T. Rose, and J. Unsleber
   
 * started run on 2026/03/08 at 17:05:42.221     
   ID    Z sym.   atoms
    1    9 F      1-11
    2    8 O      12, 13
    3    6 C      14-19

           -------------------------------------------------
          |                Calculation Setup                |
           -------------------------------------------------

          program call               : /users/rzwa/work/orca/orca-6.1.0/otool_xtb PFHxA_GOAT_XTB.xyz --grad -c -1 -u 0 -P 32 --namespace PFHxA_GOAT --input PFHxA_GOAT_XTB.input.tmp --alpb WATER --acc 0.200000
          hostname                   : node2414
          calculation namespace      : PFHxA_GOAT
          coordinate file            : PFHxA_GOAT_XTB.xyz
          omp threads                :                    32


           -------------------------------------------------
          |                 G F N 2 - x T B                 |
           -------------------------------------------------

        Reference                      10.1021/acs.jctc.8b01176
      * Hamiltonian:
        H0-scaling (s, p, d)           1.850000    2.230000    2.230000
        zeta-weighting                 0.500000
      * Dispersion:
        s8                             2.700000
        a1                             0.520000
        a2                             5.000000
        s9                             5.000000
      * Repulsion:
        kExp                           1.500000    1.000000
        rExp                           1.000000
      * Coulomb:
        alpha                          2.000000
        third order                    shell-resolved
        anisotropic                    true
        a3                             3.000000
        a5                             4.000000
        cn-shift                       1.200000
        cn-exp                         4.000000
        max-rad                        5.000000

      * Solvation model:               ALPB
        Solvent                        WATER
        Parameter file                 internal GFN2-xTB/ALPB
        Dielectric constant                8.0200E+01
        Reference state                gsolv [1 M gas/solution]
        Free energy shift                  1.0808E-03 Eh       6.7819E-01 kcal/mol
        Temperature                        2.9815E+02 K
        Density                            1.0000E+00 kg/L
        Solvent mass                       1.8000E+01 g/mol
        Interaction kernel             P16
        Born radius scaling (c1)           1.4744E+00
        Born radii integrator          GBOBC
        Born offset                        0.0000E+00 a0       0.0000E+00 AA
        H-bond correction              true
        Ion screening                  false
        Surface tension                    1.0000E-05 Eh       1.5569E+01 dyn/cm
        Grid points                               230 per atom
q/qsh data taken from xtbrestart
CAMM data taken from xtbrestart

          ...................................................
          :                      SETUP                      :
          :.................................................:
          :  # basis functions                  76          :
          :  # atomic orbitals                  76          :
          :  # shells                           38          :
          :  # electrons                       114          :
          :  max. iterations                   250          :
          :  Hamiltonian                  GFN2-xTB          :
          :  restarted?                       true          :
          :  GBSA solvation                   true          :
          :  PC potential                    false          :
          :  electronic temp.          300.0000000     K    :
          :  accuracy                    0.2000000          :
          :  -> integral cutoff          0.3198970E+02      :
          :  -> integral neglect         0.2000000E-08      :
          :  -> SCF convergence          0.2000000E-06 Eh   :
          :  -> wf. convergence          0.2000000E-04 e    :
          :  Broyden damping             0.4000000          :
          :  net charge                         -1          :
          :  unpaired electrons                  0          :
          ...................................................

 iter      E             dE          RMSdq      gap      omega  full diag
   1    -73.5922078 -0.735922E+02  0.967E-02    5.31       0.0  T
   2    -73.5922113 -0.354503E-05  0.575E-02    5.32       1.0  T
   3    -73.5922111  0.259420E-06  0.106E-02    5.32       2.2  T
   4    -73.5922123 -0.119679E-05  0.288E-03    5.32       8.0  T
   5    -73.5922123 -0.307625E-08  0.901E-04    5.32      25.5  T
   6    -73.5922123 -0.271081E-08  0.139E-04    5.32     165.0  T
   7    -73.5922123 -0.379714E-10  0.506E-05    5.32     453.2  T

   *** convergence criteria satisfied after 7 iterations ***

         #    Occupation            Energy/Eh            Energy/eV
      -------------------------------------------------------------
         1        2.0000           -0.9457660             -25.7356
       ...           ...                  ...                  ...
        51        2.0000           -0.5477734             -14.9057
        52        2.0000           -0.5415438             -14.7362
        53        2.0000           -0.5336396             -14.5211
        54        2.0000           -0.5165047             -14.0548
        55        2.0000           -0.4525345             -12.3141
        56        2.0000           -0.4402527             -11.9799
        57        2.0000           -0.4202693             -11.4361 (HOMO)
        58                         -0.2247657              -6.1162 (LUMO)
        59                         -0.1261906              -3.4338
        60                         -0.1136624              -3.0929
        61                         -0.1024225              -2.7871
        62                         -0.0932353              -2.5371
       ...                                ...                  ...
        76                          0.7093059              19.3012
      -------------------------------------------------------------
                  HL-Gap            0.1955036 Eh            5.3199 eV
             Fermi-level           -0.3225175 Eh           -8.7761 eV

 SCC (total)                   0 d,  0 h,  0 min,  0.047 sec
 SCC setup                      ...        0 min,  0.001 sec (  2.455%)
 Dispersion                     ...        0 min,  0.001 sec (  2.482%)
 classical contributions        ...        0 min,  0.001 sec (  1.491%)
 integral evaluation            ...        0 min,  0.002 sec (  4.835%)
 iterations                     ...        0 min,  0.037 sec ( 78.789%)
 molecular gradient             ...        0 min,  0.004 sec (  8.819%)
 printout                       ...        0 min,  0.000 sec (  1.023%)

         :::::::::::::::::::::::::::::::::::::::::::::::::::::
         ::                     SUMMARY                     ::
         :::::::::::::::::::::::::::::::::::::::::::::::::::::
         :: total energy             -73.360122859993 Eh    ::
         :: total w/o Gsasa/hb       -73.370668985224 Eh    ::
         :: gradient norm              0.008868256288 Eh/a0 ::
         :: HOMO-LUMO gap              5.319922839261 eV    ::
         ::.................................................::
         :: SCC energy               -73.592073010677 Eh    ::
         :: -> isotropic ES            0.312769434067 Eh    ::
         :: -> anisotropic ES          0.003659854881 Eh    ::
         :: -> anisotropic XC         -0.076876482960 Eh    ::
         :: -> dispersion             -0.019815640789 Eh    ::
         :: -> Gsolv                  -0.080785990023 Eh    ::
         ::    -> Gelec               -0.091332115253 Eh    ::
         ::    -> Gsasa                0.013611295611 Eh    ::
         ::    -> Ghb                 -0.004145930079 Eh    ::
         ::    -> Gshift               0.001080759698 Eh    ::
         :: repulsion energy           0.231950150683 Eh    ::
         :: add. restraining           0.000000000000 Eh    ::
         :: total charge              -1.000000000000 e     ::
         :::::::::::::::::::::::::::::::::::::::::::::::::::::


Property printout bound to 'properties.out'

           -------------------------------------------------
          | TOTAL ENERGY              -73.360122859993 Eh   |
          | GRADIENT NORM               0.008868256288 Eh/α |
          | HOMO-LUMO GAP               5.319922839261 eV   |
           -------------------------------------------------

------------------------------------------------------------------------
 * finished run on 2026/03/08 at 17:05:42.293     
------------------------------------------------------------------------
 total:
 * wall-time:     0 d,  0 h,  0 min,  0.071 sec
 *  cpu-time:     0 d,  0 h,  0 min,  1.419 sec
 * ratio c/w:    19.976 speedup
 SCF:
 * wall-time:     0 d,  0 h,  0 min,  0.048 sec
 *  cpu-time:     0 d,  0 h,  0 min,  1.081 sec
 * ratio c/w:    22.737 speedup


-------------------------   --------------------
FINAL SINGLE POINT ENERGY       -73.360122859990
-------------------------   --------------------


-------------
DIPOLE MOMENT
-------------
                                X             Y             Z
Total Dipole Moment    :      4.24600       1.14000      -0.58900
                        -----------------------------------------
Magnitude (a.u.)       :      4.43566
Magnitude (Debye)      :     11.27454


------------------
CARTESIAN GRADIENT
------------------

   1   F   :   -0.000267200   -0.000211503    0.000303201
   2   F   :    0.000017658   -0.000528499    0.000005086
   3   F   :   -0.000771336   -0.000203194   -0.000004582
   4   F   :    0.000173445    0.000173409   -0.000123082
   5   F   :   -0.000119655    0.000296688    0.000207979
   6   F   :   -0.000105436   -0.000150632    0.000244724
   7   F   :    0.000248084    0.000448114   -0.000096572
   8   F   :   -0.000001054    0.000531316    0.000053319
   9   F   :   -0.000137720    0.000236902    0.000281867
  10   F   :   -0.000079963   -0.000073223    0.000184716
  11   F   :   -0.000348425    0.000007823   -0.000233879
  12   O   :   -0.001612475   -0.001622476   -0.001574884
  13   O   :   -0.000351040   -0.002676497    0.000489853
  14   C   :    0.000178679    0.000752679   -0.000154404
  15   C   :    0.000901050    0.000562472   -0.000542737
  16   C   :    0.000590431    0.000317520   -0.000769853
  17   C   :   -0.001226652   -0.002982542    0.000169403
  18   C   :    0.000116657   -0.000923852    0.000046833
  19   C   :    0.002794952    0.006045495    0.001513012

Difference to translation invariance:
           :   -0.0000000000    0.0000000000    0.0000000000

Difference to rotation invariance:
           :   -0.0000919173   -0.0000985820   -0.0000280916

Norm of the Cartesian gradient     ...    0.0088682563
RMS gradient                       ...    0.0011746292
MAX gradient                       ...    0.0060454946
------------------------------------------------------------------------------
                         ORCA GEOMETRY RELAXATION STEP
------------------------------------------------------------------------------

Reading the OPT-File                    .... done
Getting information on internals        .... done
Copying old internal coords+grads       .... done
Making the new internal coordinates     .... (2022 redundants) done
Validating the new internal coordinates .... (2022 redundants) done
Calculating the B-matrix                .... done
Calculating the G,G- and P matrices     .... done
Transforming gradient to internals      .... done
Projecting the internal gradient        .... done
Number of atoms                         ....  19
Number of internal coordinates          ....  80
Current Energy                          ....   -73.360122860 Eh
Current gradient norm                   ....     0.008868256 Eh/bohr
Maximum allowed component of the step   ....  0.300
Current trust radius                    ....  0.450
Updating the Hessian (BFGS)             .... done
Forming the augmented Hessian           .... done
Diagonalizing the augmented Hessian     .... done
Last element of RFO vector              ....  0.998450940
Lowest eigenvalues of augmented Hessian:
 -0.000142356  0.009296941  0.009988234  0.010000000  0.010115938
Length of the computed step             ....  0.055725521
The final length of the internal step   ....  0.055725521
Converting the step to Cartesian space:
 Initial RMS(Int)=    0.0062303027
Transforming coordinates:
 Iter   0:  RMS(Cart)=    0.0237009968 RMS(Int)=    0.0062299473
done
Storing new coordinates                 .... done
The predicted energy change is          ....    -0.000071399
Previously predicted energy change      ....    -0.000247237
Actually observed energy change         ....    -0.000247037
Ratio of predicted to observed change   ....     0.999191221
New trust radius                        ....     0.675000000

                                .--------------------.
          ----------------------|Geometry convergence|-------------------------
          Item                value                   Tolerance       Converged
          ---------------------------------------------------------------------
          Energy change      -0.0002470374            0.0000050000      NO
          RMS gradient        0.0006221094            0.0001000000      NO
          MAX gradient        0.0025217933            0.0003000000      NO
          RMS step            0.0062303027            0.0020000000      NO
          MAX step            0.0182022681            0.0040000000      NO
          -------------------------------------------------------------------------
          ........................................................
          Max(Bonds)      0.0072      Max(Angles)    0.64
          Max(Dihed)        1.04      Max(Improp)    0.00
          ---------------------------------------------------------------------

    ---------------------------------------------------------------------------
                         Redundant Internal Coordinates
                            (Angstroem and degrees)

        Definition                    Value    dE/dq     Step     New-Value
    ----------------------------------------------------------------------------
     1. B(C  13,F   1)                1.3464  0.000429 -0.0006    1.3458   
     2. B(C  13,F   0)                1.3540 -0.000424  0.0008    1.3548   
     3. B(C  14,F   2)                1.3621 -0.000601  0.0011    1.3632   
     4. B(C  14,C  13)                1.5493  0.000101 -0.0005    1.5488   
     5. B(C  14,F   3)                1.3482  0.000026  0.0001    1.3483   
     6. B(C  15,F   5)                1.3397  0.000300 -0.0006    1.3391   
     7. B(C  15,F   4)                1.3518 -0.000364  0.0006    1.3524   
     8. B(C  15,C  13)                1.5552 -0.000031 -0.0006    1.5546   
     9. B(C  16,C  14)                1.5354  0.000552 -0.0018    1.5336   
    10. B(C  16,F   7)                1.3648  0.000436 -0.0004    1.3644   
    11. B(C  16,F   6)                1.3637  0.000088  0.0001    1.3638   
    12. B(C  17,F  10)                1.3291  0.000087  0.0003    1.3293   
    13. B(C  17,F   9)                1.3290  0.000047  0.0003    1.3292   
    14. B(C  17,C  15)                1.5571 -0.000782  0.0005    1.5575   
    15. B(C  17,F   8)                1.3256  0.000389 -0.0001    1.3254   
    16. B(C  18,C  16)                1.6351 -0.001920  0.0072    1.6423   
    17. B(C  18,O  12)                1.2210  0.002097 -0.0014    1.2195   
    18. B(C  18,O  11)                1.2215  0.002181 -0.0017    1.2198   
    19. A(F   1,C  13,C  15)          107.76 -0.000618    0.23    107.98   
    20. A(F   1,C  13,C  14)          110.00  0.000259    0.03    110.03   
    21. A(F   0,C  13,C  15)          106.65  0.000079   -0.10    106.55   
    22. A(C  14,C  13,C  15)          118.70  0.000465   -0.15    118.55   
    23. A(F   0,C  13,F   1)          105.47 -0.000045   -0.01    105.46   
    24. A(F   0,C  13,C  14)          107.45 -0.000189    0.03    107.47   
    25. A(F   3,C  14,C  13)          106.91 -0.000151    0.08    106.98   
    26. A(F   2,C  14,C  16)          111.24 -0.000850    0.26    111.49   
    27. A(F   2,C  14,C  13)          107.67  0.000590   -0.20    107.46   
    28. A(F   3,C  14,C  16)          109.67  0.000651   -0.08    109.59   
    29. A(F   2,C  14,F   3)          105.04 -0.000209    0.02    105.05   
    30. A(C  13,C  14,C  16)          115.71 -0.000028   -0.06    115.65   
    31. A(F   4,C  15,F   5)          106.29  0.000025   -0.01    106.28   
    32. A(F   5,C  15,C  13)          111.95 -0.000130    0.12    112.07   
    33. A(C  13,C  15,C  17)          116.17  0.000486   -0.16    116.01   
    34. A(F   4,C  15,C  17)          106.61 -0.000003   -0.04    106.57   
    35. A(F   4,C  15,C  13)          106.55 -0.000031    0.01    106.56   
    36. A(F   5,C  15,C  17)          108.67 -0.000363    0.09    108.76   
    37. A(F   7,C  16,C  18)          111.26  0.000050   -0.01    111.24   
    38. A(F   6,C  16,C  18)          112.35  0.000184   -0.09    112.26   
    39. A(F   6,C  16,F   7)          104.90 -0.000062    0.05    104.95   
    40. A(C  14,C  16,C  18)          112.52  0.000637   -0.24    112.28   
    41. A(F   7,C  16,C  14)          107.14 -0.000344    0.22    107.36   
    42. A(F   6,C  16,C  14)          108.25 -0.000551    0.10    108.35   
    43. A(F  10,C  17,C  15)          111.70 -0.000526    0.05    111.75   
    44. A(F   9,C  17,C  15)          109.25  0.000110   -0.04    109.21   
    45. A(F   8,C  17,C  15)          112.51 -0.000063    0.01    112.52   
    46. A(F   9,C  17,F  10)          107.46  0.000662   -0.08    107.38   
    47. A(F   8,C  17,F  10)          108.23 -0.000091    0.03    108.26   
    48. A(F   8,C  17,F   9)          107.48 -0.000040    0.02    107.50   
    49. A(O  11,C  18,O  12)          133.38 -0.002522    0.64    134.02   
    50. A(O  12,C  18,C  16)          113.58  0.001432   -0.33    113.26   
    51. A(O  11,C  18,C  16)          112.99  0.001054   -0.25    112.74   
    52. D(F   2,C  14,C  13,F   1)   -174.29  0.000079   -0.37   -174.66   
    53. D(F   3,C  14,C  13,F   0)     52.46  0.000016   -0.38     52.08   
    54. D(F   2,C  14,C  13,F   0)    -59.96  0.000056   -0.34    -60.30   
    55. D(F   3,C  14,C  13,C  15)    173.43  0.000288   -0.61    172.82   
    56. D(F   2,C  14,C  13,C  15)     61.01  0.000328   -0.57     60.44   
    57. D(F   3,C  14,C  13,F   1)    -61.87  0.000040   -0.40    -62.28   
    58. D(F   4,C  15,C  13,F   0)    -53.49  0.000235   -0.65    -54.14   
    59. D(F   5,C  15,C  13,F   0)   -169.29  0.000291   -0.71   -170.00   
    60. D(F   5,C  15,C  13,C  14)     69.34  0.000160   -0.55     68.79   
    61. D(F   5,C  15,C  13,F   1)    -56.45 -0.000007   -0.66    -57.11   
    62. D(F   4,C  15,C  13,C  14)   -174.86  0.000104   -0.49   -175.34   
    63. D(F   4,C  15,C  13,F   1)     59.35 -0.000063   -0.60     58.75   
    64. D(F   6,C  16,C  14,C  13)     69.32  0.000233   -0.56     68.76   
    65. D(F   6,C  16,C  14,F   3)   -169.70  0.000519   -0.58   -170.28   
    66. D(F   6,C  16,C  14,F   2)    -53.94  0.000160   -0.46    -54.40   
    67. D(F   7,C  16,C  14,C  13)   -178.04 -0.000266   -0.35   -178.39   
    68. D(F   7,C  16,C  14,F   3)    -57.05  0.000020   -0.37    -57.43   
    69. D(F   7,C  16,C  14,F   2)     58.70 -0.000338   -0.25     58.45   
    70. D(F   9,C  17,C  15,C  13)   -162.29 -0.000081    0.19   -162.10   
    71. D(F   9,C  17,C  15,F   5)     70.44  0.000026    0.08     70.51   
    72. D(F   9,C  17,C  15,F   4)    -43.76  0.000173    0.07    -43.69   
    73. D(F   8,C  17,C  15,C  13)     78.42 -0.000065    0.18     78.61   
    74. D(F   8,C  17,C  15,F   5)    -48.85  0.000042    0.07    -48.78   
    75. D(F   8,C  17,C  15,F   4)   -163.04  0.000189    0.06   -162.98   
    76. D(O  12,C  18,C  16,F   7)   -135.68 -0.000462   -0.65   -136.33   
    77. D(O  12,C  18,C  16,F   6)    -18.41 -0.000388   -0.64    -19.05   
    78. D(O  11,C  18,C  16,C  14)    -73.89  0.000445   -1.04    -74.93   
    79. D(O  11,C  18,C  16,F   7)     46.36  0.000480   -0.94     45.42   
    80. D(O  11,C  18,C  16,F   6)    163.63  0.000554   -0.93    162.70   
    ----------------------------------------------------------------------------

Geometry step timings:
Preparation and reading OPT file:      0.000 s ( 1.574 %)
Internal coordinates            :      0.000 s ( 1.019 %)
B/P matrices and projection     :      0.001 s (25.417 %)
Hessian update/contruction      :      0.001 s (25.556 %)
Making the step                 :      0.000 s (20.417 %)
Converting the step to Cartesian:      0.000 s ( 2.176 %)
Storing new data                :      0.000 s ( 2.454 %)
Checking convergence            :      0.000 s ( 1.157 %)
Final printing                  :      0.000 s (20.231 %)
Total time                      :      0.002 s

Time for energy+gradient        :      0.111 s
Time for complete geometry iter :      0.115 s

         *************************************************************
         *                GEOMETRY OPTIMIZATION CYCLE   6            *
         *************************************************************
---------------------------------
CARTESIAN COORDINATES (ANGSTROEM)
---------------------------------
  F     0.905657   -0.248649   -2.091607
  F    -0.468567   -1.587708   -1.123340
  F     0.074408    1.857214   -0.621240
  F    -1.427026    0.885935   -1.818481
  F     2.081103   -1.790701   -0.346850
  F     0.802680   -1.216798    1.288388
  F    -0.881831    0.688299    1.649423
  F    -2.410271    1.742026    0.538082
  F     1.794019    1.294434    1.271813
  F     3.397447   -0.110030    1.071662
  F     2.739160    1.000217   -0.638235
  O    -3.462441   -0.661209   -0.352571
  O    -2.165242   -1.615524    1.212235
  C     0.249538   -0.466644   -0.926520
  C    -0.697895    0.736296   -0.694241
  C     1.335597   -0.773963    0.142474
  C    -1.634734    0.619712    0.514366
  C     2.323725    0.385965    0.465050
  C    -2.555627   -0.738971    0.459592

----------------------------
CARTESIAN COORDINATES (A.U.)
----------------------------
  NO LB    ZA    FRAG    MASS        X           Y           Z
   0 F   9.0000    1    18.998    1.711444   -0.469879   -3.952565
   1 F   9.0000    1    18.998   -0.885463   -3.000334   -2.122804
   2 F   9.0000    1    18.998    0.140610    3.509625   -1.173974
   3 F   9.0000    1    18.998   -2.696688    1.674175   -3.436430
   4 F   9.0000    1    18.998    3.932715   -3.383935   -0.655451
   5 F   9.0000    1    18.998    1.516845   -2.299415    2.434700
   6 F   9.0000    1    18.998   -1.666419    1.300697    3.116957
   7 F   9.0000    1    18.998   -4.554752    3.291953    1.016828
   8 F   9.0000    1    18.998    3.390204    2.446126    2.403379
   9 F   9.0000    1    18.998    6.420244   -0.207926    2.025148
  10 F   9.0000    1    18.998    5.176262    1.890135   -1.206090
  11 O   8.0000    1    15.999   -6.543064   -1.249504   -0.666263
  12 O   8.0000    1    15.999   -4.091714   -3.052898    2.290793
  13 C   6.0000    1    12.011    0.471559   -0.881830   -1.750869
  14 C   6.0000    1    12.011   -1.318830    1.391397   -1.311925
  15 C   6.0000    1    12.011    2.523912   -1.462579    0.269236
  16 C   6.0000    1    12.011   -3.089199    1.171087    0.972011
  17 C   6.0000    1    12.011    4.391204    0.729369    0.878816
  18 C   6.0000    1    12.011   -4.829436   -1.396452    0.868503

      -----------------------------------------------------------      
     |                   =====================                   |     
     |                           x T B                           |     
     |                   =====================                   |     
     |                         S. Grimme                         |     
     |          Mulliken Center for Theoretical Chemistry        |     
     |                    University of Bonn                     |     
      -----------------------------------------------------------      

   * xtb version 6.7.1 (edcfbbe) compiled by 'albert@albert-system' on 2024-07-22

   xtb is free software: you can redistribute it and/or modify it under
   the terms of the GNU Lesser General Public License as published by
   the Free Software Foundation, either version 3 of the License, or
   (at your option) any later version.
   
   xtb is distributed in the hope that it will be useful,
   but WITHOUT ANY WARRANTY; without even the implied warranty of
   MERCHANTABILITY or FITNESS FOR A PARTICULAR PURPOSE.  See the
   GNU Lesser General Public License for more details.
   
   Cite this work as:
   * C. Bannwarth, E. Caldeweyher, S. Ehlert, A. Hansen, P. Pracht,
     J. Seibert, S. Spicher, S. Grimme, WIREs Comput. Mol. Sci., 2020, 11,
     e01493. DOI: 10.1002/wcms.1493
   
   for GFN2-xTB:
   * C. Bannwarth, S. Ehlert and S. Grimme., J. Chem. Theory Comput., 2019,
     15, 1652-1671. DOI: 10.1021/acs.jctc.8b01176
   for GFN1-xTB:
   * S. Grimme, C. Bannwarth, P. Shushkov, J. Chem. Theory Comput., 2017,
     13, 1989-2009. DOI: 10.1021/acs.jctc.7b00118
   for GFN0-xTB:
   * P. Pracht, E. Caldeweyher, S. Ehlert, S. Grimme, ChemRxiv, 2019, preprint.
     DOI: 10.26434/chemrxiv.8326202.v1
   for GFN-FF:
   * S. Spicher and S. Grimme, Angew. Chem. Int. Ed., 2020, 59, 15665-15673.
     DOI: 10.1002/anie.202004239
   
   for ALPB and GBSA implicit solvation:
   * S. Ehlert, M. Stahn, S. Spicher, S. Grimme, J. Chem. Theory Comput.,
     2021, 17, 4250-4261. DOI: 10.1021/acs.jctc.1c00471
   
   for ddCOSMO and CPCM-X implicit solvation:
   * M. Stahn, S. Ehlert, S. Grimme, J. Phys. Chem. A,
     2023, XX, XXXX-XXXX. DOI: 10.1021/acs.jpca.3c04382
   
   for DFT-D4:
   * E. Caldeweyher, C. Bannwarth and S. Grimme, J. Chem. Phys., 2017,
     147, 034112. DOI: 10.1063/1.4993215
   * E. Caldeweyher, S. Ehlert, A. Hansen, H. Neugebauer, S. Spicher,
     C. Bannwarth and S. Grimme, J. Chem. Phys., 2019, 150, 154122.
     DOI: 10.1063/1.5090222
   * E. Caldeweyher, J.-M. Mewes, S. Ehlert and S. Grimme, Phys. Chem. Chem. Phys.
     2020, 22, 8499-8512. DOI: 10.1039/D0CP00502A
   
   for sTDA-xTB:
   * S. Grimme and C. Bannwarth, J. Chem. Phys., 2016, 145, 054103.
     DOI: 10.1063/1.4959605
   
   in the mass-spec context:
   * V. Asgeirsson, C. Bauer and S. Grimme, Chem. Sci., 2017, 8, 4879.
     DOI: 10.1039/c7sc00601b
   * J. Koopman and S. Grimme, ACS Omega 2019, 4, 12, 15120-15133.
     DOI: 10.1021/acsomega.9b02011
   
   for metadynamics refer to:
   * S. Grimme, J. Chem. Theory Comput., 2019, 155, 2847-2862
     DOI: 10.1021/acs.jctc.9b00143
   
   for SPH calculations refer to:
   * S. Spicher and S. Grimme, J. Chem. Theory Comput., 2021, 17, 1701-1714
     DOI: 10.1021/acs.jctc.0c01306
   
   for ONIOM refer to:
   * C. Plett, A. Katbashev, S. Ehlert, S. Grimme, M. Bursch,
     Phys. Chem. Chem. Phys., 2023, 25, 17860-17868. DOI: 10.1039/D3CP02178E
   
   for DIPRO refer to:
   * J. Kohn, N. Gildemeister, S. Grimme, D. Fazzi, A. Hansen,
     J. Chem. Phys., 2023, just accepted.
   
   for PTB refer to:
   * S. Grimme, M. Mueller, A. Hansen, J. Chem. Phys., 2023, 158, 124111.
     DOI: 10.1063/5.0137838
   
   with help from (in alphabetical order)
   P. Atkinson, C. Bannwarth, F. Bohle, G. Brandenburg, E. Caldeweyher
   M. Checinski, S. Dohm, S. Ehlert, S. Ehrlich, I. Gerasimov, C. Hölzer
   A. Katbashev, J. Kohn, J. Koopman, C. Lavigne, S. Lehtola, F. März, M. Müller,
   F. Musil, H. Neugebauer, J. Pisarek, C. Plett, P. Pracht, F. Pultar,
   J. Seibert, P. Shushkov, S. Spicher, M. Stahn, M. Steiner, T. Strunk,
   J. Stückrath, T. Rose, and J. Unsleber
   
 * started run on 2026/03/08 at 17:05:42.334     
   ID    Z sym.   atoms
    1    9 F      1-11
    2    8 O      12, 13
    3    6 C      14-19

           -------------------------------------------------
          |                Calculation Setup                |
           -------------------------------------------------

          program call               : /users/rzwa/work/orca/orca-6.1.0/otool_xtb PFHxA_GOAT_XTB.xyz --grad -c -1 -u 0 -P 32 --namespace PFHxA_GOAT --input PFHxA_GOAT_XTB.input.tmp --alpb WATER --acc 0.200000
          hostname                   : node2414
          calculation namespace      : PFHxA_GOAT
          coordinate file            : PFHxA_GOAT_XTB.xyz
          omp threads                :                    32


           -------------------------------------------------
          |                 G F N 2 - x T B                 |
           -------------------------------------------------

        Reference                      10.1021/acs.jctc.8b01176
      * Hamiltonian:
        H0-scaling (s, p, d)           1.850000    2.230000    2.230000
        zeta-weighting                 0.500000
      * Dispersion:
        s8                             2.700000
        a1                             0.520000
        a2                             5.000000
        s9                             5.000000
      * Repulsion:
        kExp                           1.500000    1.000000
        rExp                           1.000000
      * Coulomb:
        alpha                          2.000000
        third order                    shell-resolved
        anisotropic                    true
        a3                             3.000000
        a5                             4.000000
        cn-shift                       1.200000
        cn-exp                         4.000000
        max-rad                        5.000000

      * Solvation model:               ALPB
        Solvent                        WATER
        Parameter file                 internal GFN2-xTB/ALPB
        Dielectric constant                8.0200E+01
        Reference state                gsolv [1 M gas/solution]
        Free energy shift                  1.0808E-03 Eh       6.7819E-01 kcal/mol
        Temperature                        2.9815E+02 K
        Density                            1.0000E+00 kg/L
        Solvent mass                       1.8000E+01 g/mol
        Interaction kernel             P16
        Born radius scaling (c1)           1.4744E+00
        Born radii integrator          GBOBC
        Born offset                        0.0000E+00 a0       0.0000E+00 AA
        H-bond correction              true
        Ion screening                  false
        Surface tension                    1.0000E-05 Eh       1.5569E+01 dyn/cm
        Grid points                               230 per atom
q/qsh data taken from xtbrestart
CAMM data taken from xtbrestart

          ...................................................
          :                      SETUP                      :
          :.................................................:
          :  # basis functions                  76          :
          :  # atomic orbitals                  76          :
          :  # shells                           38          :
          :  # electrons                       114          :
          :  max. iterations                   250          :
          :  Hamiltonian                  GFN2-xTB          :
          :  restarted?                       true          :
          :  GBSA solvation                   true          :
          :  PC potential                    false          :
          :  electronic temp.          300.0000000     K    :
          :  accuracy                    0.2000000          :
          :  -> integral cutoff          0.3198970E+02      :
          :  -> integral neglect         0.2000000E-08      :
          :  -> SCF convergence          0.2000000E-06 Eh   :
          :  -> wf. convergence          0.2000000E-04 e    :
          :  Broyden damping             0.4000000          :
          :  net charge                         -1          :
          :  unpaired electrons                  0          :
          ...................................................

 iter      E             dE          RMSdq      gap      omega  full diag
   1    -73.5928812 -0.735929E+02  0.614E-02    5.34       0.0  T
   2    -73.5928892 -0.792287E-05  0.368E-02    5.33       1.0  T
   3    -73.5928895 -0.352444E-06  0.151E-02    5.33       1.5  T
   4    -73.5928904 -0.915323E-06  0.264E-03    5.33       8.7  T
   5    -73.5928904 -0.900823E-08  0.110E-03    5.33      20.8  T
   6    -73.5928905 -0.310165E-08  0.328E-04    5.33      70.0  T
   7    -73.5928905 -0.828635E-10  0.834E-05    5.33     275.1  T
   8    -73.5928905 -0.173941E-10  0.186E-05    5.33    1234.3  T

   *** convergence criteria satisfied after 8 iterations ***

         #    Occupation            Energy/Eh            Energy/eV
      -------------------------------------------------------------
         1        2.0000           -0.9456398             -25.7322
       ...           ...                  ...                  ...
        51        2.0000           -0.5474388             -14.8966
        52        2.0000           -0.5419017             -14.7459
        53        2.0000           -0.5335719             -14.5192
        54        2.0000           -0.5164175             -14.0524
        55        2.0000           -0.4532450             -12.3334
        56        2.0000           -0.4413124             -12.0087
        57        2.0000           -0.4197866             -11.4230 (HOMO)
        58                         -0.2238898              -6.0924 (LUMO)
        59                         -0.1259926              -3.4284
        60                         -0.1136866              -3.0936
        61                         -0.1022402              -2.7821
        62                         -0.0928692              -2.5271
       ...                                ...                  ...
        76                          0.7197199              19.5846
      -------------------------------------------------------------
                  HL-Gap            0.1958968 Eh            5.3306 eV
             Fermi-level           -0.3218382 Eh           -8.7577 eV

 SCC (total)                   0 d,  0 h,  0 min,  0.046 sec
 SCC setup                      ...        0 min,  0.001 sec (  1.506%)
 Dispersion                     ...        0 min,  0.000 sec (  1.037%)
 classical contributions        ...        0 min,  0.000 sec (  0.514%)
 integral evaluation            ...        0 min,  0.002 sec (  4.930%)
 iterations                     ...        0 min,  0.037 sec ( 80.884%)
 molecular gradient             ...        0 min,  0.005 sec ( 10.338%)
 printout                       ...        0 min,  0.000 sec (  0.673%)

         :::::::::::::::::::::::::::::::::::::::::::::::::::::
         ::                     SUMMARY                     ::
         :::::::::::::::::::::::::::::::::::::::::::::::::::::
         :: total energy             -73.360209272359 Eh    ::
         :: total w/o Gsasa/hb       -73.370755761618 Eh    ::
         :: gradient norm              0.005259678126 Eh/a0 ::
         :: HOMO-LUMO gap              5.330623103821 eV    ::
         ::.................................................::
         :: SCC energy               -73.592752780054 Eh    ::
         :: -> isotropic ES            0.311740490186 Eh    ::
         :: -> anisotropic ES          0.003577848773 Eh    ::
         :: -> anisotropic XC         -0.076736333888 Eh    ::
         :: -> dispersion             -0.019809794045 Eh    ::
         :: -> Gsolv                  -0.080449957699 Eh    ::
         ::    -> Gelec               -0.090996446958 Eh    ::
         ::    -> Gsasa                0.013608023080 Eh    ::
         ::    -> Ghb                 -0.004142293519 Eh    ::
         ::    -> Gshift               0.001080759698 Eh    ::
         :: repulsion energy           0.232543507696 Eh    ::
         :: add. restraining           0.000000000000 Eh    ::
         :: total charge              -1.000000000000 e     ::
         :::::::::::::::::::::::::::::::::::::::::::::::::::::


Property printout bound to 'properties.out'

           -------------------------------------------------
          | TOTAL ENERGY              -73.360209272359 Eh   |
          | GRADIENT NORM               0.005259678126 Eh/α |
          | HOMO-LUMO GAP               5.330623103821 eV   |
           -------------------------------------------------

------------------------------------------------------------------------
 * finished run on 2026/03/08 at 17:05:42.424     
------------------------------------------------------------------------
 total:
 * wall-time:     0 d,  0 h,  0 min,  0.089 sec
 *  cpu-time:     0 d,  0 h,  0 min,  1.447 sec
 * ratio c/w:    16.289 speedup
 SCF:
 * wall-time:     0 d,  0 h,  0 min,  0.046 sec
 *  cpu-time:     0 d,  0 h,  0 min,  0.840 sec
 * ratio c/w:    18.235 speedup


-------------------------   --------------------
FINAL SINGLE POINT ENERGY       -73.360209272360
-------------------------   --------------------


-------------
DIPOLE MOMENT
-------------
                                X             Y             Z
Total Dipole Moment    :      4.23900       1.11900      -0.55900
                        -----------------------------------------
Magnitude (a.u.)       :      4.41970
Magnitude (Debye)      :     11.23399


------------------
CARTESIAN GRADIENT
------------------

   1   F   :    0.000060984   -0.000100439    0.000157255
   2   F   :   -0.000195081   -0.000253976    0.000104198
   3   F   :   -0.000252593   -0.000296402    0.000121923
   4   F   :    0.000039087    0.000070624   -0.000015526
   5   F   :    0.000020950    0.000101212    0.000094028
   6   F   :   -0.000193779    0.000014553    0.000082531
   7   F   :    0.000116793    0.000066034   -0.000263440
   8   F   :   -0.000018045    0.000278643    0.000151677
   9   F   :   -0.000074041    0.000344637    0.000102583
  10   F   :    0.000059776   -0.000134728    0.000084671
  11   F   :   -0.000151464    0.000038266   -0.000483539
  12   O   :   -0.000877296   -0.000682174   -0.001078561
  13   O   :   -0.000050775   -0.001491489    0.000323205
  14   C   :    0.000078318    0.000599229    0.000259979
  15   C   :    0.000513657    0.000123610   -0.000231923
  16   C   :    0.000232953    0.000556257   -0.000418507
  17   C   :   -0.000876858   -0.001944697   -0.000013799
  18   C   :   -0.000153192   -0.000726214    0.000171706
  19   C   :    0.001720604    0.003437054    0.000851540

Difference to translation invariance:
           :    0.0000000000   -0.0000000000   -0.0000000000

Difference to rotation invariance:
           :   -0.0001173145   -0.0001098797   -0.0000651368

Norm of the Cartesian gradient     ...    0.0052596781
RMS gradient                       ...    0.0006966614
MAX gradient                       ...    0.0034370538
------------------------------------------------------------------------------
                         ORCA GEOMETRY RELAXATION STEP
------------------------------------------------------------------------------

Reading the OPT-File                    .... done
Getting information on internals        .... done
Copying old internal coords+grads       .... done
Making the new internal coordinates     .... (2022 redundants) done
Validating the new internal coordinates .... (2022 redundants) done
Calculating the B-matrix                .... done
Calculating the G,G- and P matrices     .... done
Transforming gradient to internals      .... done
Projecting the internal gradient        .... done
Number of atoms                         ....  19
Number of internal coordinates          ....  80
Current Energy                          ....   -73.360209272 Eh
Current gradient norm                   ....     0.005259678 Eh/bohr
Maximum allowed component of the step   ....  0.300
Current trust radius                    ....  0.675
Updating the Hessian (BFGS)             .... done
Forming the augmented Hessian           .... done
Diagonalizing the augmented Hessian     .... done
Last element of RFO vector              ....  0.996062409
Lowest eigenvalues of augmented Hessian:
 -0.000142435  0.007884028  0.009999951  0.010007916  0.010465029
Length of the computed step             ....  0.089005284
The final length of the internal step   ....  0.089005284
Converting the step to Cartesian space:
 Initial RMS(Int)=    0.0099510933
Transforming coordinates:
 Iter   0:  RMS(Cart)=    0.0261467433 RMS(Int)=    0.0099472095
done
Storing new coordinates                 .... done
The predicted energy change is          ....    -0.000071782
Previously predicted energy change      ....    -0.000071399
Actually observed energy change         ....    -0.000086412
Ratio of predicted to observed change   ....     1.210271548
New trust radius                        ....     0.700000000

                                .--------------------.
          ----------------------|Geometry convergence|-------------------------
          Item                value                   Tolerance       Converged
          ---------------------------------------------------------------------
          Energy change      -0.0000864124            0.0000050000      NO
          RMS gradient        0.0004039152            0.0001000000      NO
          MAX gradient        0.0014898564            0.0003000000      NO
          RMS step            0.0099510933            0.0020000000      NO
          MAX step            0.0341394474            0.0040000000      NO
          -------------------------------------------------------------------------
          ........................................................
          Max(Bonds)      0.0121      Max(Angles)    0.91
          Max(Dihed)        1.96      Max(Improp)    0.00
          ---------------------------------------------------------------------

    ---------------------------------------------------------------------------
                         Redundant Internal Coordinates
                            (Angstroem and degrees)

        Definition                    Value    dE/dq     Step     New-Value
    ----------------------------------------------------------------------------
     1. B(C  13,F   1)                1.3458  0.000300 -0.0009    1.3449   
     2. B(C  13,F   0)                1.3548 -0.000121  0.0012    1.3560   
     3. B(C  14,F   2)                1.3632 -0.000380  0.0018    1.3650   
     4. B(C  14,C  13)                1.5488 -0.000559  0.0003    1.5490   
     5. B(C  14,F   3)                1.3483 -0.000001  0.0002    1.3485   
     6. B(C  15,F   5)                1.3391  0.000141 -0.0007    1.3384   
     7. B(C  15,F   4)                1.3524 -0.000098  0.0009    1.3533   
     8. B(C  15,C  13)                1.5546 -0.000477  0.0000    1.5546   
     9. B(C  16,C  14)                1.5336 -0.000000 -0.0023    1.5314   
    10. B(C  16,F   7)                1.3644  0.000241 -0.0005    1.3639   
    11. B(C  16,F   6)                1.3638 -0.000150  0.0005    1.3643   
    12. B(C  17,F  10)                1.3293  0.000373 -0.0000    1.3293   
    13. B(C  17,F   9)                1.3292  0.000137  0.0002    1.3294   
    14. B(C  17,C  15)                1.5575 -0.000584  0.0014    1.5589   
    15. B(C  17,F   8)                1.3254  0.000328 -0.0004    1.3250   
    16. B(C  18,C  16)                1.6423 -0.001490  0.0121    1.6544   
    17. B(C  18,O  12)                1.2195  0.001257 -0.0027    1.2168   
    18. B(C  18,O  11)                1.2198  0.001326 -0.0030    1.2168   
    19. A(F   1,C  13,C  15)          107.98  0.000206    0.25    108.22   
    20. A(F   1,C  13,C  14)          110.03 -0.000087    0.12    110.15   
    21. A(F   0,C  13,C  15)          106.55 -0.000194   -0.08    106.47   
    22. A(C  14,C  13,C  15)          118.54 -0.000338   -0.14    118.40   
    23. A(F   0,C  13,F   1)          105.47  0.000030   -0.11    105.36   
    24. A(F   0,C  13,C  14)          107.47  0.000418   -0.05    107.42   
    25. A(F   3,C  14,C  13)          106.98  0.000327    0.06    107.04   
    26. A(F   2,C  14,C  16)          111.49  0.000392    0.25    111.74   
    27. A(F   2,C  14,C  13)          107.47  0.000250   -0.28    107.19   
    28. A(F   3,C  14,C  16)          109.58 -0.000017   -0.02    109.56   
    29. A(F   2,C  14,F   3)          105.06 -0.000094   -0.07    104.98   
    30. A(C  13,C  14,C  16)          115.65 -0.000798    0.05    115.70   
    31. A(F   4,C  15,F   5)          106.28  0.000013   -0.08    106.21   
    32. A(F   5,C  15,C  13)          112.07 -0.000101    0.16    112.24   
    33. A(C  13,C  15,C  17)          116.00 -0.000207   -0.17    115.83   
    34. A(F   4,C  15,C  17)          106.56 -0.000441    0.06    106.62   
    35. A(F   4,C  15,C  13)          106.55  0.000168    0.04    106.60   
    36. A(F   5,C  15,C  17)          108.76  0.000547   -0.02    108.73   
    37. A(F   7,C  16,C  18)          111.25  0.000028    0.01    111.25   
    38. A(F   6,C  16,C  18)          112.27  0.000353   -0.16    112.11   
    39. A(F   6,C  16,F   7)          104.95 -0.000071    0.02    104.97   
    40. A(C  14,C  16,C  18)          112.28 -0.000219   -0.26    112.02   
    41. A(F   7,C  16,C  14)          107.36  0.000146    0.27    107.63   
    42. A(F   6,C  16,C  14)          108.35 -0.000239    0.17    108.52   
    43. A(F  10,C  17,C  15)          111.75 -0.000628    0.19    111.93   
    44. A(F   9,C  17,C  15)          109.21 -0.000051   -0.03    109.19   
    45. A(F   8,C  17,C  15)          112.52  0.000308   -0.03    112.49   
    46. A(F   9,C  17,F  10)          107.38  0.000356   -0.15    107.24   
    47. A(F   8,C  17,F  10)          108.26  0.000036    0.03    108.29   
    48. A(F   8,C  17,F   9)          107.51  0.000007   -0.03    107.48   
    49. A(O  11,C  18,O  12)          134.00 -0.001125    0.91    134.91   
    50. A(O  12,C  18,C  16)          113.24  0.000775   -0.52    112.72   
    51. A(O  11,C  18,C  16)          112.73  0.000327   -0.35    112.38   
    52. D(F   2,C  14,C  13,F   1)   -174.66 -0.000362    1.28   -173.37   
    53. D(F   3,C  14,C  13,F   0)     52.08  0.000016    1.01     53.09   
    54. D(F   2,C  14,C  13,F   0)    -60.30 -0.000144    1.19    -59.11   
    55. D(F   3,C  14,C  13,C  15)    172.82 -0.000133    0.77    173.58   
    56. D(F   2,C  14,C  13,C  15)     60.43 -0.000292    0.95     61.38   
    57. D(F   3,C  14,C  13,F   1)    -62.27 -0.000202    1.10    -61.17   
    58. D(F   4,C  15,C  13,F   0)    -54.14 -0.000083    0.58    -53.56   
    59. D(F   5,C  15,C  13,F   0)   -170.00 -0.000146    0.56   -169.44   
    60. D(F   5,C  15,C  13,C  14)     68.79 -0.000312    0.78     69.57   
    61. D(F   5,C  15,C  13,F   1)    -57.11 -0.000109    0.51    -56.60   
    62. D(F   4,C  15,C  13,C  14)   -175.35 -0.000250    0.80   -174.55   
    63. D(F   4,C  15,C  13,F   1)     58.75 -0.000046    0.53     59.28   
    64. D(F   6,C  16,C  14,C  13)     68.75  0.000037    0.01     68.76   
    65. D(F   6,C  16,C  14,F   3)   -170.28 -0.000107    0.10   -170.18   
    66. D(F   6,C  16,C  14,F   2)    -54.40 -0.000002    0.15    -54.26   
    67. D(F   7,C  16,C  14,C  13)   -178.39 -0.000088    0.24   -178.15   
    68. D(F   7,C  16,C  14,F   3)    -57.42 -0.000232    0.34    -57.08   
    69. D(F   7,C  16,C  14,F   2)     58.45 -0.000128    0.38     58.84   
    70. D(F   9,C  17,C  15,C  13)   -162.10  0.000205    0.32   -161.78   
    71. D(F   9,C  17,C  15,F   5)     70.51  0.000031    0.25     70.76   
    72. D(F   9,C  17,C  15,F   4)    -43.69 -0.000023    0.32    -43.37   
    73. D(F   8,C  17,C  15,C  13)     78.60  0.000036    0.38     78.99   
    74. D(F   8,C  17,C  15,F   5)    -48.78 -0.000138    0.31    -48.47   
    75. D(F   8,C  17,C  15,F   4)   -162.98 -0.000192    0.38   -162.60   
    76. D(O  12,C  18,C  16,F   7)   -136.33 -0.000357   -0.80   -137.13   
    77. D(O  12,C  18,C  16,F   6)    -19.06 -0.000200   -0.87    -19.92   
    78. D(O  11,C  18,C  16,C  14)    -74.93  0.000246   -1.96    -76.89   
    79. D(O  11,C  18,C  16,F   7)     45.42  0.000301   -1.79     43.63   
    80. D(O  11,C  18,C  16,F   6)    162.70  0.000459   -1.86    160.84   
    ----------------------------------------------------------------------------

Geometry step timings:
Preparation and reading OPT file:      0.000 s ( 1.547 %)
Internal coordinates            :      0.000 s ( 1.046 %)
B/P matrices and projection     :      0.001 s (24.795 %)
Hessian update/contruction      :      0.001 s (26.251 %)
Making the step                 :      0.000 s (20.337 %)
Converting the step to Cartesian:      0.000 s ( 2.320 %)
Storing new data                :      0.000 s ( 3.230 %)
Checking convergence            :      0.000 s ( 1.183 %)
Final printing                  :      0.000 s (19.245 %)
Total time                      :      0.002 s

Time for energy+gradient        :      0.112 s
Time for complete geometry iter :      0.116 s

         *************************************************************
         *                GEOMETRY OPTIMIZATION CYCLE   7            *
         *************************************************************
---------------------------------
CARTESIAN COORDINATES (ANGSTROEM)
---------------------------------
  F     0.913890   -0.250361   -2.096489
  F    -0.469920   -1.588888   -1.144023
  F     0.085932    1.853159   -0.649436
  F    -1.432340    0.879525   -1.824364
  F     2.086480   -1.788981   -0.354022
  F     0.794144   -1.238921    1.277268
  F    -0.863582    0.705384    1.641426
  F    -2.401217    1.748933    0.532460
  F     1.763928    1.277966    1.294203
  F     3.382174   -0.106672    1.081479
  F     2.720639    1.018390   -0.615072
  O    -3.473352   -0.653467   -0.311969
  O    -2.128852   -1.610646    1.213794
  C     0.248975   -0.471485   -0.935565
  C    -0.694899    0.734893   -0.704684
  C     1.328966   -0.781619    0.138793
  C    -1.621841    0.629826    0.509729
  C     2.305001    0.385722    0.477632
  C    -2.544427   -0.742858    0.468840

----------------------------
CARTESIAN COORDINATES (A.U.)
----------------------------
  NO LB    ZA    FRAG    MASS        X           Y           Z
   0 F   9.0000    1    18.998    1.727002   -0.473114   -3.961790
   1 F   9.0000    1    18.998   -0.888020   -3.002563   -2.161891
   2 F   9.0000    1    18.998    0.162388    3.501962   -1.227256
   3 F   9.0000    1    18.998   -2.706730    1.662062   -3.447547
   4 F   9.0000    1    18.998    3.942876   -3.380684   -0.669005
   5 F   9.0000    1    18.998    1.500714   -2.341222    2.413687
   6 F   9.0000    1    18.998   -1.631933    1.332982    3.101846
   7 F   9.0000    1    18.998   -4.537642    3.305004    1.006203
   8 F   9.0000    1    18.998    3.333340    2.415005    2.445689
   9 F   9.0000    1    18.998    6.391383   -0.201581    2.043699
  10 F   9.0000    1    18.998    5.141263    1.924477   -1.162318
  11 O   8.0000    1    15.999   -6.563684   -1.234873   -0.589535
  12 O   8.0000    1    15.999   -4.022948   -3.043679    2.293737
  13 C   6.0000    1    12.011    0.470495   -0.890977   -1.767961
  14 C   6.0000    1    12.011   -1.313169    1.388747   -1.331660
  15 C   6.0000    1    12.011    2.511381   -1.477046    0.262280
  16 C   6.0000    1    12.011   -3.064835    1.190199    0.963249
  17 C   6.0000    1    12.011    4.355821    0.728909    0.902593
  18 C   6.0000    1    12.011   -4.808271   -1.403798    0.885980

      -----------------------------------------------------------      
     |                   =====================                   |     
     |                           x T B                           |     
     |                   =====================                   |     
     |                         S. Grimme                         |     
     |          Mulliken Center for Theoretical Chemistry        |     
     |                    University of Bonn                     |     
      -----------------------------------------------------------      

   * xtb version 6.7.1 (edcfbbe) compiled by 'albert@albert-system' on 2024-07-22

   xtb is free software: you can redistribute it and/or modify it under
   the terms of the GNU Lesser General Public License as published by
   the Free Software Foundation, either version 3 of the License, or
   (at your option) any later version.
   
   xtb is distributed in the hope that it will be useful,
   but WITHOUT ANY WARRANTY; without even the implied warranty of
   MERCHANTABILITY or FITNESS FOR A PARTICULAR PURPOSE.  See the
   GNU Lesser General Public License for more details.
   
   Cite this work as:
   * C. Bannwarth, E. Caldeweyher, S. Ehlert, A. Hansen, P. Pracht,
     J. Seibert, S. Spicher, S. Grimme, WIREs Comput. Mol. Sci., 2020, 11,
     e01493. DOI: 10.1002/wcms.1493
   
   for GFN2-xTB:
   * C. Bannwarth, S. Ehlert and S. Grimme., J. Chem. Theory Comput., 2019,
     15, 1652-1671. DOI: 10.1021/acs.jctc.8b01176
   for GFN1-xTB:
   * S. Grimme, C. Bannwarth, P. Shushkov, J. Chem. Theory Comput., 2017,
     13, 1989-2009. DOI: 10.1021/acs.jctc.7b00118
   for GFN0-xTB:
   * P. Pracht, E. Caldeweyher, S. Ehlert, S. Grimme, ChemRxiv, 2019, preprint.
     DOI: 10.26434/chemrxiv.8326202.v1
   for GFN-FF:
   * S. Spicher and S. Grimme, Angew. Chem. Int. Ed., 2020, 59, 15665-15673.
     DOI: 10.1002/anie.202004239
   
   for ALPB and GBSA implicit solvation:
   * S. Ehlert, M. Stahn, S. Spicher, S. Grimme, J. Chem. Theory Comput.,
     2021, 17, 4250-4261. DOI: 10.1021/acs.jctc.1c00471
   
   for ddCOSMO and CPCM-X implicit solvation:
   * M. Stahn, S. Ehlert, S. Grimme, J. Phys. Chem. A,
     2023, XX, XXXX-XXXX. DOI: 10.1021/acs.jpca.3c04382
   
   for DFT-D4:
   * E. Caldeweyher, C. Bannwarth and S. Grimme, J. Chem. Phys., 2017,
     147, 034112. DOI: 10.1063/1.4993215
   * E. Caldeweyher, S. Ehlert, A. Hansen, H. Neugebauer, S. Spicher,
     C. Bannwarth and S. Grimme, J. Chem. Phys., 2019, 150, 154122.
     DOI: 10.1063/1.5090222
   * E. Caldeweyher, J.-M. Mewes, S. Ehlert and S. Grimme, Phys. Chem. Chem. Phys.
     2020, 22, 8499-8512. DOI: 10.1039/D0CP00502A
   
   for sTDA-xTB:
   * S. Grimme and C. Bannwarth, J. Chem. Phys., 2016, 145, 054103.
     DOI: 10.1063/1.4959605
   
   in the mass-spec context:
   * V. Asgeirsson, C. Bauer and S. Grimme, Chem. Sci., 2017, 8, 4879.
     DOI: 10.1039/c7sc00601b
   * J. Koopman and S. Grimme, ACS Omega 2019, 4, 12, 15120-15133.
     DOI: 10.1021/acsomega.9b02011
   
   for metadynamics refer to:
   * S. Grimme, J. Chem. Theory Comput., 2019, 155, 2847-2862
     DOI: 10.1021/acs.jctc.9b00143
   
   for SPH calculations refer to:
   * S. Spicher and S. Grimme, J. Chem. Theory Comput., 2021, 17, 1701-1714
     DOI: 10.1021/acs.jctc.0c01306
   
   for ONIOM refer to:
   * C. Plett, A. Katbashev, S. Ehlert, S. Grimme, M. Bursch,
     Phys. Chem. Chem. Phys., 2023, 25, 17860-17868. DOI: 10.1039/D3CP02178E
   
   for DIPRO refer to:
   * J. Kohn, N. Gildemeister, S. Grimme, D. Fazzi, A. Hansen,
     J. Chem. Phys., 2023, just accepted.
   
   for PTB refer to:
   * S. Grimme, M. Mueller, A. Hansen, J. Chem. Phys., 2023, 158, 124111.
     DOI: 10.1063/5.0137838
   
   with help from (in alphabetical order)
   P. Atkinson, C. Bannwarth, F. Bohle, G. Brandenburg, E. Caldeweyher
   M. Checinski, S. Dohm, S. Ehlert, S. Ehrlich, I. Gerasimov, C. Hölzer
   A. Katbashev, J. Kohn, J. Koopman, C. Lavigne, S. Lehtola, F. März, M. Müller,
   F. Musil, H. Neugebauer, J. Pisarek, C. Plett, P. Pracht, F. Pultar,
   J. Seibert, P. Shushkov, S. Spicher, M. Stahn, M. Steiner, T. Strunk,
   J. Stückrath, T. Rose, and J. Unsleber
   
 * started run on 2026/03/08 at 17:05:42.452     
   ID    Z sym.   atoms
    1    9 F      1-11
    2    8 O      12, 13
    3    6 C      14-19

           -------------------------------------------------
          |                Calculation Setup                |
           -------------------------------------------------

          program call               : /users/rzwa/work/orca/orca-6.1.0/otool_xtb PFHxA_GOAT_XTB.xyz --grad -c -1 -u 0 -P 32 --namespace PFHxA_GOAT --input PFHxA_GOAT_XTB.input.tmp --alpb WATER --acc 0.200000
          hostname                   : node2414
          calculation namespace      : PFHxA_GOAT
          coordinate file            : PFHxA_GOAT_XTB.xyz
          omp threads                :                    32


           -------------------------------------------------
          |                 G F N 2 - x T B                 |
           -------------------------------------------------

        Reference                      10.1021/acs.jctc.8b01176
      * Hamiltonian:
        H0-scaling (s, p, d)           1.850000    2.230000    2.230000
        zeta-weighting                 0.500000
      * Dispersion:
        s8                             2.700000
        a1                             0.520000
        a2                             5.000000
        s9                             5.000000
      * Repulsion:
        kExp                           1.500000    1.000000
        rExp                           1.000000
      * Coulomb:
        alpha                          2.000000
        third order                    shell-resolved
        anisotropic                    true
        a3                             3.000000
        a5                             4.000000
        cn-shift                       1.200000
        cn-exp                         4.000000
        max-rad                        5.000000

      * Solvation model:               ALPB
        Solvent                        WATER
        Parameter file                 internal GFN2-xTB/ALPB
        Dielectric constant                8.0200E+01
        Reference state                gsolv [1 M gas/solution]
        Free energy shift                  1.0808E-03 Eh       6.7819E-01 kcal/mol
        Temperature                        2.9815E+02 K
        Density                            1.0000E+00 kg/L
        Solvent mass                       1.8000E+01 g/mol
        Interaction kernel             P16
        Born radius scaling (c1)           1.4744E+00
        Born radii integrator          GBOBC
        Born offset                        0.0000E+00 a0       0.0000E+00 AA
        H-bond correction              true
        Ion screening                  false
        Surface tension                    1.0000E-05 Eh       1.5569E+01 dyn/cm
        Grid points                               230 per atom
q/qsh data taken from xtbrestart
CAMM data taken from xtbrestart

          ...................................................
          :                      SETUP                      :
          :.................................................:
          :  # basis functions                  76          :
          :  # atomic orbitals                  76          :
          :  # shells                           38          :
          :  # electrons                       114          :
          :  max. iterations                   250          :
          :  Hamiltonian                  GFN2-xTB          :
          :  restarted?                       true          :
          :  GBSA solvation                   true          :
          :  PC potential                    false          :
          :  electronic temp.          300.0000000     K    :
          :  accuracy                    0.2000000          :
          :  -> integral cutoff          0.3198970E+02      :
          :  -> integral neglect         0.2000000E-08      :
          :  -> SCF convergence          0.2000000E-06 Eh   :
          :  -> wf. convergence          0.2000000E-04 e    :
          :  Broyden damping             0.4000000          :
          :  net charge                         -1          :
          :  unpaired electrons                  0          :
          ...................................................

 iter      E             dE          RMSdq      gap      omega  full diag
   1    -73.5938458 -0.735938E+02  0.949E-02    5.38       0.0  T
   2    -73.5938731 -0.273466E-04  0.553E-02    5.35       1.0  T
   3    -73.5938749 -0.176340E-05  0.249E-02    5.36       1.0  T
   4    -73.5938766 -0.172996E-05  0.396E-03    5.35       5.8  T
   5    -73.5938766 -0.318575E-07  0.187E-03    5.35      12.3  T
   6    -73.5938766 -0.763221E-08  0.504E-04    5.35      45.6  T
   7    -73.5938766 -0.206299E-09  0.216E-04    5.35     106.4  T
   8    -73.5938766 -0.503064E-10  0.339E-05    5.35     676.7  T
   9    -73.5938766 -0.700595E-11  0.121E-05    5.35    1894.0  T

   *** convergence criteria satisfied after 9 iterations ***

         #    Occupation            Energy/Eh            Energy/eV
      -------------------------------------------------------------
         1        2.0000           -0.9454469             -25.7269
       ...           ...                  ...                  ...
        51        2.0000           -0.5468056             -14.8793
        52        2.0000           -0.5425678             -14.7640
        53        2.0000           -0.5333596             -14.5135
        54        2.0000           -0.5162911             -14.0490
        55        2.0000           -0.4545393             -12.3686
        56        2.0000           -0.4430378             -12.0557
        57        2.0000           -0.4191584             -11.4059 (HOMO)
        58                         -0.2224155              -6.0522 (LUMO)
        59                         -0.1258409              -3.4243
        60                         -0.1142837              -3.1098
        61                         -0.1026518              -2.7933
        62                         -0.0929777              -2.5301
       ...                                ...                  ...
        76                          0.7370162              20.0552
      -------------------------------------------------------------
                  HL-Gap            0.1967429 Eh            5.3536 eV
             Fermi-level           -0.3207869 Eh           -8.7291 eV

 SCC (total)                   0 d,  0 h,  0 min,  0.065 sec
 SCC setup                      ...        0 min,  0.001 sec (  1.641%)
 Dispersion                     ...        0 min,  0.000 sec (  0.729%)
 classical contributions        ...        0 min,  0.000 sec (  0.391%)
 integral evaluation            ...        0 min,  0.016 sec ( 24.973%)
 iterations                     ...        0 min,  0.043 sec ( 66.014%)
 molecular gradient             ...        0 min,  0.004 sec (  5.614%)
 printout                       ...        0 min,  0.000 sec (  0.554%)

         :::::::::::::::::::::::::::::::::::::::::::::::::::::
         ::                     SUMMARY                     ::
         :::::::::::::::::::::::::::::::::::::::::::::::::::::
         :: total energy             -73.360249133132 Eh    ::
         :: total w/o Gsasa/hb       -73.370791873875 Eh    ::
         :: gradient norm              0.002656032442 Eh/a0 ::
         :: HOMO-LUMO gap              5.353646056044 eV    ::
         ::.................................................::
         :: SCC energy               -73.593738046100 Eh    ::
         :: -> isotropic ES            0.309766976255 Eh    ::
         :: -> anisotropic ES          0.003612893348 Eh    ::
         :: -> anisotropic XC         -0.076543725726 Eh    ::
         :: -> dispersion             -0.019848329954 Eh    ::
         :: -> Gsolv                  -0.079847995321 Eh    ::
         ::    -> Gelec               -0.090390736064 Eh    ::
         ::    -> Gsasa                0.013582290974 Eh    ::
         ::    -> Ghb                 -0.004120309929 Eh    ::
         ::    -> Gshift               0.001080759698 Eh    ::
         :: repulsion energy           0.233488912968 Eh    ::
         :: add. restraining           0.000000000000 Eh    ::
         :: total charge              -1.000000000000 e     ::
         :::::::::::::::::::::::::::::::::::::::::::::::::::::


Property printout bound to 'properties.out'

           -------------------------------------------------
          | TOTAL ENERGY              -73.360249133132 Eh   |
          | GRADIENT NORM               0.002656032442 Eh/α |
          | HOMO-LUMO GAP               5.353646056044 eV   |
           -------------------------------------------------

------------------------------------------------------------------------
 * finished run on 2026/03/08 at 17:05:42.563     
------------------------------------------------------------------------
 total:
 * wall-time:     0 d,  0 h,  0 min,  0.110 sec
 *  cpu-time:     0 d,  0 h,  0 min,  1.809 sec
 * ratio c/w:    16.409 speedup
 SCF:
 * wall-time:     0 d,  0 h,  0 min,  0.065 sec
 *  cpu-time:     0 d,  0 h,  0 min,  1.167 sec
 * ratio c/w:    17.819 speedup


-------------------------   --------------------
FINAL SINGLE POINT ENERGY       -73.360249133130
-------------------------   --------------------


-------------
DIPOLE MOMENT
-------------
                                X             Y             Z
Total Dipole Moment    :      4.17200       1.06000      -0.58300
                        -----------------------------------------
Magnitude (a.u.)       :      4.34385
Magnitude (Debye)      :     11.04120


------------------
CARTESIAN GRADIENT
------------------

   1   F   :    0.000222680   -0.000150795   -0.000310221
   2   F   :    0.000050763    0.000015971   -0.000173411
   3   F   :    0.000167370   -0.000156934   -0.000024209
   4   F   :    0.000043490    0.000208856   -0.000047118
   5   F   :    0.000237676   -0.000376490    0.000025473
   6   F   :    0.000005009   -0.000109943   -0.000064685
   7   F   :    0.000152240    0.000232881   -0.000222576
   8   F   :    0.000042228   -0.000012404    0.000321668
   9   F   :   -0.000141248    0.000111416    0.000192206
  10   F   :    0.000051727    0.000070571   -0.000101571
  11   F   :    0.000099545    0.000222339   -0.000289576
  12   O   :    0.000396531    0.000508470    0.000600751
  13   O   :   -0.000227596    0.000878365    0.000176710
  14   C   :   -0.000281902    0.000206962    0.000642342
  15   C   :   -0.000294513   -0.000496885    0.000140464
  16   C   :   -0.000402473    0.000372704    0.000010052
  17   C   :   -0.000353303   -0.000292461    0.000126147
  18   C   :   -0.000383391   -0.000211380    0.000173986
  19   C   :    0.000615164   -0.001021244   -0.001176433

Difference to translation invariance:
           :    0.0000000000    0.0000000000   -0.0000000000

Difference to rotation invariance:
           :   -0.0001012051   -0.0001154290   -0.0000163386

Norm of the Cartesian gradient     ...    0.0026560324
RMS gradient                       ...    0.0003518001
MAX gradient                       ...    0.0011764328
------------------------------------------------------------------------------
                         ORCA GEOMETRY RELAXATION STEP
------------------------------------------------------------------------------

Reading the OPT-File                    .... done
Getting information on internals        .... done
Copying old internal coords+grads       .... done
Making the new internal coordinates     .... (2022 redundants) done
Validating the new internal coordinates .... (2022 redundants) done
Calculating the B-matrix                .... done
Calculating the G,G- and P matrices     .... done
Transforming gradient to internals      .... done
Projecting the internal gradient        .... done
Number of atoms                         ....  19
Number of internal coordinates          ....  80
Current Energy                          ....   -73.360249133 Eh
Current gradient norm                   ....     0.002656032 Eh/bohr
Maximum allowed component of the step   ....  0.300
Current trust radius                    ....  0.700
Updating the Hessian (BFGS)             .... done
Forming the augmented Hessian           .... done
Diagonalizing the augmented Hessian     .... done
Last element of RFO vector              ....  0.999372295
Lowest eigenvalues of augmented Hessian:
 -0.000048808  0.007046323  0.009947236  0.010015512  0.010615290
Length of the computed step             ....  0.035448466
The final length of the internal step   ....  0.035448466
Converting the step to Cartesian space:
 Initial RMS(Int)=    0.0039632590
Transforming coordinates:
 Iter   0:  RMS(Cart)=    0.0130543106 RMS(Int)=    0.0039594595
done
Storing new coordinates                 .... done
The predicted energy change is          ....    -0.000024435
Previously predicted energy change      ....    -0.000071782
Actually observed energy change         ....    -0.000039861
Ratio of predicted to observed change   ....     0.555306528
New trust radius                        ....     0.700000000

                                .--------------------.
          ----------------------|Geometry convergence|-------------------------
          Item                value                   Tolerance       Converged
          ---------------------------------------------------------------------
          Energy change      -0.0000398608            0.0000050000      NO
          RMS gradient        0.0003600791            0.0001000000      NO
          MAX gradient        0.0011021353            0.0003000000      NO
          RMS step            0.0039632590            0.0020000000      NO
          MAX step            0.0115928083            0.0040000000      NO
          -------------------------------------------------------------------------
          ........................................................
          Max(Bonds)      0.0008      Max(Angles)    0.14
          Max(Dihed)        0.66      Max(Improp)    0.00
          ---------------------------------------------------------------------

    ---------------------------------------------------------------------------
                         Redundant Internal Coordinates
                            (Angstroem and degrees)

        Definition                    Value    dE/dq     Step     New-Value
    ----------------------------------------------------------------------------
     1. B(C  13,F   1)                1.3449 -0.000014 -0.0001    1.3449   
     2. B(C  13,F   0)                1.3560  0.000351 -0.0004    1.3556   
     3. B(C  14,F   2)                1.3650 -0.000033 -0.0002    1.3648   
     4. B(C  14,C  13)                1.5490 -0.000464  0.0006    1.5497   
     5. B(C  14,F   3)                1.3485  0.000037 -0.0001    1.3484   
     6. B(C  15,F   5)                1.3384 -0.000021 -0.0000    1.3383   
     7. B(C  15,F   4)                1.3533  0.000405 -0.0003    1.3530   
     8. B(C  15,C  13)                1.5546 -0.000429  0.0005    1.5551   
     9. B(C  16,C  14)                1.5314 -0.000531  0.0008    1.5321   
    10. B(C  16,F   7)                1.3639 -0.000030 -0.0001    1.3638   
    11. B(C  16,F   6)                1.3643 -0.000085 -0.0001    1.3642   
    12. B(C  17,F  10)                1.3293  0.000376 -0.0003    1.3290   
    13. B(C  17,F   9)                1.3294 -0.000031  0.0000    1.3294   
    14. B(C  17,C  15)                1.5589 -0.000096  0.0001    1.5590   
    15. B(C  17,F   8)                1.3250  0.000250 -0.0002    1.3248   
    16. B(C  18,C  16)                1.6544 -0.000729  0.0002    1.6546   
    17. B(C  18,O  12)                1.2168 -0.000595  0.0004    1.2173   
    18. B(C  18,O  11)                1.2168 -0.000652  0.0005    1.2173   
    19. A(F   1,C  13,C  15)          108.22  0.000317   -0.07    108.16   
    20. A(F   1,C  13,C  14)          110.15  0.000490   -0.07    110.08   
    21. A(F   0,C  13,C  15)          106.47  0.000288    0.01    106.48   
    22. A(C  14,C  13,C  15)          118.40 -0.001102    0.12    118.52   
    23. A(F   0,C  13,F   1)          105.36 -0.000245    0.06    105.42   
    24. A(F   0,C  13,C  14)          107.42  0.000316   -0.05    107.37   
    25. A(F   3,C  14,C  13)          107.04  0.000337   -0.09    106.95   
    26. A(F   2,C  14,C  16)          111.74 -0.000161   -0.04    111.70   
    27. A(F   2,C  14,C  13)          107.19 -0.000093    0.04    107.23   
    28. A(F   3,C  14,C  16)          109.56  0.000666   -0.09    109.47   
    29. A(F   2,C  14,F   3)          104.98 -0.000112    0.05    105.03   
    30. A(C  13,C  14,C  16)          115.70 -0.000587    0.13    115.82   
    31. A(F   4,C  15,F   5)          106.21 -0.000207    0.06    106.27   
    32. A(F   5,C  15,C  13)          112.24  0.000204   -0.04    112.19   
    33. A(C  13,C  15,C  17)          115.84 -0.000790    0.11    115.94   
    34. A(F   4,C  15,C  17)          106.62  0.000668   -0.04    106.59   
    35. A(F   4,C  15,C  13)          106.60  0.000312   -0.06    106.54   
    36. A(F   5,C  15,C  17)          108.73 -0.000104   -0.02    108.71   
    37. A(F   7,C  16,C  18)          111.26  0.000247   -0.07    111.18   
    38. A(F   6,C  16,C  18)          112.11  0.000342   -0.05    112.06   
    39. A(F   6,C  16,F   7)          104.97 -0.000218    0.06    105.03   
    40. A(C  14,C  16,C  18)          112.02 -0.000635    0.14    112.16   
    41. A(F   7,C  16,C  14)          107.63  0.000407   -0.10    107.53   
    42. A(F   6,C  16,C  14)          108.52 -0.000115    0.01    108.53   
    43. A(F  10,C  17,C  15)          111.93  0.000038    0.01    111.94   
    44. A(F   9,C  17,C  15)          109.19  0.000219   -0.03    109.15   
    45. A(F   8,C  17,C  15)          112.49 -0.000207   -0.04    112.46   
    46. A(F   9,C  17,F  10)          107.24  0.000039    0.02    107.26   
    47. A(F   8,C  17,F  10)          108.29 -0.000091    0.03    108.31   
    48. A(F   8,C  17,F   9)          107.48  0.000011    0.02    107.50   
    49. A(O  11,C  18,O  12)          134.91  0.000656   -0.09    134.81   
    50. A(O  12,C  18,C  16)          112.71 -0.000281    0.04    112.75   
    51. A(O  11,C  18,C  16)          112.37 -0.000363    0.05    112.42   
    52. D(F   2,C  14,C  13,F   1)   -173.37  0.000105   -0.23   -173.60   
    53. D(F   3,C  14,C  13,F   0)     53.09  0.000221   -0.20     52.89   
    54. D(F   2,C  14,C  13,F   0)    -59.12  0.000236   -0.22    -59.34   
    55. D(F   3,C  14,C  13,C  15)    173.58  0.000107   -0.15    173.44   
    56. D(F   2,C  14,C  13,C  15)     61.38  0.000123   -0.18     61.21   
    57. D(F   3,C  14,C  13,F   1)    -61.17  0.000089   -0.20    -61.38   
    58. D(F   4,C  15,C  13,F   0)    -53.56  0.000182   -0.47    -54.03   
    59. D(F   5,C  15,C  13,F   0)   -169.44  0.000136   -0.48   -169.92   
    60. D(F   5,C  15,C  13,C  14)     69.57  0.000225   -0.50     69.08   
    61. D(F   5,C  15,C  13,F   1)    -56.60  0.000139   -0.44    -57.04   
    62. D(F   4,C  15,C  13,C  14)   -174.55  0.000271   -0.49   -175.03   
    63. D(F   4,C  15,C  13,F   1)     59.28  0.000185   -0.43     58.85   
    64. D(F   6,C  16,C  14,C  13)     68.76 -0.000298   -0.19     68.57   
    65. D(F   6,C  16,C  14,F   3)   -170.18  0.000248   -0.28   -170.46   
    66. D(F   6,C  16,C  14,F   2)    -54.26  0.000426   -0.30    -54.56   
    67. D(F   7,C  16,C  14,C  13)   -178.15 -0.000404   -0.16   -178.31   
    68. D(F   7,C  16,C  14,F   3)    -57.08  0.000142   -0.25    -57.33   
    69. D(F   7,C  16,C  14,F   2)     58.84  0.000320   -0.27     58.56   
    70. D(F   9,C  17,C  15,C  13)   -161.78 -0.000186   -0.41   -162.19   
    71. D(F   9,C  17,C  15,F   5)     70.76  0.000256   -0.42     70.35   
    72. D(F   9,C  17,C  15,F   4)    -43.37  0.000208   -0.45    -43.82   
    73. D(F   8,C  17,C  15,C  13)     78.99 -0.000216   -0.39     78.60   
    74. D(F   8,C  17,C  15,F   5)    -48.47  0.000226   -0.39    -48.86   
    75. D(F   8,C  17,C  15,F   4)   -162.60  0.000178   -0.43   -163.03   
    76. D(O  12,C  18,C  16,F   7)   -137.13  0.000551   -0.66   -137.80   
    77. D(O  12,C  18,C  16,F   6)    -19.93  0.000660   -0.66    -20.59   
    78. D(O  11,C  18,C  16,C  14)    -76.89 -0.000485   -0.14    -77.03   
    79. D(O  11,C  18,C  16,F   7)     43.63 -0.000229   -0.23     43.40   
    80. D(O  11,C  18,C  16,F   6)    160.84 -0.000119   -0.23    160.61   
    ----------------------------------------------------------------------------

Geometry step timings:
Preparation and reading OPT file:      0.000 s ( 1.580 %)
Internal coordinates            :      0.000 s ( 0.934 %)
B/P matrices and projection     :      0.001 s (28.113 %)
Hessian update/contruction      :      0.001 s (20.809 %)
Making the step                 :      0.001 s (23.515 %)
Converting the step to Cartesian:      0.000 s ( 2.371 %)
Storing new data                :      0.000 s ( 2.443 %)
Checking convergence            :      0.000 s ( 1.245 %)
Final printing                  :      0.001 s (18.942 %)
Total time                      :      0.004 s

Time for energy+gradient        :      0.149 s
Time for complete geometry iter :      0.155 s

         *************************************************************
         *                GEOMETRY OPTIMIZATION CYCLE   8            *
         *************************************************************
---------------------------------
CARTESIAN COORDINATES (ANGSTROEM)
---------------------------------
  F     0.912893   -0.245012   -2.093233
  F    -0.465590   -1.588151   -1.138360
  F     0.079065    1.855514   -0.641226
  F    -1.432615    0.877171   -1.821595
  F     2.085199   -1.789866   -0.351024
  F     0.800369   -1.227953    1.282832
  F    -0.875407    0.698066    1.645884
  F    -2.406979    1.746952    0.532176
  F     1.779183    1.287521    1.280629
  F     3.388906   -0.109416    1.083035
  F     2.739107    1.006698   -0.624007
  O    -3.484912   -0.649939   -0.315158
  O    -2.138374   -1.618580    1.201674
  C     0.250850   -0.468941   -0.931628
  C    -0.697483    0.734665   -0.700199
  C     1.333798   -0.777945    0.140859
  C    -1.629339    0.626757    0.511158
  C     2.316795    0.385790    0.472505
  C    -2.555766   -0.743431    0.465677

----------------------------
CARTESIAN COORDINATES (A.U.)
----------------------------
  NO LB    ZA    FRAG    MASS        X           Y           Z
   0 F   9.0000    1    18.998    1.725118   -0.463006   -3.955637
   1 F   9.0000    1    18.998   -0.879837   -3.001171   -2.151188
   2 F   9.0000    1    18.998    0.149412    3.506414   -1.211742
   3 F   9.0000    1    18.998   -2.707250    1.657613   -3.442316
   4 F   9.0000    1    18.998    3.940454   -3.382356   -0.663340
   5 F   9.0000    1    18.998    1.512479   -2.320495    2.424202
   6 F   9.0000    1    18.998   -1.654279    1.319154    3.110271
   7 F   9.0000    1    18.998   -4.548532    3.301261    1.005667
   8 F   9.0000    1    18.998    3.362168    2.433062    2.420039
   9 F   9.0000    1    18.998    6.404104   -0.206767    2.046639
  10 F   9.0000    1    18.998    5.176162    1.902383   -1.179203
  11 O   8.0000    1    15.999   -6.585529   -1.228207   -0.595562
  12 O   8.0000    1    15.999   -4.040942   -3.058672    2.270835
  13 C   6.0000    1    12.011    0.474038   -0.886170   -1.760522
  14 C   6.0000    1    12.011   -1.318052    1.388316   -1.323185
  15 C   6.0000    1    12.011    2.520513   -1.470104    0.266185
  16 C   6.0000    1    12.011   -3.079004    1.184399    0.965949
  17 C   6.0000    1    12.011    4.378108    0.729037    0.892905
  18 C   6.0000    1    12.011   -4.829697   -1.404880    0.880002

      -----------------------------------------------------------      
     |                   =====================                   |     
     |                           x T B                           |     
     |                   =====================                   |     
     |                         S. Grimme                         |     
     |          Mulliken Center for Theoretical Chemistry        |     
     |                    University of Bonn                     |     
      -----------------------------------------------------------      

   * xtb version 6.7.1 (edcfbbe) compiled by 'albert@albert-system' on 2024-07-22

   xtb is free software: you can redistribute it and/or modify it under
   the terms of the GNU Lesser General Public License as published by
   the Free Software Foundation, either version 3 of the License, or
   (at your option) any later version.
   
   xtb is distributed in the hope that it will be useful,
   but WITHOUT ANY WARRANTY; without even the implied warranty of
   MERCHANTABILITY or FITNESS FOR A PARTICULAR PURPOSE.  See the
   GNU Lesser General Public License for more details.
   
   Cite this work as:
   * C. Bannwarth, E. Caldeweyher, S. Ehlert, A. Hansen, P. Pracht,
     J. Seibert, S. Spicher, S. Grimme, WIREs Comput. Mol. Sci., 2020, 11,
     e01493. DOI: 10.1002/wcms.1493
   
   for GFN2-xTB:
   * C. Bannwarth, S. Ehlert and S. Grimme., J. Chem. Theory Comput., 2019,
     15, 1652-1671. DOI: 10.1021/acs.jctc.8b01176
   for GFN1-xTB:
   * S. Grimme, C. Bannwarth, P. Shushkov, J. Chem. Theory Comput., 2017,
     13, 1989-2009. DOI: 10.1021/acs.jctc.7b00118
   for GFN0-xTB:
   * P. Pracht, E. Caldeweyher, S. Ehlert, S. Grimme, ChemRxiv, 2019, preprint.
     DOI: 10.26434/chemrxiv.8326202.v1
   for GFN-FF:
   * S. Spicher and S. Grimme, Angew. Chem. Int. Ed., 2020, 59, 15665-15673.
     DOI: 10.1002/anie.202004239
   
   for ALPB and GBSA implicit solvation:
   * S. Ehlert, M. Stahn, S. Spicher, S. Grimme, J. Chem. Theory Comput.,
     2021, 17, 4250-4261. DOI: 10.1021/acs.jctc.1c00471
   
   for ddCOSMO and CPCM-X implicit solvation:
   * M. Stahn, S. Ehlert, S. Grimme, J. Phys. Chem. A,
     2023, XX, XXXX-XXXX. DOI: 10.1021/acs.jpca.3c04382
   
   for DFT-D4:
   * E. Caldeweyher, C. Bannwarth and S. Grimme, J. Chem. Phys., 2017,
     147, 034112. DOI: 10.1063/1.4993215
   * E. Caldeweyher, S. Ehlert, A. Hansen, H. Neugebauer, S. Spicher,
     C. Bannwarth and S. Grimme, J. Chem. Phys., 2019, 150, 154122.
     DOI: 10.1063/1.5090222
   * E. Caldeweyher, J.-M. Mewes, S. Ehlert and S. Grimme, Phys. Chem. Chem. Phys.
     2020, 22, 8499-8512. DOI: 10.1039/D0CP00502A
   
   for sTDA-xTB:
   * S. Grimme and C. Bannwarth, J. Chem. Phys., 2016, 145, 054103.
     DOI: 10.1063/1.4959605
   
   in the mass-spec context:
   * V. Asgeirsson, C. Bauer and S. Grimme, Chem. Sci., 2017, 8, 4879.
     DOI: 10.1039/c7sc00601b
   * J. Koopman and S. Grimme, ACS Omega 2019, 4, 12, 15120-15133.
     DOI: 10.1021/acsomega.9b02011
   
   for metadynamics refer to:
   * S. Grimme, J. Chem. Theory Comput., 2019, 155, 2847-2862
     DOI: 10.1021/acs.jctc.9b00143
   
   for SPH calculations refer to:
   * S. Spicher and S. Grimme, J. Chem. Theory Comput., 2021, 17, 1701-1714
     DOI: 10.1021/acs.jctc.0c01306
   
   for ONIOM refer to:
   * C. Plett, A. Katbashev, S. Ehlert, S. Grimme, M. Bursch,
     Phys. Chem. Chem. Phys., 2023, 25, 17860-17868. DOI: 10.1039/D3CP02178E
   
   for DIPRO refer to:
   * J. Kohn, N. Gildemeister, S. Grimme, D. Fazzi, A. Hansen,
     J. Chem. Phys., 2023, just accepted.
   
   for PTB refer to:
   * S. Grimme, M. Mueller, A. Hansen, J. Chem. Phys., 2023, 158, 124111.
     DOI: 10.1063/5.0137838
   
   with help from (in alphabetical order)
   P. Atkinson, C. Bannwarth, F. Bohle, G. Brandenburg, E. Caldeweyher
   M. Checinski, S. Dohm, S. Ehlert, S. Ehrlich, I. Gerasimov, C. Hölzer
   A. Katbashev, J. Kohn, J. Koopman, C. Lavigne, S. Lehtola, F. März, M. Müller,
   F. Musil, H. Neugebauer, J. Pisarek, C. Plett, P. Pracht, F. Pultar,
   J. Seibert, P. Shushkov, S. Spicher, M. Stahn, M. Steiner, T. Strunk,
   J. Stückrath, T. Rose, and J. Unsleber
   
 * started run on 2026/03/08 at 17:05:42.607     
   ID    Z sym.   atoms
    1    9 F      1-11
    2    8 O      12, 13
    3    6 C      14-19

           -------------------------------------------------
          |                Calculation Setup                |
           -------------------------------------------------

          program call               : /users/rzwa/work/orca/orca-6.1.0/otool_xtb PFHxA_GOAT_XTB.xyz --grad -c -1 -u 0 -P 32 --namespace PFHxA_GOAT --input PFHxA_GOAT_XTB.input.tmp --alpb WATER --acc 0.200000
          hostname                   : node2414
          calculation namespace      : PFHxA_GOAT
          coordinate file            : PFHxA_GOAT_XTB.xyz
          omp threads                :                    32


           -------------------------------------------------
          |                 G F N 2 - x T B                 |
           -------------------------------------------------

        Reference                      10.1021/acs.jctc.8b01176
      * Hamiltonian:
        H0-scaling (s, p, d)           1.850000    2.230000    2.230000
        zeta-weighting                 0.500000
      * Dispersion:
        s8                             2.700000
        a1                             0.520000
        a2                             5.000000
        s9                             5.000000
      * Repulsion:
        kExp                           1.500000    1.000000
        rExp                           1.000000
      * Coulomb:
        alpha                          2.000000
        third order                    shell-resolved
        anisotropic                    true
        a3                             3.000000
        a5                             4.000000
        cn-shift                       1.200000
        cn-exp                         4.000000
        max-rad                        5.000000

      * Solvation model:               ALPB
        Solvent                        WATER
        Parameter file                 internal GFN2-xTB/ALPB
        Dielectric constant                8.0200E+01
        Reference state                gsolv [1 M gas/solution]
        Free energy shift                  1.0808E-03 Eh       6.7819E-01 kcal/mol
        Temperature                        2.9815E+02 K
        Density                            1.0000E+00 kg/L
        Solvent mass                       1.8000E+01 g/mol
        Interaction kernel             P16
        Born radius scaling (c1)           1.4744E+00
        Born radii integrator          GBOBC
        Born offset                        0.0000E+00 a0       0.0000E+00 AA
        H-bond correction              true
        Ion screening                  false
        Surface tension                    1.0000E-05 Eh       1.5569E+01 dyn/cm
        Grid points                               230 per atom
q/qsh data taken from xtbrestart
CAMM data taken from xtbrestart

          ...................................................
          :                      SETUP                      :
          :.................................................:
          :  # basis functions                  76          :
          :  # atomic orbitals                  76          :
          :  # shells                           38          :
          :  # electrons                       114          :
          :  max. iterations                   250          :
          :  Hamiltonian                  GFN2-xTB          :
          :  restarted?                       true          :
          :  GBSA solvation                   true          :
          :  PC potential                    false          :
          :  electronic temp.          300.0000000     K    :
          :  accuracy                    0.2000000          :
          :  -> integral cutoff          0.3198970E+02      :
          :  -> integral neglect         0.2000000E-08      :
          :  -> SCF convergence          0.2000000E-06 Eh   :
          :  -> wf. convergence          0.2000000E-04 e    :
          :  Broyden damping             0.4000000          :
          :  net charge                         -1          :
          :  unpaired electrons                  0          :
          ...................................................

 iter      E             dE          RMSdq      gap      omega  full diag
   1    -73.5936238 -0.735936E+02  0.292E-02    5.35       0.0  T
   2    -73.5936241 -0.276232E-06  0.177E-02    5.35       1.3  T
   3    -73.5936242 -0.691828E-07  0.219E-03    5.35      10.5  T
   4    -73.5936242 -0.397911E-07  0.852E-04    5.35      26.9  T
   5    -73.5936242 -0.754397E-09  0.274E-04    5.35      83.8  T
   6    -73.5936242 -0.190497E-09  0.890E-05    5.35     257.9  T
   7    -73.5936242 -0.111839E-10  0.125E-05    5.35    1837.1  T

   *** convergence criteria satisfied after 7 iterations ***

         #    Occupation            Energy/Eh            Energy/eV
      -------------------------------------------------------------
         1        2.0000           -0.9454841             -25.7279
       ...           ...                  ...                  ...
        51        2.0000           -0.5467870             -14.8788
        52        2.0000           -0.5424353             -14.7604
        53        2.0000           -0.5332700             -14.5110
        54        2.0000           -0.5161751             -14.0458
        55        2.0000           -0.4543611             -12.3638
        56        2.0000           -0.4428234             -12.0498
        57        2.0000           -0.4191659             -11.4061 (HOMO)
        58                         -0.2226272              -6.0580 (LUMO)
        59                         -0.1259900              -3.4284
        60                         -0.1140696              -3.1040
        61                         -0.1023296              -2.7845
        62                         -0.0930015              -2.5307
       ...                                ...                  ...
        76                          0.7344740              19.9861
      -------------------------------------------------------------
                  HL-Gap            0.1965388 Eh            5.3481 eV
             Fermi-level           -0.3208965 Eh           -8.7320 eV

 SCC (total)                   0 d,  0 h,  0 min,  0.037 sec
 SCC setup                      ...        0 min,  0.001 sec (  1.911%)
 Dispersion                     ...        0 min,  0.000 sec (  0.935%)
 classical contributions        ...        0 min,  0.000 sec (  0.478%)
 integral evaluation            ...        0 min,  0.002 sec (  4.717%)
 iterations                     ...        0 min,  0.031 sec ( 82.904%)
 molecular gradient             ...        0 min,  0.003 sec (  8.155%)
 printout                       ...        0 min,  0.000 sec (  0.760%)

         :::::::::::::::::::::::::::::::::::::::::::::::::::::
         ::                     SUMMARY                     ::
         :::::::::::::::::::::::::::::::::::::::::::::::::::::
         :: total energy             -73.360278479713 Eh    ::
         :: total w/o Gsasa/hb       -73.370827886986 Eh    ::
         :: gradient norm              0.001021969143 Eh/a0 ::
         :: HOMO-LUMO gap              5.348091786708 eV    ::
         ::.................................................::
         :: SCC energy               -73.593486135502 Eh    ::
         :: -> isotropic ES            0.309864373511 Eh    ::
         :: -> anisotropic ES          0.003663992995 Eh    ::
         :: -> anisotropic XC         -0.076539534107 Eh    ::
         :: -> dispersion             -0.019813140945 Eh    ::
         :: -> Gsolv                  -0.079902414244 Eh    ::
         ::    -> Gelec               -0.090451821517 Eh    ::
         ::    -> Gsasa                0.013595904881 Eh    ::
         ::    -> Ghb                 -0.004127257307 Eh    ::
         ::    -> Gshift               0.001080759698 Eh    ::
         :: repulsion energy           0.233207655788 Eh    ::
         :: add. restraining           0.000000000000 Eh    ::
         :: total charge              -1.000000000000 e     ::
         :::::::::::::::::::::::::::::::::::::::::::::::::::::


Property printout bound to 'properties.out'

           -------------------------------------------------
          | TOTAL ENERGY              -73.360278479713 Eh   |
          | GRADIENT NORM               0.001021969143 Eh/α |
          | HOMO-LUMO GAP               5.348091786708 eV   |
           -------------------------------------------------

------------------------------------------------------------------------
 * finished run on 2026/03/08 at 17:05:42.687     
------------------------------------------------------------------------
 total:
 * wall-time:     0 d,  0 h,  0 min,  0.080 sec
 *  cpu-time:     0 d,  0 h,  0 min,  1.477 sec
 * ratio c/w:    18.523 speedup
 SCF:
 * wall-time:     0 d,  0 h,  0 min,  0.037 sec
 *  cpu-time:     0 d,  0 h,  0 min,  0.792 sec
 * ratio c/w:    21.235 speedup


-------------------------   --------------------
FINAL SINGLE POINT ENERGY       -73.360278479710
-------------------------   --------------------


-------------
DIPOLE MOMENT
-------------
                                X             Y             Z
Total Dipole Moment    :      4.19400       1.07100      -0.57200
                        -----------------------------------------
Magnitude (a.u.)       :      4.36622
Magnitude (Debye)      :     11.09804


------------------
CARTESIAN GRADIENT
------------------

   1   F   :    0.000159362   -0.000084656   -0.000144791
   2   F   :    0.000003648    0.000060882   -0.000045465
   3   F   :    0.000107359   -0.000058515    0.000043288
   4   F   :    0.000030861    0.000084287    0.000063876
   5   F   :    0.000121724   -0.000148441    0.000009685
   6   F   :   -0.000008666   -0.000028510   -0.000128676
   7   F   :    0.000034316    0.000050614   -0.000205879
   8   F   :    0.000020524   -0.000128659    0.000172943
   9   F   :    0.000020008   -0.000014022    0.000044277
  10   F   :    0.000029436    0.000036613   -0.000104594
  11   F   :    0.000162710    0.000073908   -0.000198500
  12   O   :    0.000027356    0.000252927   -0.000109140
  13   O   :    0.000023122    0.000180001    0.000144741
  14   C   :   -0.000133124   -0.000081874    0.000205651
  15   C   :   -0.000230957   -0.000139393   -0.000163004
  16   C   :   -0.000157011    0.000165848    0.000216478
  17   C   :   -0.000300528   -0.000044376    0.000182065
  18   C   :   -0.000163678    0.000036310    0.000185712
  19   C   :    0.000253537   -0.000212943   -0.000168667

Difference to translation invariance:
           :   -0.0000000000   -0.0000000000    0.0000000000

Difference to rotation invariance:
           :   -0.0000983229   -0.0001428178   -0.0000080426

Norm of the Cartesian gradient     ...    0.0010219691
RMS gradient                       ...    0.0001353631
MAX gradient                       ...    0.0003005275
------------------------------------------------------------------------------
                         ORCA GEOMETRY RELAXATION STEP
------------------------------------------------------------------------------

Reading the OPT-File                    .... done
Getting information on internals        .... done
Copying old internal coords+grads       .... done
Making the new internal coordinates     .... (2022 redundants) done
Validating the new internal coordinates .... (2022 redundants) done
Calculating the B-matrix                .... done
Calculating the G,G- and P matrices     .... done
Transforming gradient to internals      .... done
Projecting the internal gradient        .... done
Number of atoms                         ....  19
Number of internal coordinates          ....  80
Current Energy                          ....   -73.360278480 Eh
Current gradient norm                   ....     0.001021969 Eh/bohr
Maximum allowed component of the step   ....  0.300
Current trust radius                    ....  0.700
Updating the Hessian (BFGS)             .... done
Forming the augmented Hessian           .... done
Diagonalizing the augmented Hessian     .... done
Last element of RFO vector              ....  0.999489652
Lowest eigenvalues of augmented Hessian:
 -0.000011169  0.006214307  0.009642127  0.010020396  0.010530637
Length of the computed step             ....  0.031960558
The final length of the internal step   ....  0.031960558
Converting the step to Cartesian space:
 Initial RMS(Int)=    0.0035732990
Transforming coordinates:
 Iter   0:  RMS(Cart)=    0.0060509178 RMS(Int)=    0.0035729839
done
Storing new coordinates                 .... done
The predicted energy change is          ....    -0.000005590
Previously predicted energy change      ....    -0.000024435
Actually observed energy change         ....    -0.000029347
Ratio of predicted to observed change   ....     1.201025392
New trust radius                        ....     0.700000000

                                .--------------------.
          ----------------------|Geometry convergence|-------------------------
          Item                value                   Tolerance       Converged
          ---------------------------------------------------------------------
          Energy change      -0.0000293466            0.0000050000      NO
          RMS gradient        0.0001317236            0.0001000000      NO
          MAX gradient        0.0003493751            0.0003000000      NO
          RMS step            0.0035732990            0.0020000000      NO
          MAX step            0.0137701912            0.0040000000      NO
          -------------------------------------------------------------------------
          ........................................................
          Max(Bonds)      0.0013      Max(Angles)    0.09
          Max(Dihed)        0.79      Max(Improp)    0.00
          ---------------------------------------------------------------------

    ---------------------------------------------------------------------------
                         Redundant Internal Coordinates
                            (Angstroem and degrees)

        Definition                    Value    dE/dq     Step     New-Value
    ----------------------------------------------------------------------------
     1. B(C  13,F   1)                1.3449 -0.000046 -0.0001    1.3448   
     2. B(C  13,F   0)                1.3556  0.000188 -0.0002    1.3554   
     3. B(C  14,F   2)                1.3648  0.000015  0.0000    1.3649   
     4. B(C  14,C  13)                1.5497  0.000003  0.0001    1.5498   
     5. B(C  14,F   3)                1.3484 -0.000062  0.0000    1.3485   
     6. B(C  15,F   5)                1.3383 -0.000099  0.0000    1.3384   
     7. B(C  15,F   4)                1.3530  0.000176 -0.0002    1.3528   
     8. B(C  15,C  13)                1.5551 -0.000011  0.0001    1.5552   
     9. B(C  16,C  14)                1.5321 -0.000023  0.0000    1.5322   
    10. B(C  16,F   7)                1.3638 -0.000115  0.0000    1.3638   
    11. B(C  16,F   6)                1.3642 -0.000148  0.0001    1.3643   
    12. B(C  17,F  10)                1.3290  0.000251 -0.0003    1.3287   
    13. B(C  17,F   9)                1.3294 -0.000038  0.0001    1.3295   
    14. B(C  17,C  15)                1.5590  0.000113 -0.0001    1.5589   
    15. B(C  17,F   8)                1.3248  0.000008 -0.0001    1.3248   
    16. B(C  18,C  16)                1.6546 -0.000348  0.0013    1.6559   
    17. B(C  18,O  12)                1.2173 -0.000033 -0.0000    1.2173   
    18. B(C  18,O  11)                1.2173  0.000067 -0.0001    1.2172   
    19. A(F   1,C  13,C  15)          108.16  0.000203   -0.04    108.12   
    20. A(F   1,C  13,C  14)          110.08  0.000033   -0.03    110.05   
    21. A(F   0,C  13,C  15)          106.48 -0.000060    0.02    106.50   
    22. A(C  14,C  13,C  15)          118.52 -0.000322    0.07    118.59   
    23. A(F   0,C  13,F   1)          105.42 -0.000074    0.04    105.46   
    24. A(F   0,C  13,C  14)          107.37  0.000237   -0.06    107.31   
    25. A(F   3,C  14,C  13)          106.95  0.000203   -0.08    106.87   
    26. A(F   2,C  14,C  16)          111.70  0.000124   -0.00    111.69   
    27. A(F   2,C  14,C  13)          107.22 -0.000072    0.02    107.24   
    28. A(F   3,C  14,C  16)          109.47  0.000049   -0.05    109.42   
    29. A(F   2,C  14,F   3)          105.03 -0.000022    0.02    105.05   
    30. A(C  13,C  14,C  16)          115.82 -0.000259    0.09    115.91   
    31. A(F   4,C  15,F   5)          106.27 -0.000056    0.04    106.30   
    32. A(F   5,C  15,C  13)          112.19 -0.000009   -0.01    112.18   
    33. A(C  13,C  15,C  17)          115.94 -0.000176    0.04    115.98   
    34. A(F   4,C  15,C  17)          106.59 -0.000049    0.01    106.59   
    35. A(F   4,C  15,C  13)          106.54  0.000095   -0.03    106.51   
    36. A(F   5,C  15,C  17)          108.71  0.000194   -0.04    108.67   
    37. A(F   7,C  16,C  18)          111.18 -0.000022   -0.03    111.15   
    38. A(F   6,C  16,C  18)          112.06  0.000256   -0.07    111.99   
    39. A(F   6,C  16,F   7)          105.03 -0.000085    0.04    105.07   
    40. A(C  14,C  16,C  18)          112.16 -0.000349    0.09    112.25   
    41. A(F   7,C  16,C  14)          107.53  0.000270   -0.07    107.46   
    42. A(F   6,C  16,C  14)          108.53 -0.000050    0.03    108.56   
    43. A(F  10,C  17,C  15)          111.94  0.000022    0.01    111.94   
    44. A(F   9,C  17,C  15)          109.15 -0.000004   -0.02    109.14   
    45. A(F   8,C  17,C  15)          112.45  0.000066   -0.03    112.42   
    46. A(F   9,C  17,F  10)          107.26 -0.000176    0.03    107.29   
    47. A(F   8,C  17,F  10)          108.31  0.000089    0.00    108.32   
    48. A(F   8,C  17,F   9)          107.50 -0.000011    0.01    107.51   
    49. A(O  11,C  18,O  12)          134.81  0.000333   -0.01    134.80   
    50. A(O  12,C  18,C  16)          112.75 -0.000048   -0.02    112.73   
    51. A(O  11,C  18,C  16)          112.42 -0.000283    0.03    112.45   
    52. D(F   2,C  14,C  13,F   1)   -173.61 -0.000054    0.17   -173.44   
    53. D(F   3,C  14,C  13,F   0)     52.89  0.000040    0.15     53.04   
    54. D(F   2,C  14,C  13,F   0)    -59.34  0.000004    0.16    -59.18   
    55. D(F   3,C  14,C  13,C  15)    173.44 -0.000067    0.18    173.61   
    56. D(F   2,C  14,C  13,C  15)     61.21 -0.000103    0.19     61.39   
    57. D(F   3,C  14,C  13,F   1)    -61.38 -0.000018    0.16    -61.22   
    58. D(F   4,C  15,C  13,F   0)    -54.03  0.000011   -0.12    -54.15   
    59. D(F   5,C  15,C  13,F   0)   -169.92  0.000026   -0.14   -170.06   
    60. D(F   5,C  15,C  13,C  14)     69.08 -0.000022   -0.13     68.95   
    61. D(F   5,C  15,C  13,F   1)    -57.04  0.000005   -0.11    -57.15   
    62. D(F   4,C  15,C  13,C  14)   -175.03 -0.000037   -0.10   -175.13   
    63. D(F   4,C  15,C  13,F   1)     58.85 -0.000010   -0.09     58.77   
    64. D(F   6,C  16,C  14,C  13)     68.57 -0.000115   -0.05     68.52   
    65. D(F   6,C  16,C  14,F   3)   -170.46  0.000007   -0.12   -170.58   
    66. D(F   6,C  16,C  14,F   2)    -54.56  0.000083   -0.14    -54.70   
    67. D(F   7,C  16,C  14,C  13)   -178.30 -0.000103   -0.02   -178.33   
    68. D(F   7,C  16,C  14,F   3)    -57.33  0.000019   -0.10    -57.43   
    69. D(F   7,C  16,C  14,F   2)     58.56  0.000095   -0.11     58.45   
    70. D(F   9,C  17,C  15,C  13)   -162.19  0.000051   -0.32   -162.51   
    71. D(F   9,C  17,C  15,F   5)     70.35  0.000034   -0.30     70.05   
    72. D(F   9,C  17,C  15,F   4)    -43.82  0.000030   -0.32    -44.15   
    73. D(F   8,C  17,C  15,C  13)     78.60  0.000025   -0.30     78.30   
    74. D(F   8,C  17,C  15,F   5)    -48.86  0.000009   -0.28    -49.14   
    75. D(F   8,C  17,C  15,F   4)   -163.03  0.000005   -0.31   -163.34   
    76. D(O  12,C  18,C  16,F   7)   -137.80  0.000141   -0.77   -138.57   
    77. D(O  12,C  18,C  16,F   6)    -20.59  0.000185   -0.79    -21.38   
    78. D(O  11,C  18,C  16,C  14)    -77.03 -0.000071   -0.59    -77.62   
    79. D(O  11,C  18,C  16,F   7)     43.40  0.000019   -0.64     42.77   
    80. D(O  11,C  18,C  16,F   6)    160.61  0.000063   -0.65    159.96   
    ----------------------------------------------------------------------------

Geometry step timings:
Preparation and reading OPT file:      0.000 s ( 1.651 %)
Internal coordinates            :      0.000 s ( 1.227 %)
B/P matrices and projection     :      0.001 s (28.759 %)
Hessian update/contruction      :      0.001 s (21.196 %)
Making the step                 :      0.001 s (22.668 %)
Converting the step to Cartesian:      0.000 s ( 2.231 %)
Storing new data                :      0.000 s ( 2.276 %)
Checking convergence            :      0.000 s ( 1.272 %)
Final printing                  :      0.001 s (18.652 %)
Total time                      :      0.004 s

Time for energy+gradient        :      0.115 s
Time for complete geometry iter :      0.121 s

         *************************************************************
         *                GEOMETRY OPTIMIZATION CYCLE   9            *
         *************************************************************
---------------------------------
CARTESIAN COORDINATES (ANGSTROEM)
---------------------------------
  F     0.914119   -0.240754   -2.093147
  F    -0.462903   -1.587411   -1.140457
  F     0.076072    1.856998   -0.643838
  F    -1.434084    0.873129   -1.822043
  F     2.085652   -1.789571   -0.352740
  F     0.801171   -1.227726    1.281900
  F    -0.877226    0.699491    1.645896
  F    -2.407748    1.747629    0.528817
  F     1.778807    1.288820    1.277294
  F     3.387116   -0.111346    1.089918
  F     2.746623    1.002749   -0.622229
  O    -3.494621   -0.647237   -0.303646
  O    -2.132771   -1.622314    1.195021
  C     0.252270   -0.467722   -0.932288
  C    -0.698078    0.734372   -0.700694
  C     1.335115   -0.777780    0.140127
  C    -1.630265    0.627264    0.510535
  C     2.318781    0.384802    0.473430
  C    -2.558331   -0.743491    0.468144

----------------------------
CARTESIAN COORDINATES (A.U.)
----------------------------
  NO LB    ZA    FRAG    MASS        X           Y           Z
   0 F   9.0000    1    18.998    1.727435   -0.454960   -3.955474
   1 F   9.0000    1    18.998   -0.874759   -2.999772   -2.155152
   2 F   9.0000    1    18.998    0.143755    3.509217   -1.216677
   3 F   9.0000    1    18.998   -2.710027    1.649974   -3.443163
   4 F   9.0000    1    18.998    3.941310   -3.381798   -0.666583
   5 F   9.0000    1    18.998    1.513994   -2.320066    2.422440
   6 F   9.0000    1    18.998   -1.657716    1.321846    3.110292
   7 F   9.0000    1    18.998   -4.549983    3.302540    0.999320
   8 F   9.0000    1    18.998    3.361459    2.435517    2.413736
   9 F   9.0000    1    18.998    6.400722   -0.210414    2.059647
  10 F   9.0000    1    18.998    5.190366    1.894921   -1.175843
  11 O   8.0000    1    15.999   -6.603877   -1.223100   -0.573808
  12 O   8.0000    1    15.999   -4.030353   -3.065729    2.258262
  13 C   6.0000    1    12.011    0.476722   -0.883866   -1.761769
  14 C   6.0000    1    12.011   -1.319177    1.387761   -1.324119
  15 C   6.0000    1    12.011    2.523002   -1.469791    0.264802
  16 C   6.0000    1    12.011   -3.080755    1.185356    0.964772
  17 C   6.0000    1    12.011    4.381862    0.727170    0.894653
  18 C   6.0000    1    12.011   -4.834545   -1.404995    0.884664

      -----------------------------------------------------------      
     |                   =====================                   |     
     |                           x T B                           |     
     |                   =====================                   |     
     |                         S. Grimme                         |     
     |          Mulliken Center for Theoretical Chemistry        |     
     |                    University of Bonn                     |     
      -----------------------------------------------------------      

   * xtb version 6.7.1 (edcfbbe) compiled by 'albert@albert-system' on 2024-07-22

   xtb is free software: you can redistribute it and/or modify it under
   the terms of the GNU Lesser General Public License as published by
   the Free Software Foundation, either version 3 of the License, or
   (at your option) any later version.
   
   xtb is distributed in the hope that it will be useful,
   but WITHOUT ANY WARRANTY; without even the implied warranty of
   MERCHANTABILITY or FITNESS FOR A PARTICULAR PURPOSE.  See the
   GNU Lesser General Public License for more details.
   
   Cite this work as:
   * C. Bannwarth, E. Caldeweyher, S. Ehlert, A. Hansen, P. Pracht,
     J. Seibert, S. Spicher, S. Grimme, WIREs Comput. Mol. Sci., 2020, 11,
     e01493. DOI: 10.1002/wcms.1493
   
   for GFN2-xTB:
   * C. Bannwarth, S. Ehlert and S. Grimme., J. Chem. Theory Comput., 2019,
     15, 1652-1671. DOI: 10.1021/acs.jctc.8b01176
   for GFN1-xTB:
   * S. Grimme, C. Bannwarth, P. Shushkov, J. Chem. Theory Comput., 2017,
     13, 1989-2009. DOI: 10.1021/acs.jctc.7b00118
   for GFN0-xTB:
   * P. Pracht, E. Caldeweyher, S. Ehlert, S. Grimme, ChemRxiv, 2019, preprint.
     DOI: 10.26434/chemrxiv.8326202.v1
   for GFN-FF:
   * S. Spicher and S. Grimme, Angew. Chem. Int. Ed., 2020, 59, 15665-15673.
     DOI: 10.1002/anie.202004239
   
   for ALPB and GBSA implicit solvation:
   * S. Ehlert, M. Stahn, S. Spicher, S. Grimme, J. Chem. Theory Comput.,
     2021, 17, 4250-4261. DOI: 10.1021/acs.jctc.1c00471
   
   for ddCOSMO and CPCM-X implicit solvation:
   * M. Stahn, S. Ehlert, S. Grimme, J. Phys. Chem. A,
     2023, XX, XXXX-XXXX. DOI: 10.1021/acs.jpca.3c04382
   
   for DFT-D4:
   * E. Caldeweyher, C. Bannwarth and S. Grimme, J. Chem. Phys., 2017,
     147, 034112. DOI: 10.1063/1.4993215
   * E. Caldeweyher, S. Ehlert, A. Hansen, H. Neugebauer, S. Spicher,
     C. Bannwarth and S. Grimme, J. Chem. Phys., 2019, 150, 154122.
     DOI: 10.1063/1.5090222
   * E. Caldeweyher, J.-M. Mewes, S. Ehlert and S. Grimme, Phys. Chem. Chem. Phys.
     2020, 22, 8499-8512. DOI: 10.1039/D0CP00502A
   
   for sTDA-xTB:
   * S. Grimme and C. Bannwarth, J. Chem. Phys., 2016, 145, 054103.
     DOI: 10.1063/1.4959605
   
   in the mass-spec context:
   * V. Asgeirsson, C. Bauer and S. Grimme, Chem. Sci., 2017, 8, 4879.
     DOI: 10.1039/c7sc00601b
   * J. Koopman and S. Grimme, ACS Omega 2019, 4, 12, 15120-15133.
     DOI: 10.1021/acsomega.9b02011
   
   for metadynamics refer to:
   * S. Grimme, J. Chem. Theory Comput., 2019, 155, 2847-2862
     DOI: 10.1021/acs.jctc.9b00143
   
   for SPH calculations refer to:
   * S. Spicher and S. Grimme, J. Chem. Theory Comput., 2021, 17, 1701-1714
     DOI: 10.1021/acs.jctc.0c01306
   
   for ONIOM refer to:
   * C. Plett, A. Katbashev, S. Ehlert, S. Grimme, M. Bursch,
     Phys. Chem. Chem. Phys., 2023, 25, 17860-17868. DOI: 10.1039/D3CP02178E
   
   for DIPRO refer to:
   * J. Kohn, N. Gildemeister, S. Grimme, D. Fazzi, A. Hansen,
     J. Chem. Phys., 2023, just accepted.
   
   for PTB refer to:
   * S. Grimme, M. Mueller, A. Hansen, J. Chem. Phys., 2023, 158, 124111.
     DOI: 10.1063/5.0137838
   
   with help from (in alphabetical order)
   P. Atkinson, C. Bannwarth, F. Bohle, G. Brandenburg, E. Caldeweyher
   M. Checinski, S. Dohm, S. Ehlert, S. Ehrlich, I. Gerasimov, C. Hölzer
   A. Katbashev, J. Kohn, J. Koopman, C. Lavigne, S. Lehtola, F. März, M. Müller,
   F. Musil, H. Neugebauer, J. Pisarek, C. Plett, P. Pracht, F. Pultar,
   J. Seibert, P. Shushkov, S. Spicher, M. Stahn, M. Steiner, T. Strunk,
   J. Stückrath, T. Rose, and J. Unsleber
   
 * started run on 2026/03/08 at 17:05:42.729     
   ID    Z sym.   atoms
    1    9 F      1-11
    2    8 O      12, 13
    3    6 C      14-19

           -------------------------------------------------
          |                Calculation Setup                |
           -------------------------------------------------

          program call               : /users/rzwa/work/orca/orca-6.1.0/otool_xtb PFHxA_GOAT_XTB.xyz --grad -c -1 -u 0 -P 32 --namespace PFHxA_GOAT --input PFHxA_GOAT_XTB.input.tmp --alpb WATER --acc 0.200000
          hostname                   : node2414
          calculation namespace      : PFHxA_GOAT
          coordinate file            : PFHxA_GOAT_XTB.xyz
          omp threads                :                    32


           -------------------------------------------------
          |                 G F N 2 - x T B                 |
           -------------------------------------------------

        Reference                      10.1021/acs.jctc.8b01176
      * Hamiltonian:
        H0-scaling (s, p, d)           1.850000    2.230000    2.230000
        zeta-weighting                 0.500000
      * Dispersion:
        s8                             2.700000
        a1                             0.520000
        a2                             5.000000
        s9                             5.000000
      * Repulsion:
        kExp                           1.500000    1.000000
        rExp                           1.000000
      * Coulomb:
        alpha                          2.000000
        third order                    shell-resolved
        anisotropic                    true
        a3                             3.000000
        a5                             4.000000
        cn-shift                       1.200000
        cn-exp                         4.000000
        max-rad                        5.000000

      * Solvation model:               ALPB
        Solvent                        WATER
        Parameter file                 internal GFN2-xTB/ALPB
        Dielectric constant                8.0200E+01
        Reference state                gsolv [1 M gas/solution]
        Free energy shift                  1.0808E-03 Eh       6.7819E-01 kcal/mol
        Temperature                        2.9815E+02 K
        Density                            1.0000E+00 kg/L
        Solvent mass                       1.8000E+01 g/mol
        Interaction kernel             P16
        Born radius scaling (c1)           1.4744E+00
        Born radii integrator          GBOBC
        Born offset                        0.0000E+00 a0       0.0000E+00 AA
        H-bond correction              true
        Ion screening                  false
        Surface tension                    1.0000E-05 Eh       1.5569E+01 dyn/cm
        Grid points                               230 per atom
q/qsh data taken from xtbrestart
CAMM data taken from xtbrestart

          ...................................................
          :                      SETUP                      :
          :.................................................:
          :  # basis functions                  76          :
          :  # atomic orbitals                  76          :
          :  # shells                           38          :
          :  # electrons                       114          :
          :  max. iterations                   250          :
          :  Hamiltonian                  GFN2-xTB          :
          :  restarted?                       true          :
          :  GBSA solvation                   true          :
          :  PC potential                    false          :
          :  electronic temp.          300.0000000     K    :
          :  accuracy                    0.2000000          :
          :  -> integral cutoff          0.3198970E+02      :
          :  -> integral neglect         0.2000000E-08      :
          :  -> SCF convergence          0.2000000E-06 Eh   :
          :  -> wf. convergence          0.2000000E-04 e    :
          :  Broyden damping             0.4000000          :
          :  net charge                         -1          :
          :  unpaired electrons                  0          :
          ...................................................

 iter      E             dE          RMSdq      gap      omega  full diag
   1    -73.5936534 -0.735937E+02  0.309E-02    5.35       0.0  T
   2    -73.5936537 -0.283762E-06  0.182E-02    5.35       1.3  T
   3    -73.5936537 -0.112193E-07  0.233E-03    5.35       9.8  T
   4    -73.5936538 -0.665722E-07  0.785E-04    5.35      29.2  T
   5    -73.5936538 -0.885521E-09  0.384E-04    5.35      59.7  T
   6    -73.5936538 -0.211926E-09  0.889E-05    5.35     258.0  T
   7    -73.5936538 -0.261764E-10  0.307E-05    5.35     746.5  T

   *** convergence criteria satisfied after 7 iterations ***

         #    Occupation            Energy/Eh            Energy/eV
      -------------------------------------------------------------
         1        2.0000           -0.9455062             -25.7285
       ...           ...                  ...                  ...
        51        2.0000           -0.5467062             -14.8766
        52        2.0000           -0.5424180             -14.7599
        53        2.0000           -0.5331838             -14.5087
        54        2.0000           -0.5161062             -14.0440
        55        2.0000           -0.4543766             -12.3642
        56        2.0000           -0.4428268             -12.0499
        57        2.0000           -0.4191679             -11.4061 (HOMO)
        58                         -0.2226083              -6.0575 (LUMO)
        59                         -0.1258240              -3.4238
        60                         -0.1139070              -3.0996
        61                         -0.1021065              -2.7785
        62                         -0.0929445              -2.5291
       ...                                ...                  ...
        76                          0.7344281              19.9848
      -------------------------------------------------------------
                  HL-Gap            0.1965596 Eh            5.3487 eV
             Fermi-level           -0.3208881 Eh           -8.7318 eV

 SCC (total)                   0 d,  0 h,  0 min,  0.051 sec
 SCC setup                      ...        0 min,  0.002 sec (  3.496%)
 Dispersion                     ...        0 min,  0.001 sec (  1.208%)
 classical contributions        ...        0 min,  0.000 sec (  0.693%)
 integral evaluation            ...        0 min,  0.002 sec (  4.761%)
 iterations                     ...        0 min,  0.040 sec ( 77.664%)
 molecular gradient             ...        0 min,  0.006 sec ( 11.257%)
 printout                       ...        0 min,  0.000 sec (  0.799%)

         :::::::::::::::::::::::::::::::::::::::::::::::::::::
         ::                     SUMMARY                     ::
         :::::::::::::::::::::::::::::::::::::::::::::::::::::
         :: total energy             -73.360286599844 Eh    ::
         :: total w/o Gsasa/hb       -73.370837113154 Eh    ::
         :: gradient norm              0.000786274687 Eh/a0 ::
         :: HOMO-LUMO gap              5.348659055897 eV    ::
         ::.................................................::
         :: SCC energy               -73.593515726285 Eh    ::
         :: -> isotropic ES            0.309756341861 Eh    ::
         :: -> anisotropic ES          0.003695639302 Eh    ::
         :: -> anisotropic XC         -0.076534282612 Eh    ::
         :: -> dispersion             -0.019803544557 Eh    ::
         :: -> Gsolv                  -0.079883662820 Eh    ::
         ::    -> Gelec               -0.090434176130 Eh    ::
         ::    -> Gsasa                0.013597531023 Eh    ::
         ::    -> Ghb                 -0.004127777411 Eh    ::
         ::    -> Gshift               0.001080759698 Eh    ::
         :: repulsion energy           0.233229126441 Eh    ::
         :: add. restraining           0.000000000000 Eh    ::
         :: total charge              -1.000000000000 e     ::
         :::::::::::::::::::::::::::::::::::::::::::::::::::::


Property printout bound to 'properties.out'

           -------------------------------------------------
          | TOTAL ENERGY              -73.360286599844 Eh   |
          | GRADIENT NORM               0.000786274687 Eh/α |
          | HOMO-LUMO GAP               5.348659055897 eV   |
           -------------------------------------------------

------------------------------------------------------------------------
 * finished run on 2026/03/08 at 17:05:42.855     
------------------------------------------------------------------------
 total:
 * wall-time:     0 d,  0 h,  0 min,  0.125 sec
 *  cpu-time:     0 d,  0 h,  0 min,  1.776 sec
 * ratio c/w:    14.203 speedup
 SCF:
 * wall-time:     0 d,  0 h,  0 min,  0.051 sec
 *  cpu-time:     0 d,  0 h,  0 min,  0.971 sec
 * ratio c/w:    18.991 speedup


-------------------------   --------------------
FINAL SINGLE POINT ENERGY       -73.360286599840
-------------------------   --------------------


-------------
DIPOLE MOMENT
-------------
                                X             Y             Z
Total Dipole Moment    :      4.19800       1.07000      -0.57400
                        -----------------------------------------
Magnitude (a.u.)       :      4.37008
Magnitude (Debye)      :     11.10786


------------------
CARTESIAN GRADIENT
------------------

   1   F   :    0.000056397   -0.000011538   -0.000015679
   2   F   :    0.000022292    0.000080354    0.000049033
   3   F   :    0.000080977    0.000018429    0.000052748
   4   F   :    0.000081022    0.000007056    0.000129379
   5   F   :    0.000036735   -0.000017656   -0.000010278
   6   F   :   -0.000008419    0.000022106   -0.000131781
   7   F   :    0.000038434    0.000001266   -0.000139490
   8   F   :    0.000013096   -0.000157796    0.000053327
   9   F   :    0.000031115   -0.000115923   -0.000033658
  10   F   :    0.000022765   -0.000012065   -0.000066392
  11   F   :    0.000098776   -0.000017381   -0.000059870
  12   O   :   -0.000034951    0.000109191   -0.000250549
  13   O   :    0.000048071   -0.000008028    0.000046607
  14   C   :   -0.000078740   -0.000188408   -0.000048715
  15   C   :   -0.000201110   -0.000005292   -0.000276119
  16   C   :   -0.000038976    0.000035555    0.000239383
  17   C   :   -0.000127965    0.000172642    0.000156179
  18   C   :   -0.000046068    0.000186751    0.000108809
  19   C   :    0.000006549   -0.000099262    0.000197066

Difference to translation invariance:
           :    0.0000000000    0.0000000000    0.0000000000

Difference to rotation invariance:
           :   -0.0000981236   -0.0001319713   -0.0000211984

Norm of the Cartesian gradient     ...    0.0007862747
RMS gradient                       ...    0.0001041446
MAX gradient                       ...    0.0002761190
------------------------------------------------------------------------------
                         ORCA GEOMETRY RELAXATION STEP
------------------------------------------------------------------------------

Reading the OPT-File                    .... done
Getting information on internals        .... done
Copying old internal coords+grads       .... done
Making the new internal coordinates     .... (2022 redundants) done
Validating the new internal coordinates .... (2022 redundants) done
Calculating the B-matrix                .... done
Calculating the G,G- and P matrices     .... done
Transforming gradient to internals      .... done
Projecting the internal gradient        .... done
Number of atoms                         ....  19
Number of internal coordinates          ....  80
Current Energy                          ....   -73.360286600 Eh
Current gradient norm                   ....     0.000786275 Eh/bohr
Maximum allowed component of the step   ....  0.300
Current trust radius                    ....  0.700
Updating the Hessian (BFGS)             .... done
Forming the augmented Hessian           .... done
Diagonalizing the augmented Hessian     .... done
Last element of RFO vector              ....  0.998876597
Lowest eigenvalues of augmented Hessian:
 -0.000008637  0.003160313  0.009652246  0.010059868  0.010518533
Length of the computed step             ....  0.047440473
The final length of the internal step   ....  0.047440473
Converting the step to Cartesian space:
 Initial RMS(Int)=    0.0053040061
Transforming coordinates:
 Iter   0:  RMS(Cart)=    0.0088467788 RMS(Int)=    0.0053033881
done
Storing new coordinates                 .... done
The predicted energy change is          ....    -0.000004328
Previously predicted energy change      ....    -0.000005590
Actually observed energy change         ....    -0.000008120
Ratio of predicted to observed change   ....     1.452522291
New trust radius                        ....     0.700000000

                                .--------------------.
          ----------------------|Geometry convergence|-------------------------
          Item                value                   Tolerance       Converged
          ---------------------------------------------------------------------
          Energy change      -0.0000081201            0.0000050000      NO
          RMS gradient        0.0000777495            0.0001000000      YES
          MAX gradient        0.0001962262            0.0003000000      YES
          RMS step            0.0053040061            0.0020000000      NO
          MAX step            0.0193784360            0.0040000000      NO
          -------------------------------------------------------------------------
          ........................................................
          Max(Bonds)      0.0016      Max(Angles)    0.11
          Max(Dihed)        1.11      Max(Improp)    0.00
          ---------------------------------------------------------------------

    ---------------------------------------------------------------------------
                         Redundant Internal Coordinates
                            (Angstroem and degrees)

        Definition                    Value    dE/dq     Step     New-Value
    ----------------------------------------------------------------------------
     1. B(C  13,F   1)                1.3448 -0.000087  0.0000    1.3448   
     2. B(C  13,F   0)                1.3554  0.000040 -0.0002    1.3553   
     3. B(C  14,F   2)                1.3649  0.000064  0.0000    1.3649   
     4. B(C  14,C  13)                1.5498  0.000084 -0.0000    1.5497   
     5. B(C  14,F   3)                1.3485 -0.000152  0.0003    1.3487   
     6. B(C  15,F   5)                1.3384 -0.000118  0.0001    1.3385   
     7. B(C  15,F   4)                1.3528  0.000038 -0.0002    1.3526   
     8. B(C  15,C  13)                1.5552  0.000076 -0.0000    1.5552   
     9. B(C  16,C  14)                1.5322  0.000090 -0.0002    1.5320   
    10. B(C  16,F   7)                1.3638 -0.000137  0.0001    1.3640   
    11. B(C  16,F   6)                1.3643 -0.000093  0.0002    1.3645   
    12. B(C  17,F  10)                1.3287  0.000074 -0.0003    1.3284   
    13. B(C  17,F   9)                1.3295 -0.000008  0.0001    1.3296   
    14. B(C  17,C  15)                1.5589  0.000086 -0.0001    1.5588   
    15. B(C  17,F   8)                1.3248 -0.000113  0.0001    1.3248   
    16. B(C  18,C  16)                1.6559 -0.000011  0.0016    1.6575   
    17. B(C  18,O  12)                1.2173  0.000052 -0.0001    1.2171   
    18. B(C  18,O  11)                1.2172  0.000193 -0.0003    1.2169   
    19. A(F   1,C  13,C  15)          108.12  0.000043   -0.02    108.10   
    20. A(F   1,C  13,C  14)          110.05 -0.000049   -0.02    110.03   
    21. A(F   0,C  13,C  15)          106.50 -0.000072    0.02    106.51   
    22. A(C  14,C  13,C  15)          118.59 -0.000012    0.06    118.65   
    23. A(F   0,C  13,F   1)          105.46  0.000020    0.01    105.47   
    24. A(F   0,C  13,C  14)          107.31  0.000073   -0.06    107.25   
    25. A(F   3,C  14,C  13)          106.87  0.000068   -0.08    106.79   
    26. A(F   2,C  14,C  16)          111.69  0.000079    0.01    111.71   
    27. A(F   2,C  14,C  13)          107.24 -0.000021    0.01    107.25   
    28. A(F   3,C  14,C  16)          109.42 -0.000026   -0.06    109.36   
    29. A(F   2,C  14,F   3)          105.05  0.000009   -0.00    105.04   
    30. A(C  13,C  14,C  16)          115.91 -0.000099    0.11    116.02   
    31. A(F   4,C  15,F   5)          106.30  0.000020    0.03    106.33   
    32. A(F   5,C  15,C  13)          112.18 -0.000079    0.01    112.19   
    33. A(C  13,C  15,C  17)          115.98  0.000082    0.01    115.99   
    34. A(F   4,C  15,C  17)          106.59 -0.000145    0.02    106.62   
    35. A(F   4,C  15,C  13)          106.51 -0.000018   -0.01    106.50   
    36. A(F   5,C  15,C  17)          108.67  0.000126   -0.06    108.61   
    37. A(F   7,C  16,C  18)          111.15 -0.000080   -0.02    111.14   
    38. A(F   6,C  16,C  18)          111.99  0.000149   -0.09    111.90   
    39. A(F   6,C  16,F   7)          105.07 -0.000002    0.02    105.09   
    40. A(C  14,C  16,C  18)          112.25 -0.000129    0.09    112.34   
    41. A(F   7,C  16,C  14)          107.46  0.000137   -0.07    107.39   
    42. A(F   6,C  16,C  14)          108.56 -0.000066    0.06    108.62   
    43. A(F  10,C  17,C  15)          111.94  0.000030    0.01    111.95   
    44. A(F   9,C  17,C  15)          109.14 -0.000070   -0.00    109.14   
    45. A(F   8,C  17,C  15)          112.42  0.000006   -0.02    112.41   
    46. A(F   9,C  17,F  10)          107.29 -0.000136    0.04    107.33   
    47. A(F   8,C  17,F  10)          108.32  0.000129   -0.02    108.30   
    48. A(F   8,C  17,F   9)          107.51  0.000036   -0.00    107.51   
    49. A(O  11,C  18,O  12)          134.80  0.000147    0.01    134.81   
    50. A(O  12,C  18,C  16)          112.73  0.000046   -0.06    112.67   
    51. A(O  11,C  18,C  16)          112.45 -0.000196    0.04    112.49   
    52. D(F   2,C  14,C  13,F   1)   -173.44 -0.000065    0.32   -173.12   
    53. D(F   3,C  14,C  13,F   0)     53.04  0.000004    0.26     53.31   
    54. D(F   2,C  14,C  13,F   0)    -59.18 -0.000027    0.30    -58.88   
    55. D(F   3,C  14,C  13,C  15)    173.61 -0.000040    0.28    173.89   
    56. D(F   2,C  14,C  13,C  15)     61.39 -0.000071    0.31     61.71   
    57. D(F   3,C  14,C  13,F   1)    -61.22 -0.000034    0.29    -60.93   
    58. D(F   4,C  15,C  13,F   0)    -54.15 -0.000029   -0.08    -54.22   
    59. D(F   5,C  15,C  13,F   0)   -170.06 -0.000000   -0.11   -170.17   
    60. D(F   5,C  15,C  13,C  14)     68.95 -0.000030   -0.08     68.87   
    61. D(F   5,C  15,C  13,F   1)    -57.15  0.000007   -0.09    -57.24   
    62. D(F   4,C  15,C  13,C  14)   -175.13 -0.000059   -0.05   -175.18   
    63. D(F   4,C  15,C  13,F   1)     58.77 -0.000021   -0.06     58.71   
    64. D(F   6,C  16,C  14,C  13)     68.52 -0.000029   -0.12     68.40   
    65. D(F   6,C  16,C  14,F   3)   -170.58 -0.000029   -0.20   -170.78   
    66. D(F   6,C  16,C  14,F   2)    -54.70  0.000011   -0.23    -54.93   
    67. D(F   7,C  16,C  14,C  13)   -178.33  0.000005   -0.10   -178.43   
    68. D(F   7,C  16,C  14,F   3)    -57.43  0.000004   -0.18    -57.61   
    69. D(F   7,C  16,C  14,F   2)     58.45  0.000045   -0.21     58.23   
    70. D(F   9,C  17,C  15,C  13)   -162.51  0.000060   -0.36   -162.88   
    71. D(F   9,C  17,C  15,F   5)     70.05 -0.000007   -0.34     69.71   
    72. D(F   9,C  17,C  15,F   4)    -44.15 -0.000017   -0.35    -44.50   
    73. D(F   8,C  17,C  15,C  13)     78.30  0.000058   -0.35     77.95   
    74. D(F   8,C  17,C  15,F   5)    -49.14 -0.000009   -0.32    -49.46   
    75. D(F   8,C  17,C  15,F   4)   -163.34 -0.000019   -0.34   -163.68   
    76. D(O  12,C  18,C  16,F   7)   -138.57 -0.000018   -1.07   -139.64   
    77. D(O  12,C  18,C  16,F   6)    -21.38  0.000023   -1.11    -22.49   
    78. D(O  11,C  18,C  16,C  14)    -77.62  0.000055   -1.04    -78.66   
    79. D(O  11,C  18,C  16,F   7)     42.77  0.000085   -1.07     41.70   
    80. D(O  11,C  18,C  16,F   6)    159.96  0.000126   -1.11    158.85   
    ----------------------------------------------------------------------------

Geometry step timings:
Preparation and reading OPT file:      0.000 s ( 1.516 %)
Internal coordinates            :      0.000 s ( 0.933 %)
B/P matrices and projection     :      0.001 s (27.548 %)
Hessian update/contruction      :      0.001 s (20.271 %)
Making the step                 :      0.001 s (23.280 %)
Converting the step to Cartesian:      0.000 s ( 2.333 %)
Storing new data                :      0.000 s ( 3.172 %)
Checking convergence            :      0.000 s ( 1.283 %)
Final printing                  :      0.001 s (19.594 %)
Total time                      :      0.004 s

Time for energy+gradient        :      0.149 s
Time for complete geometry iter :      0.156 s

         *************************************************************
         *                GEOMETRY OPTIMIZATION CYCLE  10            *
         *************************************************************
---------------------------------
CARTESIAN COORDINATES (ANGSTROEM)
---------------------------------
  F     0.916777   -0.236586   -2.093350
  F    -0.459285   -1.587307   -1.144790
  F     0.073433    1.857879   -0.649477
  F    -1.436009    0.867149   -1.823180
  F     2.087358   -1.789095   -0.354652
  F     0.801663   -1.229487    1.280246
  F    -0.877157    0.700460    1.645241
  F    -2.405986    1.749376    0.525517
  F     1.774758    1.289923    1.274614
  F     3.383308   -0.111657    1.099210
  F     2.752643    0.999908   -0.618628
  O    -3.509247   -0.640446   -0.284235
  O    -2.123490   -1.627102    1.184202
  C     0.254312   -0.467125   -0.933724
  C    -0.698131    0.733263   -0.702168
  C     1.336302   -0.778369    0.139141
  C    -1.629734    0.627952    0.509399
  C     2.318881    0.384077    0.475528
  C    -2.560696   -0.742912    0.471103

----------------------------
CARTESIAN COORDINATES (A.U.)
----------------------------
  NO LB    ZA    FRAG    MASS        X           Y           Z
   0 F   9.0000    1    18.998    1.732457   -0.447084   -3.955858
   1 F   9.0000    1    18.998   -0.867923   -2.999575   -2.163340
   2 F   9.0000    1    18.998    0.138769    3.510882   -1.227333
   3 F   9.0000    1    18.998   -2.713664    1.638674   -3.445310
   4 F   9.0000    1    18.998    3.944535   -3.380900   -0.670194
   5 F   9.0000    1    18.998    1.514923   -2.323393    2.419315
   6 F   9.0000    1    18.998   -1.657587    1.323678    3.109056
   7 F   9.0000    1    18.998   -4.546655    3.305841    0.993082
   8 F   9.0000    1    18.998    3.353806    2.437601    2.408672
   9 F   9.0000    1    18.998    6.393526   -0.211002    2.077207
  10 F   9.0000    1    18.998    5.201742    1.889553   -1.169037
  11 O   8.0000    1    15.999   -6.631516   -1.210268   -0.537126
  12 O   8.0000    1    15.999   -4.012814   -3.074778    2.237818
  13 C   6.0000    1    12.011    0.480580   -0.882738   -1.764483
  14 C   6.0000    1    12.011   -1.319276    1.385666   -1.326905
  15 C   6.0000    1    12.011    2.525245   -1.470905    0.262938
  16 C   6.0000    1    12.011   -3.079752    1.186657    0.962625
  17 C   6.0000    1    12.011    4.382050    0.725801    0.898617
  18 C   6.0000    1    12.011   -4.839015   -1.403900    0.890257

      -----------------------------------------------------------      
     |                   =====================                   |     
     |                           x T B                           |     
     |                   =====================                   |     
     |                         S. Grimme                         |     
     |          Mulliken Center for Theoretical Chemistry        |     
     |                    University of Bonn                     |     
      -----------------------------------------------------------      

   * xtb version 6.7.1 (edcfbbe) compiled by 'albert@albert-system' on 2024-07-22

   xtb is free software: you can redistribute it and/or modify it under
   the terms of the GNU Lesser General Public License as published by
   the Free Software Foundation, either version 3 of the License, or
   (at your option) any later version.
   
   xtb is distributed in the hope that it will be useful,
   but WITHOUT ANY WARRANTY; without even the implied warranty of
   MERCHANTABILITY or FITNESS FOR A PARTICULAR PURPOSE.  See the
   GNU Lesser General Public License for more details.
   
   Cite this work as:
   * C. Bannwarth, E. Caldeweyher, S. Ehlert, A. Hansen, P. Pracht,
     J. Seibert, S. Spicher, S. Grimme, WIREs Comput. Mol. Sci., 2020, 11,
     e01493. DOI: 10.1002/wcms.1493
   
   for GFN2-xTB:
   * C. Bannwarth, S. Ehlert and S. Grimme., J. Chem. Theory Comput., 2019,
     15, 1652-1671. DOI: 10.1021/acs.jctc.8b01176
   for GFN1-xTB:
   * S. Grimme, C. Bannwarth, P. Shushkov, J. Chem. Theory Comput., 2017,
     13, 1989-2009. DOI: 10.1021/acs.jctc.7b00118
   for GFN0-xTB:
   * P. Pracht, E. Caldeweyher, S. Ehlert, S. Grimme, ChemRxiv, 2019, preprint.
     DOI: 10.26434/chemrxiv.8326202.v1
   for GFN-FF:
   * S. Spicher and S. Grimme, Angew. Chem. Int. Ed., 2020, 59, 15665-15673.
     DOI: 10.1002/anie.202004239
   
   for ALPB and GBSA implicit solvation:
   * S. Ehlert, M. Stahn, S. Spicher, S. Grimme, J. Chem. Theory Comput.,
     2021, 17, 4250-4261. DOI: 10.1021/acs.jctc.1c00471
   
   for ddCOSMO and CPCM-X implicit solvation:
   * M. Stahn, S. Ehlert, S. Grimme, J. Phys. Chem. A,
     2023, XX, XXXX-XXXX. DOI: 10.1021/acs.jpca.3c04382
   
   for DFT-D4:
   * E. Caldeweyher, C. Bannwarth and S. Grimme, J. Chem. Phys., 2017,
     147, 034112. DOI: 10.1063/1.4993215
   * E. Caldeweyher, S. Ehlert, A. Hansen, H. Neugebauer, S. Spicher,
     C. Bannwarth and S. Grimme, J. Chem. Phys., 2019, 150, 154122.
     DOI: 10.1063/1.5090222
   * E. Caldeweyher, J.-M. Mewes, S. Ehlert and S. Grimme, Phys. Chem. Chem. Phys.
     2020, 22, 8499-8512. DOI: 10.1039/D0CP00502A
   
   for sTDA-xTB:
   * S. Grimme and C. Bannwarth, J. Chem. Phys., 2016, 145, 054103.
     DOI: 10.1063/1.4959605
   
   in the mass-spec context:
   * V. Asgeirsson, C. Bauer and S. Grimme, Chem. Sci., 2017, 8, 4879.
     DOI: 10.1039/c7sc00601b
   * J. Koopman and S. Grimme, ACS Omega 2019, 4, 12, 15120-15133.
     DOI: 10.1021/acsomega.9b02011
   
   for metadynamics refer to:
   * S. Grimme, J. Chem. Theory Comput., 2019, 155, 2847-2862
     DOI: 10.1021/acs.jctc.9b00143
   
   for SPH calculations refer to:
   * S. Spicher and S. Grimme, J. Chem. Theory Comput., 2021, 17, 1701-1714
     DOI: 10.1021/acs.jctc.0c01306
   
   for ONIOM refer to:
   * C. Plett, A. Katbashev, S. Ehlert, S. Grimme, M. Bursch,
     Phys. Chem. Chem. Phys., 2023, 25, 17860-17868. DOI: 10.1039/D3CP02178E
   
   for DIPRO refer to:
   * J. Kohn, N. Gildemeister, S. Grimme, D. Fazzi, A. Hansen,
     J. Chem. Phys., 2023, just accepted.
   
   for PTB refer to:
   * S. Grimme, M. Mueller, A. Hansen, J. Chem. Phys., 2023, 158, 124111.
     DOI: 10.1063/5.0137838
   
   with help from (in alphabetical order)
   P. Atkinson, C. Bannwarth, F. Bohle, G. Brandenburg, E. Caldeweyher
   M. Checinski, S. Dohm, S. Ehlert, S. Ehrlich, I. Gerasimov, C. Hölzer
   A. Katbashev, J. Kohn, J. Koopman, C. Lavigne, S. Lehtola, F. März, M. Müller,
   F. Musil, H. Neugebauer, J. Pisarek, C. Plett, P. Pracht, F. Pultar,
   J. Seibert, P. Shushkov, S. Spicher, M. Stahn, M. Steiner, T. Strunk,
   J. Stückrath, T. Rose, and J. Unsleber
   
 * started run on 2026/03/08 at 17:05:42.884     
   ID    Z sym.   atoms
    1    9 F      1-11
    2    8 O      12, 13
    3    6 C      14-19

           -------------------------------------------------
          |                Calculation Setup                |
           -------------------------------------------------

          program call               : /users/rzwa/work/orca/orca-6.1.0/otool_xtb PFHxA_GOAT_XTB.xyz --grad -c -1 -u 0 -P 32 --namespace PFHxA_GOAT --input PFHxA_GOAT_XTB.input.tmp --alpb WATER --acc 0.200000
          hostname                   : node2414
          calculation namespace      : PFHxA_GOAT
          coordinate file            : PFHxA_GOAT_XTB.xyz
          omp threads                :                    32


           -------------------------------------------------
          |                 G F N 2 - x T B                 |
           -------------------------------------------------

        Reference                      10.1021/acs.jctc.8b01176
      * Hamiltonian:
        H0-scaling (s, p, d)           1.850000    2.230000    2.230000
        zeta-weighting                 0.500000
      * Dispersion:
        s8                             2.700000
        a1                             0.520000
        a2                             5.000000
        s9                             5.000000
      * Repulsion:
        kExp                           1.500000    1.000000
        rExp                           1.000000
      * Coulomb:
        alpha                          2.000000
        third order                    shell-resolved
        anisotropic                    true
        a3                             3.000000
        a5                             4.000000
        cn-shift                       1.200000
        cn-exp                         4.000000
        max-rad                        5.000000

      * Solvation model:               ALPB
        Solvent                        WATER
        Parameter file                 internal GFN2-xTB/ALPB
        Dielectric constant                8.0200E+01
        Reference state                gsolv [1 M gas/solution]
        Free energy shift                  1.0808E-03 Eh       6.7819E-01 kcal/mol
        Temperature                        2.9815E+02 K
        Density                            1.0000E+00 kg/L
        Solvent mass                       1.8000E+01 g/mol
        Interaction kernel             P16
        Born radius scaling (c1)           1.4744E+00
        Born radii integrator          GBOBC
        Born offset                        0.0000E+00 a0       0.0000E+00 AA
        H-bond correction              true
        Ion screening                  false
        Surface tension                    1.0000E-05 Eh       1.5569E+01 dyn/cm
        Grid points                               230 per atom
q/qsh data taken from xtbrestart
CAMM data taken from xtbrestart

          ...................................................
          :                      SETUP                      :
          :.................................................:
          :  # basis functions                  76          :
          :  # atomic orbitals                  76          :
          :  # shells                           38          :
          :  # electrons                       114          :
          :  max. iterations                   250          :
          :  Hamiltonian                  GFN2-xTB          :
          :  restarted?                       true          :
          :  GBSA solvation                   true          :
          :  PC potential                    false          :
          :  electronic temp.          300.0000000     K    :
          :  accuracy                    0.2000000          :
          :  -> integral cutoff          0.3198970E+02      :
          :  -> integral neglect         0.2000000E-08      :
          :  -> SCF convergence          0.2000000E-06 Eh   :
          :  -> wf. convergence          0.2000000E-04 e    :
          :  Broyden damping             0.4000000          :
          :  net charge                         -1          :
          :  unpaired electrons                  0          :
          ...................................................

 iter      E             dE          RMSdq      gap      omega  full diag
   1    -73.5937421 -0.735937E+02  0.499E-02    5.35       0.0  T
   2    -73.5937427 -0.669957E-06  0.292E-02    5.35       1.0  T
   3    -73.5937428 -0.110656E-07  0.363E-03    5.35       6.3  T
   4    -73.5937429 -0.163730E-06  0.117E-03    5.35      19.6  T
   5    -73.5937429 -0.212729E-08  0.602E-04    5.35      38.1  T
   6    -73.5937429 -0.497081E-09  0.132E-04    5.35     174.4  T
   7    -73.5937429 -0.620020E-10  0.474E-05    5.35     483.7  T

   *** convergence criteria satisfied after 7 iterations ***

         #    Occupation            Energy/Eh            Energy/eV
      -------------------------------------------------------------
         1        2.0000           -0.9455212             -25.7289
       ...           ...                  ...                  ...
        51        2.0000           -0.5465806             -14.8732
        52        2.0000           -0.5424299             -14.7603
        53        2.0000           -0.5331067             -14.5066
        54        2.0000           -0.5160714             -14.0430
        55        2.0000           -0.4544534             -12.3663
        56        2.0000           -0.4429039             -12.0520
        57        2.0000           -0.4191738             -11.4063 (HOMO)
        58                         -0.2225107              -6.0548 (LUMO)
        59                         -0.1256409              -3.4189
        60                         -0.1138658              -3.0984
        61                         -0.1019564              -2.7744
        62                         -0.0929479              -2.5292
       ...                                ...                  ...
        76                          0.7352894              20.0082
      -------------------------------------------------------------
                  HL-Gap            0.1966630 Eh            5.3515 eV
             Fermi-level           -0.3208423 Eh           -8.7306 eV

 SCC (total)                   0 d,  0 h,  0 min,  0.062 sec
 SCC setup                      ...        0 min,  0.001 sec (  1.310%)
 Dispersion                     ...        0 min,  0.001 sec (  1.202%)
 classical contributions        ...        0 min,  0.000 sec (  0.675%)
 integral evaluation            ...        0 min,  0.002 sec (  3.664%)
 iterations                     ...        0 min,  0.052 sec ( 83.612%)
 molecular gradient             ...        0 min,  0.005 sec (  8.273%)
 printout                       ...        0 min,  0.001 sec (  1.186%)

         :::::::::::::::::::::::::::::::::::::::::::::::::::::
         ::                     SUMMARY                     ::
         :::::::::::::::::::::::::::::::::::::::::::::::::::::
         :: total energy             -73.360292441084 Eh    ::
         :: total w/o Gsasa/hb       -73.370843961398 Eh    ::
         :: gradient norm              0.000848320577 Eh/a0 ::
         :: HOMO-LUMO gap              5.351473844439 eV    ::
         ::.................................................::
         :: SCC energy               -73.593604976410 Eh    ::
         :: -> isotropic ES            0.309590987925 Eh    ::
         :: -> anisotropic ES          0.003717952315 Eh    ::
         :: -> anisotropic XC         -0.076519784129 Eh    ::
         :: -> dispersion             -0.019796868300 Eh    ::
         :: -> Gsolv                  -0.079838853093 Eh    ::
         ::    -> Gelec               -0.090390373407 Eh    ::
         ::    -> Gsasa                0.013598204545 Eh    ::
         ::    -> Ghb                 -0.004127443929 Eh    ::
         ::    -> Gshift               0.001080759698 Eh    ::
         :: repulsion energy           0.233312535326 Eh    ::
         :: add. restraining           0.000000000000 Eh    ::
         :: total charge              -1.000000000000 e     ::
         :::::::::::::::::::::::::::::::::::::::::::::::::::::


Property printout bound to 'properties.out'

           -------------------------------------------------
          | TOTAL ENERGY              -73.360292441084 Eh   |
          | GRADIENT NORM               0.000848320577 Eh/α |
          | HOMO-LUMO GAP               5.351473844439 eV   |
           -------------------------------------------------

------------------------------------------------------------------------
 * finished run on 2026/03/08 at 17:05:42.983     
------------------------------------------------------------------------
 total:
 * wall-time:     0 d,  0 h,  0 min,  0.097 sec
 *  cpu-time:     0 d,  0 h,  0 min,  1.919 sec
 * ratio c/w:    19.728 speedup
 SCF:
 * wall-time:     0 d,  0 h,  0 min,  0.063 sec
 *  cpu-time:     0 d,  0 h,  0 min,  1.362 sec
 * ratio c/w:    21.581 speedup


-------------------------   --------------------
FINAL SINGLE POINT ENERGY       -73.360292441080
-------------------------   --------------------


-------------
DIPOLE MOMENT
-------------
                                X             Y             Z
Total Dipole Moment    :      4.20200       1.06300      -0.57800
                        -----------------------------------------
Magnitude (a.u.)       :      4.37274
Magnitude (Debye)      :     11.11462


------------------
CARTESIAN GRADIENT
------------------

   1   F   :   -0.000049521    0.000042399    0.000081693
   2   F   :    0.000033747    0.000042682    0.000104521
   3   F   :    0.000050089    0.000080926    0.000042261
   4   F   :    0.000111237   -0.000035263    0.000127430
   5   F   :   -0.000026550    0.000053083   -0.000031788
   6   F   :   -0.000017572    0.000055788   -0.000064155
   7   F   :    0.000053759   -0.000020559   -0.000027611
   8   F   :   -0.000014434   -0.000114702   -0.000044100
   9   F   :    0.000023280   -0.000143678   -0.000073502
  10   F   :    0.000028273   -0.000052234   -0.000000195
  11   F   :   -0.000002357   -0.000075471    0.000088215
  12   O   :    0.000012489    0.000007447   -0.000160299
  13   O   :   -0.000028990   -0.000003842   -0.000063898
  14   C   :   -0.000012967   -0.000176403   -0.000216640
  15   C   :   -0.000160767    0.000063653   -0.000268470
  16   C   :    0.000054349   -0.000062495    0.000148500
  17   C   :    0.000092087    0.000310108    0.000081549
  18   C   :    0.000036794    0.000247828   -0.000012247
  19   C   :   -0.000182946   -0.000219267    0.000288736

Difference to translation invariance:
           :    0.0000000000   -0.0000000000    0.0000000000

Difference to rotation invariance:
           :   -0.0000984139   -0.0001266128   -0.0000391308

Norm of the Cartesian gradient     ...    0.0008483206
RMS gradient                       ...    0.0001123628
MAX gradient                       ...    0.0003101083
------------------------------------------------------------------------------
                         ORCA GEOMETRY RELAXATION STEP
------------------------------------------------------------------------------

Reading the OPT-File                    .... done
Getting information on internals        .... done
Copying old internal coords+grads       .... done
Making the new internal coordinates     .... (2022 redundants) done
Validating the new internal coordinates .... (2022 redundants) done
Calculating the B-matrix                .... done
Calculating the G,G- and P matrices     .... done
Transforming gradient to internals      .... done
Projecting the internal gradient        .... done
Number of atoms                         ....  19
Number of internal coordinates          ....  80
Current Energy                          ....   -73.360292441 Eh
Current gradient norm                   ....     0.000848321 Eh/bohr
Maximum allowed component of the step   ....  0.300
Current trust radius                    ....  0.700
Updating the Hessian (BFGS)             .... done
Forming the augmented Hessian           .... done
Diagonalizing the augmented Hessian     .... done
Last element of RFO vector              ....  0.999192692
Lowest eigenvalues of augmented Hessian:
 -0.000004297  0.001875358  0.009727137  0.010077516  0.010515759
Length of the computed step             ....  0.040206623
The final length of the internal step   ....  0.040206623
Converting the step to Cartesian space:
 Initial RMS(Int)=    0.0044952371
Transforming coordinates:
 Iter   0:  RMS(Cart)=    0.0075891973 RMS(Int)=    0.0044949451
done
Storing new coordinates                 .... done
The predicted energy change is          ....    -0.000002152
Previously predicted energy change      ....    -0.000004328
Actually observed energy change         ....    -0.000005841
Ratio of predicted to observed change   ....     1.349559559
New trust radius                        ....     0.700000000

                                .--------------------.
          ----------------------|Geometry convergence|-------------------------
          Item                value                   Tolerance       Converged
          ---------------------------------------------------------------------
          Energy change      -0.0000058412            0.0000050000      NO
          RMS gradient        0.0000769318            0.0001000000      YES
          MAX gradient        0.0002907976            0.0003000000      YES
          RMS step            0.0044952371            0.0020000000      NO
          MAX step            0.0169721199            0.0040000000      NO
          -------------------------------------------------------------------------
          ........................................................
          Max(Bonds)      0.0005      Max(Angles)    0.07
          Max(Dihed)        0.97      Max(Improp)    0.00
          ---------------------------------------------------------------------

    ---------------------------------------------------------------------------
                         Redundant Internal Coordinates
                            (Angstroem and degrees)

        Definition                    Value    dE/dq     Step     New-Value
    ----------------------------------------------------------------------------
     1. B(C  13,F   1)                1.3448 -0.000070  0.0001    1.3449   
     2. B(C  13,F   0)                1.3553 -0.000086  0.0000    1.3553   
     3. B(C  14,F   2)                1.3649  0.000097 -0.0001    1.3648   
     4. B(C  14,C  13)                1.5497  0.000090 -0.0001    1.5496   
     5. B(C  14,F   3)                1.3487 -0.000171  0.0003    1.3490   
     6. B(C  15,F   5)                1.3385 -0.000068  0.0001    1.3386   
     7. B(C  15,F   4)                1.3526 -0.000042 -0.0001    1.3525   
     8. B(C  15,C  13)                1.5552  0.000094 -0.0001    1.5551   
     9. B(C  16,C  14)                1.5320  0.000109 -0.0003    1.5317   
    10. B(C  16,F   7)                1.3640 -0.000088  0.0002    1.3641   
    11. B(C  16,F   6)                1.3645  0.000007  0.0001    1.3645   
    12. B(C  17,F  10)                1.3284 -0.000107 -0.0001    1.3283   
    13. B(C  17,F   9)                1.3296  0.000042 -0.0000    1.3296   
    14. B(C  17,C  15)                1.5588  0.000037 -0.0001    1.5587   
    15. B(C  17,F   8)                1.3248 -0.000153  0.0002    1.3250   
    16. B(C  18,C  16)                1.6575  0.000291  0.0005    1.6581   
    17. B(C  18,O  12)                1.2171 -0.000043 -0.0000    1.2171   
    18. B(C  18,O  11)                1.2169  0.000089 -0.0002    1.2166   
    19. A(F   1,C  13,C  15)          108.10 -0.000098    0.01    108.12   
    20. A(F   1,C  13,C  14)          110.03 -0.000042   -0.01    110.02   
    21. A(F   0,C  13,C  15)          106.51 -0.000017   -0.00    106.51   
    22. A(C  14,C  13,C  15)          118.65  0.000159    0.03    118.68   
    23. A(F   0,C  13,F   1)          105.47  0.000072   -0.01    105.46   
    24. A(F   0,C  13,C  14)          107.25 -0.000076   -0.03    107.22   
    25. A(F   3,C  14,C  13)          106.79 -0.000046   -0.04    106.75   
    26. A(F   2,C  14,C  16)          111.71 -0.000010    0.02    111.73   
    27. A(F   2,C  14,C  13)          107.25  0.000026    0.00    107.25   
    28. A(F   3,C  14,C  16)          109.36 -0.000011   -0.05    109.31   
    29. A(F   2,C  14,F   3)          105.04  0.000017   -0.01    105.03   
    30. A(C  13,C  14,C  16)          116.02  0.000022    0.07    116.09   
    31. A(F   4,C  15,F   5)          106.33  0.000068    0.00    106.33   
    32. A(F   5,C  15,C  13)          112.19 -0.000096    0.03    112.22   
    33. A(C  13,C  15,C  17)          115.99  0.000220   -0.03    115.96   
    34. A(F   4,C  15,C  17)          106.62 -0.000100    0.02    106.64   
    35. A(F   4,C  15,C  13)          106.50 -0.000092    0.01    106.51   
    36. A(F   5,C  15,C  17)          108.61 -0.000012   -0.03    108.58   
    37. A(F   7,C  16,C  18)          111.14 -0.000113    0.01    111.15   
    38. A(F   6,C  16,C  18)          111.90  0.000045   -0.07    111.83   
    39. A(F   6,C  16,F   7)          105.09  0.000056   -0.01    105.08   
    40. A(C  14,C  16,C  18)          112.34  0.000072    0.05    112.39   
    41. A(F   7,C  16,C  14)          107.39 -0.000017   -0.03    107.36   
    42. A(F   6,C  16,C  14)          108.62 -0.000046    0.04    108.66   
    43. A(F  10,C  17,C  15)          111.95  0.000035   -0.00    111.95   
    44. A(F   9,C  17,C  15)          109.14 -0.000081    0.01    109.15   
    45. A(F   8,C  17,C  15)          112.41 -0.000059    0.01    112.41   
    46. A(F   9,C  17,F  10)          107.33 -0.000035    0.02    107.35   
    47. A(F   8,C  17,F  10)          108.30  0.000085   -0.02    108.27   
    48. A(F   8,C  17,F   9)          107.51  0.000058   -0.01    107.50   
    49. A(O  11,C  18,O  12)          134.82  0.000003    0.01    134.83   
    50. A(O  12,C  18,C  16)          112.68  0.000099   -0.05    112.62   
    51. A(O  11,C  18,C  16)          112.49 -0.000105    0.04    112.53   
    52. D(F   2,C  14,C  13,F   1)   -173.12 -0.000049    0.29   -172.83   
    53. D(F   3,C  14,C  13,F   0)     53.31 -0.000017    0.23     53.53   
    54. D(F   2,C  14,C  13,F   0)    -58.88 -0.000027    0.25    -58.62   
    55. D(F   3,C  14,C  13,C  15)    173.89  0.000006    0.22    174.11   
    56. D(F   2,C  14,C  13,C  15)     61.71 -0.000003    0.25     61.96   
    57. D(F   3,C  14,C  13,F   1)    -60.93 -0.000039    0.26    -60.67   
    58. D(F   4,C  15,C  13,F   0)    -54.22 -0.000038   -0.03    -54.25   
    59. D(F   5,C  15,C  13,F   0)   -170.17 -0.000014   -0.05   -170.22   
    60. D(F   5,C  15,C  13,C  14)     68.87 -0.000007   -0.03     68.84   
    61. D(F   5,C  15,C  13,F   1)    -57.24  0.000015   -0.06    -57.30   
    62. D(F   4,C  15,C  13,C  14)   -175.18 -0.000030   -0.01   -175.19   
    63. D(F   4,C  15,C  13,F   1)     58.71 -0.000009   -0.04     58.67   
    64. D(F   6,C  16,C  14,C  13)     68.40  0.000026   -0.16     68.24   
    65. D(F   6,C  16,C  14,F   3)   -170.78 -0.000028   -0.20   -170.98   
    66. D(F   6,C  16,C  14,F   2)    -54.94 -0.000019   -0.23    -55.16   
    67. D(F   7,C  16,C  14,C  13)   -178.43  0.000060   -0.16   -178.59   
    68. D(F   7,C  16,C  14,F   3)    -57.61  0.000006   -0.20    -57.81   
    69. D(F   7,C  16,C  14,F   2)     58.23  0.000014   -0.23     58.00   
    70. D(F   9,C  17,C  15,C  13)   -162.88  0.000023   -0.23   -163.11   
    71. D(F   9,C  17,C  15,F   5)     69.71 -0.000011   -0.22     69.49   
    72. D(F   9,C  17,C  15,F   4)    -44.50 -0.000033   -0.22    -44.72   
    73. D(F   8,C  17,C  15,C  13)     77.95  0.000041   -0.23     77.72   
    74. D(F   8,C  17,C  15,F   5)    -49.46  0.000008   -0.22    -49.68   
    75. D(F   8,C  17,C  15,F   4)   -163.68 -0.000015   -0.22   -163.90   
    76. D(O  12,C  18,C  16,F   7)   -139.64 -0.000051   -0.89   -140.53   
    77. D(O  12,C  18,C  16,F   6)    -22.49 -0.000026   -0.93    -23.42   
    78. D(O  11,C  18,C  16,C  14)    -78.66  0.000113   -0.94    -79.59   
    79. D(O  11,C  18,C  16,F   7)     41.70  0.000061   -0.93     40.77   
    80. D(O  11,C  18,C  16,F   6)    158.85  0.000087   -0.97    157.87   
    ----------------------------------------------------------------------------

Geometry step timings:
Preparation and reading OPT file:      0.000 s ( 1.530 %)
Internal coordinates            :      0.000 s ( 1.005 %)
B/P matrices and projection     :      0.001 s (24.213 %)
Hessian update/contruction      :      0.001 s (26.617 %)
Making the step                 :      0.000 s (20.061 %)
Converting the step to Cartesian:      0.000 s ( 2.841 %)
Storing new data                :      0.000 s ( 2.142 %)
Checking convergence            :      0.000 s ( 1.136 %)
Final printing                  :      0.000 s (20.455 %)
Total time                      :      0.002 s

Time for energy+gradient        :      0.141 s
Time for complete geometry iter :      0.145 s

         *************************************************************
         *                GEOMETRY OPTIMIZATION CYCLE  11            *
         *************************************************************
---------------------------------
CARTESIAN COORDINATES (ANGSTROEM)
---------------------------------
  F     0.919460   -0.234564   -2.093271
  F    -0.456585   -1.587791   -1.148567
  F     0.071954    1.857773   -0.654382
  F    -1.437521    0.862307   -1.824117
  F     2.089082   -1.788818   -0.355044
  F     0.801762   -1.231404    1.279407
  F    -0.876001    0.699770    1.644483
  F    -2.403021    1.751179    0.524442
  F     1.770333    1.291183    1.272831
  F     3.379901   -0.110274    1.105923
  F     2.755108    0.998522   -0.616140
  O    -3.521414   -0.632835   -0.267633
  O    -2.115201   -1.631187    1.172983
  C     0.255882   -0.467322   -0.934722
  C    -0.697895    0.731918   -0.703454
  C     1.336839   -0.779115    0.138834
  C    -1.628675    0.628230    0.508545
  C     2.317751    0.384008    0.477237
  C    -2.562058   -0.741681    0.472645

----------------------------
CARTESIAN COORDINATES (A.U.)
----------------------------
  NO LB    ZA    FRAG    MASS        X           Y           Z
   0 F   9.0000    1    18.998    1.737528   -0.443261   -3.955709
   1 F   9.0000    1    18.998   -0.862821   -3.000489   -2.170478
   2 F   9.0000    1    18.998    0.135974    3.510683   -1.236603
   3 F   9.0000    1    18.998   -2.716522    1.629524   -3.447081
   4 F   9.0000    1    18.998    3.947793   -3.380376   -0.670935
   5 F   9.0000    1    18.998    1.515110   -2.327016    2.417728
   6 F   9.0000    1    18.998   -1.655402    1.322374    3.107623
   7 F   9.0000    1    18.998   -4.541051    3.309248    0.991052
   8 F   9.0000    1    18.998    3.345444    2.439983    2.405303
   9 F   9.0000    1    18.998    6.387087   -0.208388    2.089891
  10 F   9.0000    1    18.998    5.206400    1.886933   -1.164337
  11 O   8.0000    1    15.999   -6.654508   -1.195885   -0.505754
  12 O   8.0000    1    15.999   -3.997152   -3.082496    2.216616
  13 C   6.0000    1    12.011    0.483546   -0.883110   -1.766369
  14 C   6.0000    1    12.011   -1.318830    1.383125   -1.329335
  15 C   6.0000    1    12.011    2.526259   -1.472314    0.262359
  16 C   6.0000    1    12.011   -3.077749    1.187182    0.961010
  17 C   6.0000    1    12.011    4.379915    0.725670    0.901848
  18 C   6.0000    1    12.011   -4.841589   -1.401575    0.893170

      -----------------------------------------------------------      
     |                   =====================                   |     
     |                           x T B                           |     
     |                   =====================                   |     
     |                         S. Grimme                         |     
     |          Mulliken Center for Theoretical Chemistry        |     
     |                    University of Bonn                     |     
      -----------------------------------------------------------      

   * xtb version 6.7.1 (edcfbbe) compiled by 'albert@albert-system' on 2024-07-22

   xtb is free software: you can redistribute it and/or modify it under
   the terms of the GNU Lesser General Public License as published by
   the Free Software Foundation, either version 3 of the License, or
   (at your option) any later version.
   
   xtb is distributed in the hope that it will be useful,
   but WITHOUT ANY WARRANTY; without even the implied warranty of
   MERCHANTABILITY or FITNESS FOR A PARTICULAR PURPOSE.  See the
   GNU Lesser General Public License for more details.
   
   Cite this work as:
   * C. Bannwarth, E. Caldeweyher, S. Ehlert, A. Hansen, P. Pracht,
     J. Seibert, S. Spicher, S. Grimme, WIREs Comput. Mol. Sci., 2020, 11,
     e01493. DOI: 10.1002/wcms.1493
   
   for GFN2-xTB:
   * C. Bannwarth, S. Ehlert and S. Grimme., J. Chem. Theory Comput., 2019,
     15, 1652-1671. DOI: 10.1021/acs.jctc.8b01176
   for GFN1-xTB:
   * S. Grimme, C. Bannwarth, P. Shushkov, J. Chem. Theory Comput., 2017,
     13, 1989-2009. DOI: 10.1021/acs.jctc.7b00118
   for GFN0-xTB:
   * P. Pracht, E. Caldeweyher, S. Ehlert, S. Grimme, ChemRxiv, 2019, preprint.
     DOI: 10.26434/chemrxiv.8326202.v1
   for GFN-FF:
   * S. Spicher and S. Grimme, Angew. Chem. Int. Ed., 2020, 59, 15665-15673.
     DOI: 10.1002/anie.202004239
   
   for ALPB and GBSA implicit solvation:
   * S. Ehlert, M. Stahn, S. Spicher, S. Grimme, J. Chem. Theory Comput.,
     2021, 17, 4250-4261. DOI: 10.1021/acs.jctc.1c00471
   
   for ddCOSMO and CPCM-X implicit solvation:
   * M. Stahn, S. Ehlert, S. Grimme, J. Phys. Chem. A,
     2023, XX, XXXX-XXXX. DOI: 10.1021/acs.jpca.3c04382
   
   for DFT-D4:
   * E. Caldeweyher, C. Bannwarth and S. Grimme, J. Chem. Phys., 2017,
     147, 034112. DOI: 10.1063/1.4993215
   * E. Caldeweyher, S. Ehlert, A. Hansen, H. Neugebauer, S. Spicher,
     C. Bannwarth and S. Grimme, J. Chem. Phys., 2019, 150, 154122.
     DOI: 10.1063/1.5090222
   * E. Caldeweyher, J.-M. Mewes, S. Ehlert and S. Grimme, Phys. Chem. Chem. Phys.
     2020, 22, 8499-8512. DOI: 10.1039/D0CP00502A
   
   for sTDA-xTB:
   * S. Grimme and C. Bannwarth, J. Chem. Phys., 2016, 145, 054103.
     DOI: 10.1063/1.4959605
   
   in the mass-spec context:
   * V. Asgeirsson, C. Bauer and S. Grimme, Chem. Sci., 2017, 8, 4879.
     DOI: 10.1039/c7sc00601b
   * J. Koopman and S. Grimme, ACS Omega 2019, 4, 12, 15120-15133.
     DOI: 10.1021/acsomega.9b02011
   
   for metadynamics refer to:
   * S. Grimme, J. Chem. Theory Comput., 2019, 155, 2847-2862
     DOI: 10.1021/acs.jctc.9b00143
   
   for SPH calculations refer to:
   * S. Spicher and S. Grimme, J. Chem. Theory Comput., 2021, 17, 1701-1714
     DOI: 10.1021/acs.jctc.0c01306
   
   for ONIOM refer to:
   * C. Plett, A. Katbashev, S. Ehlert, S. Grimme, M. Bursch,
     Phys. Chem. Chem. Phys., 2023, 25, 17860-17868. DOI: 10.1039/D3CP02178E
   
   for DIPRO refer to:
   * J. Kohn, N. Gildemeister, S. Grimme, D. Fazzi, A. Hansen,
     J. Chem. Phys., 2023, just accepted.
   
   for PTB refer to:
   * S. Grimme, M. Mueller, A. Hansen, J. Chem. Phys., 2023, 158, 124111.
     DOI: 10.1063/5.0137838
   
   with help from (in alphabetical order)
   P. Atkinson, C. Bannwarth, F. Bohle, G. Brandenburg, E. Caldeweyher
   M. Checinski, S. Dohm, S. Ehlert, S. Ehrlich, I. Gerasimov, C. Hölzer
   A. Katbashev, J. Kohn, J. Koopman, C. Lavigne, S. Lehtola, F. März, M. Müller,
   F. Musil, H. Neugebauer, J. Pisarek, C. Plett, P. Pracht, F. Pultar,
   J. Seibert, P. Shushkov, S. Spicher, M. Stahn, M. Steiner, T. Strunk,
   J. Stückrath, T. Rose, and J. Unsleber
   
 * started run on 2026/03/08 at 17:05:43.028     
   ID    Z sym.   atoms
    1    9 F      1-11
    2    8 O      12, 13
    3    6 C      14-19

           -------------------------------------------------
          |                Calculation Setup                |
           -------------------------------------------------

          program call               : /users/rzwa/work/orca/orca-6.1.0/otool_xtb PFHxA_GOAT_XTB.xyz --grad -c -1 -u 0 -P 32 --namespace PFHxA_GOAT --input PFHxA_GOAT_XTB.input.tmp --alpb WATER --acc 0.200000
          hostname                   : node2414
          calculation namespace      : PFHxA_GOAT
          coordinate file            : PFHxA_GOAT_XTB.xyz
          omp threads                :                    32


           -------------------------------------------------
          |                 G F N 2 - x T B                 |
           -------------------------------------------------

        Reference                      10.1021/acs.jctc.8b01176
      * Hamiltonian:
        H0-scaling (s, p, d)           1.850000    2.230000    2.230000
        zeta-weighting                 0.500000
      * Dispersion:
        s8                             2.700000
        a1                             0.520000
        a2                             5.000000
        s9                             5.000000
      * Repulsion:
        kExp                           1.500000    1.000000
        rExp                           1.000000
      * Coulomb:
        alpha                          2.000000
        third order                    shell-resolved
        anisotropic                    true
        a3                             3.000000
        a5                             4.000000
        cn-shift                       1.200000
        cn-exp                         4.000000
        max-rad                        5.000000

      * Solvation model:               ALPB
        Solvent                        WATER
        Parameter file                 internal GFN2-xTB/ALPB
        Dielectric constant                8.0200E+01
        Reference state                gsolv [1 M gas/solution]
        Free energy shift                  1.0808E-03 Eh       6.7819E-01 kcal/mol
        Temperature                        2.9815E+02 K
        Density                            1.0000E+00 kg/L
        Solvent mass                       1.8000E+01 g/mol
        Interaction kernel             P16
        Born radius scaling (c1)           1.4744E+00
        Born radii integrator          GBOBC
        Born offset                        0.0000E+00 a0       0.0000E+00 AA
        H-bond correction              true
        Ion screening                  false
        Surface tension                    1.0000E-05 Eh       1.5569E+01 dyn/cm
        Grid points                               230 per atom
q/qsh data taken from xtbrestart
CAMM data taken from xtbrestart

          ...................................................
          :                      SETUP                      :
          :.................................................:
          :  # basis functions                  76          :
          :  # atomic orbitals                  76          :
          :  # shells                           38          :
          :  # electrons                       114          :
          :  max. iterations                   250          :
          :  Hamiltonian                  GFN2-xTB          :
          :  restarted?                       true          :
          :  GBSA solvation                   true          :
          :  PC potential                    false          :
          :  electronic temp.          300.0000000     K    :
          :  accuracy                    0.2000000          :
          :  -> integral cutoff          0.3198970E+02      :
          :  -> integral neglect         0.2000000E-08      :
          :  -> SCF convergence          0.2000000E-06 Eh   :
          :  -> wf. convergence          0.2000000E-04 e    :
          :  Broyden damping             0.4000000          :
          :  net charge                         -1          :
          :  unpaired electrons                  0          :
          ...................................................

 iter      E             dE          RMSdq      gap      omega  full diag
   1    -73.5937858 -0.735938E+02  0.448E-02    5.35       0.0  T
   2    -73.5937861 -0.301118E-06  0.261E-02    5.35       1.0  T
   3    -73.5937862 -0.692025E-07  0.203E-03    5.35      11.3  T
   4    -73.5937863 -0.363466E-07  0.981E-04    5.35      23.4  T
   5    -73.5937863 -0.186297E-08  0.505E-04    5.35      45.5  T
   6    -73.5937863 -0.355612E-09  0.752E-05    5.35     304.9  T
   7    -73.5937863 -0.188720E-10  0.283E-05    5.35     809.8  T

   *** convergence criteria satisfied after 7 iterations ***

         #    Occupation            Energy/Eh            Energy/eV
      -------------------------------------------------------------
         1        2.0000           -0.9455182             -25.7289
       ...           ...                  ...                  ...
        51        2.0000           -0.5465075             -14.8712
        52        2.0000           -0.5424412             -14.7606
        53        2.0000           -0.5330721             -14.5056
        54        2.0000           -0.5160929             -14.0436
        55        2.0000           -0.4545032             -12.3677
        56        2.0000           -0.4429611             -12.0536
        57        2.0000           -0.4191952             -11.4069 (HOMO)
        58                         -0.2224808              -6.0540 (LUMO)
        59                         -0.1255450              -3.4163
        60                         -0.1139400              -3.1005
        61                         -0.1019251              -2.7735
        62                         -0.0929990              -2.5306
       ...                                ...                  ...
        76                          0.7358440              20.0233
      -------------------------------------------------------------
                  HL-Gap            0.1967144 Eh            5.3529 eV
             Fermi-level           -0.3208380 Eh           -8.7304 eV

 SCC (total)                   0 d,  0 h,  0 min,  0.040 sec
 SCC setup                      ...        0 min,  0.001 sec (  2.686%)
 Dispersion                     ...        0 min,  0.000 sec (  1.149%)
 classical contributions        ...        0 min,  0.000 sec (  0.588%)
 integral evaluation            ...        0 min,  0.002 sec (  6.159%)
 iterations                     ...        0 min,  0.031 sec ( 77.323%)
 molecular gradient             ...        0 min,  0.005 sec ( 11.224%)
 printout                       ...        0 min,  0.000 sec (  0.749%)

         :::::::::::::::::::::::::::::::::::::::::::::::::::::
         ::                     SUMMARY                     ::
         :::::::::::::::::::::::::::::::::::::::::::::::::::::
         :: total energy             -73.360295606410 Eh    ::
         :: total w/o Gsasa/hb       -73.370846484482 Eh    ::
         :: gradient norm              0.000781333938 Eh/a0 ::
         :: HOMO-LUMO gap              5.352872112421 eV    ::
         ::.................................................::
         :: SCC energy               -73.593648434432 Eh    ::
         :: -> isotropic ES            0.309531440289 Eh    ::
         :: -> anisotropic ES          0.003713575418 Eh    ::
         :: -> anisotropic XC         -0.076511926409 Eh    ::
         :: -> dispersion             -0.019795953750 Eh    ::
         :: -> Gsolv                  -0.079812044581 Eh    ::
         ::    -> Gelec               -0.090362922654 Eh    ::
         ::    -> Gsasa                0.013597076290 Eh    ::
         ::    -> Ghb                 -0.004126957916 Eh    ::
         ::    -> Gshift               0.001080759698 Eh    ::
         :: repulsion energy           0.233352828022 Eh    ::
         :: add. restraining           0.000000000000 Eh    ::
         :: total charge              -1.000000000000 e     ::
         :::::::::::::::::::::::::::::::::::::::::::::::::::::


Property printout bound to 'properties.out'

           -------------------------------------------------
          | TOTAL ENERGY              -73.360295606410 Eh   |
          | GRADIENT NORM               0.000781333938 Eh/α |
          | HOMO-LUMO GAP               5.352872112421 eV   |
           -------------------------------------------------

------------------------------------------------------------------------
 * finished run on 2026/03/08 at 17:05:43.119     
------------------------------------------------------------------------
 total:
 * wall-time:     0 d,  0 h,  0 min,  0.090 sec
 *  cpu-time:     0 d,  0 h,  0 min,  1.296 sec
 * ratio c/w:    14.476 speedup
 SCF:
 * wall-time:     0 d,  0 h,  0 min,  0.041 sec
 *  cpu-time:     0 d,  0 h,  0 min,  0.770 sec
 * ratio c/w:    19.014 speedup


-------------------------   --------------------
FINAL SINGLE POINT ENERGY       -73.360295606410
-------------------------   --------------------


-------------
DIPOLE MOMENT
-------------
                                X             Y             Z
Total Dipole Moment    :      4.20300       1.05800      -0.58100
                        -----------------------------------------
Magnitude (a.u.)       :      4.37289
Magnitude (Debye)      :     11.11499


------------------
CARTESIAN GRADIENT
------------------

   1   F   :   -0.000089780    0.000043054    0.000104131
   2   F   :    0.000012081   -0.000023289    0.000104031
   3   F   :    0.000022559    0.000080653    0.000024212
   4   F   :    0.000089909   -0.000030254    0.000069096
   5   F   :   -0.000049263    0.000055620   -0.000026059
   6   F   :   -0.000038953    0.000046870    0.000018354
   7   F   :    0.000049828   -0.000018476    0.000028629
   8   F   :   -0.000052160   -0.000029323   -0.000058869
   9   F   :   -0.000000771   -0.000083457   -0.000046412
  10   F   :    0.000026983   -0.000055888    0.000044489
  11   F   :   -0.000058009   -0.000072057    0.000127309
  12   O   :    0.000079934   -0.000020764   -0.000047712
  13   O   :   -0.000067995    0.000054177   -0.000112008
  14   C   :    0.000044248   -0.000055631   -0.000218329
  15   C   :   -0.000102546    0.000062816   -0.000146218
  16   C   :    0.000099210   -0.000075750    0.000008014
  17   C   :    0.000229296    0.000247950   -0.000021519
  18   C   :    0.000055651    0.000170239   -0.000090773
  19   C   :   -0.000250222   -0.000296489    0.000239634

Difference to translation invariance:
           :   -0.0000000000    0.0000000000   -0.0000000000

Difference to rotation invariance:
           :   -0.0000939186   -0.0001291994   -0.0000435036

Norm of the Cartesian gradient     ...    0.0007813339
RMS gradient                       ...    0.0001034902
MAX gradient                       ...    0.0002964886
------------------------------------------------------------------------------
                         ORCA GEOMETRY RELAXATION STEP
------------------------------------------------------------------------------

Reading the OPT-File                    .... done
Getting information on internals        .... done
Copying old internal coords+grads       .... done
Making the new internal coordinates     .... (2022 redundants) done
Validating the new internal coordinates .... (2022 redundants) done
Calculating the B-matrix                .... done
Calculating the G,G- and P matrices     .... done
Transforming gradient to internals      .... done
Projecting the internal gradient        .... done
Number of atoms                         ....  19
Number of internal coordinates          ....  80
Current Energy                          ....   -73.360295606 Eh
Current gradient norm                   ....     0.000781334 Eh/bohr
Maximum allowed component of the step   ....  0.300
Current trust radius                    ....  0.700
Updating the Hessian (BFGS)             .... done
Forming the augmented Hessian           .... done
Diagonalizing the augmented Hessian     .... done
Last element of RFO vector              ....  0.999029340
Lowest eigenvalues of augmented Hessian:
 -0.000003803  0.001189663  0.009748310  0.010005361  0.010517833
Length of the computed step             ....  0.044092527
The final length of the internal step   ....  0.044092527
Converting the step to Cartesian space:
 Initial RMS(Int)=    0.0049296944
Transforming coordinates:
 Iter   0:  RMS(Cart)=    0.0084438396 RMS(Int)=    0.0049296993
done
Storing new coordinates                 .... done
The predicted energy change is          ....    -0.000001905
Previously predicted energy change      ....    -0.000002152
Actually observed energy change         ....    -0.000003165
Ratio of predicted to observed change   ....     1.470855315
New trust radius                        ....     0.700000000

                                .--------------------.
          ----------------------|Geometry convergence|-------------------------
          Item                value                   Tolerance       Converged
          ---------------------------------------------------------------------
          Energy change      -0.0000031653            0.0000050000      YES
          RMS gradient        0.0000738025            0.0001000000      YES
          MAX gradient        0.0003517173            0.0003000000      NO
          RMS step            0.0049296944            0.0020000000      NO
          MAX step            0.0186832083            0.0040000000      NO
          -------------------------------------------------------------------------
          ........................................................
          Max(Bonds)      0.0004      Max(Angles)    0.07
          Max(Dihed)        1.07      Max(Improp)    0.00
          ---------------------------------------------------------------------

    ---------------------------------------------------------------------------
                         Redundant Internal Coordinates
                            (Angstroem and degrees)

        Definition                    Value    dE/dq     Step     New-Value
    ----------------------------------------------------------------------------
     1. B(C  13,F   1)                1.3449 -0.000004  0.0001    1.3450   
     2. B(C  13,F   0)                1.3553 -0.000125  0.0001    1.3554   
     3. B(C  14,F   2)                1.3648  0.000080 -0.0002    1.3646   
     4. B(C  14,C  13)                1.5496  0.000035 -0.0001    1.5495   
     5. B(C  14,F   3)                1.3490 -0.000110  0.0004    1.3495   
     6. B(C  15,F   5)                1.3386  0.000014  0.0001    1.3387   
     7. B(C  15,F   4)                1.3525 -0.000059 -0.0000    1.3525   
     8. B(C  15,C  13)                1.5551  0.000045 -0.0001    1.5549   
     9. B(C  16,C  14)                1.5317  0.000040 -0.0002    1.5315   
    10. B(C  16,F   7)                1.3641  0.000004  0.0001    1.3643   
    11. B(C  16,F   6)                1.3645  0.000052  0.0000    1.3646   
    12. B(C  17,F  10)                1.3283 -0.000156  0.0001    1.3284   
    13. B(C  17,F   9)                1.3296  0.000063 -0.0001    1.3295   
    14. B(C  17,C  15)                1.5587 -0.000009 -0.0001    1.5586   
    15. B(C  17,F   8)                1.3250 -0.000086  0.0002    1.3252   
    16. B(C  18,C  16)                1.6581  0.000352 -0.0004    1.6577   
    17. B(C  18,O  12)                1.2171 -0.000127  0.0001    1.2172   
    18. B(C  18,O  11)                1.2166 -0.000037 -0.0001    1.2165   
    19. A(F   1,C  13,C  15)          108.12 -0.000133    0.04    108.16   
    20. A(F   1,C  13,C  14)          110.02 -0.000005   -0.00    110.02   
    21. A(F   0,C  13,C  15)          106.51  0.000036   -0.02    106.49   
    22. A(C  14,C  13,C  15)          118.68  0.000137    0.02    118.71   
    23. A(F   0,C  13,F   1)          105.46  0.000068   -0.03    105.43   
    24. A(F   0,C  13,C  14)          107.22 -0.000103   -0.02    107.20   
    25. A(F   3,C  14,C  13)          106.75 -0.000063   -0.03    106.73   
    26. A(F   2,C  14,C  16)          111.73 -0.000040    0.02    111.74   
    27. A(F   2,C  14,C  13)          107.25  0.000055   -0.01    107.24   
    28. A(F   3,C  14,C  16)          109.31  0.000036   -0.05    109.26   
    29. A(F   2,C  14,F   3)          105.03  0.000003   -0.01    105.02   
    30. A(C  13,C  14,C  16)          116.09  0.000008    0.07    116.16   
    31. A(F   4,C  15,F   5)          106.33  0.000064   -0.01    106.32   
    32. A(F   5,C  15,C  13)          112.22 -0.000077    0.04    112.26   
    33. A(C  13,C  15,C  17)          115.96  0.000189   -0.05    115.91   
    34. A(F   4,C  15,C  17)          106.64 -0.000011    0.01    106.65   
    35. A(F   4,C  15,C  13)          106.51 -0.000085    0.02    106.53   
    36. A(F   5,C  15,C  17)          108.58 -0.000083   -0.01    108.58   
    37. A(F   7,C  16,C  18)          111.15 -0.000095    0.04    111.19   
    38. A(F   6,C  16,C  18)          111.83 -0.000014   -0.06    111.77   
    39. A(F   6,C  16,F   7)          105.08  0.000059   -0.02    105.06   
    40. A(C  14,C  16,C  18)          112.39  0.000136    0.03    112.42   
    41. A(F   7,C  16,C  14)          107.36 -0.000061   -0.02    107.35   
    42. A(F   6,C  16,C  14)          108.66 -0.000033    0.04    108.70   
    43. A(F  10,C  17,C  15)          111.95  0.000023   -0.01    111.93   
    44. A(F   9,C  17,C  15)          109.15 -0.000051    0.02    109.16   
    45. A(F   8,C  17,C  15)          112.41 -0.000074    0.02    112.43   
    46. A(F   9,C  17,F  10)          107.35  0.000041    0.01    107.36   
    47. A(F   8,C  17,F  10)          108.27  0.000023   -0.03    108.25   
    48. A(F   8,C  17,F   9)          107.50  0.000045   -0.01    107.49   
    49. A(O  11,C  18,O  12)          134.83 -0.000029   -0.00    134.83   
    50. A(O  12,C  18,C  16)          112.62  0.000085   -0.05    112.57   
    51. A(O  11,C  18,C  16)          112.53 -0.000059    0.06    112.58   
    52. D(F   2,C  14,C  13,F   1)   -172.83 -0.000039    0.32   -172.50   
    53. D(F   3,C  14,C  13,F   0)     53.53 -0.000017    0.25     53.78   
    54. D(F   2,C  14,C  13,F   0)    -58.62 -0.000017    0.27    -58.35   
    55. D(F   3,C  14,C  13,C  15)    174.11  0.000039    0.22    174.33   
    56. D(F   2,C  14,C  13,C  15)     61.96  0.000040    0.25     62.20   
    57. D(F   3,C  14,C  13,F   1)    -60.67 -0.000039    0.30    -60.37   
    58. D(F   4,C  15,C  13,F   0)    -54.25 -0.000026   -0.02    -54.27   
    59. D(F   5,C  15,C  13,F   0)   -170.22 -0.000012   -0.04   -170.26   
    60. D(F   5,C  15,C  13,C  14)     68.84  0.000004   -0.01     68.83   
    61. D(F   5,C  15,C  13,F   1)    -57.30  0.000023   -0.07    -57.36   
    62. D(F   4,C  15,C  13,C  14)   -175.19 -0.000010    0.01   -175.18   
    63. D(F   4,C  15,C  13,F   1)     58.67  0.000009   -0.04     58.63   
    64. D(F   6,C  16,C  14,C  13)     68.24  0.000034   -0.24     68.01   
    65. D(F   6,C  16,C  14,F   3)   -170.98 -0.000015   -0.26   -171.24   
    66. D(F   6,C  16,C  14,F   2)    -55.16 -0.000013   -0.30    -55.46   
    67. D(F   7,C  16,C  14,C  13)   -178.59  0.000057   -0.25   -178.84   
    68. D(F   7,C  16,C  14,F   3)    -57.81  0.000008   -0.28    -58.09   
    69. D(F   7,C  16,C  14,F   2)     58.00  0.000010   -0.31     57.69   
    70. D(F   9,C  17,C  15,C  13)   -163.11 -0.000023   -0.18   -163.29   
    71. D(F   9,C  17,C  15,F   5)     69.49  0.000005   -0.20     69.29   
    72. D(F   9,C  17,C  15,F   4)    -44.72 -0.000024   -0.19    -44.91   
    73. D(F   8,C  17,C  15,C  13)     77.72  0.000002   -0.19     77.52   
    74. D(F   8,C  17,C  15,F   5)    -49.68  0.000029   -0.21    -49.89   
    75. D(F   8,C  17,C  15,F   4)   -163.90  0.000000   -0.20   -164.09   
    76. D(O  12,C  18,C  16,F   7)   -140.53 -0.000037   -0.96   -141.48   
    77. D(O  12,C  18,C  16,F   6)    -23.42 -0.000033   -1.00    -24.42   
    78. D(O  11,C  18,C  16,C  14)    -79.59  0.000093   -1.05    -80.64   
    79. D(O  11,C  18,C  16,F   7)     40.77  0.000042   -1.03     39.74   
    80. D(O  11,C  18,C  16,F   6)    157.87  0.000046   -1.07    156.80   
    ----------------------------------------------------------------------------

Geometry step timings:
Preparation and reading OPT file:      0.000 s ( 1.561 %)
Internal coordinates            :      0.000 s ( 1.100 %)
B/P matrices and projection     :      0.001 s (28.260 %)
Hessian update/contruction      :      0.001 s (20.409 %)
Making the step                 :      0.001 s (24.808 %)
Converting the step to Cartesian:      0.000 s ( 2.463 %)
Storing new data                :      0.000 s ( 2.507 %)
Checking convergence            :      0.000 s ( 1.210 %)
Final printing                  :      0.001 s (17.638 %)
Total time                      :      0.005 s

Time for energy+gradient        :      0.118 s
Time for complete geometry iter :      0.125 s

         *************************************************************
         *                GEOMETRY OPTIMIZATION CYCLE  12            *
         *************************************************************
---------------------------------
CARTESIAN COORDINATES (ANGSTROEM)
---------------------------------
  F     0.922859   -0.233261   -2.092629
  F    -0.453461   -1.588932   -1.152554
  F     0.070492    1.856824   -0.659327
  F    -1.439145    0.856713   -1.824927
  F     2.091537   -1.788404   -0.354496
  F     0.802385   -1.233570    1.279230
  F    -0.874671    0.697219    1.643754
  F    -2.398826    1.753344    0.524635
  F     1.765748    1.293055    1.270987
  F     3.376865   -0.107444    1.111762
  F     2.756301    0.997647   -0.614396
  O    -3.535084   -0.622548   -0.250025
  O    -2.107463   -1.635650    1.158888
  C     0.257626   -0.468159   -0.935324
  C    -0.697643    0.729862   -0.704614
  C     1.337500   -0.779949    0.139112
  C    -1.627656    0.628071    0.507863
  C     2.316283    0.384492    0.478777
  C    -2.563946   -0.739411    0.473285

----------------------------
CARTESIAN COORDINATES (A.U.)
----------------------------
  NO LB    ZA    FRAG    MASS        X           Y           Z
   0 F   9.0000    1    18.998    1.743951   -0.440799   -3.954496
   1 F   9.0000    1    18.998   -0.856916   -3.002647   -2.178012
   2 F   9.0000    1    18.998    0.133211    3.508889   -1.245947
   3 F   9.0000    1    18.998   -2.719590    1.618954   -3.448612
   4 F   9.0000    1    18.998    3.952431   -3.379593   -0.669901
   5 F   9.0000    1    18.998    1.516288   -2.331110    2.417394
   6 F   9.0000    1    18.998   -1.652890    1.317553    3.106245
   7 F   9.0000    1    18.998   -4.533124    3.313339    0.991417
   8 F   9.0000    1    18.998    3.336781    2.443520    2.401817
   9 F   9.0000    1    18.998    6.381350   -0.203040    2.100925
  10 F   9.0000    1    18.998    5.208654    1.885280   -1.161041
  11 O   8.0000    1    15.999   -6.680341   -1.176445   -0.472479
  12 O   8.0000    1    15.999   -3.982528   -3.090931    2.189980
  13 C   6.0000    1    12.011    0.486843   -0.884692   -1.767507
  14 C   6.0000    1    12.011   -1.318354    1.379240   -1.331527
  15 C   6.0000    1    12.011    2.527508   -1.473890    0.262883
  16 C   6.0000    1    12.011   -3.075824    1.186883    0.959722
  17 C   6.0000    1    12.011    4.377140    0.726585    0.904757
  18 C   6.0000    1    12.011   -4.845156   -1.397284    0.894380

      -----------------------------------------------------------      
     |                   =====================                   |     
     |                           x T B                           |     
     |                   =====================                   |     
     |                         S. Grimme                         |     
     |          Mulliken Center for Theoretical Chemistry        |     
     |                    University of Bonn                     |     
      -----------------------------------------------------------      

   * xtb version 6.7.1 (edcfbbe) compiled by 'albert@albert-system' on 2024-07-22

   xtb is free software: you can redistribute it and/or modify it under
   the terms of the GNU Lesser General Public License as published by
   the Free Software Foundation, either version 3 of the License, or
   (at your option) any later version.
   
   xtb is distributed in the hope that it will be useful,
   but WITHOUT ANY WARRANTY; without even the implied warranty of
   MERCHANTABILITY or FITNESS FOR A PARTICULAR PURPOSE.  See the
   GNU Lesser General Public License for more details.
   
   Cite this work as:
   * C. Bannwarth, E. Caldeweyher, S. Ehlert, A. Hansen, P. Pracht,
     J. Seibert, S. Spicher, S. Grimme, WIREs Comput. Mol. Sci., 2020, 11,
     e01493. DOI: 10.1002/wcms.1493
   
   for GFN2-xTB:
   * C. Bannwarth, S. Ehlert and S. Grimme., J. Chem. Theory Comput., 2019,
     15, 1652-1671. DOI: 10.1021/acs.jctc.8b01176
   for GFN1-xTB:
   * S. Grimme, C. Bannwarth, P. Shushkov, J. Chem. Theory Comput., 2017,
     13, 1989-2009. DOI: 10.1021/acs.jctc.7b00118
   for GFN0-xTB:
   * P. Pracht, E. Caldeweyher, S. Ehlert, S. Grimme, ChemRxiv, 2019, preprint.
     DOI: 10.26434/chemrxiv.8326202.v1
   for GFN-FF:
   * S. Spicher and S. Grimme, Angew. Chem. Int. Ed., 2020, 59, 15665-15673.
     DOI: 10.1002/anie.202004239
   
   for ALPB and GBSA implicit solvation:
   * S. Ehlert, M. Stahn, S. Spicher, S. Grimme, J. Chem. Theory Comput.,
     2021, 17, 4250-4261. DOI: 10.1021/acs.jctc.1c00471
   
   for ddCOSMO and CPCM-X implicit solvation:
   * M. Stahn, S. Ehlert, S. Grimme, J. Phys. Chem. A,
     2023, XX, XXXX-XXXX. DOI: 10.1021/acs.jpca.3c04382
   
   for DFT-D4:
   * E. Caldeweyher, C. Bannwarth and S. Grimme, J. Chem. Phys., 2017,
     147, 034112. DOI: 10.1063/1.4993215
   * E. Caldeweyher, S. Ehlert, A. Hansen, H. Neugebauer, S. Spicher,
     C. Bannwarth and S. Grimme, J. Chem. Phys., 2019, 150, 154122.
     DOI: 10.1063/1.5090222
   * E. Caldeweyher, J.-M. Mewes, S. Ehlert and S. Grimme, Phys. Chem. Chem. Phys.
     2020, 22, 8499-8512. DOI: 10.1039/D0CP00502A
   
   for sTDA-xTB:
   * S. Grimme and C. Bannwarth, J. Chem. Phys., 2016, 145, 054103.
     DOI: 10.1063/1.4959605
   
   in the mass-spec context:
   * V. Asgeirsson, C. Bauer and S. Grimme, Chem. Sci., 2017, 8, 4879.
     DOI: 10.1039/c7sc00601b
   * J. Koopman and S. Grimme, ACS Omega 2019, 4, 12, 15120-15133.
     DOI: 10.1021/acsomega.9b02011
   
   for metadynamics refer to:
   * S. Grimme, J. Chem. Theory Comput., 2019, 155, 2847-2862
     DOI: 10.1021/acs.jctc.9b00143
   
   for SPH calculations refer to:
   * S. Spicher and S. Grimme, J. Chem. Theory Comput., 2021, 17, 1701-1714
     DOI: 10.1021/acs.jctc.0c01306
   
   for ONIOM refer to:
   * C. Plett, A. Katbashev, S. Ehlert, S. Grimme, M. Bursch,
     Phys. Chem. Chem. Phys., 2023, 25, 17860-17868. DOI: 10.1039/D3CP02178E
   
   for DIPRO refer to:
   * J. Kohn, N. Gildemeister, S. Grimme, D. Fazzi, A. Hansen,
     J. Chem. Phys., 2023, just accepted.
   
   for PTB refer to:
   * S. Grimme, M. Mueller, A. Hansen, J. Chem. Phys., 2023, 158, 124111.
     DOI: 10.1063/5.0137838
   
   with help from (in alphabetical order)
   P. Atkinson, C. Bannwarth, F. Bohle, G. Brandenburg, E. Caldeweyher
   M. Checinski, S. Dohm, S. Ehlert, S. Ehrlich, I. Gerasimov, C. Hölzer
   A. Katbashev, J. Kohn, J. Koopman, C. Lavigne, S. Lehtola, F. März, M. Müller,
   F. Musil, H. Neugebauer, J. Pisarek, C. Plett, P. Pracht, F. Pultar,
   J. Seibert, P. Shushkov, S. Spicher, M. Stahn, M. Steiner, T. Strunk,
   J. Stückrath, T. Rose, and J. Unsleber
   
 * started run on 2026/03/08 at 17:05:43.154     
   ID    Z sym.   atoms
    1    9 F      1-11
    2    8 O      12, 13
    3    6 C      14-19

           -------------------------------------------------
          |                Calculation Setup                |
           -------------------------------------------------

          program call               : /users/rzwa/work/orca/orca-6.1.0/otool_xtb PFHxA_GOAT_XTB.xyz --grad -c -1 -u 0 -P 32 --namespace PFHxA_GOAT --input PFHxA_GOAT_XTB.input.tmp --alpb WATER --acc 0.200000
          hostname                   : node2414
          calculation namespace      : PFHxA_GOAT
          coordinate file            : PFHxA_GOAT_XTB.xyz
          omp threads                :                    32


           -------------------------------------------------
          |                 G F N 2 - x T B                 |
           -------------------------------------------------

        Reference                      10.1021/acs.jctc.8b01176
      * Hamiltonian:
        H0-scaling (s, p, d)           1.850000    2.230000    2.230000
        zeta-weighting                 0.500000
      * Dispersion:
        s8                             2.700000
        a1                             0.520000
        a2                             5.000000
        s9                             5.000000
      * Repulsion:
        kExp                           1.500000    1.000000
        rExp                           1.000000
      * Coulomb:
        alpha                          2.000000
        third order                    shell-resolved
        anisotropic                    true
        a3                             3.000000
        a5                             4.000000
        cn-shift                       1.200000
        cn-exp                         4.000000
        max-rad                        5.000000

      * Solvation model:               ALPB
        Solvent                        WATER
        Parameter file                 internal GFN2-xTB/ALPB
        Dielectric constant                8.0200E+01
        Reference state                gsolv [1 M gas/solution]
        Free energy shift                  1.0808E-03 Eh       6.7819E-01 kcal/mol
        Temperature                        2.9815E+02 K
        Density                            1.0000E+00 kg/L
        Solvent mass                       1.8000E+01 g/mol
        Interaction kernel             P16
        Born radius scaling (c1)           1.4744E+00
        Born radii integrator          GBOBC
        Born offset                        0.0000E+00 a0       0.0000E+00 AA
        H-bond correction              true
        Ion screening                  false
        Surface tension                    1.0000E-05 Eh       1.5569E+01 dyn/cm
        Grid points                               230 per atom
q/qsh data taken from xtbrestart
CAMM data taken from xtbrestart

          ...................................................
          :                      SETUP                      :
          :.................................................:
          :  # basis functions                  76          :
          :  # atomic orbitals                  76          :
          :  # shells                           38          :
          :  # electrons                       114          :
          :  max. iterations                   250          :
          :  Hamiltonian                  GFN2-xTB          :
          :  restarted?                       true          :
          :  GBSA solvation                   true          :
          :  PC potential                    false          :
          :  electronic temp.          300.0000000     K    :
          :  accuracy                    0.2000000          :
          :  -> integral cutoff          0.3198970E+02      :
          :  -> integral neglect         0.2000000E-08      :
          :  -> SCF convergence          0.2000000E-06 Eh   :
          :  -> wf. convergence          0.2000000E-04 e    :
          :  Broyden damping             0.4000000          :
          :  net charge                         -1          :
          :  unpaired electrons                  0          :
          ...................................................

 iter      E             dE          RMSdq      gap      omega  full diag
   1    -73.5937733 -0.735938E+02  0.502E-02    5.35       0.0  T
   2    -73.5937736 -0.309849E-06  0.291E-02    5.35       1.0  T
   3    -73.5937737 -0.111281E-06  0.176E-03    5.35      13.1  T
   4    -73.5937737 -0.971619E-08  0.102E-03    5.35      22.6  T
   5    -73.5937737 -0.154925E-08  0.481E-04    5.35      47.7  T
   6    -73.5937737 -0.483155E-09  0.691E-05    5.35     331.8  T
   7    -73.5937737 -0.153619E-10  0.234E-05    5.35     980.7  T

   *** convergence criteria satisfied after 7 iterations ***

         #    Occupation            Energy/Eh            Energy/eV
      -------------------------------------------------------------
         1        2.0000           -0.9455025             -25.7284
       ...           ...                  ...                  ...
        51        2.0000           -0.5464780             -14.8704
        52        2.0000           -0.5424365             -14.7604
        53        2.0000           -0.5330534             -14.5051
        54        2.0000           -0.5161483             -14.0451
        55        2.0000           -0.4545106             -12.3679
        56        2.0000           -0.4429794             -12.0541
        57        2.0000           -0.4192347             -11.4080 (HOMO)
        58                         -0.2225371              -6.0555 (LUMO)
        59                         -0.1255169              -3.4155
        60                         -0.1140653              -3.1039
        61                         -0.1019384              -2.7739
        62                         -0.0930646              -2.5324
       ...                                ...                  ...
        76                          0.7358446              20.0233
      -------------------------------------------------------------
                  HL-Gap            0.1966975 Eh            5.3524 eV
             Fermi-level           -0.3208859 Eh           -8.7317 eV

 SCC (total)                   0 d,  0 h,  0 min,  0.053 sec
 SCC setup                      ...        0 min,  0.001 sec (  1.456%)
 Dispersion                     ...        0 min,  0.001 sec (  1.046%)
 classical contributions        ...        0 min,  0.000 sec (  0.611%)
 integral evaluation            ...        0 min,  0.003 sec (  5.629%)
 iterations                     ...        0 min,  0.045 sec ( 84.701%)
 molecular gradient             ...        0 min,  0.003 sec (  5.678%)
 printout                       ...        0 min,  0.000 sec (  0.787%)

         :::::::::::::::::::::::::::::::::::::::::::::::::::::
         ::                     SUMMARY                     ::
         :::::::::::::::::::::::::::::::::::::::::::::::::::::
         :: total energy             -73.360298235030 Eh    ::
         :: total w/o Gsasa/hb       -73.370847741802 Eh    ::
         :: gradient norm              0.000655547206 Eh/a0 ::
         :: HOMO-LUMO gap              5.352412143326 eV    ::
         ::.................................................::
         :: SCC energy               -73.593636108710 Eh    ::
         :: -> isotropic ES            0.309561570674 Eh    ::
         :: -> anisotropic ES          0.003692872496 Eh    ::
         :: -> anisotropic XC         -0.076513987383 Eh    ::
         :: -> dispersion             -0.019795764655 Eh    ::
         :: -> Gsolv                  -0.079800514369 Eh    ::
         ::    -> Gelec               -0.090350021142 Eh    ::
         ::    -> Gsasa                0.013595815527 Eh    ::
         ::    -> Ghb                 -0.004127068452 Eh    ::
         ::    -> Gshift               0.001080759698 Eh    ::
         :: repulsion energy           0.233337873680 Eh    ::
         :: add. restraining           0.000000000000 Eh    ::
         :: total charge              -1.000000000000 e     ::
         :::::::::::::::::::::::::::::::::::::::::::::::::::::


Property printout bound to 'properties.out'

           -------------------------------------------------
          | TOTAL ENERGY              -73.360298235030 Eh   |
          | GRADIENT NORM               0.000655547206 Eh/α |
          | HOMO-LUMO GAP               5.352412143326 eV   |
           -------------------------------------------------

------------------------------------------------------------------------
 * finished run on 2026/03/08 at 17:05:43.236     
------------------------------------------------------------------------
 total:
 * wall-time:     0 d,  0 h,  0 min,  0.081 sec
 *  cpu-time:     0 d,  0 h,  0 min,  1.536 sec
 * ratio c/w:    18.910 speedup
 SCF:
 * wall-time:     0 d,  0 h,  0 min,  0.054 sec
 *  cpu-time:     0 d,  0 h,  0 min,  1.132 sec
 * ratio c/w:    21.059 speedup


-------------------------   --------------------
FINAL SINGLE POINT ENERGY       -73.360298235030
-------------------------   --------------------


-------------
DIPOLE MOMENT
-------------
                                X             Y             Z
Total Dipole Moment    :      4.20700       1.05300      -0.58200
                        -----------------------------------------
Magnitude (a.u.)       :      4.37566
Magnitude (Debye)      :     11.12204


------------------
CARTESIAN GRADIENT
------------------

   1   F   :   -0.000087271    0.000013103    0.000093136
   2   F   :   -0.000028785   -0.000091223    0.000059171
   3   F   :   -0.000006988    0.000032693    0.000001576
   4   F   :    0.000031407   -0.000007282   -0.000016082
   5   F   :   -0.000055217    0.000040801    0.000000070
   6   F   :   -0.000052983    0.000014698    0.000089396
   7   F   :    0.000019390   -0.000005417    0.000043456
   8   F   :   -0.000082678    0.000062019   -0.000032021
   9   F   :   -0.000026907    0.000016777    0.000011504
  10   F   :    0.000010419   -0.000030721    0.000062328
  11   F   :   -0.000075837   -0.000035501    0.000092391
  12   O   :    0.000093792   -0.000004443    0.000040836
  13   O   :   -0.000065679    0.000095347   -0.000078146
  14   C   :    0.000099034    0.000104837   -0.000135045
  15   C   :   -0.000018802    0.000047751    0.000025893
  16   C   :    0.000123394   -0.000053747   -0.000134180
  17   C   :    0.000274988    0.000066701   -0.000105561
  18   C   :    0.000054054    0.000012025   -0.000119529
  19   C   :   -0.000205331   -0.000278417    0.000100808

Difference to translation invariance:
           :    0.0000000000   -0.0000000000    0.0000000000

Difference to rotation invariance:
           :   -0.0000884630   -0.0001304997   -0.0000417112

Norm of the Cartesian gradient     ...    0.0006555472
RMS gradient                       ...    0.0000868293
MAX gradient                       ...    0.0002784172
------------------------------------------------------------------------------
                         ORCA GEOMETRY RELAXATION STEP
------------------------------------------------------------------------------

Reading the OPT-File                    .... done
Getting information on internals        .... done
Copying old internal coords+grads       .... done
Making the new internal coordinates     .... (2022 redundants) done
Validating the new internal coordinates .... (2022 redundants) done
Calculating the B-matrix                .... done
Calculating the G,G- and P matrices     .... done
Transforming gradient to internals      .... done
Projecting the internal gradient        .... done
Number of atoms                         ....  19
Number of internal coordinates          ....  80
Current Energy                          ....   -73.360298235 Eh
Current gradient norm                   ....     0.000655547 Eh/bohr
Maximum allowed component of the step   ....  0.300
Current trust radius                    ....  0.700
Updating the Hessian (BFGS)             .... done
Forming the augmented Hessian           .... done
Diagonalizing the augmented Hessian     .... done
Last element of RFO vector              ....  0.999602128
Lowest eigenvalues of augmented Hessian:
 -0.000001860  0.000960719  0.009629833  0.009928364  0.010507658
Length of the computed step             ....  0.028217358
The final length of the internal step   ....  0.028217358
Converting the step to Cartesian space:
 Initial RMS(Int)=    0.0031547965
Transforming coordinates:
 Iter   0:  RMS(Cart)=    0.0055119608 RMS(Int)=    0.0031550007
done
Storing new coordinates                 .... done
The predicted energy change is          ....    -0.000000931
Previously predicted energy change      ....    -0.000001905
Actually observed energy change         ....    -0.000002629
Ratio of predicted to observed change   ....     1.379890948
New trust radius                        ....     0.700000000

                                .--------------------.
          ----------------------|Geometry convergence|-------------------------
          Item                value                   Tolerance       Converged
          ---------------------------------------------------------------------
          Energy change      -0.0000026286            0.0000050000      YES
          RMS gradient        0.0000588399            0.0001000000      YES
          MAX gradient        0.0002552721            0.0003000000      YES
          RMS step            0.0031547965            0.0020000000      NO
          MAX step            0.0116610483            0.0040000000      NO
          -------------------------------------------------------------------------
          ........................................................
          Max(Bonds)      0.0009      Max(Angles)    0.05
          Max(Dihed)        0.67      Max(Improp)    0.00
          ---------------------------------------------------------------------

    ---------------------------------------------------------------------------
                         Redundant Internal Coordinates
                            (Angstroem and degrees)

        Definition                    Value    dE/dq     Step     New-Value
    ----------------------------------------------------------------------------
     1. B(C  13,F   1)                1.3450  0.000081 -0.0000    1.3449   
     2. B(C  13,F   0)                1.3554 -0.000120  0.0002    1.3556   
     3. B(C  14,F   2)                1.3646  0.000023 -0.0002    1.3644   
     4. B(C  14,C  13)                1.5495 -0.000022 -0.0000    1.5495   
     5. B(C  14,F   3)                1.3495 -0.000005  0.0002    1.3497   
     6. B(C  15,F   5)                1.3387  0.000091 -0.0000    1.3386   
     7. B(C  15,F   4)                1.3525 -0.000061  0.0000    1.3525   
     8. B(C  15,C  13)                1.5549 -0.000014 -0.0001    1.5549   
     9. B(C  16,C  14)                1.5315 -0.000034 -0.0000    1.5314   
    10. B(C  16,F   7)                1.3643  0.000097 -0.0000    1.3642   
    11. B(C  16,F   6)                1.3646  0.000048 -0.0000    1.3645   
    12. B(C  17,F  10)                1.3284 -0.000116  0.0001    1.3285   
    13. B(C  17,F   9)                1.3295  0.000049 -0.0001    1.3294   
    14. B(C  17,C  15)                1.5586 -0.000042  0.0000    1.5586   
    15. B(C  17,F   8)                1.3252  0.000029  0.0001    1.3253   
    16. B(C  18,C  16)                1.6577  0.000255 -0.0009    1.6567   
    17. B(C  18,O  12)                1.2172 -0.000137  0.0002    1.2174   
    18. B(C  18,O  11)                1.2165 -0.000101  0.0000    1.2166   
    19. A(F   1,C  13,C  15)          108.16 -0.000098    0.05    108.21   
    20. A(F   1,C  13,C  14)          110.02  0.000021    0.00    110.03   
    21. A(F   0,C  13,C  15)          106.49  0.000053   -0.03    106.47   
    22. A(C  14,C  13,C  15)          118.70  0.000057    0.01    118.71   
    23. A(F   0,C  13,F   1)          105.43  0.000036   -0.03    105.40   
    24. A(F   0,C  13,C  14)          107.20 -0.000066   -0.01    107.19   
    25. A(F   3,C  14,C  13)          106.73 -0.000040   -0.01    106.72   
    26. A(F   2,C  14,C  16)          111.74 -0.000034    0.00    111.75   
    27. A(F   2,C  14,C  13)          107.24  0.000046   -0.01    107.23   
    28. A(F   3,C  14,C  16)          109.26  0.000051   -0.03    109.23   
    29. A(F   2,C  14,F   3)          105.02 -0.000010   -0.00    105.02   
    30. A(C  13,C  14,C  16)          116.16 -0.000014    0.05    116.21   
    31. A(F   4,C  15,F   5)          106.32  0.000033   -0.01    106.31   
    32. A(F   5,C  15,C  13)          112.26 -0.000035    0.04    112.30   
    33. A(C  13,C  15,C  17)          115.91  0.000078   -0.04    115.87   
    34. A(F   4,C  15,C  17)          106.65  0.000063   -0.01    106.64   
    35. A(F   4,C  15,C  13)          106.53 -0.000038    0.01    106.54   
    36. A(F   5,C  15,C  17)          108.58 -0.000094    0.01    108.59   
    37. A(F   7,C  16,C  18)          111.19 -0.000073    0.04    111.23   
    38. A(F   6,C  16,C  18)          111.77 -0.000044   -0.03    111.74   
    39. A(F   6,C  16,F   7)          105.06  0.000037   -0.01    105.05   
    40. A(C  14,C  16,C  18)          112.42  0.000150   -0.01    112.40   
    41. A(F   7,C  16,C  14)          107.35 -0.000066   -0.00    107.35   
    42. A(F   6,C  16,C  14)          108.70 -0.000012    0.01    108.71   
    43. A(F  10,C  17,C  15)          111.93 -0.000004   -0.01    111.92   
    44. A(F   9,C  17,C  15)          109.16 -0.000000    0.01    109.18   
    45. A(F   8,C  17,C  15)          112.43 -0.000050    0.02    112.45   
    46. A(F   9,C  17,F  10)          107.36  0.000087   -0.01    107.35   
    47. A(F   8,C  17,F  10)          108.25 -0.000035   -0.01    108.23   
    48. A(F   8,C  17,F   9)          107.49  0.000010   -0.00    107.48   
    49. A(O  11,C  18,O  12)          134.83 -0.000002   -0.02    134.81   
    50. A(O  12,C  18,C  16)          112.57  0.000031   -0.03    112.54   
    51. A(O  11,C  18,C  16)          112.58 -0.000029    0.04    112.63   
    52. D(F   2,C  14,C  13,F   1)   -172.50 -0.000022    0.22   -172.29   
    53. D(F   3,C  14,C  13,F   0)     53.78 -0.000013    0.17     53.95   
    54. D(F   2,C  14,C  13,F   0)    -58.35 -0.000005    0.18    -58.17   
    55. D(F   3,C  14,C  13,C  15)    174.33  0.000041    0.13    174.46   
    56. D(F   2,C  14,C  13,C  15)     62.20  0.000050    0.14     62.34   
    57. D(F   3,C  14,C  13,F   1)    -60.37 -0.000031    0.20    -60.17   
    58. D(F   4,C  15,C  13,F   0)    -54.27 -0.000004   -0.02    -54.28   
    59. D(F   5,C  15,C  13,F   0)   -170.26 -0.000002   -0.02   -170.29   
    60. D(F   5,C  15,C  13,C  14)     68.82  0.000004    0.01     68.83   
    61. D(F   5,C  15,C  13,F   1)    -57.36  0.000019   -0.05    -57.41   
    62. D(F   4,C  15,C  13,C  14)   -175.18  0.000002    0.01   -175.17   
    63. D(F   4,C  15,C  13,F   1)     58.63  0.000017   -0.04     58.59   
    64. D(F   6,C  16,C  14,C  13)     68.01  0.000024   -0.20     67.81   
    65. D(F   6,C  16,C  14,F   3)   -171.24  0.000001   -0.20   -171.44   
    66. D(F   6,C  16,C  14,F   2)    -55.46  0.000001   -0.22    -55.68   
    67. D(F   7,C  16,C  14,C  13)   -178.84  0.000028   -0.21   -179.05   
    68. D(F   7,C  16,C  14,F   3)    -58.09  0.000005   -0.21    -58.30   
    69. D(F   7,C  16,C  14,F   2)     57.69  0.000005   -0.23     57.46   
    70. D(F   9,C  17,C  15,C  13)   -163.29 -0.000051   -0.06   -163.35   
    71. D(F   9,C  17,C  15,F   5)     69.29  0.000018   -0.09     69.20   
    72. D(F   9,C  17,C  15,F   4)    -44.91 -0.000007   -0.08    -44.99   
    73. D(F   8,C  17,C  15,C  13)     77.52 -0.000032   -0.07     77.45   
    74. D(F   8,C  17,C  15,F   5)    -49.89  0.000037   -0.11    -50.00   
    75. D(F   8,C  17,C  15,F   4)   -164.09  0.000013   -0.09   -164.19   
    76. D(O  12,C  18,C  16,F   7)   -141.48  0.000018   -0.62   -142.11   
    77. D(O  12,C  18,C  16,F   6)    -24.42 -0.000011   -0.63    -25.06   
    78. D(O  11,C  18,C  16,C  14)    -80.64  0.000045   -0.67    -81.31   
    79. D(O  11,C  18,C  16,F   7)     39.74  0.000012   -0.65     39.10   
    80. D(O  11,C  18,C  16,F   6)    156.80 -0.000017   -0.66    156.15   
    ----------------------------------------------------------------------------

Geometry step timings:
Preparation and reading OPT file:      0.000 s ( 1.590 %)
Internal coordinates            :      0.000 s ( 0.982 %)
B/P matrices and projection     :      0.001 s (27.115 %)
Hessian update/contruction      :      0.001 s (20.337 %)
Making the step                 :      0.001 s (23.960 %)
Converting the step to Cartesian:      0.000 s ( 2.782 %)
Storing new data                :      0.000 s ( 2.384 %)
Checking convergence            :      0.000 s ( 1.309 %)
Final printing                  :      0.001 s (19.495 %)
Total time                      :      0.004 s

Time for energy+gradient        :      0.118 s
Time for complete geometry iter :      0.124 s

         *************************************************************
         *                GEOMETRY OPTIMIZATION CYCLE  13            *
         *************************************************************
---------------------------------
CARTESIAN COORDINATES (ANGSTROEM)
---------------------------------
  F     0.925269   -0.232857   -2.091752
  F    -0.451418   -1.589968   -1.154986
  F     0.069457    1.855789   -0.662278
  F    -1.440372    0.852874   -1.825254
  F     2.093231   -1.788061   -0.353427
  F     0.802971   -1.234827    1.279700
  F    -0.873823    0.694772    1.643354
  F    -2.395796    1.754870    0.525560
  F     1.763380    1.294485    1.269984
  F     3.375502   -0.105166    1.114349
  F     2.756313    0.997328   -0.613905
  O    -3.543688   -0.615114   -0.239476
  O    -2.102897   -1.638576    1.148503
  C     0.258609   -0.469054   -0.935328
  C    -0.697679    0.728239   -0.705209
  C     1.337819   -0.780414    0.139823
  C    -1.627266    0.627856    0.507686
  C     2.315332    0.385085    0.479573
  C    -2.565245   -0.737361    0.473083

----------------------------
CARTESIAN COORDINATES (A.U.)
----------------------------
  NO LB    ZA    FRAG    MASS        X           Y           Z
   0 F   9.0000    1    18.998    1.748505   -0.440036   -3.952839
   1 F   9.0000    1    18.998   -0.853056   -3.004604   -2.182608
   2 F   9.0000    1    18.998    0.131255    3.506933   -1.251523
   3 F   9.0000    1    18.998   -2.721909    1.611699   -3.449229
   4 F   9.0000    1    18.998    3.955633   -3.378945   -0.667881
   5 F   9.0000    1    18.998    1.517395   -2.333484    2.418283
   6 F   9.0000    1    18.998   -1.651286    1.312928    3.105490
   7 F   9.0000    1    18.998   -4.527398    3.316223    0.993165
   8 F   9.0000    1    18.998    3.332306    2.446222    2.399921
   9 F   9.0000    1    18.998    6.378775   -0.198734    2.105814
  10 F   9.0000    1    18.998    5.208677    1.884676   -1.160112
  11 O   8.0000    1    15.999   -6.696599   -1.162397   -0.452544
  12 O   8.0000    1    15.999   -3.973899   -3.096460    2.170356
  13 C   6.0000    1    12.011    0.488700   -0.886384   -1.767514
  14 C   6.0000    1    12.011   -1.318423    1.376173   -1.332653
  15 C   6.0000    1    12.011    2.528111   -1.474768    0.264227
  16 C   6.0000    1    12.011   -3.075087    1.186475    0.959388
  17 C   6.0000    1    12.011    4.375343    0.727706    0.906261
  18 C   6.0000    1    12.011   -4.847611   -1.393411    0.893997

      -----------------------------------------------------------      
     |                   =====================                   |     
     |                           x T B                           |     
     |                   =====================                   |     
     |                         S. Grimme                         |     
     |          Mulliken Center for Theoretical Chemistry        |     
     |                    University of Bonn                     |     
      -----------------------------------------------------------      

   * xtb version 6.7.1 (edcfbbe) compiled by 'albert@albert-system' on 2024-07-22

   xtb is free software: you can redistribute it and/or modify it under
   the terms of the GNU Lesser General Public License as published by
   the Free Software Foundation, either version 3 of the License, or
   (at your option) any later version.
   
   xtb is distributed in the hope that it will be useful,
   but WITHOUT ANY WARRANTY; without even the implied warranty of
   MERCHANTABILITY or FITNESS FOR A PARTICULAR PURPOSE.  See the
   GNU Lesser General Public License for more details.
   
   Cite this work as:
   * C. Bannwarth, E. Caldeweyher, S. Ehlert, A. Hansen, P. Pracht,
     J. Seibert, S. Spicher, S. Grimme, WIREs Comput. Mol. Sci., 2020, 11,
     e01493. DOI: 10.1002/wcms.1493
   
   for GFN2-xTB:
   * C. Bannwarth, S. Ehlert and S. Grimme., J. Chem. Theory Comput., 2019,
     15, 1652-1671. DOI: 10.1021/acs.jctc.8b01176
   for GFN1-xTB:
   * S. Grimme, C. Bannwarth, P. Shushkov, J. Chem. Theory Comput., 2017,
     13, 1989-2009. DOI: 10.1021/acs.jctc.7b00118
   for GFN0-xTB:
   * P. Pracht, E. Caldeweyher, S. Ehlert, S. Grimme, ChemRxiv, 2019, preprint.
     DOI: 10.26434/chemrxiv.8326202.v1
   for GFN-FF:
   * S. Spicher and S. Grimme, Angew. Chem. Int. Ed., 2020, 59, 15665-15673.
     DOI: 10.1002/anie.202004239
   
   for ALPB and GBSA implicit solvation:
   * S. Ehlert, M. Stahn, S. Spicher, S. Grimme, J. Chem. Theory Comput.,
     2021, 17, 4250-4261. DOI: 10.1021/acs.jctc.1c00471
   
   for ddCOSMO and CPCM-X implicit solvation:
   * M. Stahn, S. Ehlert, S. Grimme, J. Phys. Chem. A,
     2023, XX, XXXX-XXXX. DOI: 10.1021/acs.jpca.3c04382
   
   for DFT-D4:
   * E. Caldeweyher, C. Bannwarth and S. Grimme, J. Chem. Phys., 2017,
     147, 034112. DOI: 10.1063/1.4993215
   * E. Caldeweyher, S. Ehlert, A. Hansen, H. Neugebauer, S. Spicher,
     C. Bannwarth and S. Grimme, J. Chem. Phys., 2019, 150, 154122.
     DOI: 10.1063/1.5090222
   * E. Caldeweyher, J.-M. Mewes, S. Ehlert and S. Grimme, Phys. Chem. Chem. Phys.
     2020, 22, 8499-8512. DOI: 10.1039/D0CP00502A
   
   for sTDA-xTB:
   * S. Grimme and C. Bannwarth, J. Chem. Phys., 2016, 145, 054103.
     DOI: 10.1063/1.4959605
   
   in the mass-spec context:
   * V. Asgeirsson, C. Bauer and S. Grimme, Chem. Sci., 2017, 8, 4879.
     DOI: 10.1039/c7sc00601b
   * J. Koopman and S. Grimme, ACS Omega 2019, 4, 12, 15120-15133.
     DOI: 10.1021/acsomega.9b02011
   
   for metadynamics refer to:
   * S. Grimme, J. Chem. Theory Comput., 2019, 155, 2847-2862
     DOI: 10.1021/acs.jctc.9b00143
   
   for SPH calculations refer to:
   * S. Spicher and S. Grimme, J. Chem. Theory Comput., 2021, 17, 1701-1714
     DOI: 10.1021/acs.jctc.0c01306
   
   for ONIOM refer to:
   * C. Plett, A. Katbashev, S. Ehlert, S. Grimme, M. Bursch,
     Phys. Chem. Chem. Phys., 2023, 25, 17860-17868. DOI: 10.1039/D3CP02178E
   
   for DIPRO refer to:
   * J. Kohn, N. Gildemeister, S. Grimme, D. Fazzi, A. Hansen,
     J. Chem. Phys., 2023, just accepted.
   
   for PTB refer to:
   * S. Grimme, M. Mueller, A. Hansen, J. Chem. Phys., 2023, 158, 124111.
     DOI: 10.1063/5.0137838
   
   with help from (in alphabetical order)
   P. Atkinson, C. Bannwarth, F. Bohle, G. Brandenburg, E. Caldeweyher
   M. Checinski, S. Dohm, S. Ehlert, S. Ehrlich, I. Gerasimov, C. Hölzer
   A. Katbashev, J. Kohn, J. Koopman, C. Lavigne, S. Lehtola, F. März, M. Müller,
   F. Musil, H. Neugebauer, J. Pisarek, C. Plett, P. Pracht, F. Pultar,
   J. Seibert, P. Shushkov, S. Spicher, M. Stahn, M. Steiner, T. Strunk,
   J. Stückrath, T. Rose, and J. Unsleber
   
 * started run on 2026/03/08 at 17:05:43.279     
   ID    Z sym.   atoms
    1    9 F      1-11
    2    8 O      12, 13
    3    6 C      14-19

           -------------------------------------------------
          |                Calculation Setup                |
           -------------------------------------------------

          program call               : /users/rzwa/work/orca/orca-6.1.0/otool_xtb PFHxA_GOAT_XTB.xyz --grad -c -1 -u 0 -P 32 --namespace PFHxA_GOAT --input PFHxA_GOAT_XTB.input.tmp --alpb WATER --acc 0.200000
          hostname                   : node2414
          calculation namespace      : PFHxA_GOAT
          coordinate file            : PFHxA_GOAT_XTB.xyz
          omp threads                :                    32


           -------------------------------------------------
          |                 G F N 2 - x T B                 |
           -------------------------------------------------

        Reference                      10.1021/acs.jctc.8b01176
      * Hamiltonian:
        H0-scaling (s, p, d)           1.850000    2.230000    2.230000
        zeta-weighting                 0.500000
      * Dispersion:
        s8                             2.700000
        a1                             0.520000
        a2                             5.000000
        s9                             5.000000
      * Repulsion:
        kExp                           1.500000    1.000000
        rExp                           1.000000
      * Coulomb:
        alpha                          2.000000
        third order                    shell-resolved
        anisotropic                    true
        a3                             3.000000
        a5                             4.000000
        cn-shift                       1.200000
        cn-exp                         4.000000
        max-rad                        5.000000

      * Solvation model:               ALPB
        Solvent                        WATER
        Parameter file                 internal GFN2-xTB/ALPB
        Dielectric constant                8.0200E+01
        Reference state                gsolv [1 M gas/solution]
        Free energy shift                  1.0808E-03 Eh       6.7819E-01 kcal/mol
        Temperature                        2.9815E+02 K
        Density                            1.0000E+00 kg/L
        Solvent mass                       1.8000E+01 g/mol
        Interaction kernel             P16
        Born radius scaling (c1)           1.4744E+00
        Born radii integrator          GBOBC
        Born offset                        0.0000E+00 a0       0.0000E+00 AA
        H-bond correction              true
        Ion screening                  false
        Surface tension                    1.0000E-05 Eh       1.5569E+01 dyn/cm
        Grid points                               230 per atom
q/qsh data taken from xtbrestart
CAMM data taken from xtbrestart

          ...................................................
          :                      SETUP                      :
          :.................................................:
          :  # basis functions                  76          :
          :  # atomic orbitals                  76          :
          :  # shells                           38          :
          :  # electrons                       114          :
          :  max. iterations                   250          :
          :  Hamiltonian                  GFN2-xTB          :
          :  restarted?                       true          :
          :  GBSA solvation                   true          :
          :  PC potential                    false          :
          :  electronic temp.          300.0000000     K    :
          :  accuracy                    0.2000000          :
          :  -> integral cutoff          0.3198970E+02      :
          :  -> integral neglect         0.2000000E-08      :
          :  -> SCF convergence          0.2000000E-06 Eh   :
          :  -> wf. convergence          0.2000000E-04 e    :
          :  Broyden damping             0.4000000          :
          :  net charge                         -1          :
          :  unpaired electrons                  0          :
          ...................................................

 iter      E             dE          RMSdq      gap      omega  full diag
   1    -73.5937291 -0.735937E+02  0.327E-02    5.35       0.0  T
   2    -73.5937293 -0.234749E-06  0.189E-02    5.35       1.2  T
   3    -73.5937293 -0.179507E-07  0.208E-03    5.35      11.0  T
   4    -73.5937294 -0.441325E-07  0.754E-04    5.35      30.4  T
   5    -73.5937294 -0.948788E-09  0.389E-04    5.35      58.9  T
   6    -73.5937294 -0.202490E-09  0.775E-05    5.35     296.0  T
   7    -73.5937294 -0.262901E-10  0.274E-05    5.35     837.0  T

   *** convergence criteria satisfied after 7 iterations ***

         #    Occupation            Energy/Eh            Energy/eV
      -------------------------------------------------------------
         1        2.0000           -0.9454841             -25.7279
       ...           ...                  ...                  ...
        51        2.0000           -0.5465065             -14.8712
        52        2.0000           -0.5424217             -14.7600
        53        2.0000           -0.5330415             -14.5048
        54        2.0000           -0.5161935             -14.0463
        55        2.0000           -0.4544795             -12.3670
        56        2.0000           -0.4429531             -12.0534
        57        2.0000           -0.4192704             -11.4089 (HOMO)
        58                         -0.2226424              -6.0584 (LUMO)
        59                         -0.1255417              -3.4162
        60                         -0.1141337              -3.1057
        61                         -0.1019716              -2.7748
        62                         -0.0930783              -2.5328
       ...                                ...                  ...
        76                          0.7353322              20.0094
      -------------------------------------------------------------
                  HL-Gap            0.1966280 Eh            5.3505 eV
             Fermi-level           -0.3209564 Eh           -8.7337 eV

 SCC (total)                   0 d,  0 h,  0 min,  0.061 sec
 SCC setup                      ...        0 min,  0.001 sec (  1.455%)
 Dispersion                     ...        0 min,  0.001 sec (  1.198%)
 classical contributions        ...        0 min,  0.000 sec (  0.702%)
 integral evaluation            ...        0 min,  0.004 sec (  6.437%)
 iterations                     ...        0 min,  0.050 sec ( 82.166%)
 molecular gradient             ...        0 min,  0.004 sec (  7.018%)
 printout                       ...        0 min,  0.001 sec (  0.944%)

         :::::::::::::::::::::::::::::::::::::::::::::::::::::
         ::                     SUMMARY                     ::
         :::::::::::::::::::::::::::::::::::::::::::::::::::::
         :: total energy             -73.360299467700 Eh    ::
         :: total w/o Gsasa/hb       -73.370847158306 Eh    ::
         :: gradient norm              0.000548447796 Eh/a0 ::
         :: HOMO-LUMO gap              5.350520706584 eV    ::
         ::.................................................::
         :: SCC energy               -73.593591956822 Eh    ::
         :: -> isotropic ES            0.309642625778 Eh    ::
         :: -> anisotropic ES          0.003668686648 Eh    ::
         :: -> anisotropic XC         -0.076525690619 Eh    ::
         :: -> dispersion             -0.019796406245 Eh    ::
         :: -> Gsolv                  -0.079803981265 Eh    ::
         ::    -> Gelec               -0.090351671871 Eh    ::
         ::    -> Gsasa                0.013594345426 Eh    ::
         ::    -> Ghb                 -0.004127414518 Eh    ::
         ::    -> Gshift               0.001080759698 Eh    ::
         :: repulsion energy           0.233292489122 Eh    ::
         :: add. restraining           0.000000000000 Eh    ::
         :: total charge              -1.000000000000 e     ::
         :::::::::::::::::::::::::::::::::::::::::::::::::::::


Property printout bound to 'properties.out'

           -------------------------------------------------
          | TOTAL ENERGY              -73.360299467700 Eh   |
          | GRADIENT NORM               0.000548447796 Eh/α |
          | HOMO-LUMO GAP               5.350520706584 eV   |
           -------------------------------------------------

------------------------------------------------------------------------
 * finished run on 2026/03/08 at 17:05:43.363     
------------------------------------------------------------------------
 total:
 * wall-time:     0 d,  0 h,  0 min,  0.083 sec
 *  cpu-time:     0 d,  0 h,  0 min,  1.634 sec
 * ratio c/w:    19.594 speedup
 SCF:
 * wall-time:     0 d,  0 h,  0 min,  0.062 sec
 *  cpu-time:     0 d,  0 h,  0 min,  1.331 sec
 * ratio c/w:    21.549 speedup


-------------------------   --------------------
FINAL SINGLE POINT ENERGY       -73.360299467700
-------------------------   --------------------


-------------
DIPOLE MOMENT
-------------
                                X             Y             Z
Total Dipole Moment    :      4.20900       1.05100      -0.58100
                        -----------------------------------------
Magnitude (a.u.)       :      4.37697
Magnitude (Debye)      :     11.12537


------------------
CARTESIAN GRADIENT
------------------

   1   F   :   -0.000050938   -0.000017741    0.000058585
   2   F   :   -0.000052956   -0.000101180    0.000014138
   3   F   :   -0.000021362   -0.000013865   -0.000013355
   4   F   :   -0.000015771    0.000009064   -0.000058679
   5   F   :   -0.000045075    0.000028443    0.000025935
   6   F   :   -0.000048262   -0.000013871    0.000093519
   7   F   :   -0.000010268    0.000000069    0.000019148
   8   F   :   -0.000079387    0.000087058    0.000000966
   9   F   :   -0.000030876    0.000066634    0.000045828
  10   F   :   -0.000012223    0.000005119    0.000039274
  11   F   :   -0.000047438   -0.000000552    0.000027776
  12   O   :    0.000065283    0.000019588    0.000045996
  13   O   :   -0.000021390    0.000080965   -0.000029379
  14   C   :    0.000103090    0.000167398   -0.000045167
  15   C   :    0.000035068    0.000038409    0.000116693
  16   C   :    0.000105229   -0.000023923   -0.000164265
  17   C   :    0.000210814   -0.000077101   -0.000123215
  18   C   :    0.000042346   -0.000092269   -0.000079197
  19   C   :   -0.000125885   -0.000162246    0.000025397

Difference to translation invariance:
           :   -0.0000000000    0.0000000000   -0.0000000000

Difference to rotation invariance:
           :   -0.0000827217   -0.0001246505   -0.0000397867

Norm of the Cartesian gradient     ...    0.0005484478
RMS gradient                       ...    0.0000726437
MAX gradient                       ...    0.0002108145
------------------------------------------------------------------------------
                         ORCA GEOMETRY RELAXATION STEP
------------------------------------------------------------------------------

Reading the OPT-File                    .... done
Getting information on internals        .... done
Copying old internal coords+grads       .... done
Making the new internal coordinates     .... (2022 redundants) done
Validating the new internal coordinates .... (2022 redundants) done
Calculating the B-matrix                .... done
Calculating the G,G- and P matrices     .... done
Transforming gradient to internals      .... done
Projecting the internal gradient        .... done
Number of atoms                         ....  19
Number of internal coordinates          ....  80
Current Energy                          ....   -73.360299468 Eh
Current gradient norm                   ....     0.000548448 Eh/bohr
Maximum allowed component of the step   ....  0.300
Current trust radius                    ....  0.700
Updating the Hessian (BFGS)             .... done
Forming the augmented Hessian           .... done
Diagonalizing the augmented Hessian     .... done
Last element of RFO vector              ....  0.999947752
Lowest eigenvalues of augmented Hessian:
 -0.000000687  0.000958064  0.009369450  0.009946611  0.010495115
Length of the computed step             ....  0.010222777
The final length of the internal step   ....  0.010222777
Converting the step to Cartesian space:
 Initial RMS(Int)=    0.0011429412
Transforming coordinates:
 Iter   0:  RMS(Cart)=    0.0020203132 RMS(Int)=    0.0011430230
done
Storing new coordinates                 .... done
The predicted energy change is          ....    -0.000000344
Previously predicted energy change      ....    -0.000000931
Actually observed energy change         ....    -0.000001233
Ratio of predicted to observed change   ....     1.324723352
New trust radius                        ....     0.700000000

                                .--------------------.
          ----------------------|Geometry convergence|-------------------------
          Item                value                   Tolerance       Converged
          ---------------------------------------------------------------------
          Energy change      -0.0000012327            0.0000050000      YES
          RMS gradient        0.0000419343            0.0001000000      YES
          MAX gradient        0.0001158212            0.0003000000      YES
          RMS step            0.0011429412            0.0020000000      YES
          MAX step            0.0040669444            0.0040000000      NO
          -------------------------------------------------------------------------
          ........................................................
          Max(Bonds)      0.0007      Max(Angles)    0.03
          Max(Dihed)        0.23      Max(Improp)    0.00
          ---------------------------------------------------------------------

    ---------------------------------------------------------------------------
                         Redundant Internal Coordinates
                            (Angstroem and degrees)

        Definition                    Value    dE/dq     Step     New-Value
    ----------------------------------------------------------------------------
     1. B(C  13,F   1)                1.3449  0.000110 -0.0001    1.3448   
     2. B(C  13,F   0)                1.3556 -0.000078  0.0001    1.3557   
     3. B(C  14,F   2)                1.3644 -0.000024 -0.0001    1.3644   
     4. B(C  14,C  13)                1.5495 -0.000040  0.0000    1.5495   
     5. B(C  14,F   3)                1.3497  0.000058  0.0000    1.3497   
     6. B(C  15,F   5)                1.3386  0.000102 -0.0001    1.3385   
     7. B(C  15,F   4)                1.3525 -0.000055  0.0001    1.3526   
     8. B(C  15,C  13)                1.5549 -0.000033  0.0000    1.5549   
     9. B(C  16,C  14)                1.5314 -0.000063  0.0001    1.5316   
    10. B(C  16,F   7)                1.3642  0.000116 -0.0001    1.3641   
    11. B(C  16,F   6)                1.3645  0.000012 -0.0000    1.3645   
    12. B(C  17,F  10)                1.3285 -0.000038  0.0001    1.3286   
    13. B(C  17,F   9)                1.3294  0.000007 -0.0000    1.3293   
    14. B(C  17,C  15)                1.5586 -0.000039  0.0001    1.5587   
    15. B(C  17,F   8)                1.3253  0.000085 -0.0000    1.3253   
    16. B(C  18,C  16)                1.6567  0.000098 -0.0007    1.6560   
    17. B(C  18,O  12)                1.2174 -0.000083  0.0001    1.2176   
    18. B(C  18,O  11)                1.2166 -0.000079  0.0001    1.2167   
    19. A(F   1,C  13,C  15)          108.21 -0.000035    0.03    108.24   
    20. A(F   1,C  13,C  14)          110.03  0.000014    0.01    110.03   
    21. A(F   0,C  13,C  15)          106.47  0.000032   -0.02    106.45   
    22. A(C  14,C  13,C  15)          118.71 -0.000006   -0.00    118.71   
    23. A(F   0,C  13,F   1)          105.40  0.000006   -0.01    105.39   
    24. A(F   0,C  13,C  14)          107.19 -0.000007   -0.01    107.18   
    25. A(F   3,C  14,C  13)          106.72 -0.000003    0.00    106.72   
    26. A(F   2,C  14,C  16)          111.75  0.000002   -0.01    111.74   
    27. A(F   2,C  14,C  13)          107.23  0.000025   -0.01    107.22   
    28. A(F   3,C  14,C  16)          109.23  0.000034   -0.01    109.21   
    29. A(F   2,C  14,F   3)          105.02 -0.000015    0.00    105.03   
    30. A(C  13,C  14,C  16)          116.21 -0.000042    0.02    116.23   
    31. A(F   4,C  15,F   5)          106.31  0.000002   -0.01    106.30   
    32. A(F   5,C  15,C  13)          112.30 -0.000009    0.02    112.32   
    33. A(C  13,C  15,C  17)          115.87 -0.000007   -0.01    115.85   
    34. A(F   4,C  15,C  17)          106.64  0.000065   -0.02    106.62   
    35. A(F   4,C  15,C  13)          106.54  0.000005   -0.00    106.54   
    36. A(F   5,C  15,C  17)          108.59 -0.000049    0.02    108.61   
    37. A(F   7,C  16,C  18)          111.23 -0.000052    0.03    111.26   
    38. A(F   6,C  16,C  18)          111.74 -0.000042    0.00    111.74   
    39. A(F   6,C  16,F   7)          105.05  0.000013   -0.00    105.05   
    40. A(C  14,C  16,C  18)          112.40  0.000113   -0.03    112.37   
    41. A(F   7,C  16,C  14)          107.35 -0.000031    0.00    107.35   
    42. A(F   6,C  16,C  14)          108.71 -0.000008   -0.00    108.71   
    43. A(F  10,C  17,C  15)          111.92 -0.000019   -0.00    111.92   
    44. A(F   9,C  17,C  15)          109.18  0.000032    0.00    109.18   
    45. A(F   8,C  17,C  15)          112.45 -0.000014    0.01    112.46   
    46. A(F   9,C  17,F  10)          107.35  0.000068   -0.01    107.34   
    47. A(F   8,C  17,F  10)          108.23 -0.000046    0.00    108.24   
    48. A(F   8,C  17,F   9)          107.48 -0.000018    0.00    107.49   
    49. A(O  11,C  18,O  12)          134.81  0.000038   -0.02    134.79   
    50. A(O  12,C  18,C  16)          112.54 -0.000016   -0.00    112.54   
    51. A(O  11,C  18,C  16)          112.63 -0.000021    0.02    112.65   
    52. D(F   2,C  14,C  13,F   1)   -172.29 -0.000011    0.09   -172.20   
    53. D(F   3,C  14,C  13,F   0)     53.95 -0.000008    0.08     54.02   
    54. D(F   2,C  14,C  13,F   0)    -58.17 -0.000001    0.07    -58.10   
    55. D(F   3,C  14,C  13,C  15)    174.46  0.000025    0.04    174.50   
    56. D(F   2,C  14,C  13,C  15)     62.34  0.000031    0.04     62.38   
    57. D(F   3,C  14,C  13,F   1)    -60.17 -0.000018    0.09    -60.08   
    58. D(F   4,C  15,C  13,F   0)    -54.28  0.000008   -0.02    -54.30   
    59. D(F   5,C  15,C  13,F   0)   -170.29  0.000007   -0.02   -170.30   
    60. D(F   5,C  15,C  13,C  14)     68.83 -0.000005    0.01     68.84   
    61. D(F   5,C  15,C  13,F   1)    -57.41  0.000013   -0.03    -57.44   
    62. D(F   4,C  15,C  13,C  14)   -175.17 -0.000004    0.01   -175.16   
    63. D(F   4,C  15,C  13,F   1)     58.59  0.000014   -0.02     58.56   
    64. D(F   6,C  16,C  14,C  13)     67.81  0.000009   -0.09     67.72   
    65. D(F   6,C  16,C  14,F   3)   -171.44  0.000002   -0.08   -171.52   
    66. D(F   6,C  16,C  14,F   2)    -55.68  0.000006   -0.09    -55.77   
    67. D(F   7,C  16,C  14,C  13)   -179.05  0.000004   -0.09   -179.14   
    68. D(F   7,C  16,C  14,F   3)    -58.30 -0.000002   -0.08    -58.38   
    69. D(F   7,C  16,C  14,F   2)     57.46  0.000001   -0.09     57.37   
    70. D(F   9,C  17,C  15,C  13)   -163.35 -0.000043    0.02   -163.34   
    71. D(F   9,C  17,C  15,F   5)     69.20  0.000017   -0.02     69.19   
    72. D(F   9,C  17,C  15,F   4)    -44.99  0.000005   -0.01    -44.99   
    73. D(F   8,C  17,C  15,C  13)     77.45 -0.000034    0.00     77.45   
    74. D(F   8,C  17,C  15,F   5)    -50.00  0.000026   -0.03    -50.02   
    75. D(F   8,C  17,C  15,F   4)   -164.19  0.000015   -0.02   -164.20   
    76. D(O  12,C  18,C  16,F   7)   -142.11  0.000036   -0.23   -142.34   
    77. D(O  12,C  18,C  16,F   6)    -25.06 -0.000008   -0.21    -25.27   
    78. D(O  11,C  18,C  16,C  14)    -81.31  0.000007   -0.23    -81.54   
    79. D(O  11,C  18,C  16,F   7)     39.10  0.000009   -0.23     38.87   
    80. D(O  11,C  18,C  16,F   6)    156.15 -0.000035   -0.21    155.94   
    ----------------------------------------------------------------------------

Geometry step timings:
Preparation and reading OPT file:      0.000 s ( 1.526 %)
Internal coordinates            :      0.000 s ( 1.688 %)
B/P matrices and projection     :      0.001 s (27.012 %)
Hessian update/contruction      :      0.001 s (21.045 %)
Making the step                 :      0.001 s (23.959 %)
Converting the step to Cartesian:      0.000 s ( 2.220 %)
Storing new data                :      0.000 s ( 2.451 %)
Checking convergence            :      0.000 s ( 1.364 %)
Final printing                  :      0.001 s (18.663 %)
Total time                      :      0.004 s

Time for energy+gradient        :      0.122 s
Time for complete geometry iter :      0.128 s

         *************************************************************
         *                GEOMETRY OPTIMIZATION CYCLE  14            *
         *************************************************************
---------------------------------
CARTESIAN COORDINATES (ANGSTROEM)
---------------------------------
  F     0.926281   -0.232713   -2.091106
  F    -0.450583   -1.590494   -1.155941
  F     0.068942    1.855189   -0.663188
  F    -1.440996    0.851283   -1.825225
  F     2.093868   -1.787872   -0.352759
  F     0.803305   -1.235237    1.280179
  F    -0.873636    0.693773    1.643303
  F    -2.394700    1.755529    0.526153
  F     1.762977    1.295049    1.269737
  F     3.375372   -0.104321    1.114608
  F     2.756054    0.997239   -0.614041
  O    -3.546579   -0.612232   -0.236264
  O    -2.101348   -1.639600    1.144253
  C     0.258834   -0.469577   -0.935106
  C    -0.697906    0.727477   -0.705329
  C     1.337836   -0.780544    0.140397
  C    -1.627412    0.627846    0.507838
  C     2.315048    0.385398    0.479770
  C    -2.565658   -0.736292    0.472720

----------------------------
CARTESIAN COORDINATES (A.U.)
----------------------------
  NO LB    ZA    FRAG    MASS        X           Y           Z
   0 F   9.0000    1    18.998    1.750418   -0.439763   -3.951617
   1 F   9.0000    1    18.998   -0.851478   -3.005598   -2.184412
   2 F   9.0000    1    18.998    0.130281    3.505798   -1.253244
   3 F   9.0000    1    18.998   -2.723087    1.608692   -3.449176
   4 F   9.0000    1    18.998    3.956838   -3.378588   -0.666618
   5 F   9.0000    1    18.998    1.518027   -2.334260    2.419188
   6 F   9.0000    1    18.998   -1.650933    1.311040    3.105393
   7 F   9.0000    1    18.998   -4.525328    3.317469    0.994285
   8 F   9.0000    1    18.998    3.331545    2.447288    2.399456
   9 F   9.0000    1    18.998    6.378529   -0.197139    2.106303
  10 F   9.0000    1    18.998    5.208188    1.884509   -1.160368
  11 O   8.0000    1    15.999   -6.702063   -1.156951   -0.446474
  12 O   8.0000    1    15.999   -3.970972   -3.098395    2.162325
  13 C   6.0000    1    12.011    0.489125   -0.887372   -1.767094
  14 C   6.0000    1    12.011   -1.318851    1.374731   -1.332879
  15 C   6.0000    1    12.011    2.528144   -1.475014    0.265313
  16 C   6.0000    1    12.011   -3.075363    1.186458    0.959676
  17 C   6.0000    1    12.011    4.374807    0.728297    0.906633
  18 C   6.0000    1    12.011   -4.848392   -1.391391    0.893310

      -----------------------------------------------------------      
     |                   =====================                   |     
     |                           x T B                           |     
     |                   =====================                   |     
     |                         S. Grimme                         |     
     |          Mulliken Center for Theoretical Chemistry        |     
     |                    University of Bonn                     |     
      -----------------------------------------------------------      

   * xtb version 6.7.1 (edcfbbe) compiled by 'albert@albert-system' on 2024-07-22

   xtb is free software: you can redistribute it and/or modify it under
   the terms of the GNU Lesser General Public License as published by
   the Free Software Foundation, either version 3 of the License, or
   (at your option) any later version.
   
   xtb is distributed in the hope that it will be useful,
   but WITHOUT ANY WARRANTY; without even the implied warranty of
   MERCHANTABILITY or FITNESS FOR A PARTICULAR PURPOSE.  See the
   GNU Lesser General Public License for more details.
   
   Cite this work as:
   * C. Bannwarth, E. Caldeweyher, S. Ehlert, A. Hansen, P. Pracht,
     J. Seibert, S. Spicher, S. Grimme, WIREs Comput. Mol. Sci., 2020, 11,
     e01493. DOI: 10.1002/wcms.1493
   
   for GFN2-xTB:
   * C. Bannwarth, S. Ehlert and S. Grimme., J. Chem. Theory Comput., 2019,
     15, 1652-1671. DOI: 10.1021/acs.jctc.8b01176
   for GFN1-xTB:
   * S. Grimme, C. Bannwarth, P. Shushkov, J. Chem. Theory Comput., 2017,
     13, 1989-2009. DOI: 10.1021/acs.jctc.7b00118
   for GFN0-xTB:
   * P. Pracht, E. Caldeweyher, S. Ehlert, S. Grimme, ChemRxiv, 2019, preprint.
     DOI: 10.26434/chemrxiv.8326202.v1
   for GFN-FF:
   * S. Spicher and S. Grimme, Angew. Chem. Int. Ed., 2020, 59, 15665-15673.
     DOI: 10.1002/anie.202004239
   
   for ALPB and GBSA implicit solvation:
   * S. Ehlert, M. Stahn, S. Spicher, S. Grimme, J. Chem. Theory Comput.,
     2021, 17, 4250-4261. DOI: 10.1021/acs.jctc.1c00471
   
   for ddCOSMO and CPCM-X implicit solvation:
   * M. Stahn, S. Ehlert, S. Grimme, J. Phys. Chem. A,
     2023, XX, XXXX-XXXX. DOI: 10.1021/acs.jpca.3c04382
   
   for DFT-D4:
   * E. Caldeweyher, C. Bannwarth and S. Grimme, J. Chem. Phys., 2017,
     147, 034112. DOI: 10.1063/1.4993215
   * E. Caldeweyher, S. Ehlert, A. Hansen, H. Neugebauer, S. Spicher,
     C. Bannwarth and S. Grimme, J. Chem. Phys., 2019, 150, 154122.
     DOI: 10.1063/1.5090222
   * E. Caldeweyher, J.-M. Mewes, S. Ehlert and S. Grimme, Phys. Chem. Chem. Phys.
     2020, 22, 8499-8512. DOI: 10.1039/D0CP00502A
   
   for sTDA-xTB:
   * S. Grimme and C. Bannwarth, J. Chem. Phys., 2016, 145, 054103.
     DOI: 10.1063/1.4959605
   
   in the mass-spec context:
   * V. Asgeirsson, C. Bauer and S. Grimme, Chem. Sci., 2017, 8, 4879.
     DOI: 10.1039/c7sc00601b
   * J. Koopman and S. Grimme, ACS Omega 2019, 4, 12, 15120-15133.
     DOI: 10.1021/acsomega.9b02011
   
   for metadynamics refer to:
   * S. Grimme, J. Chem. Theory Comput., 2019, 155, 2847-2862
     DOI: 10.1021/acs.jctc.9b00143
   
   for SPH calculations refer to:
   * S. Spicher and S. Grimme, J. Chem. Theory Comput., 2021, 17, 1701-1714
     DOI: 10.1021/acs.jctc.0c01306
   
   for ONIOM refer to:
   * C. Plett, A. Katbashev, S. Ehlert, S. Grimme, M. Bursch,
     Phys. Chem. Chem. Phys., 2023, 25, 17860-17868. DOI: 10.1039/D3CP02178E
   
   for DIPRO refer to:
   * J. Kohn, N. Gildemeister, S. Grimme, D. Fazzi, A. Hansen,
     J. Chem. Phys., 2023, just accepted.
   
   for PTB refer to:
   * S. Grimme, M. Mueller, A. Hansen, J. Chem. Phys., 2023, 158, 124111.
     DOI: 10.1063/5.0137838
   
   with help from (in alphabetical order)
   P. Atkinson, C. Bannwarth, F. Bohle, G. Brandenburg, E. Caldeweyher
   M. Checinski, S. Dohm, S. Ehlert, S. Ehrlich, I. Gerasimov, C. Hölzer
   A. Katbashev, J. Kohn, J. Koopman, C. Lavigne, S. Lehtola, F. März, M. Müller,
   F. Musil, H. Neugebauer, J. Pisarek, C. Plett, P. Pracht, F. Pultar,
   J. Seibert, P. Shushkov, S. Spicher, M. Stahn, M. Steiner, T. Strunk,
   J. Stückrath, T. Rose, and J. Unsleber
   
 * started run on 2026/03/08 at 17:05:43.408     
   ID    Z sym.   atoms
    1    9 F      1-11
    2    8 O      12, 13
    3    6 C      14-19

           -------------------------------------------------
          |                Calculation Setup                |
           -------------------------------------------------

          program call               : /users/rzwa/work/orca/orca-6.1.0/otool_xtb PFHxA_GOAT_XTB.xyz --grad -c -1 -u 0 -P 32 --namespace PFHxA_GOAT --input PFHxA_GOAT_XTB.input.tmp --alpb WATER --acc 0.200000
          hostname                   : node2414
          calculation namespace      : PFHxA_GOAT
          coordinate file            : PFHxA_GOAT_XTB.xyz
          omp threads                :                    32


           -------------------------------------------------
          |                 G F N 2 - x T B                 |
           -------------------------------------------------

        Reference                      10.1021/acs.jctc.8b01176
      * Hamiltonian:
        H0-scaling (s, p, d)           1.850000    2.230000    2.230000
        zeta-weighting                 0.500000
      * Dispersion:
        s8                             2.700000
        a1                             0.520000
        a2                             5.000000
        s9                             5.000000
      * Repulsion:
        kExp                           1.500000    1.000000
        rExp                           1.000000
      * Coulomb:
        alpha                          2.000000
        third order                    shell-resolved
        anisotropic                    true
        a3                             3.000000
        a5                             4.000000
        cn-shift                       1.200000
        cn-exp                         4.000000
        max-rad                        5.000000

      * Solvation model:               ALPB
        Solvent                        WATER
        Parameter file                 internal GFN2-xTB/ALPB
        Dielectric constant                8.0200E+01
        Reference state                gsolv [1 M gas/solution]
        Free energy shift                  1.0808E-03 Eh       6.7819E-01 kcal/mol
        Temperature                        2.9815E+02 K
        Density                            1.0000E+00 kg/L
        Solvent mass                       1.8000E+01 g/mol
        Interaction kernel             P16
        Born radius scaling (c1)           1.4744E+00
        Born radii integrator          GBOBC
        Born offset                        0.0000E+00 a0       0.0000E+00 AA
        H-bond correction              true
        Ion screening                  false
        Surface tension                    1.0000E-05 Eh       1.5569E+01 dyn/cm
        Grid points                               230 per atom
q/qsh data taken from xtbrestart
CAMM data taken from xtbrestart

          ...................................................
          :                      SETUP                      :
          :.................................................:
          :  # basis functions                  76          :
          :  # atomic orbitals                  76          :
          :  # shells                           38          :
          :  # electrons                       114          :
          :  max. iterations                   250          :
          :  Hamiltonian                  GFN2-xTB          :
          :  restarted?                       true          :
          :  GBSA solvation                   true          :
          :  PC potential                    false          :
          :  electronic temp.          300.0000000     K    :
          :  accuracy                    0.2000000          :
          :  -> integral cutoff          0.3198970E+02      :
          :  -> integral neglect         0.2000000E-08      :
          :  -> SCF convergence          0.2000000E-06 Eh   :
          :  -> wf. convergence          0.2000000E-04 e    :
          :  Broyden damping             0.4000000          :
          :  net charge                         -1          :
          :  unpaired electrons                  0          :
          ...................................................

 iter      E             dE          RMSdq      gap      omega  full diag
   1    -73.5936920 -0.735937E+02  0.118E-02    5.35       0.0  T
   2    -73.5936921 -0.105154E-06  0.677E-03    5.35       3.4  T
   3    -73.5936921  0.572012E-08  0.170E-03    5.35      13.5  T
   4    -73.5936921 -0.229114E-07  0.335E-04    5.35      68.5  T
   5    -73.5936921 -0.191491E-09  0.164E-04    5.35     140.2  T
   6    -73.5936921 -0.460716E-10  0.499E-05    5.35     459.5  T

   *** convergence criteria satisfied after 6 iterations ***

         #    Occupation            Energy/Eh            Energy/eV
      -------------------------------------------------------------
         1        2.0000           -0.9454724             -25.7276
       ...           ...                  ...                  ...
        51        2.0000           -0.5465539             -14.8725
        52        2.0000           -0.5424083             -14.7597
        53        2.0000           -0.5330318             -14.5045
        54        2.0000           -0.5162096             -14.0468
        55        2.0000           -0.4544427             -12.3660
        56        2.0000           -0.4429127             -12.0523
        57        2.0000           -0.4192916             -11.4095 (HOMO)
        58                         -0.2227250              -6.0607 (LUMO)
        59                         -0.1255695              -3.4169
        60                         -0.1141271              -3.1056
        61                         -0.1019954              -2.7754
        62                         -0.0930459              -2.5319
       ...                                ...                  ...
        76                          0.7347518              19.9936
      -------------------------------------------------------------
                  HL-Gap            0.1965665 Eh            5.3488 eV
             Fermi-level           -0.3210083 Eh           -8.7351 eV

 SCC (total)                   0 d,  0 h,  0 min,  0.044 sec
 SCC setup                      ...        0 min,  0.001 sec (  1.678%)
 Dispersion                     ...        0 min,  0.000 sec (  1.124%)
 classical contributions        ...        0 min,  0.000 sec (  0.686%)
 integral evaluation            ...        0 min,  0.003 sec (  5.978%)
 iterations                     ...        0 min,  0.035 sec ( 79.890%)
 molecular gradient             ...        0 min,  0.004 sec (  9.557%)
 printout                       ...        0 min,  0.000 sec (  0.971%)

         :::::::::::::::::::::::::::::::::::::::::::::::::::::
         ::                     SUMMARY                     ::
         :::::::::::::::::::::::::::::::::::::::::::::::::::::
         :: total energy             -73.360299929217 Eh    ::
         :: total w/o Gsasa/hb       -73.370846492024 Eh    ::
         :: gradient norm              0.000358788782 Eh/a0 ::
         :: HOMO-LUMO gap              5.348847811612 eV    ::
         ::.................................................::
         :: SCC energy               -73.593554790426 Eh    ::
         :: -> isotropic ES            0.309706146455 Eh    ::
         :: -> anisotropic ES          0.003654728573 Eh    ::
         :: -> anisotropic XC         -0.076537734872 Eh    ::
         :: -> dispersion             -0.019796852208 Eh    ::
         :: -> Gsolv                  -0.079810565589 Eh    ::
         ::    -> Gelec               -0.090357128396 Eh    ::
         ::    -> Gsasa                0.013593530795 Eh    ::
         ::    -> Ghb                 -0.004127727685 Eh    ::
         ::    -> Gshift               0.001080759698 Eh    ::
         :: repulsion energy           0.233254861209 Eh    ::
         :: add. restraining           0.000000000000 Eh    ::
         :: total charge              -1.000000000000 e     ::
         :::::::::::::::::::::::::::::::::::::::::::::::::::::


Property printout bound to 'properties.out'

           -------------------------------------------------
          | TOTAL ENERGY              -73.360299929217 Eh   |
          | GRADIENT NORM               0.000358788782 Eh/α |
          | HOMO-LUMO GAP               5.348847811612 eV   |
           -------------------------------------------------

------------------------------------------------------------------------
 * finished run on 2026/03/08 at 17:05:43.510     
------------------------------------------------------------------------
 total:
 * wall-time:     0 d,  0 h,  0 min,  0.101 sec
 *  cpu-time:     0 d,  0 h,  0 min,  2.032 sec
 * ratio c/w:    20.053 speedup
 SCF:
 * wall-time:     0 d,  0 h,  0 min,  0.044 sec
 *  cpu-time:     0 d,  0 h,  0 min,  0.946 sec
 * ratio c/w:    21.524 speedup


-------------------------   --------------------
FINAL SINGLE POINT ENERGY       -73.360299929220
-------------------------   --------------------


-------------
DIPOLE MOMENT
-------------
                                X             Y             Z
Total Dipole Moment    :      4.20900       1.05200      -0.57900
                        -----------------------------------------
Magnitude (a.u.)       :      4.37694
Magnitude (Debye)      :     11.12530


------------------
CARTESIAN GRADIENT
------------------

   1   F   :   -0.000015626   -0.000027176    0.000029455
   2   F   :   -0.000043619   -0.000064658   -0.000008660
   3   F   :   -0.000021023   -0.000030354   -0.000014278
   4   F   :   -0.000027380    0.000009686   -0.000051332
   5   F   :   -0.000026795    0.000020575    0.000030831
   6   F   :   -0.000030093   -0.000021993    0.000053598
   7   F   :   -0.000020705    0.000000635   -0.000002904
   8   F   :   -0.000050535    0.000057955    0.000012768
   9   F   :   -0.000020095    0.000055596    0.000039803
  10   F   :   -0.000022489    0.000022644    0.000006597
  11   F   :   -0.000012088    0.000012087   -0.000013456
  12   O   :    0.000021113    0.000025685    0.000016614
  13   O   :    0.000009471    0.000039541    0.000005900
  14   C   :    0.000067085    0.000122927   -0.000001848
  15   C   :    0.000045539    0.000036140    0.000102091
  16   C   :    0.000063290   -0.000007015   -0.000104513
  17   C   :    0.000105260   -0.000105248   -0.000082322
  18   C   :    0.000029210   -0.000098064   -0.000019380
  19   C   :   -0.000050520   -0.000048962    0.000001036

Difference to translation invariance:
           :    0.0000000000    0.0000000000    0.0000000000

Difference to rotation invariance:
           :   -0.0000802533   -0.0001228969   -0.0000389863

Norm of the Cartesian gradient     ...    0.0003587888
RMS gradient                       ...    0.0000475227
MAX gradient                       ...    0.0001229268
------------------------------------------------------------------------------
                         ORCA GEOMETRY RELAXATION STEP
------------------------------------------------------------------------------

Reading the OPT-File                    .... done
Getting information on internals        .... done
Copying old internal coords+grads       .... done
Making the new internal coordinates     .... (2022 redundants) done
Validating the new internal coordinates .... (2022 redundants) done
Calculating the B-matrix                .... done
Calculating the G,G- and P matrices     .... done
Transforming gradient to internals      .... done
Projecting the internal gradient        .... done
Number of atoms                         ....  19
Number of internal coordinates          ....  80
Current Energy                          ....   -73.360299929 Eh
Current gradient norm                   ....     0.000358789 Eh/bohr
Maximum allowed component of the step   ....  0.300
Current trust radius                    ....  0.700
Updating the Hessian (BFGS)             .... done
Forming the augmented Hessian           .... done
Diagonalizing the augmented Hessian     .... done
Last element of RFO vector              ....  0.999996928
Lowest eigenvalues of augmented Hessian:
 -0.000000257  0.001005755  0.009303217  0.009984263  0.010500142
Length of the computed step             ....  0.002478643
The final length of the internal step   ....  0.002478643
Converting the step to Cartesian space:
 Initial RMS(Int)=    0.0002771207
Transforming coordinates:
 Iter   0:  RMS(Cart)=    0.0004767942 RMS(Int)=    0.0002771307
done
Storing new coordinates                 .... done
The predicted energy change is          ....    -0.000000128
Previously predicted energy change      ....    -0.000000344
Actually observed energy change         ....    -0.000000462
Ratio of predicted to observed change   ....     1.342957765
New trust radius                        ....     0.700000000

                                .--------------------.
          ----------------------|Geometry convergence|-------------------------
          Item                value                   Tolerance       Converged
          ---------------------------------------------------------------------
          Energy change      -0.0000004615            0.0000050000      YES
          RMS gradient        0.0000262582            0.0001000000      YES
          MAX gradient        0.0000779188            0.0003000000      YES
          RMS step            0.0002771207            0.0020000000      YES
          MAX step            0.0010411340            0.0040000000      YES
          -------------------------------------------------------------------------
          ........................................................
          Max(Bonds)      0.0003      Max(Angles)    0.03
          Max(Dihed)        0.06      Max(Improp)    0.00
          ---------------------------------------------------------------------

                    ***********************HURRAY********************
                    ***        THE OPTIMIZATION HAS CONVERGED     ***
                    *************************************************


    ---------------------------------------------------------------------------
                         Redundant Internal Coordinates

                          --- Optimized Parameters ---  
                            (Angstroem and degrees)

        Definition                    OldVal   dE/dq     Step     FinalVal
    ----------------------------------------------------------------------------
     1. B(C  13,F   1)                1.3448  0.000078 -0.0001    1.3447   
     2. B(C  13,F   0)                1.3557 -0.000037  0.0001    1.3558   
     3. B(C  14,F   2)                1.3644 -0.000037  0.0000    1.3644   
     4. B(C  14,C  13)                1.5495 -0.000021  0.0000    1.5496   
     5. B(C  14,F   3)                1.3497  0.000058 -0.0001    1.3496   
     6. B(C  15,F   5)                1.3385  0.000064 -0.0001    1.3384   
     7. B(C  15,F   4)                1.3526 -0.000041  0.0001    1.3527   
     8. B(C  15,C  13)                1.5549 -0.000021  0.0000    1.5549   
     9. B(C  16,C  14)                1.5316 -0.000039  0.0001    1.5317   
    10. B(C  16,F   7)                1.3641  0.000076 -0.0001    1.3639   
    11. B(C  16,F   6)                1.3645 -0.000012 -0.0000    1.3645   
    12. B(C  17,F  10)                1.3286  0.000014  0.0000    1.3287   
    13. B(C  17,F   9)                1.3293 -0.000024  0.0000    1.3293   
    14. B(C  17,C  15)                1.5587 -0.000019  0.0001    1.5588   
    15. B(C  17,F   8)                1.3253  0.000069 -0.0001    1.3252   
    16. B(C  18,C  16)                1.6560 -0.000001 -0.0003    1.6557   
    17. B(C  18,O  12)                1.2176 -0.000021  0.0001    1.2176   
    18. B(C  18,O  11)                1.2167 -0.000025  0.0001    1.2167   
    19. A(F   1,C  13,C  15)          108.24  0.000004    0.01    108.25   
    20. A(F   1,C  13,C  14)          110.03 -0.000002    0.01    110.04   
    21. A(F   0,C  13,C  15)          106.45  0.000002   -0.01    106.44   
    22. A(C  14,C  13,C  15)          118.71 -0.000018   -0.00    118.71   
    23. A(F   0,C  13,F   1)          105.39 -0.000007   -0.00    105.38   
    24. A(F   0,C  13,C  14)          107.18  0.000022   -0.01    107.18   
    25. A(F   3,C  14,C  13)          106.72  0.000011    0.00    106.73   
    26. A(F   2,C  14,C  16)          111.74  0.000018   -0.01    111.73   
    27. A(F   2,C  14,C  13)          107.22  0.000007   -0.01    107.22   
    28. A(F   3,C  14,C  16)          109.21  0.000008   -0.00    109.21   
    29. A(F   2,C  14,F   3)          105.03 -0.000010    0.00    105.03   
    30. A(C  13,C  14,C  16)          116.23 -0.000032    0.01    116.24   
    31. A(F   4,C  15,F   5)          106.30 -0.000010    0.00    106.30   
    32. A(F   5,C  15,C  13)          112.32  0.000000    0.01    112.33   
    33. A(C  13,C  15,C  17)          115.85 -0.000034    0.00    115.85   
    34. A(F   4,C  15,C  17)          106.62  0.000029   -0.01    106.61   
    35. A(F   4,C  15,C  13)          106.54  0.000020   -0.01    106.53   
    36. A(F   5,C  15,C  17)          108.61 -0.000001    0.01    108.61   
    37. A(F   7,C  16,C  18)          111.26 -0.000036    0.02    111.28   
    38. A(F   6,C  16,C  18)          111.74 -0.000027    0.01    111.75   
    39. A(F   6,C  16,F   7)          105.05  0.000002    0.01    105.05   
    40. A(C  14,C  16,C  18)          112.37  0.000071   -0.03    112.34   
    41. A(F   7,C  16,C  14)          107.35 -0.000008    0.00    107.35   
    42. A(F   6,C  16,C  14)          108.71 -0.000006   -0.00    108.70   
    43. A(F  10,C  17,C  15)          111.92 -0.000018    0.00    111.92   
    44. A(F   9,C  17,C  15)          109.18  0.000034   -0.01    109.17   
    45. A(F   8,C  17,C  15)          112.46  0.000005    0.00    112.46   
    46. A(F   9,C  17,F  10)          107.34  0.000027   -0.01    107.33   
    47. A(F   8,C  17,F  10)          108.24 -0.000026    0.01    108.24   
    48. A(F   8,C  17,F   9)          107.49 -0.000021    0.01    107.49   
    49. A(O  11,C  18,O  12)          134.79  0.000044   -0.02    134.77   
    50. A(O  12,C  18,C  16)          112.54 -0.000029    0.01    112.55   
    51. A(O  11,C  18,C  16)          112.65 -0.000014    0.01    112.66   
    52. D(F   2,C  14,C  13,F   1)   -172.20 -0.000003    0.03   -172.17   
    53. D(F   3,C  14,C  13,F   0)     54.02 -0.000003    0.03     54.05   
    54. D(F   2,C  14,C  13,F   0)    -58.10  0.000000    0.02    -58.07   
    55. D(F   3,C  14,C  13,C  15)    174.50  0.000005    0.01    174.51   
    56. D(F   2,C  14,C  13,C  15)     62.38  0.000009    0.00     62.39   
    57. D(F   3,C  14,C  13,F   1)    -60.08 -0.000006    0.03    -60.05   
    58. D(F   4,C  15,C  13,F   0)    -54.30  0.000010   -0.01    -54.31   
    59. D(F   5,C  15,C  13,F   0)   -170.30  0.000011   -0.02   -170.32   
    60. D(F   5,C  15,C  13,C  14)     68.84 -0.000008    0.01     68.84   
    61. D(F   5,C  15,C  13,F   1)    -57.44  0.000005   -0.02    -57.45   
    62. D(F   4,C  15,C  13,C  14)   -175.16 -0.000009    0.01   -175.15   
    63. D(F   4,C  15,C  13,F   1)     58.56  0.000005   -0.01     58.55   
    64. D(F   6,C  16,C  14,C  13)     67.72  0.000002   -0.02     67.70   
    65. D(F   6,C  16,C  14,F   3)   -171.52 -0.000000   -0.01   -171.54   
    66. D(F   6,C  16,C  14,F   2)    -55.77  0.000002   -0.01    -55.78   
    67. D(F   7,C  16,C  14,C  13)   -179.14 -0.000003   -0.02   -179.16   
    68. D(F   7,C  16,C  14,F   3)    -58.38 -0.000005   -0.01    -58.39   
    69. D(F   7,C  16,C  14,F   2)     57.37 -0.000002   -0.01     57.36   
    70. D(F   9,C  17,C  15,C  13)   -163.34 -0.000018    0.02   -163.31   
    71. D(F   9,C  17,C  15,F   5)     69.19  0.000009    0.00     69.19   
    72. D(F   9,C  17,C  15,F   4)    -44.99  0.000007    0.01    -44.99   
    73. D(F   8,C  17,C  15,C  13)     77.45 -0.000018    0.02     77.47   
    74. D(F   8,C  17,C  15,F   5)    -50.02  0.000009   -0.00    -50.03   
    75. D(F   8,C  17,C  15,F   4)   -164.20  0.000007    0.00   -164.20   
    76. D(O  12,C  18,C  16,F   7)   -142.34  0.000031   -0.06   -142.40   
    77. D(O  12,C  18,C  16,F   6)    -25.27 -0.000007   -0.03    -25.30   
    78. D(O  11,C  18,C  16,C  14)    -81.54 -0.000004   -0.04    -81.58   
    79. D(O  11,C  18,C  16,F   7)     38.87  0.000009   -0.04     38.83   
    80. D(O  11,C  18,C  16,F   6)    155.94 -0.000029   -0.02    155.92   
    ----------------------------------------------------------------------------

Geometry step timings:
Preparation and reading OPT file:      0.000 s ( 1.613 %)
Internal coordinates            :      0.000 s ( 1.215 %)
B/P matrices and projection     :      0.001 s (27.413 %)
Hessian update/contruction      :      0.001 s (20.612 %)
Making the step                 :      0.001 s (24.328 %)
Converting the step to Cartesian:      0.000 s ( 2.220 %)
Storing new data                :      0.000 s ( 2.430 %)
Checking convergence            :      0.000 s ( 1.472 %)
Final printing                  :      0.001 s (18.649 %)
Total time                      :      0.004 s
                 *******************************************************
                 *** FINAL ENERGY EVALUATION AT THE STATIONARY POINT ***
                 ***               (AFTER   14 CYCLES)               ***
                 *******************************************************
---------------------------------
CARTESIAN COORDINATES (ANGSTROEM)
---------------------------------
  F     0.926474   -0.232555   -2.090785
  F    -0.450402   -1.590652   -1.156207
  F     0.068745    1.854971   -0.663312
  F    -1.441298    0.850869   -1.825103
  F     2.093879   -1.787821   -0.352513
  F     0.803375   -1.235230    1.280458
  F    -0.873660    0.693826    1.643371
  F    -2.394614    1.755761    0.526302
  F     1.763211    1.295140    1.269754
  F     3.375484   -0.104364    1.114334
  F     2.755985    0.997137   -0.614176
  O    -3.546817   -0.611833   -0.236047
  O    -2.100763   -1.639816    1.143124
  C     0.258709   -0.469782   -0.934934
  C    -0.698148    0.727260   -0.705303
  C     1.337690   -0.780534    0.140703
  C    -1.627648    0.628026    0.508043
  C     2.315027    0.385465    0.479779
  C    -2.565529   -0.735969    0.472511

----------------------------
CARTESIAN COORDINATES (A.U.)
----------------------------
  NO LB    ZA    FRAG    MASS        X           Y           Z
   0 F   9.0000    1    18.998    1.750781   -0.439465   -3.951011
   1 F   9.0000    1    18.998   -0.851136   -3.005896   -2.184914
   2 F   9.0000    1    18.998    0.129909    3.505388   -1.253477
   3 F   9.0000    1    18.998   -2.723658    1.607910   -3.448944
   4 F   9.0000    1    18.998    3.956857   -3.378493   -0.666153
   5 F   9.0000    1    18.998    1.518158   -2.334247    2.419716
   6 F   9.0000    1    18.998   -1.650978    1.311142    3.105521
   7 F   9.0000    1    18.998   -4.525164    3.317907    0.994566
   8 F   9.0000    1    18.998    3.331985    2.447461    2.399488
   9 F   9.0000    1    18.998    6.378741   -0.197219    2.105786
  10 F   9.0000    1    18.998    5.208058    1.884316   -1.160624
  11 O   8.0000    1    15.999   -6.702512   -1.156197   -0.446064
  12 O   8.0000    1    15.999   -3.969867   -3.098803    2.160192
  13 C   6.0000    1    12.011    0.488889   -0.887759   -1.766770
  14 C   6.0000    1    12.011   -1.319309    1.374321   -1.332830
  15 C   6.0000    1    12.011    2.527868   -1.474995    0.265890
  16 C   6.0000    1    12.011   -3.075809    1.186796    0.960062
  17 C   6.0000    1    12.011    4.374767    0.728423    0.906652
  18 C   6.0000    1    12.011   -4.848147   -1.390780    0.892916

      -----------------------------------------------------------      
     |                   =====================                   |     
     |                           x T B                           |     
     |                   =====================                   |     
     |                         S. Grimme                         |     
     |          Mulliken Center for Theoretical Chemistry        |     
     |                    University of Bonn                     |     
      -----------------------------------------------------------      

   * xtb version 6.7.1 (edcfbbe) compiled by 'albert@albert-system' on 2024-07-22

   xtb is free software: you can redistribute it and/or modify it under
   the terms of the GNU Lesser General Public License as published by
   the Free Software Foundation, either version 3 of the License, or
   (at your option) any later version.
   
   xtb is distributed in the hope that it will be useful,
   but WITHOUT ANY WARRANTY; without even the implied warranty of
   MERCHANTABILITY or FITNESS FOR A PARTICULAR PURPOSE.  See the
   GNU Lesser General Public License for more details.
   
   Cite this work as:
   * C. Bannwarth, E. Caldeweyher, S. Ehlert, A. Hansen, P. Pracht,
     J. Seibert, S. Spicher, S. Grimme, WIREs Comput. Mol. Sci., 2020, 11,
     e01493. DOI: 10.1002/wcms.1493
   
   for GFN2-xTB:
   * C. Bannwarth, S. Ehlert and S. Grimme., J. Chem. Theory Comput., 2019,
     15, 1652-1671. DOI: 10.1021/acs.jctc.8b01176
   for GFN1-xTB:
   * S. Grimme, C. Bannwarth, P. Shushkov, J. Chem. Theory Comput., 2017,
     13, 1989-2009. DOI: 10.1021/acs.jctc.7b00118
   for GFN0-xTB:
   * P. Pracht, E. Caldeweyher, S. Ehlert, S. Grimme, ChemRxiv, 2019, preprint.
     DOI: 10.26434/chemrxiv.8326202.v1
   for GFN-FF:
   * S. Spicher and S. Grimme, Angew. Chem. Int. Ed., 2020, 59, 15665-15673.
     DOI: 10.1002/anie.202004239
   
   for ALPB and GBSA implicit solvation:
   * S. Ehlert, M. Stahn, S. Spicher, S. Grimme, J. Chem. Theory Comput.,
     2021, 17, 4250-4261. DOI: 10.1021/acs.jctc.1c00471
   
   for ddCOSMO and CPCM-X implicit solvation:
   * M. Stahn, S. Ehlert, S. Grimme, J. Phys. Chem. A,
     2023, XX, XXXX-XXXX. DOI: 10.1021/acs.jpca.3c04382
   
   for DFT-D4:
   * E. Caldeweyher, C. Bannwarth and S. Grimme, J. Chem. Phys., 2017,
     147, 034112. DOI: 10.1063/1.4993215
   * E. Caldeweyher, S. Ehlert, A. Hansen, H. Neugebauer, S. Spicher,
     C. Bannwarth and S. Grimme, J. Chem. Phys., 2019, 150, 154122.
     DOI: 10.1063/1.5090222
   * E. Caldeweyher, J.-M. Mewes, S. Ehlert and S. Grimme, Phys. Chem. Chem. Phys.
     2020, 22, 8499-8512. DOI: 10.1039/D0CP00502A
   
   for sTDA-xTB:
   * S. Grimme and C. Bannwarth, J. Chem. Phys., 2016, 145, 054103.
     DOI: 10.1063/1.4959605
   
   in the mass-spec context:
   * V. Asgeirsson, C. Bauer and S. Grimme, Chem. Sci., 2017, 8, 4879.
     DOI: 10.1039/c7sc00601b
   * J. Koopman and S. Grimme, ACS Omega 2019, 4, 12, 15120-15133.
     DOI: 10.1021/acsomega.9b02011
   
   for metadynamics refer to:
   * S. Grimme, J. Chem. Theory Comput., 2019, 155, 2847-2862
     DOI: 10.1021/acs.jctc.9b00143
   
   for SPH calculations refer to:
   * S. Spicher and S. Grimme, J. Chem. Theory Comput., 2021, 17, 1701-1714
     DOI: 10.1021/acs.jctc.0c01306
   
   for ONIOM refer to:
   * C. Plett, A. Katbashev, S. Ehlert, S. Grimme, M. Bursch,
     Phys. Chem. Chem. Phys., 2023, 25, 17860-17868. DOI: 10.1039/D3CP02178E
   
   for DIPRO refer to:
   * J. Kohn, N. Gildemeister, S. Grimme, D. Fazzi, A. Hansen,
     J. Chem. Phys., 2023, just accepted.
   
   for PTB refer to:
   * S. Grimme, M. Mueller, A. Hansen, J. Chem. Phys., 2023, 158, 124111.
     DOI: 10.1063/5.0137838
   
   with help from (in alphabetical order)
   P. Atkinson, C. Bannwarth, F. Bohle, G. Brandenburg, E. Caldeweyher
   M. Checinski, S. Dohm, S. Ehlert, S. Ehrlich, I. Gerasimov, C. Hölzer
   A. Katbashev, J. Kohn, J. Koopman, C. Lavigne, S. Lehtola, F. März, M. Müller,
   F. Musil, H. Neugebauer, J. Pisarek, C. Plett, P. Pracht, F. Pultar,
   J. Seibert, P. Shushkov, S. Spicher, M. Stahn, M. Steiner, T. Strunk,
   J. Stückrath, T. Rose, and J. Unsleber
   
 * started run on 2026/03/08 at 17:05:43.553     
   ID    Z sym.   atoms
    1    9 F      1-11
    2    8 O      12, 13
    3    6 C      14-19

           -------------------------------------------------
          |                Calculation Setup                |
           -------------------------------------------------

          program call               : /users/rzwa/work/orca/orca-6.1.0/otool_xtb PFHxA_GOAT_XTB.xyz --grad -c -1 -u 0 -P 32 --namespace PFHxA_GOAT --input PFHxA_GOAT_XTB.input.tmp --alpb WATER --acc 0.200000
          hostname                   : node2414
          calculation namespace      : PFHxA_GOAT
          coordinate file            : PFHxA_GOAT_XTB.xyz
          omp threads                :                    32


           -------------------------------------------------
          |                 G F N 2 - x T B                 |
           -------------------------------------------------

        Reference                      10.1021/acs.jctc.8b01176
      * Hamiltonian:
        H0-scaling (s, p, d)           1.850000    2.230000    2.230000
        zeta-weighting                 0.500000
      * Dispersion:
        s8                             2.700000
        a1                             0.520000
        a2                             5.000000
        s9                             5.000000
      * Repulsion:
        kExp                           1.500000    1.000000
        rExp                           1.000000
      * Coulomb:
        alpha                          2.000000
        third order                    shell-resolved
        anisotropic                    true
        a3                             3.000000
        a5                             4.000000
        cn-shift                       1.200000
        cn-exp                         4.000000
        max-rad                        5.000000

      * Solvation model:               ALPB
        Solvent                        WATER
        Parameter file                 internal GFN2-xTB/ALPB
        Dielectric constant                8.0200E+01
        Reference state                gsolv [1 M gas/solution]
        Free energy shift                  1.0808E-03 Eh       6.7819E-01 kcal/mol
        Temperature                        2.9815E+02 K
        Density                            1.0000E+00 kg/L
        Solvent mass                       1.8000E+01 g/mol
        Interaction kernel             P16
        Born radius scaling (c1)           1.4744E+00
        Born radii integrator          GBOBC
        Born offset                        0.0000E+00 a0       0.0000E+00 AA
        H-bond correction              true
        Ion screening                  false
        Surface tension                    1.0000E-05 Eh       1.5569E+01 dyn/cm
        Grid points                               230 per atom
q/qsh data taken from xtbrestart
CAMM data taken from xtbrestart

          ...................................................
          :                      SETUP                      :
          :.................................................:
          :  # basis functions                  76          :
          :  # atomic orbitals                  76          :
          :  # shells                           38          :
          :  # electrons                       114          :
          :  max. iterations                   250          :
          :  Hamiltonian                  GFN2-xTB          :
          :  restarted?                       true          :
          :  GBSA solvation                   true          :
          :  PC potential                    false          :
          :  electronic temp.          300.0000000     K    :
          :  accuracy                    0.2000000          :
          :  -> integral cutoff          0.3198970E+02      :
          :  -> integral neglect         0.2000000E-08      :
          :  -> SCF convergence          0.2000000E-06 Eh   :
          :  -> wf. convergence          0.2000000E-04 e    :
          :  Broyden damping             0.4000000          :
          :  net charge                         -1          :
          :  unpaired electrons                  0          :
          ...................................................

 iter      E             dE          RMSdq      gap      omega  full diag
   1    -73.5936783 -0.735937E+02  0.283E-03    5.35       0.0  T
   2    -73.5936783 -0.252105E-07  0.157E-03    5.35      14.6  T
   3    -73.5936783 -0.205108E-08  0.735E-04    5.35      31.2  T
   4    -73.5936783 -0.154319E-08  0.160E-04    5.35     143.5  T
   5    -73.5936783 -0.369340E-10  0.493E-05    5.35     465.5  T

   *** convergence criteria satisfied after 5 iterations ***

         #    Occupation            Energy/Eh            Energy/eV
      -------------------------------------------------------------
         1        2.0000           -0.9454666             -25.7275
       ...           ...                  ...                  ...
        51        2.0000           -0.5465898             -14.8735
        52        2.0000           -0.5424038             -14.7596
        53        2.0000           -0.5330219             -14.5043
        54        2.0000           -0.5162075             -14.0467
        55        2.0000           -0.4544232             -12.3655
        56        2.0000           -0.4428872             -12.0516
        57        2.0000           -0.4193011             -11.4098 (HOMO)
        58                         -0.2227641              -6.0617 (LUMO)
        59                         -0.1255784              -3.4172
        60                         -0.1140919              -3.1046
        61                         -0.1020087              -2.7758
        62                         -0.0929995              -2.5306
       ...                                ...                  ...
        76                          0.7344106              19.9843
      -------------------------------------------------------------
                  HL-Gap            0.1965370 Eh            5.3480 eV
             Fermi-level           -0.3210326 Eh           -8.7357 eV

 SCC (total)                   0 d,  0 h,  0 min,  0.048 sec
 SCC setup                      ...        0 min,  0.001 sec (  2.123%)
 Dispersion                     ...        0 min,  0.001 sec (  2.499%)
 classical contributions        ...        0 min,  0.001 sec (  1.485%)
 integral evaluation            ...        0 min,  0.008 sec ( 15.596%)
 iterations                     ...        0 min,  0.032 sec ( 65.802%)
 molecular gradient             ...        0 min,  0.006 sec ( 11.673%)
 printout                       ...        0 min,  0.000 sec (  0.721%)

         :::::::::::::::::::::::::::::::::::::::::::::::::::::
         ::                     SUMMARY                     ::
         :::::::::::::::::::::::::::::::::::::::::::::::::::::
         :: total energy             -73.360300094251 Eh    ::
         :: total w/o Gsasa/hb       -73.370846044972 Eh    ::
         :: gradient norm              0.000161663760 Eh/a0 ::
         :: HOMO-LUMO gap              5.348043029446 eV    ::
         ::.................................................::
         :: SCC energy               -73.593540998672 Eh    ::
         :: -> isotropic ES            0.309727396506 Eh    ::
         :: -> anisotropic ES          0.003648547965 Eh    ::
         :: -> anisotropic XC         -0.076544799480 Eh    ::
         :: -> dispersion             -0.019797330115 Eh    ::
         :: -> Gsolv                  -0.079811881344 Eh    ::
         ::    -> Gelec               -0.090357832065 Eh    ::
         ::    -> Gsasa                0.013592952975 Eh    ::
         ::    -> Ghb                 -0.004127761952 Eh    ::
         ::    -> Gshift               0.001080759698 Eh    ::
         :: repulsion energy           0.233240904420 Eh    ::
         :: add. restraining           0.000000000000 Eh    ::
         :: total charge              -1.000000000000 e     ::
         :::::::::::::::::::::::::::::::::::::::::::::::::::::


Property printout bound to 'properties.out'

           -------------------------------------------------
          | TOTAL ENERGY              -73.360300094251 Eh   |
          | GRADIENT NORM               0.000161663760 Eh/α |
          | HOMO-LUMO GAP               5.348043029446 eV   |
           -------------------------------------------------

------------------------------------------------------------------------
 * finished run on 2026/03/08 at 17:05:43.658     
------------------------------------------------------------------------
 total:
 * wall-time:     0 d,  0 h,  0 min,  0.105 sec
 *  cpu-time:     0 d,  0 h,  0 min,  1.607 sec
 * ratio c/w:    15.364 speedup
 SCF:
 * wall-time:     0 d,  0 h,  0 min,  0.049 sec
 *  cpu-time:     0 d,  0 h,  0 min,  0.913 sec
 * ratio c/w:    18.792 speedup


-------------------------   --------------------
FINAL SINGLE POINT ENERGY       -73.360300094250
-------------------------   --------------------


-------------
DIPOLE MOMENT
-------------
                                X             Y             Z
Total Dipole Moment    :      4.20800       1.05300      -0.57700
                        -----------------------------------------
Magnitude (a.u.)       :      4.37596
Magnitude (Debye)      :     11.12280

                                *** OPTIMIZATION RUN DONE ***

		     ------------------------------
			                   _   
			                  | |  
			  __ _  ___   __ _| |_ 
			 / _` |/ _ \ / _` | __|
			| (_| | (_) | (_| | |_ 
			 \__, |\___/ \__,_|\__|
			 __/ |                
			|___/                 

		      A Global Optimizer Algorithm
		     ------------------------------

Global parameters
-----------------
  GOAT version                               ... default
  Minimum global steps                       ... 3
  Number of base workers                     ... 4
  Split workers by                           ... 4
  Final number of workers                    ... 16
  Number of available CPUs                   ... 64
  Parameter list (worker : temperature)      ...  0 : 2903.97,  1 : 1451.98, 
                                                  2 :  725.99,  3 :  363.00, 
                                                  4 : 2903.97,  5 : 1451.98, 
                                                  6 :  725.99,  7 :  363.00, 
                                                  8 : 2903.97,  9 : 1451.98, 
                                                 10 :  725.99, 11 :  363.00, 
                                                 12 : 2903.97, 13 : 1451.98, 
                                                 14 :  725.99, 15 :  363.00 
  GradComp (mean : sigma)                    ... 1.00 : 0.50
  Number of fragments                        ... 1
  Number of atoms                            ... 19
  Flexibility parameter                      ... 1.00
  Optimizations per global step              ... 320
  Optimizations per worker                   ... 20

Filtering criteria
------------------
  RMSD                                       ... 0.125 Angs (atom. pos.)
  EnDiff                                     ... 0.100 kcal/mol
  RotConst                                   ... 1.00-2.50 %
  Maximum Conf. Energy                       ... 6.000 kcal/mol

Thermodynamics
--------------
  Ensemble temperature                       ... 298.15 K
  Degeneracy of conformers                   ... 1
  *No rotamers will be included in Gconf
--------------------------------------------------------------------------
The library attempted to open the following supporting CUDA libraries,
but each of them failed.  CUDA-aware support is disabled.
libcuda.so.1: cannot open shared object file: No such file or directory
libcuda.dylib: cannot open shared object file: No such file or directory
/usr/lib64/libcuda.so.1: cannot open shared object file: No such file or directory
/usr/lib64/libcuda.dylib: cannot open shared object file: No such file or directory
If you are not interested in CUDA-aware support, then run with
--mca opal_warn_on_missing_libcuda 0 to suppress this message.  If you are interested
in CUDA-aware support, then try setting LD_LIBRARY_PATH to the location
of libcuda.so.1 to get passed this issue.
--------------------------------------------------------------------------
--------------------------------------------------------------------------
WARNING: There was an error initializing an OpenFabrics device.

  Local host:   node2414
  Local device: mlx5_0
--------------------------------------------------------------------------
[node2414.oscar.ccv.brown.edu:2463301] 63 more processes have sent help message help-mpi-common-cuda.txt / dlopen failed
[node2414.oscar.ccv.brown.edu:2463301] Set MCA parameter "orte_base_help_aggregate" to 0 to see all help / error messages
[node2414.oscar.ccv.brown.edu:2463301] 63 more processes have sent help message help-mpi-btl-openib.txt / error in device init

------------------------------------------------------------------------------
   Iter  MinTemp     MaxEn       GradComp    NOpt   NProcs    Output
------------------------------------------------------------------------------
List of participating nodes    ...  PFHxA_GOAT.goat.0.hostnames

   4     2903.97     57.00    1.00 : 0.50      20        4    PFHxA_GOAT.goat.0.4.out
   0     2903.97     57.00    1.00 : 0.50      20        4    PFHxA_GOAT.goat.0.0.out
  11      363.00     57.00    1.00 : 0.50      20        4    PFHxA_GOAT.goat.0.11.out
  10      725.99     57.00    1.00 : 0.50      20        4    PFHxA_GOAT.goat.0.10.out
  14      725.99     57.00    1.00 : 0.50      20        4    PFHxA_GOAT.goat.0.14.out
  15      363.00     57.00    1.00 : 0.50      20        4    PFHxA_GOAT.goat.0.15.out
   7      363.00     57.00    1.00 : 0.50      20        4    PFHxA_GOAT.goat.0.7.out
   1     1451.98     57.00    1.00 : 0.50      20        4    PFHxA_GOAT.goat.0.1.out
   3      363.00     57.00    1.00 : 0.50      20        4    PFHxA_GOAT.goat.0.3.out
   6      725.99     57.00    1.00 : 0.50      20        4    PFHxA_GOAT.goat.0.6.out
   5     1451.98     57.00    1.00 : 0.50      20        4    PFHxA_GOAT.goat.0.5.out
   2      725.99     57.00    1.00 : 0.50      20        4    PFHxA_GOAT.goat.0.2.out
   9     1451.98     57.00    1.00 : 0.50      20        4    PFHxA_GOAT.goat.0.9.out
  12     2903.97     57.00    1.00 : 0.50      20        4    PFHxA_GOAT.goat.0.12.out
  13     1451.98     57.00    1.00 : 0.50      20        4    PFHxA_GOAT.goat.0.13.out
   8     2903.97     57.00    1.00 : 0.50      20        4    PFHxA_GOAT.goat.0.8.out
--------------------------------------------------------------------------
The library attempted to open the following supporting CUDA libraries,
but each of them failed.  CUDA-aware support is disabled.
libcuda.so.1: cannot open shared object file: No such file or directory
libcuda.dylib: cannot open shared object file: No such file or directory
/usr/lib64/libcuda.so.1: cannot open shared object file: No such file or directory
/usr/lib64/libcuda.dylib: cannot open shared object file: No such file or directory
If you are not interested in CUDA-aware support, then run with
--mca opal_warn_on_missing_libcuda 0 to suppress this message.  If you are interested
in CUDA-aware support, then try setting LD_LIBRARY_PATH to the location
of libcuda.so.1 to get passed this issue.
--------------------------------------------------------------------------
--------------------------------------------------------------------------
The library attempted to open the following supporting CUDA libraries,
but each of them failed.  CUDA-aware support is disabled.
libcuda.so.1: cannot open shared object file: No such file or directory
libcuda.dylib: cannot open shared object file: No such file or directory
/usr/lib64/libcuda.so.1: cannot open shared object file: No such file or directory
/usr/lib64/libcuda.dylib: cannot open shared object file: No such file or directory
If you are not interested in CUDA-aware support, then run with
--mca opal_warn_on_missing_libcuda 0 to suppress this message.  If you are interested
in CUDA-aware support, then try setting LD_LIBRARY_PATH to the location
of libcuda.so.1 to get passed this issue.
--------------------------------------------------------------------------
--------------------------------------------------------------------------
The library attempted to open the following supporting CUDA libraries,
but each of them failed.  CUDA-aware support is disabled.
libcuda.so.1: cannot open shared object file: No such file or directory
libcuda.dylib: cannot open shared object file: No such file or directory
/usr/lib64/libcuda.so.1: cannot open shared object file: No such file or directory
/usr/lib64/libcuda.dylib: cannot open shared object file: No such file or directory
If you are not interested in CUDA-aware support, then run with
--mca opal_warn_on_missing_libcuda 0 to suppress this message.  If you are interested
in CUDA-aware support, then try setting LD_LIBRARY_PATH to the location
of libcuda.so.1 to get passed this issue.
--------------------------------------------------------------------------
--------------------------------------------------------------------------
The library attempted to open the following supporting CUDA libraries,
but each of them failed.  CUDA-aware support is disabled.
libcuda.so.1: cannot open shared object file: No such file or directory
libcuda.dylib: cannot open shared object file: No such file or directory
/usr/lib64/libcuda.so.1: cannot open shared object file: No such file or directory
/usr/lib64/libcuda.dylib: cannot open shared object file: No such file or directory
If you are not interested in CUDA-aware support, then run with
--mca opal_warn_on_missing_libcuda 0 to suppress this message.  If you are interested
in CUDA-aware support, then try setting LD_LIBRARY_PATH to the location
of libcuda.so.1 to get passed this issue.
--------------------------------------------------------------------------
--------------------------------------------------------------------------
The library attempted to open the following supporting CUDA libraries,
but each of them failed.  CUDA-aware support is disabled.
libcuda.so.1: cannot open shared object file: No such file or directory
libcuda.dylib: cannot open shared object file: No such file or directory
/usr/lib64/libcuda.so.1: cannot open shared object file: No such file or directory
/usr/lib64/libcuda.dylib: cannot open shared object file: No such file or directory
If you are not interested in CUDA-aware support, then run with
--mca opal_warn_on_missing_libcuda 0 to suppress this message.  If you are interested
in CUDA-aware support, then try setting LD_LIBRARY_PATH to the location
of libcuda.so.1 to get passed this issue.
--------------------------------------------------------------------------
--------------------------------------------------------------------------
The library attempted to open the following supporting CUDA libraries,
but each of them failed.  CUDA-aware support is disabled.
libcuda.so.1: cannot open shared object file: No such file or directory
libcuda.dylib: cannot open shared object file: No such file or directory
/usr/lib64/libcuda.so.1: cannot open shared object file: No such file or directory
/usr/lib64/libcuda.dylib: cannot open shared object file: No such file or directory
If you are not interested in CUDA-aware support, then run with
--mca opal_warn_on_missing_libcuda 0 to suppress this message.  If you are interested
in CUDA-aware support, then try setting LD_LIBRARY_PATH to the location
of libcuda.so.1 to get passed this issue.
--------------------------------------------------------------------------
--------------------------------------------------------------------------
The library attempted to open the following supporting CUDA libraries,
but each of them failed.  CUDA-aware support is disabled.
libcuda.so.1: cannot open shared object file: No such file or directory
libcuda.dylib: cannot open shared object file: No such file or directory
/usr/lib64/libcuda.so.1: cannot open shared object file: No such file or directory
/usr/lib64/libcuda.dylib: cannot open shared object file: No such file or directory
If you are not interested in CUDA-aware support, then run with
--mca opal_warn_on_missing_libcuda 0 to suppress this message.  If you are interested
in CUDA-aware support, then try setting LD_LIBRARY_PATH to the location
of libcuda.so.1 to get passed this issue.
--------------------------------------------------------------------------
--------------------------------------------------------------------------
The library attempted to open the following supporting CUDA libraries,
but each of them failed.  CUDA-aware support is disabled.
libcuda.so.1: cannot open shared object file: No such file or directory
libcuda.dylib: cannot open shared object file: No such file or directory
/usr/lib64/libcuda.so.1: cannot open shared object file: No such file or directory
/usr/lib64/libcuda.dylib: cannot open shared object file: No such file or directory
If you are not interested in CUDA-aware support, then run with
--mca opal_warn_on_missing_libcuda 0 to suppress this message.  If you are interested
in CUDA-aware support, then try setting LD_LIBRARY_PATH to the location
of libcuda.so.1 to get passed this issue.
--------------------------------------------------------------------------
--------------------------------------------------------------------------
The library attempted to open the following supporting CUDA libraries,
but each of them failed.  CUDA-aware support is disabled.
libcuda.so.1: cannot open shared object file: No such file or directory
libcuda.dylib: cannot open shared object file: No such file or directory
/usr/lib64/libcuda.so.1: cannot open shared object file: No such file or directory
/usr/lib64/libcuda.dylib: cannot open shared object file: No such file or directory
If you are not interested in CUDA-aware support, then run with
--mca opal_warn_on_missing_libcuda 0 to suppress this message.  If you are interested
in CUDA-aware support, then try setting LD_LIBRARY_PATH to the location
of libcuda.so.1 to get passed this issue.
--------------------------------------------------------------------------
--------------------------------------------------------------------------
The library attempted to open the following supporting CUDA libraries,
but each of them failed.  CUDA-aware support is disabled.
libcuda.so.1: cannot open shared object file: No such file or directory
libcuda.dylib: cannot open shared object file: No such file or directory
/usr/lib64/libcuda.so.1: cannot open shared object file: No such file or directory
/usr/lib64/libcuda.dylib: cannot open shared object file: No such file or directory
If you are not interested in CUDA-aware support, then run with
--mca opal_warn_on_missing_libcuda 0 to suppress this message.  If you are interested
in CUDA-aware support, then try setting LD_LIBRARY_PATH to the location
of libcuda.so.1 to get passed this issue.
--------------------------------------------------------------------------
--------------------------------------------------------------------------
The library attempted to open the following supporting CUDA libraries,
but each of them failed.  CUDA-aware support is disabled.
libcuda.so.1: cannot open shared object file: No such file or directory
libcuda.dylib: cannot open shared object file: No such file or directory
/usr/lib64/libcuda.so.1: cannot open shared object file: No such file or directory
/usr/lib64/libcuda.dylib: cannot open shared object file: No such file or directory
If you are not interested in CUDA-aware support, then run with
--mca opal_warn_on_missing_libcuda 0 to suppress this message.  If you are interested
in CUDA-aware support, then try setting LD_LIBRARY_PATH to the location
of libcuda.so.1 to get passed this issue.
--------------------------------------------------------------------------
--------------------------------------------------------------------------
The library attempted to open the following supporting CUDA libraries,
but each of them failed.  CUDA-aware support is disabled.
libcuda.so.1: cannot open shared object file: No such file or directory
libcuda.dylib: cannot open shared object file: No such file or directory
/usr/lib64/libcuda.so.1: cannot open shared object file: No such file or directory
/usr/lib64/libcuda.dylib: cannot open shared object file: No such file or directory
If you are not interested in CUDA-aware support, then run with
--mca opal_warn_on_missing_libcuda 0 to suppress this message.  If you are interested
in CUDA-aware support, then try setting LD_LIBRARY_PATH to the location
of libcuda.so.1 to get passed this issue.
--------------------------------------------------------------------------
--------------------------------------------------------------------------
The library attempted to open the following supporting CUDA libraries,
but each of them failed.  CUDA-aware support is disabled.
libcuda.so.1: cannot open shared object file: No such file or directory
libcuda.dylib: cannot open shared object file: No such file or directory
/usr/lib64/libcuda.so.1: cannot open shared object file: No such file or directory
/usr/lib64/libcuda.dylib: cannot open shared object file: No such file or directory
If you are not interested in CUDA-aware support, then run with
--mca opal_warn_on_missing_libcuda 0 to suppress this message.  If you are interested
in CUDA-aware support, then try setting LD_LIBRARY_PATH to the location
of libcuda.so.1 to get passed this issue.
--------------------------------------------------------------------------
--------------------------------------------------------------------------
The library attempted to open the following supporting CUDA libraries,
but each of them failed.  CUDA-aware support is disabled.
libcuda.so.1: cannot open shared object file: No such file or directory
libcuda.dylib: cannot open shared object file: No such file or directory
/usr/lib64/libcuda.so.1: cannot open shared object file: No such file or directory
/usr/lib64/libcuda.dylib: cannot open shared object file: No such file or directory
If you are not interested in CUDA-aware support, then run with
--mca opal_warn_on_missing_libcuda 0 to suppress this message.  If you are interested
in CUDA-aware support, then try setting LD_LIBRARY_PATH to the location
of libcuda.so.1 to get passed this issue.
--------------------------------------------------------------------------
--------------------------------------------------------------------------
The library attempted to open the following supporting CUDA libraries,
but each of them failed.  CUDA-aware support is disabled.
libcuda.so.1: cannot open shared object file: No such file or directory
libcuda.dylib: cannot open shared object file: No such file or directory
/usr/lib64/libcuda.so.1: cannot open shared object file: No such file or directory
/usr/lib64/libcuda.dylib: cannot open shared object file: No such file or directory
If you are not interested in CUDA-aware support, then run with
--mca opal_warn_on_missing_libcuda 0 to suppress this message.  If you are interested
in CUDA-aware support, then try setting LD_LIBRARY_PATH to the location
of libcuda.so.1 to get passed this issue.
--------------------------------------------------------------------------
--------------------------------------------------------------------------
The library attempted to open the following supporting CUDA libraries,
but each of them failed.  CUDA-aware support is disabled.
libcuda.so.1: cannot open shared object file: No such file or directory
libcuda.dylib: cannot open shared object file: No such file or directory
/usr/lib64/libcuda.so.1: cannot open shared object file: No such file or directory
/usr/lib64/libcuda.dylib: cannot open shared object file: No such file or directory
If you are not interested in CUDA-aware support, then run with
--mca opal_warn_on_missing_libcuda 0 to suppress this message.  If you are interested
in CUDA-aware support, then try setting LD_LIBRARY_PATH to the location
of libcuda.so.1 to get passed this issue.
--------------------------------------------------------------------------
--------------------------------------------------------------------------
WARNING: There was an error initializing an OpenFabrics device.

  Local host:   node2414
  Local device: mlx5_0
--------------------------------------------------------------------------
--------------------------------------------------------------------------
WARNING: There was an error initializing an OpenFabrics device.

  Local host:   node2414
  Local device: mlx5_0
--------------------------------------------------------------------------
--------------------------------------------------------------------------
WARNING: There was an error initializing an OpenFabrics device.

  Local host:   node2414
  Local device: mlx5_0
--------------------------------------------------------------------------
--------------------------------------------------------------------------
WARNING: There was an error initializing an OpenFabrics device.

  Local host:   node2414
  Local device: mlx5_0
--------------------------------------------------------------------------
--------------------------------------------------------------------------
WARNING: There was an error initializing an OpenFabrics device.

  Local host:   node2414
  Local device: mlx5_0
--------------------------------------------------------------------------
--------------------------------------------------------------------------
WARNING: There was an error initializing an OpenFabrics device.

  Local host:   node2414
  Local device: mlx5_0
--------------------------------------------------------------------------
--------------------------------------------------------------------------
WARNING: There was an error initializing an OpenFabrics device.

  Local host:   node2414
  Local device: mlx5_0
--------------------------------------------------------------------------
--------------------------------------------------------------------------
WARNING: There was an error initializing an OpenFabrics device.

  Local host:   node2414
  Local device: mlx5_0
--------------------------------------------------------------------------
--------------------------------------------------------------------------
WARNING: There was an error initializing an OpenFabrics device.

  Local host:   node2414
  Local device: mlx5_0
--------------------------------------------------------------------------
--------------------------------------------------------------------------
WARNING: There was an error initializing an OpenFabrics device.

  Local host:   node2414
  Local device: mlx5_0
--------------------------------------------------------------------------
--------------------------------------------------------------------------
WARNING: There was an error initializing an OpenFabrics device.

  Local host:   node2414
  Local device: mlx5_0
--------------------------------------------------------------------------
--------------------------------------------------------------------------
WARNING: There was an error initializing an OpenFabrics device.

  Local host:   node2414
  Local device: mlx5_0
--------------------------------------------------------------------------
--------------------------------------------------------------------------
WARNING: There was an error initializing an OpenFabrics device.

  Local host:   node2414
  Local device: mlx5_0
--------------------------------------------------------------------------
--------------------------------------------------------------------------
WARNING: There was an error initializing an OpenFabrics device.

  Local host:   node2414
  Local device: mlx5_0
--------------------------------------------------------------------------
--------------------------------------------------------------------------
WARNING: There was an error initializing an OpenFabrics device.

  Local host:   node2414
  Local device: mlx5_0
--------------------------------------------------------------------------
--------------------------------------------------------------------------
WARNING: There was an error initializing an OpenFabrics device.

  Local host:   node2414
  Local device: mlx5_0
--------------------------------------------------------------------------
[node2414.oscar.ccv.brown.edu:2463683] 3 more processes have sent help message help-mpi-common-cuda.txt / dlopen failed
[node2414.oscar.ccv.brown.edu:2463683] Set MCA parameter "orte_base_help_aggregate" to 0 to see all help / error messages
[node2414.oscar.ccv.brown.edu:2463683] 3 more processes have sent help message help-mpi-btl-openib.txt / error in device init
[node2414.oscar.ccv.brown.edu:2463675] 3 more processes have sent help message help-mpi-common-cuda.txt / dlopen failed
[node2414.oscar.ccv.brown.edu:2463675] Set MCA parameter "orte_base_help_aggregate" to 0 to see all help / error messages
[node2414.oscar.ccv.brown.edu:2463675] 3 more processes have sent help message help-mpi-btl-openib.txt / error in device init
[node2414.oscar.ccv.brown.edu:2463699] 3 more processes have sent help message help-mpi-common-cuda.txt / dlopen failed
[node2414.oscar.ccv.brown.edu:2463699] Set MCA parameter "orte_base_help_aggregate" to 0 to see all help / error messages
[node2414.oscar.ccv.brown.edu:2463699] 3 more processes have sent help message help-mpi-btl-openib.txt / error in device init
[node2414.oscar.ccv.brown.edu:2463666] 3 more processes have sent help message help-mpi-common-cuda.txt / dlopen failed
[node2414.oscar.ccv.brown.edu:2463666] Set MCA parameter "orte_base_help_aggregate" to 0 to see all help / error messages
[node2414.oscar.ccv.brown.edu:2463666] 3 more processes have sent help message help-mpi-btl-openib.txt / error in device init
[node2414.oscar.ccv.brown.edu:2463694] 3 more processes have sent help message help-mpi-common-cuda.txt / dlopen failed
[node2414.oscar.ccv.brown.edu:2463694] Set MCA parameter "orte_base_help_aggregate" to 0 to see all help / error messages
[node2414.oscar.ccv.brown.edu:2463694] 3 more processes have sent help message help-mpi-btl-openib.txt / error in device init
[node2414.oscar.ccv.brown.edu:2463673] 3 more processes have sent help message help-mpi-common-cuda.txt / dlopen failed
[node2414.oscar.ccv.brown.edu:2463673] Set MCA parameter "orte_base_help_aggregate" to 0 to see all help / error messages
[node2414.oscar.ccv.brown.edu:2463673] 3 more processes have sent help message help-mpi-btl-openib.txt / error in device init
[node2414.oscar.ccv.brown.edu:2463680] 3 more processes have sent help message help-mpi-common-cuda.txt / dlopen failed
[node2414.oscar.ccv.brown.edu:2463680] Set MCA parameter "orte_base_help_aggregate" to 0 to see all help / error messages
[node2414.oscar.ccv.brown.edu:2463680] 3 more processes have sent help message help-mpi-btl-openib.txt / error in device init
[node2414.oscar.ccv.brown.edu:2463692] 3 more processes have sent help message help-mpi-common-cuda.txt / dlopen failed
[node2414.oscar.ccv.brown.edu:2463692] Set MCA parameter "orte_base_help_aggregate" to 0 to see all help / error messages
[node2414.oscar.ccv.brown.edu:2463692] 3 more processes have sent help message help-mpi-btl-openib.txt / error in device init
[node2414.oscar.ccv.brown.edu:2463713] 3 more processes have sent help message help-mpi-common-cuda.txt / dlopen failed
[node2414.oscar.ccv.brown.edu:2463713] Set MCA parameter "orte_base_help_aggregate" to 0 to see all help / error messages
[node2414.oscar.ccv.brown.edu:2463713] 3 more processes have sent help message help-mpi-btl-openib.txt / error in device init
[node2414.oscar.ccv.brown.edu:2463668] 3 more processes have sent help message help-mpi-common-cuda.txt / dlopen failed
[node2414.oscar.ccv.brown.edu:2463668] Set MCA parameter "orte_base_help_aggregate" to 0 to see all help / error messages
[node2414.oscar.ccv.brown.edu:2463668] 3 more processes have sent help message help-mpi-btl-openib.txt / error in device init
[node2414.oscar.ccv.brown.edu:2463705] 3 more processes have sent help message help-mpi-common-cuda.txt / dlopen failed
[node2414.oscar.ccv.brown.edu:2463705] Set MCA parameter "orte_base_help_aggregate" to 0 to see all help / error messages
[node2414.oscar.ccv.brown.edu:2463705] 3 more processes have sent help message help-mpi-btl-openib.txt / error in device init
[node2414.oscar.ccv.brown.edu:2463712] 3 more processes have sent help message help-mpi-common-cuda.txt / dlopen failed
[node2414.oscar.ccv.brown.edu:2463712] Set MCA parameter "orte_base_help_aggregate" to 0 to see all help / error messages
[node2414.oscar.ccv.brown.edu:2463712] 3 more processes have sent help message help-mpi-btl-openib.txt / error in device init
[node2414.oscar.ccv.brown.edu:2463702] 3 more processes have sent help message help-mpi-common-cuda.txt / dlopen failed
[node2414.oscar.ccv.brown.edu:2463702] Set MCA parameter "orte_base_help_aggregate" to 0 to see all help / error messages
[node2414.oscar.ccv.brown.edu:2463702] 3 more processes have sent help message help-mpi-btl-openib.txt / error in device init
[node2414.oscar.ccv.brown.edu:2463707] 3 more processes have sent help message help-mpi-common-cuda.txt / dlopen failed
[node2414.oscar.ccv.brown.edu:2463707] Set MCA parameter "orte_base_help_aggregate" to 0 to see all help / error messages
[node2414.oscar.ccv.brown.edu:2463707] 3 more processes have sent help message help-mpi-btl-openib.txt / error in device init
[node2414.oscar.ccv.brown.edu:2463701] 3 more processes have sent help message help-mpi-common-cuda.txt / dlopen failed
[node2414.oscar.ccv.brown.edu:2463701] Set MCA parameter "orte_base_help_aggregate" to 0 to see all help / error messages
[node2414.oscar.ccv.brown.edu:2463701] 3 more processes have sent help message help-mpi-btl-openib.txt / error in device init
[node2414.oscar.ccv.brown.edu:2463706] 3 more processes have sent help message help-mpi-common-cuda.txt / dlopen failed
[node2414.oscar.ccv.brown.edu:2463706] Set MCA parameter "orte_base_help_aggregate" to 0 to see all help / error messages
[node2414.oscar.ccv.brown.edu:2463706] 3 more processes have sent help message help-mpi-btl-openib.txt / error in device init

			     GOAT Global Iter 1
		Iter    Min En       Sconf       Gconf   
		        Hartree      cal/(molK)  kcal/mol
		=========================================

		   1    -73.364528   5.994       -1.125

List of participating nodes    ...  PFHxA_GOAT.goat.1.hostnames

   5     1451.98     57.00    1.00 : 0.50      20        4    PFHxA_GOAT.goat.1.5.out
   3      363.00     57.00    1.00 : 0.50      20        4    PFHxA_GOAT.goat.1.3.out
   4     2903.97     57.00    1.00 : 0.50      20        4    PFHxA_GOAT.goat.1.4.out
   9     1451.98     57.00    1.00 : 0.50      20        4    PFHxA_GOAT.goat.1.9.out
  14      725.99     57.00    1.00 : 0.50      20        4    PFHxA_GOAT.goat.1.14.out
   8     2903.97     57.00    1.00 : 0.50      20        4    PFHxA_GOAT.goat.1.8.out
   6      725.99     57.00    1.00 : 0.50      20        4    PFHxA_GOAT.goat.1.6.out
   2      725.99     57.00    1.00 : 0.50      20        4    PFHxA_GOAT.goat.1.2.out
   0     2903.97     57.00    1.00 : 0.50      20        4    PFHxA_GOAT.goat.1.0.out
  13     1451.98     57.00    1.00 : 0.50      20        4    PFHxA_GOAT.goat.1.13.out
  11      363.00     57.00    1.00 : 0.50      20        4    PFHxA_GOAT.goat.1.11.out
   7      363.00     57.00    1.00 : 0.50      20        4    PFHxA_GOAT.goat.1.7.out
   1     1451.98     57.00    1.00 : 0.50      20        4    PFHxA_GOAT.goat.1.1.out
  12     2903.97     57.00    1.00 : 0.50      20        4    PFHxA_GOAT.goat.1.12.out
  15      363.00     57.00    1.00 : 0.50      20        4    PFHxA_GOAT.goat.1.15.out
  10      725.99     57.00    1.00 : 0.50      20        4    PFHxA_GOAT.goat.1.10.out
--------------------------------------------------------------------------
The library attempted to open the following supporting CUDA libraries,
but each of them failed.  CUDA-aware support is disabled.
libcuda.so.1: cannot open shared object file: No such file or directory
libcuda.dylib: cannot open shared object file: No such file or directory
/usr/lib64/libcuda.so.1: cannot open shared object file: No such file or directory
/usr/lib64/libcuda.dylib: cannot open shared object file: No such file or directory
If you are not interested in CUDA-aware support, then run with
--mca opal_warn_on_missing_libcuda 0 to suppress this message.  If you are interested
in CUDA-aware support, then try setting LD_LIBRARY_PATH to the location
of libcuda.so.1 to get passed this issue.
--------------------------------------------------------------------------
--------------------------------------------------------------------------
The library attempted to open the following supporting CUDA libraries,
but each of them failed.  CUDA-aware support is disabled.
libcuda.so.1: cannot open shared object file: No such file or directory
libcuda.dylib: cannot open shared object file: No such file or directory
/usr/lib64/libcuda.so.1: cannot open shared object file: No such file or directory
/usr/lib64/libcuda.dylib: cannot open shared object file: No such file or directory
If you are not interested in CUDA-aware support, then run with
--mca opal_warn_on_missing_libcuda 0 to suppress this message.  If you are interested
in CUDA-aware support, then try setting LD_LIBRARY_PATH to the location
of libcuda.so.1 to get passed this issue.
--------------------------------------------------------------------------
--------------------------------------------------------------------------
The library attempted to open the following supporting CUDA libraries,
but each of them failed.  CUDA-aware support is disabled.
libcuda.so.1: cannot open shared object file: No such file or directory
libcuda.dylib: cannot open shared object file: No such file or directory
/usr/lib64/libcuda.so.1: cannot open shared object file: No such file or directory
/usr/lib64/libcuda.dylib: cannot open shared object file: No such file or directory
If you are not interested in CUDA-aware support, then run with
--mca opal_warn_on_missing_libcuda 0 to suppress this message.  If you are interested
in CUDA-aware support, then try setting LD_LIBRARY_PATH to the location
of libcuda.so.1 to get passed this issue.
--------------------------------------------------------------------------
--------------------------------------------------------------------------
The library attempted to open the following supporting CUDA libraries,
but each of them failed.  CUDA-aware support is disabled.
libcuda.so.1: cannot open shared object file: No such file or directory
libcuda.dylib: cannot open shared object file: No such file or directory
/usr/lib64/libcuda.so.1: cannot open shared object file: No such file or directory
/usr/lib64/libcuda.dylib: cannot open shared object file: No such file or directory
If you are not interested in CUDA-aware support, then run with
--mca opal_warn_on_missing_libcuda 0 to suppress this message.  If you are interested
in CUDA-aware support, then try setting LD_LIBRARY_PATH to the location
of libcuda.so.1 to get passed this issue.
--------------------------------------------------------------------------
--------------------------------------------------------------------------
The library attempted to open the following supporting CUDA libraries,
but each of them failed.  CUDA-aware support is disabled.
libcuda.so.1: cannot open shared object file: No such file or directory
libcuda.dylib: cannot open shared object file: No such file or directory
/usr/lib64/libcuda.so.1: cannot open shared object file: No such file or directory
/usr/lib64/libcuda.dylib: cannot open shared object file: No such file or directory
If you are not interested in CUDA-aware support, then run with
--mca opal_warn_on_missing_libcuda 0 to suppress this message.  If you are interested
in CUDA-aware support, then try setting LD_LIBRARY_PATH to the location
of libcuda.so.1 to get passed this issue.
--------------------------------------------------------------------------
--------------------------------------------------------------------------
The library attempted to open the following supporting CUDA libraries,
but each of them failed.  CUDA-aware support is disabled.
libcuda.so.1: cannot open shared object file: No such file or directory
libcuda.dylib: cannot open shared object file: No such file or directory
/usr/lib64/libcuda.so.1: cannot open shared object file: No such file or directory
/usr/lib64/libcuda.dylib: cannot open shared object file: No such file or directory
If you are not interested in CUDA-aware support, then run with
--mca opal_warn_on_missing_libcuda 0 to suppress this message.  If you are interested
in CUDA-aware support, then try setting LD_LIBRARY_PATH to the location
of libcuda.so.1 to get passed this issue.
--------------------------------------------------------------------------
--------------------------------------------------------------------------
The library attempted to open the following supporting CUDA libraries,
but each of them failed.  CUDA-aware support is disabled.
libcuda.so.1: cannot open shared object file: No such file or directory
libcuda.dylib: cannot open shared object file: No such file or directory
/usr/lib64/libcuda.so.1: cannot open shared object file: No such file or directory
/usr/lib64/libcuda.dylib: cannot open shared object file: No such file or directory
If you are not interested in CUDA-aware support, then run with
--mca opal_warn_on_missing_libcuda 0 to suppress this message.  If you are interested
in CUDA-aware support, then try setting LD_LIBRARY_PATH to the location
of libcuda.so.1 to get passed this issue.
--------------------------------------------------------------------------
--------------------------------------------------------------------------
The library attempted to open the following supporting CUDA libraries,
but each of them failed.  CUDA-aware support is disabled.
libcuda.so.1: cannot open shared object file: No such file or directory
libcuda.dylib: cannot open shared object file: No such file or directory
/usr/lib64/libcuda.so.1: cannot open shared object file: No such file or directory
/usr/lib64/libcuda.dylib: cannot open shared object file: No such file or directory
If you are not interested in CUDA-aware support, then run with
--mca opal_warn_on_missing_libcuda 0 to suppress this message.  If you are interested
in CUDA-aware support, then try setting LD_LIBRARY_PATH to the location
of libcuda.so.1 to get passed this issue.
--------------------------------------------------------------------------
--------------------------------------------------------------------------
The library attempted to open the following supporting CUDA libraries,
but each of them failed.  CUDA-aware support is disabled.
libcuda.so.1: cannot open shared object file: No such file or directory
libcuda.dylib: cannot open shared object file: No such file or directory
/usr/lib64/libcuda.so.1: cannot open shared object file: No such file or directory
/usr/lib64/libcuda.dylib: cannot open shared object file: No such file or directory
If you are not interested in CUDA-aware support, then run with
--mca opal_warn_on_missing_libcuda 0 to suppress this message.  If you are interested
in CUDA-aware support, then try setting LD_LIBRARY_PATH to the location
of libcuda.so.1 to get passed this issue.
--------------------------------------------------------------------------
--------------------------------------------------------------------------
The library attempted to open the following supporting CUDA libraries,
but each of them failed.  CUDA-aware support is disabled.
libcuda.so.1: cannot open shared object file: No such file or directory
libcuda.dylib: cannot open shared object file: No such file or directory
/usr/lib64/libcuda.so.1: cannot open shared object file: No such file or directory
/usr/lib64/libcuda.dylib: cannot open shared object file: No such file or directory
If you are not interested in CUDA-aware support, then run with
--mca opal_warn_on_missing_libcuda 0 to suppress this message.  If you are interested
in CUDA-aware support, then try setting LD_LIBRARY_PATH to the location
of libcuda.so.1 to get passed this issue.
--------------------------------------------------------------------------
--------------------------------------------------------------------------
The library attempted to open the following supporting CUDA libraries,
but each of them failed.  CUDA-aware support is disabled.
libcuda.so.1: cannot open shared object file: No such file or directory
libcuda.dylib: cannot open shared object file: No such file or directory
/usr/lib64/libcuda.so.1: cannot open shared object file: No such file or directory
/usr/lib64/libcuda.dylib: cannot open shared object file: No such file or directory
If you are not interested in CUDA-aware support, then run with
--mca opal_warn_on_missing_libcuda 0 to suppress this message.  If you are interested
in CUDA-aware support, then try setting LD_LIBRARY_PATH to the location
of libcuda.so.1 to get passed this issue.
--------------------------------------------------------------------------
--------------------------------------------------------------------------
The library attempted to open the following supporting CUDA libraries,
but each of them failed.  CUDA-aware support is disabled.
libcuda.so.1: cannot open shared object file: No such file or directory
libcuda.dylib: cannot open shared object file: No such file or directory
/usr/lib64/libcuda.so.1: cannot open shared object file: No such file or directory
/usr/lib64/libcuda.dylib: cannot open shared object file: No such file or directory
If you are not interested in CUDA-aware support, then run with
--mca opal_warn_on_missing_libcuda 0 to suppress this message.  If you are interested
in CUDA-aware support, then try setting LD_LIBRARY_PATH to the location
of libcuda.so.1 to get passed this issue.
--------------------------------------------------------------------------
--------------------------------------------------------------------------
The library attempted to open the following supporting CUDA libraries,
but each of them failed.  CUDA-aware support is disabled.
libcuda.so.1: cannot open shared object file: No such file or directory
libcuda.dylib: cannot open shared object file: No such file or directory
/usr/lib64/libcuda.so.1: cannot open shared object file: No such file or directory
/usr/lib64/libcuda.dylib: cannot open shared object file: No such file or directory
If you are not interested in CUDA-aware support, then run with
--mca opal_warn_on_missing_libcuda 0 to suppress this message.  If you are interested
in CUDA-aware support, then try setting LD_LIBRARY_PATH to the location
of libcuda.so.1 to get passed this issue.
--------------------------------------------------------------------------
--------------------------------------------------------------------------
The library attempted to open the following supporting CUDA libraries,
but each of them failed.  CUDA-aware support is disabled.
libcuda.so.1: cannot open shared object file: No such file or directory
libcuda.dylib: cannot open shared object file: No such file or directory
/usr/lib64/libcuda.so.1: cannot open shared object file: No such file or directory
/usr/lib64/libcuda.dylib: cannot open shared object file: No such file or directory
If you are not interested in CUDA-aware support, then run with
--mca opal_warn_on_missing_libcuda 0 to suppress this message.  If you are interested
in CUDA-aware support, then try setting LD_LIBRARY_PATH to the location
of libcuda.so.1 to get passed this issue.
--------------------------------------------------------------------------
--------------------------------------------------------------------------
The library attempted to open the following supporting CUDA libraries,
but each of them failed.  CUDA-aware support is disabled.
libcuda.so.1: cannot open shared object file: No such file or directory
libcuda.dylib: cannot open shared object file: No such file or directory
/usr/lib64/libcuda.so.1: cannot open shared object file: No such file or directory
/usr/lib64/libcuda.dylib: cannot open shared object file: No such file or directory
If you are not interested in CUDA-aware support, then run with
--mca opal_warn_on_missing_libcuda 0 to suppress this message.  If you are interested
in CUDA-aware support, then try setting LD_LIBRARY_PATH to the location
of libcuda.so.1 to get passed this issue.
--------------------------------------------------------------------------
--------------------------------------------------------------------------
The library attempted to open the following supporting CUDA libraries,
but each of them failed.  CUDA-aware support is disabled.
libcuda.so.1: cannot open shared object file: No such file or directory
libcuda.dylib: cannot open shared object file: No such file or directory
/usr/lib64/libcuda.so.1: cannot open shared object file: No such file or directory
/usr/lib64/libcuda.dylib: cannot open shared object file: No such file or directory
If you are not interested in CUDA-aware support, then run with
--mca opal_warn_on_missing_libcuda 0 to suppress this message.  If you are interested
in CUDA-aware support, then try setting LD_LIBRARY_PATH to the location
of libcuda.so.1 to get passed this issue.
--------------------------------------------------------------------------
--------------------------------------------------------------------------
WARNING: There was an error initializing an OpenFabrics device.

  Local host:   node2414
  Local device: mlx5_0
--------------------------------------------------------------------------
--------------------------------------------------------------------------
WARNING: There was an error initializing an OpenFabrics device.

  Local host:   node2414
  Local device: mlx5_0
--------------------------------------------------------------------------
--------------------------------------------------------------------------
WARNING: There was an error initializing an OpenFabrics device.

  Local host:   node2414
  Local device: mlx5_0
--------------------------------------------------------------------------
--------------------------------------------------------------------------
WARNING: There was an error initializing an OpenFabrics device.

  Local host:   node2414
  Local device: mlx5_0
--------------------------------------------------------------------------
--------------------------------------------------------------------------
WARNING: There was an error initializing an OpenFabrics device.

  Local host:   node2414
  Local device: mlx5_0
--------------------------------------------------------------------------
--------------------------------------------------------------------------
WARNING: There was an error initializing an OpenFabrics device.

  Local host:   node2414
  Local device: mlx5_0
--------------------------------------------------------------------------
--------------------------------------------------------------------------
WARNING: There was an error initializing an OpenFabrics device.

  Local host:   node2414
  Local device: mlx5_0
--------------------------------------------------------------------------
--------------------------------------------------------------------------
WARNING: There was an error initializing an OpenFabrics device.

  Local host:   node2414
  Local device: mlx5_0
--------------------------------------------------------------------------
--------------------------------------------------------------------------
WARNING: There was an error initializing an OpenFabrics device.

  Local host:   node2414
  Local device: mlx5_0
--------------------------------------------------------------------------
--------------------------------------------------------------------------
WARNING: There was an error initializing an OpenFabrics device.

  Local host:   node2414
  Local device: mlx5_0
--------------------------------------------------------------------------
--------------------------------------------------------------------------
WARNING: There was an error initializing an OpenFabrics device.

  Local host:   node2414
  Local device: mlx5_0
--------------------------------------------------------------------------
--------------------------------------------------------------------------
WARNING: There was an error initializing an OpenFabrics device.

  Local host:   node2414
  Local device: mlx5_0
--------------------------------------------------------------------------
--------------------------------------------------------------------------
WARNING: There was an error initializing an OpenFabrics device.

  Local host:   node2414
  Local device: mlx5_0
--------------------------------------------------------------------------
--------------------------------------------------------------------------
WARNING: There was an error initializing an OpenFabrics device.

  Local host:   node2414
  Local device: mlx5_0
--------------------------------------------------------------------------
--------------------------------------------------------------------------
WARNING: There was an error initializing an OpenFabrics device.

  Local host:   node2414
  Local device: mlx5_0
--------------------------------------------------------------------------
--------------------------------------------------------------------------
WARNING: There was an error initializing an OpenFabrics device.

  Local host:   node2414
  Local device: mlx5_0
--------------------------------------------------------------------------
[node2414.oscar.ccv.brown.edu:2527508] 3 more processes have sent help message help-mpi-common-cuda.txt / dlopen failed
[node2414.oscar.ccv.brown.edu:2527508] Set MCA parameter "orte_base_help_aggregate" to 0 to see all help / error messages
[node2414.oscar.ccv.brown.edu:2527508] 3 more processes have sent help message help-mpi-btl-openib.txt / error in device init
[node2414.oscar.ccv.brown.edu:2527510] 3 more processes have sent help message help-mpi-common-cuda.txt / dlopen failed
[node2414.oscar.ccv.brown.edu:2527510] Set MCA parameter "orte_base_help_aggregate" to 0 to see all help / error messages
[node2414.oscar.ccv.brown.edu:2527510] 3 more processes have sent help message help-mpi-btl-openib.txt / error in device init
[node2414.oscar.ccv.brown.edu:2527511] 3 more processes have sent help message help-mpi-common-cuda.txt / dlopen failed
[node2414.oscar.ccv.brown.edu:2527511] Set MCA parameter "orte_base_help_aggregate" to 0 to see all help / error messages
[node2414.oscar.ccv.brown.edu:2527511] 3 more processes have sent help message help-mpi-btl-openib.txt / error in device init
[node2414.oscar.ccv.brown.edu:2527528] 3 more processes have sent help message help-mpi-common-cuda.txt / dlopen failed
[node2414.oscar.ccv.brown.edu:2527528] Set MCA parameter "orte_base_help_aggregate" to 0 to see all help / error messages
[node2414.oscar.ccv.brown.edu:2527528] 3 more processes have sent help message help-mpi-btl-openib.txt / error in device init
[node2414.oscar.ccv.brown.edu:2527533] 3 more processes have sent help message help-mpi-common-cuda.txt / dlopen failed
[node2414.oscar.ccv.brown.edu:2527533] Set MCA parameter "orte_base_help_aggregate" to 0 to see all help / error messages
[node2414.oscar.ccv.brown.edu:2527533] 3 more processes have sent help message help-mpi-btl-openib.txt / error in device init
[node2414.oscar.ccv.brown.edu:2527529] 3 more processes have sent help message help-mpi-common-cuda.txt / dlopen failed
[node2414.oscar.ccv.brown.edu:2527529] Set MCA parameter "orte_base_help_aggregate" to 0 to see all help / error messages
[node2414.oscar.ccv.brown.edu:2527529] 3 more processes have sent help message help-mpi-btl-openib.txt / error in device init
[node2414.oscar.ccv.brown.edu:2527532] 3 more processes have sent help message help-mpi-common-cuda.txt / dlopen failed
[node2414.oscar.ccv.brown.edu:2527532] Set MCA parameter "orte_base_help_aggregate" to 0 to see all help / error messages
[node2414.oscar.ccv.brown.edu:2527532] 3 more processes have sent help message help-mpi-btl-openib.txt / error in device init
[node2414.oscar.ccv.brown.edu:2527509] 3 more processes have sent help message help-mpi-common-cuda.txt / dlopen failed
[node2414.oscar.ccv.brown.edu:2527509] Set MCA parameter "orte_base_help_aggregate" to 0 to see all help / error messages
[node2414.oscar.ccv.brown.edu:2527509] 3 more processes have sent help message help-mpi-btl-openib.txt / error in device init
[node2414.oscar.ccv.brown.edu:2527534] 3 more processes have sent help message help-mpi-common-cuda.txt / dlopen failed
[node2414.oscar.ccv.brown.edu:2527534] Set MCA parameter "orte_base_help_aggregate" to 0 to see all help / error messages
[node2414.oscar.ccv.brown.edu:2527534] 3 more processes have sent help message help-mpi-btl-openib.txt / error in device init
[node2414.oscar.ccv.brown.edu:2527526] 3 more processes have sent help message help-mpi-common-cuda.txt / dlopen failed
[node2414.oscar.ccv.brown.edu:2527526] Set MCA parameter "orte_base_help_aggregate" to 0 to see all help / error messages
[node2414.oscar.ccv.brown.edu:2527526] 3 more processes have sent help message help-mpi-btl-openib.txt / error in device init
[node2414.oscar.ccv.brown.edu:2527535] 3 more processes have sent help message help-mpi-common-cuda.txt / dlopen failed
[node2414.oscar.ccv.brown.edu:2527535] Set MCA parameter "orte_base_help_aggregate" to 0 to see all help / error messages
[node2414.oscar.ccv.brown.edu:2527535] 3 more processes have sent help message help-mpi-btl-openib.txt / error in device init
[node2414.oscar.ccv.brown.edu:2527525] 3 more processes have sent help message help-mpi-common-cuda.txt / dlopen failed
[node2414.oscar.ccv.brown.edu:2527525] Set MCA parameter "orte_base_help_aggregate" to 0 to see all help / error messages
[node2414.oscar.ccv.brown.edu:2527525] 3 more processes have sent help message help-mpi-btl-openib.txt / error in device init
[node2414.oscar.ccv.brown.edu:2527517] 3 more processes have sent help message help-mpi-common-cuda.txt / dlopen failed
[node2414.oscar.ccv.brown.edu:2527517] Set MCA parameter "orte_base_help_aggregate" to 0 to see all help / error messages
[node2414.oscar.ccv.brown.edu:2527517] 3 more processes have sent help message help-mpi-btl-openib.txt / error in device init
[node2414.oscar.ccv.brown.edu:2527527] 3 more processes have sent help message help-mpi-common-cuda.txt / dlopen failed
[node2414.oscar.ccv.brown.edu:2527527] Set MCA parameter "orte_base_help_aggregate" to 0 to see all help / error messages
[node2414.oscar.ccv.brown.edu:2527527] 3 more processes have sent help message help-mpi-btl-openib.txt / error in device init
[node2414.oscar.ccv.brown.edu:2527530] 3 more processes have sent help message help-mpi-common-cuda.txt / dlopen failed
[node2414.oscar.ccv.brown.edu:2527530] Set MCA parameter "orte_base_help_aggregate" to 0 to see all help / error messages
[node2414.oscar.ccv.brown.edu:2527530] 3 more processes have sent help message help-mpi-btl-openib.txt / error in device init
[node2414.oscar.ccv.brown.edu:2527531] 3 more processes have sent help message help-mpi-common-cuda.txt / dlopen failed
[node2414.oscar.ccv.brown.edu:2527531] Set MCA parameter "orte_base_help_aggregate" to 0 to see all help / error messages
[node2414.oscar.ccv.brown.edu:2527531] 3 more processes have sent help message help-mpi-btl-openib.txt / error in device init

			     GOAT Global Iter 2
		Iter    Min En       Sconf       Gconf   
		        Hartree      cal/(molK)  kcal/mol
		=========================================

		   1    -73.364528   5.994       -1.125
		   2    -73.364531   6.135       -1.174

List of participating nodes    ...  PFHxA_GOAT.goat.2.hostnames

   4     2903.97     57.00    1.00 : 0.50      20        4    PFHxA_GOAT.goat.2.4.out
   1     1451.98     57.00    1.00 : 0.50      20        4    PFHxA_GOAT.goat.2.1.out
   0     2903.97     57.00    1.00 : 0.50      20        4    PFHxA_GOAT.goat.2.0.out
   3      363.00     57.00    1.00 : 0.50      20        4    PFHxA_GOAT.goat.2.3.out
   9     1451.98     57.00    1.00 : 0.50      20        4    PFHxA_GOAT.goat.2.9.out
  10      725.99     57.00    1.00 : 0.50      20        4    PFHxA_GOAT.goat.2.10.out
   6      725.99     57.00    1.00 : 0.50      20        4    PFHxA_GOAT.goat.2.6.out
   2      725.99     57.00    1.00 : 0.50      20        4    PFHxA_GOAT.goat.2.2.out
   7      363.00     57.00    1.00 : 0.50      20        4    PFHxA_GOAT.goat.2.7.out
  14      725.99     57.00    1.00 : 0.50      20        4    PFHxA_GOAT.goat.2.14.out
  11      363.00     57.00    1.00 : 0.50      20        4    PFHxA_GOAT.goat.2.11.out
  12     2903.97     57.00    1.00 : 0.50      20        4    PFHxA_GOAT.goat.2.12.out
  13     1451.98     57.00    1.00 : 0.50      20        4    PFHxA_GOAT.goat.2.13.out
   8     2903.97     57.00    1.00 : 0.50      20        4    PFHxA_GOAT.goat.2.8.out
  15      363.00     57.00    1.00 : 0.50      20        4    PFHxA_GOAT.goat.2.15.out
   5     1451.98     57.00    1.00 : 0.50      20        4    PFHxA_GOAT.goat.2.5.out
--------------------------------------------------------------------------
The library attempted to open the following supporting CUDA libraries,
but each of them failed.  CUDA-aware support is disabled.
libcuda.so.1: cannot open shared object file: No such file or directory
libcuda.dylib: cannot open shared object file: No such file or directory
/usr/lib64/libcuda.so.1: cannot open shared object file: No such file or directory
/usr/lib64/libcuda.dylib: cannot open shared object file: No such file or directory
If you are not interested in CUDA-aware support, then run with
--mca opal_warn_on_missing_libcuda 0 to suppress this message.  If you are interested
in CUDA-aware support, then try setting LD_LIBRARY_PATH to the location
of libcuda.so.1 to get passed this issue.
--------------------------------------------------------------------------
--------------------------------------------------------------------------
The library attempted to open the following supporting CUDA libraries,
but each of them failed.  CUDA-aware support is disabled.
libcuda.so.1: cannot open shared object file: No such file or directory
libcuda.dylib: cannot open shared object file: No such file or directory
/usr/lib64/libcuda.so.1: cannot open shared object file: No such file or directory
/usr/lib64/libcuda.dylib: cannot open shared object file: No such file or directory
If you are not interested in CUDA-aware support, then run with
--mca opal_warn_on_missing_libcuda 0 to suppress this message.  If you are interested
in CUDA-aware support, then try setting LD_LIBRARY_PATH to the location
of libcuda.so.1 to get passed this issue.
--------------------------------------------------------------------------
--------------------------------------------------------------------------
The library attempted to open the following supporting CUDA libraries,
but each of them failed.  CUDA-aware support is disabled.
libcuda.so.1: cannot open shared object file: No such file or directory
libcuda.dylib: cannot open shared object file: No such file or directory
/usr/lib64/libcuda.so.1: cannot open shared object file: No such file or directory
/usr/lib64/libcuda.dylib: cannot open shared object file: No such file or directory
If you are not interested in CUDA-aware support, then run with
--mca opal_warn_on_missing_libcuda 0 to suppress this message.  If you are interested
in CUDA-aware support, then try setting LD_LIBRARY_PATH to the location
of libcuda.so.1 to get passed this issue.
--------------------------------------------------------------------------
--------------------------------------------------------------------------
The library attempted to open the following supporting CUDA libraries,
but each of them failed.  CUDA-aware support is disabled.
libcuda.so.1: cannot open shared object file: No such file or directory
libcuda.dylib: cannot open shared object file: No such file or directory
/usr/lib64/libcuda.so.1: cannot open shared object file: No such file or directory
/usr/lib64/libcuda.dylib: cannot open shared object file: No such file or directory
If you are not interested in CUDA-aware support, then run with
--mca opal_warn_on_missing_libcuda 0 to suppress this message.  If you are interested
in CUDA-aware support, then try setting LD_LIBRARY_PATH to the location
of libcuda.so.1 to get passed this issue.
--------------------------------------------------------------------------
--------------------------------------------------------------------------
The library attempted to open the following supporting CUDA libraries,
but each of them failed.  CUDA-aware support is disabled.
libcuda.so.1: cannot open shared object file: No such file or directory
libcuda.dylib: cannot open shared object file: No such file or directory
/usr/lib64/libcuda.so.1: cannot open shared object file: No such file or directory
/usr/lib64/libcuda.dylib: cannot open shared object file: No such file or directory
If you are not interested in CUDA-aware support, then run with
--mca opal_warn_on_missing_libcuda 0 to suppress this message.  If you are interested
in CUDA-aware support, then try setting LD_LIBRARY_PATH to the location
of libcuda.so.1 to get passed this issue.
--------------------------------------------------------------------------
--------------------------------------------------------------------------
The library attempted to open the following supporting CUDA libraries,
but each of them failed.  CUDA-aware support is disabled.
libcuda.so.1: cannot open shared object file: No such file or directory
libcuda.dylib: cannot open shared object file: No such file or directory
/usr/lib64/libcuda.so.1: cannot open shared object file: No such file or directory
/usr/lib64/libcuda.dylib: cannot open shared object file: No such file or directory
If you are not interested in CUDA-aware support, then run with
--mca opal_warn_on_missing_libcuda 0 to suppress this message.  If you are interested
in CUDA-aware support, then try setting LD_LIBRARY_PATH to the location
of libcuda.so.1 to get passed this issue.
--------------------------------------------------------------------------
--------------------------------------------------------------------------
The library attempted to open the following supporting CUDA libraries,
but each of them failed.  CUDA-aware support is disabled.
libcuda.so.1: cannot open shared object file: No such file or directory
libcuda.dylib: cannot open shared object file: No such file or directory
/usr/lib64/libcuda.so.1: cannot open shared object file: No such file or directory
/usr/lib64/libcuda.dylib: cannot open shared object file: No such file or directory
If you are not interested in CUDA-aware support, then run with
--mca opal_warn_on_missing_libcuda 0 to suppress this message.  If you are interested
in CUDA-aware support, then try setting LD_LIBRARY_PATH to the location
of libcuda.so.1 to get passed this issue.
--------------------------------------------------------------------------
--------------------------------------------------------------------------
The library attempted to open the following supporting CUDA libraries,
but each of them failed.  CUDA-aware support is disabled.
libcuda.so.1: cannot open shared object file: No such file or directory
libcuda.dylib: cannot open shared object file: No such file or directory
/usr/lib64/libcuda.so.1: cannot open shared object file: No such file or directory
/usr/lib64/libcuda.dylib: cannot open shared object file: No such file or directory
If you are not interested in CUDA-aware support, then run with
--mca opal_warn_on_missing_libcuda 0 to suppress this message.  If you are interested
in CUDA-aware support, then try setting LD_LIBRARY_PATH to the location
of libcuda.so.1 to get passed this issue.
--------------------------------------------------------------------------
--------------------------------------------------------------------------
The library attempted to open the following supporting CUDA libraries,
but each of them failed.  CUDA-aware support is disabled.
libcuda.so.1: cannot open shared object file: No such file or directory
libcuda.dylib: cannot open shared object file: No such file or directory
/usr/lib64/libcuda.so.1: cannot open shared object file: No such file or directory
/usr/lib64/libcuda.dylib: cannot open shared object file: No such file or directory
If you are not interested in CUDA-aware support, then run with
--mca opal_warn_on_missing_libcuda 0 to suppress this message.  If you are interested
in CUDA-aware support, then try setting LD_LIBRARY_PATH to the location
of libcuda.so.1 to get passed this issue.
--------------------------------------------------------------------------
--------------------------------------------------------------------------
The library attempted to open the following supporting CUDA libraries,
but each of them failed.  CUDA-aware support is disabled.
libcuda.so.1: cannot open shared object file: No such file or directory
libcuda.dylib: cannot open shared object file: No such file or directory
/usr/lib64/libcuda.so.1: cannot open shared object file: No such file or directory
/usr/lib64/libcuda.dylib: cannot open shared object file: No such file or directory
If you are not interested in CUDA-aware support, then run with
--mca opal_warn_on_missing_libcuda 0 to suppress this message.  If you are interested
in CUDA-aware support, then try setting LD_LIBRARY_PATH to the location
of libcuda.so.1 to get passed this issue.
--------------------------------------------------------------------------
--------------------------------------------------------------------------
The library attempted to open the following supporting CUDA libraries,
but each of them failed.  CUDA-aware support is disabled.
libcuda.so.1: cannot open shared object file: No such file or directory
libcuda.dylib: cannot open shared object file: No such file or directory
/usr/lib64/libcuda.so.1: cannot open shared object file: No such file or directory
/usr/lib64/libcuda.dylib: cannot open shared object file: No such file or directory
If you are not interested in CUDA-aware support, then run with
--mca opal_warn_on_missing_libcuda 0 to suppress this message.  If you are interested
in CUDA-aware support, then try setting LD_LIBRARY_PATH to the location
of libcuda.so.1 to get passed this issue.
--------------------------------------------------------------------------
--------------------------------------------------------------------------
The library attempted to open the following supporting CUDA libraries,
but each of them failed.  CUDA-aware support is disabled.
libcuda.so.1: cannot open shared object file: No such file or directory
libcuda.dylib: cannot open shared object file: No such file or directory
/usr/lib64/libcuda.so.1: cannot open shared object file: No such file or directory
/usr/lib64/libcuda.dylib: cannot open shared object file: No such file or directory
If you are not interested in CUDA-aware support, then run with
--mca opal_warn_on_missing_libcuda 0 to suppress this message.  If you are interested
in CUDA-aware support, then try setting LD_LIBRARY_PATH to the location
of libcuda.so.1 to get passed this issue.
--------------------------------------------------------------------------
--------------------------------------------------------------------------
The library attempted to open the following supporting CUDA libraries,
but each of them failed.  CUDA-aware support is disabled.
libcuda.so.1: cannot open shared object file: No such file or directory
libcuda.dylib: cannot open shared object file: No such file or directory
/usr/lib64/libcuda.so.1: cannot open shared object file: No such file or directory
/usr/lib64/libcuda.dylib: cannot open shared object file: No such file or directory
If you are not interested in CUDA-aware support, then run with
--mca opal_warn_on_missing_libcuda 0 to suppress this message.  If you are interested
in CUDA-aware support, then try setting LD_LIBRARY_PATH to the location
of libcuda.so.1 to get passed this issue.
--------------------------------------------------------------------------
--------------------------------------------------------------------------
The library attempted to open the following supporting CUDA libraries,
but each of them failed.  CUDA-aware support is disabled.
libcuda.so.1: cannot open shared object file: No such file or directory
libcuda.dylib: cannot open shared object file: No such file or directory
/usr/lib64/libcuda.so.1: cannot open shared object file: No such file or directory
/usr/lib64/libcuda.dylib: cannot open shared object file: No such file or directory
If you are not interested in CUDA-aware support, then run with
--mca opal_warn_on_missing_libcuda 0 to suppress this message.  If you are interested
in CUDA-aware support, then try setting LD_LIBRARY_PATH to the location
of libcuda.so.1 to get passed this issue.
--------------------------------------------------------------------------
--------------------------------------------------------------------------
The library attempted to open the following supporting CUDA libraries,
but each of them failed.  CUDA-aware support is disabled.
libcuda.so.1: cannot open shared object file: No such file or directory
libcuda.dylib: cannot open shared object file: No such file or directory
/usr/lib64/libcuda.so.1: cannot open shared object file: No such file or directory
/usr/lib64/libcuda.dylib: cannot open shared object file: No such file or directory
If you are not interested in CUDA-aware support, then run with
--mca opal_warn_on_missing_libcuda 0 to suppress this message.  If you are interested
in CUDA-aware support, then try setting LD_LIBRARY_PATH to the location
of libcuda.so.1 to get passed this issue.
--------------------------------------------------------------------------
--------------------------------------------------------------------------
The library attempted to open the following supporting CUDA libraries,
but each of them failed.  CUDA-aware support is disabled.
libcuda.so.1: cannot open shared object file: No such file or directory
libcuda.dylib: cannot open shared object file: No such file or directory
/usr/lib64/libcuda.so.1: cannot open shared object file: No such file or directory
/usr/lib64/libcuda.dylib: cannot open shared object file: No such file or directory
If you are not interested in CUDA-aware support, then run with
--mca opal_warn_on_missing_libcuda 0 to suppress this message.  If you are interested
in CUDA-aware support, then try setting LD_LIBRARY_PATH to the location
of libcuda.so.1 to get passed this issue.
--------------------------------------------------------------------------
--------------------------------------------------------------------------
WARNING: There was an error initializing an OpenFabrics device.

  Local host:   node2414
  Local device: mlx5_0
--------------------------------------------------------------------------
--------------------------------------------------------------------------
WARNING: There was an error initializing an OpenFabrics device.

  Local host:   node2414
  Local device: mlx5_0
--------------------------------------------------------------------------
--------------------------------------------------------------------------
WARNING: There was an error initializing an OpenFabrics device.

  Local host:   node2414
  Local device: mlx5_0
--------------------------------------------------------------------------
--------------------------------------------------------------------------
WARNING: There was an error initializing an OpenFabrics device.

  Local host:   node2414
  Local device: mlx5_0
--------------------------------------------------------------------------
--------------------------------------------------------------------------
WARNING: There was an error initializing an OpenFabrics device.

  Local host:   node2414
  Local device: mlx5_0
--------------------------------------------------------------------------
--------------------------------------------------------------------------
WARNING: There was an error initializing an OpenFabrics device.

  Local host:   node2414
  Local device: mlx5_0
--------------------------------------------------------------------------
--------------------------------------------------------------------------
WARNING: There was an error initializing an OpenFabrics device.

  Local host:   node2414
  Local device: mlx5_0
--------------------------------------------------------------------------
--------------------------------------------------------------------------
WARNING: There was an error initializing an OpenFabrics device.

  Local host:   node2414
  Local device: mlx5_0
--------------------------------------------------------------------------
--------------------------------------------------------------------------
WARNING: There was an error initializing an OpenFabrics device.

  Local host:   node2414
  Local device: mlx5_0
--------------------------------------------------------------------------
--------------------------------------------------------------------------
WARNING: There was an error initializing an OpenFabrics device.

  Local host:   node2414
  Local device: mlx5_0
--------------------------------------------------------------------------
--------------------------------------------------------------------------
WARNING: There was an error initializing an OpenFabrics device.

  Local host:   node2414
  Local device: mlx5_0
--------------------------------------------------------------------------
--------------------------------------------------------------------------
WARNING: There was an error initializing an OpenFabrics device.

  Local host:   node2414
  Local device: mlx5_0
--------------------------------------------------------------------------
--------------------------------------------------------------------------
WARNING: There was an error initializing an OpenFabrics device.

  Local host:   node2414
  Local device: mlx5_0
--------------------------------------------------------------------------
--------------------------------------------------------------------------
WARNING: There was an error initializing an OpenFabrics device.

  Local host:   node2414
  Local device: mlx5_0
--------------------------------------------------------------------------
--------------------------------------------------------------------------
WARNING: There was an error initializing an OpenFabrics device.

  Local host:   node2414
  Local device: mlx5_0
--------------------------------------------------------------------------
--------------------------------------------------------------------------
WARNING: There was an error initializing an OpenFabrics device.

  Local host:   node2414
  Local device: mlx5_0
--------------------------------------------------------------------------
[node2414.oscar.ccv.brown.edu:2592894] 3 more processes have sent help message help-mpi-common-cuda.txt / dlopen failed
[node2414.oscar.ccv.brown.edu:2592894] Set MCA parameter "orte_base_help_aggregate" to 0 to see all help / error messages
[node2414.oscar.ccv.brown.edu:2592894] 3 more processes have sent help message help-mpi-btl-openib.txt / error in device init
[node2414.oscar.ccv.brown.edu:2592889] 3 more processes have sent help message help-mpi-common-cuda.txt / dlopen failed
[node2414.oscar.ccv.brown.edu:2592889] Set MCA parameter "orte_base_help_aggregate" to 0 to see all help / error messages
[node2414.oscar.ccv.brown.edu:2592889] 3 more processes have sent help message help-mpi-btl-openib.txt / error in device init
[node2414.oscar.ccv.brown.edu:2592916] 3 more processes have sent help message help-mpi-common-cuda.txt / dlopen failed
[node2414.oscar.ccv.brown.edu:2592916] Set MCA parameter "orte_base_help_aggregate" to 0 to see all help / error messages
[node2414.oscar.ccv.brown.edu:2592916] 3 more processes have sent help message help-mpi-btl-openib.txt / error in device init
[node2414.oscar.ccv.brown.edu:2592915] 3 more processes have sent help message help-mpi-common-cuda.txt / dlopen failed
[node2414.oscar.ccv.brown.edu:2592915] Set MCA parameter "orte_base_help_aggregate" to 0 to see all help / error messages
[node2414.oscar.ccv.brown.edu:2592915] 3 more processes have sent help message help-mpi-btl-openib.txt / error in device init
[node2414.oscar.ccv.brown.edu:2592907] 3 more processes have sent help message help-mpi-common-cuda.txt / dlopen failed
[node2414.oscar.ccv.brown.edu:2592907] Set MCA parameter "orte_base_help_aggregate" to 0 to see all help / error messages
[node2414.oscar.ccv.brown.edu:2592907] 3 more processes have sent help message help-mpi-btl-openib.txt / error in device init
[node2414.oscar.ccv.brown.edu:2592882] 3 more processes have sent help message help-mpi-common-cuda.txt / dlopen failed
[node2414.oscar.ccv.brown.edu:2592882] Set MCA parameter "orte_base_help_aggregate" to 0 to see all help / error messages
[node2414.oscar.ccv.brown.edu:2592882] 3 more processes have sent help message help-mpi-btl-openib.txt / error in device init
[node2414.oscar.ccv.brown.edu:2592909] 3 more processes have sent help message help-mpi-common-cuda.txt / dlopen failed
[node2414.oscar.ccv.brown.edu:2592909] Set MCA parameter "orte_base_help_aggregate" to 0 to see all help / error messages
[node2414.oscar.ccv.brown.edu:2592909] 3 more processes have sent help message help-mpi-btl-openib.txt / error in device init
[node2414.oscar.ccv.brown.edu:2592913] 3 more processes have sent help message help-mpi-common-cuda.txt / dlopen failed
[node2414.oscar.ccv.brown.edu:2592913] Set MCA parameter "orte_base_help_aggregate" to 0 to see all help / error messages
[node2414.oscar.ccv.brown.edu:2592913] 3 more processes have sent help message help-mpi-btl-openib.txt / error in device init
[node2414.oscar.ccv.brown.edu:2592912] 3 more processes have sent help message help-mpi-common-cuda.txt / dlopen failed
[node2414.oscar.ccv.brown.edu:2592912] Set MCA parameter "orte_base_help_aggregate" to 0 to see all help / error messages
[node2414.oscar.ccv.brown.edu:2592912] 3 more processes have sent help message help-mpi-btl-openib.txt / error in device init
[node2414.oscar.ccv.brown.edu:2592911] 3 more processes have sent help message help-mpi-common-cuda.txt / dlopen failed
[node2414.oscar.ccv.brown.edu:2592911] Set MCA parameter "orte_base_help_aggregate" to 0 to see all help / error messages
[node2414.oscar.ccv.brown.edu:2592911] 3 more processes have sent help message help-mpi-btl-openib.txt / error in device init
[node2414.oscar.ccv.brown.edu:2592914] 3 more processes have sent help message help-mpi-common-cuda.txt / dlopen failed
[node2414.oscar.ccv.brown.edu:2592914] Set MCA parameter "orte_base_help_aggregate" to 0 to see all help / error messages
[node2414.oscar.ccv.brown.edu:2592914] 3 more processes have sent help message help-mpi-btl-openib.txt / error in device init
[node2414.oscar.ccv.brown.edu:2592897] 3 more processes have sent help message help-mpi-common-cuda.txt / dlopen failed
[node2414.oscar.ccv.brown.edu:2592897] Set MCA parameter "orte_base_help_aggregate" to 0 to see all help / error messages
[node2414.oscar.ccv.brown.edu:2592897] 3 more processes have sent help message help-mpi-btl-openib.txt / error in device init
[node2414.oscar.ccv.brown.edu:2592908] 3 more processes have sent help message help-mpi-common-cuda.txt / dlopen failed
[node2414.oscar.ccv.brown.edu:2592908] Set MCA parameter "orte_base_help_aggregate" to 0 to see all help / error messages
[node2414.oscar.ccv.brown.edu:2592908] 3 more processes have sent help message help-mpi-btl-openib.txt / error in device init
[node2414.oscar.ccv.brown.edu:2592904] 3 more processes have sent help message help-mpi-common-cuda.txt / dlopen failed
[node2414.oscar.ccv.brown.edu:2592904] Set MCA parameter "orte_base_help_aggregate" to 0 to see all help / error messages
[node2414.oscar.ccv.brown.edu:2592904] 3 more processes have sent help message help-mpi-btl-openib.txt / error in device init
[node2414.oscar.ccv.brown.edu:2592896] 3 more processes have sent help message help-mpi-common-cuda.txt / dlopen failed
[node2414.oscar.ccv.brown.edu:2592896] Set MCA parameter "orte_base_help_aggregate" to 0 to see all help / error messages
[node2414.oscar.ccv.brown.edu:2592896] 3 more processes have sent help message help-mpi-btl-openib.txt / error in device init
[node2414.oscar.ccv.brown.edu:2592906] 3 more processes have sent help message help-mpi-common-cuda.txt / dlopen failed
[node2414.oscar.ccv.brown.edu:2592906] Set MCA parameter "orte_base_help_aggregate" to 0 to see all help / error messages
[node2414.oscar.ccv.brown.edu:2592906] 3 more processes have sent help message help-mpi-btl-openib.txt / error in device init

			     GOAT Global Iter 3
		Iter    Min En       Sconf       Gconf   
		        Hartree      cal/(molK)  kcal/mol
		=========================================

		   1    -73.364528   5.994       -1.125
		   2    -73.364531   6.135       -1.174
		   3    -73.364531   6.364       -1.204

		Global minimum found!
		Writing structure to PFHxA_GOAT.globalminimum.xyz

		# Final ensemble info #
		Conformer     Energy     Degen.   % total   % cumul.  
		              (kcal/mol)
		------------------------------------------------------
		        0     0.000	     1      13.10      13.10
		        1     0.031	     1      12.43      25.53
		        2     0.304	     1       7.84      33.37
		        3     0.375	     1       6.96      40.33
		        4     0.418	     1       6.47      46.80
		        5     0.490	     1       5.73      52.54
		        6     0.574	     1       4.97      57.51
		        7     0.678	     1       4.17      61.68
		        8     0.842	     1       3.17      64.85
		        9     0.926	     1       2.74      67.59
		       10     1.032	     1       2.30      69.89
		       11     1.039	     1       2.27      72.16
		       12     1.136	     1       1.93      74.08
		       13     1.188	     1       1.76      75.85
		       14     1.216	     1       1.68      77.53
		       15     1.225	     1       1.66      79.19
		       16     1.257	     1       1.57      80.76
		       17     1.302	     1       1.46      82.21
		       18     1.340	     1       1.37      83.58
		       19     1.353	     1       1.34      84.91
		       20     1.364	     1       1.31      86.22
		       21     1.388	     1       1.26      87.48
		       22     1.486	     1       1.07      88.55
		       23     1.489	     1       1.06      89.61
		       24     1.582	     1       0.91      90.52
		       25     1.607	     1       0.87      91.39
		       26     1.686	     1       0.76      92.15
		       27     1.714	     1       0.73      92.87
		       28     1.740	     1       0.69      93.57
		       29     1.753	     1       0.68      94.25
		       30     1.768	     1       0.66      94.91
		       31     1.824	     1       0.60      95.51
		       32     1.944	     1       0.49      96.01
		       33     1.980	     1       0.46      96.47
		       34     1.993	     1       0.45      96.92
		       35     1.998	     1       0.45      97.37
		       36     2.035	     1       0.42      97.79
		       37     2.161	     1       0.34      98.14
		       38     2.392	     1       0.23      98.37
		       39     2.454	     1       0.21      98.57
		       40     2.470	     1       0.20      98.78
		       41     2.502	     1       0.19      98.97
		       42     2.611	     1       0.16      99.13
		       43     2.614	     1       0.16      99.29
		       44     2.615	     1       0.16      99.45
		       45     2.643	     1       0.15      99.60
		       46     2.811	     1       0.11      99.71
		       47     2.969	     1       0.09      99.80
		       48     3.086	     1       0.07      99.87
		       49     3.097	     1       0.07      99.94
		       50     3.529	     1       0.03      99.97
		       51     3.902	     1       0.02      99.99
		       52     4.432	     1       0.01     100.00

		Conformers below 3 kcal/mol: 48
		Lowest energy conformer    : -73.364531 Eh
		Sconf at 298.15 K          :  6.36 cal/(molK)
		Gconf at 298.15 K          : -1.20 kcal/mol

		Writing final ensemble to PFHxA_GOAT.finalensemble.xyz

--------------------------------
SUGGESTED CITATIONS FOR THIS RUN
--------------------------------

Below you find a list of papers that are relevant to this ORCA run
We neither can nor want to force you to cite these papers, but we appreciate if you do
You receive ORCA, which is the product of decades of hard work by many enthusiastic individuals, for free
The only thing we kindly ask in return is that you cite our papers,
We deeply appreciate it, if you show your appreciation for ORCA by not just citing the generic ORCA reference.

Please note that relegating all ORCA citations to the supporting information does *not* help us.
SI sections are not indexed - citations you put there will not count into any citation statistics
But we need these citations in order to attract the funding resources that allow us to do what we are doing

Therefore, if you are a happy ORCA user, please consider citing a few of the papers listed below in the main body of your paper

In addition to the list printed below, the program has created the file PFHxA_GOAT.bibtex that contains the list in bibtex format
You can import this file easily into all common literature databanks and citation aid programs


List of essential papers. We consider these as the minimum necessary citations

  1. Bannwarth, C.; Ehlert, S.; Grimme, S.
     GFN2-xTB—An Accurate and Broadly Parametrized Self-Consistent Tight-Binding Quantum Chemical Method with Multipole Electrostatics and Density-Dependent Dispersion Contributions
     J. Chem. Theory Comput. 2019 15(3), 1652-1671
     doi.org/10.1021/acs.jctc.8b01176
  2. Neese, F.
     Software update: the ORCA program system, version 6.0
     WIRES Comput. Molec. Sci. 2025 15(1), e70019
     doi.org/10.1002/wcms.7019
  3. de Souza, B.
     GOAT: A Global Optimization Algorithm for Molecules and Atomic Clusters
     Angewandte Chemie 2025 64(18), e202500393
     doi.org/10.1002/anie.202500393

List of papers to cite with high priority. The work reported in these papers was absolutely
necessary for this run to complete.
Our perspective: the developers of density functionals and basis sets usually get cited in chemistry papers
Good! But without the algorithms to do something with them, the functionals or basis sets would not do anything.
Hence, in our opinion, the algorithm design and method developments papers are equally worthy of getting cited

  1. Bannwarth, C.; Caldeweyher, E.; Ehlert, S.; Hansen, A.; Pracht, P.; Seibert, J.; Spicher, S.; Grimme, S.
     Extended tight-binding quantum chemistry methods
     WIRES Comput. Molec. Sci. 2020 11(2), e1493
     doi.org/10.1002/wcms.1493

List of suggested additional citations. These are papers that are important in the 'surrounding' of 
of this run, or papers that preceded the highly important papers. If you like your results we are grateful for a citation.

  1. Neese, F.
     The ORCA program system
     WIRES Comput. Molec. Sci. 2012 2(1), 73-78
     doi.org/10.1002/wcms.81
  2. Neese, F.
     Software update: the ORCA program system, version 4.0
     WIRES Comput. Molec. Sci. 2018 8(1), 1-6
     doi.org/10.1002/wcms.1327
  3. Neese, F.; Wennmohs, F.; Becker, U.; Riplinger, C.
     The ORCA quantum chemistry program package
     J. Chem. Phys. 2020 152(22), 224108
     doi.org/10.1063/5.0004608
  4. Neese, F.
     Software update: The ORCA program system—Version 5.0
     WIRES Comput. Molec. Sci. 2022 12(1), e1606
     doi.org/10.1002/wcms.1606

List of optional additional citations

  1. Neese, F.
     Approximate second-order SCF convergence for spin unrestricted wavefunctions
     Chem. Phys. Lett. 2000 325(1-3), 93-98
     doi.org/10.1016/s0009-2614(00)00662-x

Timings for individual modules:

Sum of individual times          ...      222.958 sec (=   3.716 min)
Geometry relaxation              ...        0.064 sec (=   0.001 min)   0.0 %
GOAT                             ...      221.063 sec (=   3.684 min)  99.1 %
XTB module                       ...        1.831 sec (=   0.031 min)   0.8 %
                             ****ORCA TERMINATED NORMALLY****
TOTAL RUN TIME: 0 days 0 hours 3 minutes 46 seconds 583 msec
end: Sun Mar  8 05:09:24 PM EDT 2026
Retrieving files...
Cleaning up scratch directory: /users/rzwa/jobtmp/orca_jobtmp/PFHxA_GOAT_20260308_170538
