19
-73.3645305319 converged=true
F  -0.00715122133883051847 1.03065459037718487600 1.30285809937902530287
F  -0.02304263444741883049 2.38993777488267067355 -0.34261787694562134687
F  -1.46916921696664104502 1.11849147052543185232 -1.75955453632418445942
F  -0.47658669532864711416 -0.75348035032407967293 -1.46301333882056683322
F  2.37019658605544458752 1.71959411916940663190 -0.02604914392841230220
F  1.68099478599573259885 0.66625300904064199692 -1.77268722022782254655
F  -2.61532559488342553067 0.88497450939326482988 0.82010824881675814524
F  -3.15879201482378269006 -0.60398868445612008404 -0.65464249403585206277
F  2.11826337024806665710 -0.65717354791971438477 1.46716610798536550853
F  1.75578896066449186009 -1.70319625065450863666 -0.40148359878347167351
F  3.52518513250860632269 -0.54749228986116493800 -0.13429538692795639498
O  -0.38897683808420613349 -1.50239226677809978305 1.09370744305355183101
O  -2.49665186828186280721 -1.95712985810571837852 1.72170249680496634248
C  0.12132648508007763677 1.07915607460878537616 -0.03208814010639802344
C  -0.99306905751185281517 0.29628531272403213492 -0.79077816061090089317
C  1.57718299903716041577 0.70268059498322166245 -0.43106437972436800754
C  -2.12575369610898112782 -0.18567722177682893792 0.12937338510391335755
C  2.21466633183579642008 -0.59531871885704557013 0.14982528859110724739
C  -1.60938581384968926180 -1.38227826707136269846 1.12353320670086032074
19
-73.3644812528 converged=true
F  0.49468792103519443337 0.42816311397184769749 -2.16835170225481421724
F  0.11079198637583112519 -1.23486458492568451639 -0.89831227540008429244
F  -1.00254017274501205925 1.86384430270650103267 0.21399378102257748946
F  -1.70609157706373260055 1.23000618493309987755 -1.70877701533541137557
F  1.13891500755591246197 1.05370125057380414901 1.18190208606596836027
F  1.96253700128267527525 1.63374760176759714625 -0.69995184099905982666
F  -3.35251757864038246737 0.51210896194022492711 0.29660143850793269094
F  -2.48753476156385566753 -1.19444618899906740417 -0.71349403094530605696
F  2.85069327762404167714 -0.93574883914496298498 -1.15717421097298300836
F  3.61022295996146791452 0.01934097489994128158 0.60415662263470337745
F  2.17399973210197128282 -1.55847802231692078578 0.78311281549675382241
O  -2.49715579370003304405 -0.98412396180611561025 2.39020849005116664543
O  -0.40958673131956985225 -0.85552851667670304359 1.57467347780313859928
C  0.18905428924035733163 0.10587055165209957597 -0.88672876055008009732
C  -1.18283229095960384925 0.76352170845163391810 -0.54648495711634381689
C  1.41174613431113549211 0.58678272416547017087 -0.03902014567832568642
C  -2.18685556290390969991 -0.17513090105208412028 0.14445331238279837671
C  2.51438938877529416516 -0.50764980606754284143 0.06010288614927454531
C  -1.63222322956776633163 -0.75121655417316890446 1.56909002913807960056
19
-73.3640459653 converged=true
F  0.26536693130957234033 -1.45247825677805697531 -0.44492420826754358609
F  0.41581174448940222410 -0.19096161023926230826 1.31275072838553308330
F  -1.09829887756554711586 1.68646622218033415130 0.34724549417539218865
F  -0.93621363153867931395 0.99615477416302822267 -1.68973771386247073600
F  1.45779794861556455388 1.84020636714900809316 -0.58138857388170050999
F  1.63295342130117582258 0.17334846889722296814 -1.94666748692006641441
F  -3.36774996135980586587 0.48920304829759098109 -0.53149517950026037294
F  -2.28850550980832689874 -1.30536695563135185516 -1.08319727437149548877
F  3.90761833001438807500 0.44136522139113265606 -0.65936279158577248971
F  2.96946769108230368417 0.63436426565500092511 1.25785429349958088885
F  2.92645407051415062938 -1.25080204612729595226 0.21875950174252126179
O  -1.87082527743381210605 -1.89982240750848596633 1.52736318421079375618
O  -2.96531678276825783058 -0.02531605802659775417 2.10453940067309019923
C  0.27967835740913227216 -0.17632643356430438564 -0.02735451485277678313
C  -1.03162136181216390618 0.56612705317370848324 -0.40196200696273132191
C  1.54143145128796366095 0.50046839061330417042 -0.64604624008038136207
C  -2.29436381716734549840 -0.27823156394401704627 -0.18698210402139739394
C  2.85736382535534261251 0.06489483030991342882 0.06409593154901699341
C  -2.40134855212498798949 -0.81339331011086846157 1.36650956007067159170
19
-73.3639335922 converged=true
F  0.57426259728585415942 -0.92777127131745162902 -1.54336161284592465748
F  0.16835982759467435499 -1.28618904892816199315 0.53029869582275734885
F  -0.94165934583681076830 1.70268098932501588116 0.06353995089541748797
F  -1.07861615212288319832 0.83733179884145414462 -1.89103919201934589367
F  1.41109936896429899456 1.03263482393643646340 1.26109998777173148987
F  1.57256383424119561276 1.65564489677299553350 -0.80639868423155447452
F  -3.35460737838760358898 0.36126888893873920772 -0.68045862424937131330
F  -2.23653268288068973746 -1.49497564679190420023 -0.68325313269294862817
F  3.84099567839812960912 0.50587206688165620161 0.44702774189672406235
F  2.83102952192356571715 -1.38589399205074825794 0.42156103875319911323
F  3.19447250852520125974 -0.33365233058872512117 -1.41572531741267382266
O  -3.50624800139490799822 -0.76780058600840461747 1.87107994970348245900
O  -1.43736662681051186041 0.06933242703415132269 2.11124665272009615080
C  0.29373795166630489728 -0.30527412868404446566 -0.37584443172773668307
C  -1.01491804975626798146 0.51646676648476852467 -0.57143205956109499599
C  1.51429738753319664823 0.58029993763277032404 0.00439861769587709429
C  -2.26882619648507244392 -0.24833289459199861526 -0.12360404564217220003
C  2.86640707663773897096 -0.18301603849471007046 -0.13678610902587048925
C  -2.42875131929537113606 -0.32872665849184407039 1.51765057414941972880
19
-73.3638642723 converged=true
F  0.56308581260941370505 -0.55036342398147530819 -1.81199069527078471253
F  0.14758573863974747131 -1.38983749278801016480 0.11143395583655119063
F  -0.93090958862288708531 1.71868905844725872178 0.21786227131481009089
F  -1.20530791606238385505 1.08568552441808718889 -1.80812873521687089706
F  1.31817356994670231707 0.91578772529632346266 1.31522294763977631860
F  1.63712687690727398682 1.70519549475278009432 -0.67379776368589450186
F  -3.39026313895214626015 0.50783300693678368187 -0.44385320368205960495
F  -2.33310850601358188428 -1.33722299845854886158 -0.85749862105875129803
F  3.80845918217280887674 0.47344910234710846364 0.47199646010408530250
F  2.76108746195172782834 -1.39555123731830921230 0.56510224921203411341
F  3.15195181722471184926 -0.47135609374509657155 -1.33461113613131465705
O  -3.31500739960514279048 -0.99995662083503833450 1.91349326305823042027
O  -1.20112482333545078639 -0.25517579432326925604 2.04113644117136994183
C  0.27046420507848606407 -0.21961698517148850462 -0.53274542756201781479
C  -1.04822170963508654040 0.61324724249321516112 -0.54380754668719344380
C  1.48689539436221296320 0.56590788952626391861 0.03429249538009770948
C  -2.27504001218117135608 -0.19947762774834995603 -0.10317040771256777432
C  2.82078555703583866432 -0.23275636781906741679 -0.07013963559651179014
C  -2.26693252172104520170 -0.53458040212918855882 1.50920308888700804850
19
-73.3637503767 converged=true
F  0.62316773181389573111 -0.13717164025999059596 1.60607299487097288093
F  0.34269409127153288575 1.61844979639912001090 0.37985593588804295040
F  -1.13572078936740350485 0.40108900644270067959 -1.37965297369732775579
F  -0.57836099818266095696 -1.57865438761423759750 -0.71248528117894860401
F  1.52085074400382724846 -0.05470008049285107754 -1.78509177527414553133
F  2.09445705411462812506 -1.36275123789781860140 -0.15931588364764850962
F  -1.81731565284729890131 -1.32236873825821588113 1.61404795123181465932
F  -2.08609949365993241344 0.81603088765212095090 1.36997813598812645530
F  3.07818957979889873400 1.02252043350662669141 1.17327378890773159625
F  4.06670546735196936083 0.31696513293093964148 -0.59457557423590923218
F  2.77812595081542568209 2.02779703514087428218 -0.70465357229111991177
O  -3.58662739504131433677 -1.81214363804020006654 -0.44420572711711214797
O  -4.09207248093841879921 0.37453001618541936768 -0.35354814789845867562
C  0.45461573363609408815 0.27685664897437367582 0.33759029667415418885
C  -0.84431854602692746337 -0.32964348685369765368 -0.27946944609208740351
C  1.73746984293051864867 -0.10211872578128076972 -0.45951127708787203874
C  -2.04581695498739879469 -0.35722492223679946921 0.67814038862555758858
C  2.93573791621352553349 0.83985801782831637219 -0.13412632209249783499
C  -3.44598180109893181822 -0.63742011772539797221 -0.15232351157325205171
19
-73.3636160537 converged=true
F  0.81716060711414784112 2.10515471648189667064 0.60212758660227638785
F  -0.09073744309886726256 1.94923343964432760345 -1.34522048637078395217
F  -0.95148383317528317793 0.52737954594324276680 1.71201466872055574342
F  -1.88290284228785109732 1.95501347998915520066 0.41476383009996803386
F  2.18814890907815406962 0.93263220120734002805 -1.40092695653345988838
F  0.84565248998450437412 -0.71801420551912531476 -1.51032541881301463071
F  -3.23183917535315101688 -0.14791822645819246995 -0.03409263285524018194
F  -1.78213883298075526085 -0.17249275527047663870 -1.64121391902533586560
F  3.29289805260244472507 0.23632484863557473576 0.59874683708045239872
F  1.55874960390377959030 -0.30721590181305136191 1.69664063496310713042
F  2.42566386924418120330 -1.68434021843455772327 0.27162203242191057528
O  -0.19287920481409298601 -1.75180605277754297688 0.52145470365856461115
O  -2.21859105842070025716 -2.66154509030019559290 0.18559870773272901801
C  0.21256537559451613162 1.23417170372249818122 -0.24036841726697913413
C  -1.13656649316823821216 0.81643948318587200585 0.40874992365472617717
C  1.30326424594511425248 0.21001110516874019196 -0.66460764697505514409
C  -1.90630271223522851365 -0.31692133151754986464 -0.28724840478063873306
C  2.12760500789116546727 -0.41961249719556620308 0.50724515198312103426
C  -1.37856656602378380150 -1.78659424479238615469 0.20503980570309643383
19
-73.3634502594 converged=true
F  0.54499915657762842969 1.34004245782438791146 -1.97169993015179945139
F  0.13436729286781901038 -0.70961426764811508239 -1.58465417021201848691
F  -1.14006784853834153282 1.91480570154010876216 0.39552836444674782657
F  -1.84791694827020114289 1.44518460653116509462 -1.57461280996661212583
F  0.90386861261172246618 0.91651707459672593359 1.30865367601953042076
F  2.12771276967649480838 1.61700208749137441799 -0.27797352620727783234
F  -3.25089818366477611988 0.31303669478209394939 0.51577948607149581850
F  -2.43828744078508030668 -1.05311925962246055732 -0.95376045118662888811
F  3.50617806024003453302 -0.31525689601070489010 -0.25315025013748354565
F  2.48934157347973838981 -0.95277273672668061355 1.51247099928494277421
F  1.96533236509701692007 -1.76334772978658005371 -0.40793589757898429671
O  -2.04130128412772071655 -1.42963742895939338595 2.16717931074910641343
O  -0.15521969246815289778 -1.29048821971993254998 0.95963754051339922313
C  0.19829653357376544887 0.48355065936907565272 -0.97658033111076825161
C  -1.22266220326445407274 0.90587901385950664324 -0.49519773117648574479
C  1.34420203126020232354 0.57192636398923069052 0.08986930315434817074
C  -2.08381357840637848611 -0.23304786974387881049 0.07950785993648208649
C  2.30614761797176859304 -0.66239715892724382318 0.23386145183180134799
C  -1.34057883403108779596 -1.09836309293869072157 1.23307710572020767792
19
-73.3631894066 converged=true
F  0.77212160608834901065 -1.51171805408985804320 -0.17667774290987842134
F  0.18985382606727044252 -0.06188424277274785085 1.32285407420731826456
F  -0.87229086565381841467 1.09152543180131411660 -1.55115224339568813505
F  -1.15536729479945066146 -1.03308026036480526955 -1.64969188540756173111
F  1.17638153970357905997 1.97930337941106082589 -0.19049799209719867066
F  1.65397309817189652748 0.61290718807117949840 -1.80503370543653729463
F  -2.04719832829898207294 1.20420577770702119658 0.92957991230041148167
F  -3.28176755866941682882 0.41931361349441403918 -0.66658094250902466538
F  3.75117747366612430682 1.30604009365607209858 -0.15859397807616099074
F  2.78897202980941916195 0.37785908576734533737 1.51651030510478790347
F  3.32969979932570359082 -0.79402851242206196059 -0.20485261270639185116
O  -1.64675580895640849555 -2.07325104234759738375 0.94890946698655309621
O  -3.60907023579002750324 -1.19725700533376744339 1.59504429223323263010
C  0.34769195451044193623 -0.24964277727073400093 -0.00103789867448904360
C  -0.98686236379431313548 -0.02200613050000933130 -0.77739415489223495648
C  1.48865173787873139588 0.70241149655297641097 -0.47296086634194967058
C  -2.22021678938404276593 0.10770915663427857445 0.13233075069153130143
C  2.86002790636698822624 0.38184256690853340954 0.19202741967363615161
C  -2.53932172644200537803 -1.24034976500260851751 1.01721780124964045200
19
-73.3630545350 converged=true
F  0.73615842040490997444 -1.42245790115484060934 0.18342815422328065389
F  0.19656800680242464407 0.31289049471135627067 1.36658007030888928313
F  -0.88422699125514447882 1.02585165403456657351 -1.56260561367493600038
F  -1.05861865845010272302 -1.11692797185801762083 -1.50885341051388244260
F  1.28538771038094545851 1.98862504658074623620 -0.41557321116354190016
F  1.60866463741682341748 0.39830504750542883308 -1.85182221894207321711
F  -2.16212501003859403070 1.21551586985909709782 0.90109962296062229292
F  -3.27752551572500872012 0.35361742060096978957 -0.73993250084439143865
F  3.79891405898547329656 1.23074407671214025584 -0.30806896042583803430
F  2.85877914069794769603 0.40745602420907384156 1.43317341927790953271
F  3.32036052961374661407 -0.85718890594294905316 -0.24504470758868454605
O  -1.57723330426674679394 -1.78371472185833090940 1.45427492935104996086
O  -3.77717034637759629945 -1.45885129081497910697 1.15774582030423545120
C  0.34597281826544640237 -0.13859016226350048817 0.10956030136117378415
C  -0.97564772044375869253 -0.03194599624337285393 -0.71191534258011268665
C  1.51315191202206533738 0.66949507288409881856 -0.53761062671155723791
C  -2.25814739581925172374 0.09310155110973360182 0.12690552069859661888
C  2.89384780101561744914 0.34879943807838953429 0.10865109895866439937
C  -2.58741009342919925373 -1.23482474624962601517 1.04000765500060343705
19
-73.3628862871 converged=true
F  -0.28579545493507785281 1.25234892004943443311 1.27962916574163942940
F  0.40057146330086185193 1.89075516912243046797 -0.63759767705424519324
F  -0.99862710018058620243 0.40028196234614193960 -1.87740560537239087324
F  -0.35209967854248297447 -1.35467664590278635828 -0.83421191769025460072
F  1.54324480118837015219 -1.11862232391270022269 0.80988960504241636063
F  2.21793548881542257334 0.86453172304682601723 1.30986713624245454390
F  -2.69732837008307457793 1.05485047490164962625 0.24056974200837566435
F  -3.07490805747486106725 -0.82678200536608814630 -0.76154959463520577323
F  1.80002712673123888010 -0.14569106820740962416 -2.01593588304229109909
F  2.99711567394351874327 1.38478175406327697061 -1.10274256618516286466
F  3.48714898979850351779 -0.67890596827505289568 -0.80432674086374089661
O  -3.18848501998580813321 -1.28612664353190875310 1.99818041320773365221
O  -0.94895303157473620548 -1.20143489893655242007 1.86509476888736758227
C  0.18843422766642964339 0.78275269451636231288 0.11645370090244121231
C  -0.84526945149867904750 -0.11532305735360307009 -0.63071457998886704122
C  1.58775590643012320946 0.13990949872369742857 0.36218622929503346830
C  -2.20286211634388573444 -0.20856871505488855378 0.08493998957189498322
C  2.47856496126584691098 0.17587913241950389742 -0.91936865264222555894
C  -2.10677035872110485215 -1.01006000274837570707 1.51704246657503794005
19
-73.3628755599 converged=true
F  0.27660483102856586735 1.72735311840104110992 0.76183866092772956069
F  0.65921078219789486230 1.58263897248355500658 -1.35303364319607077881
F  -1.91888737412730070453 1.24924549720712740886 -0.70530474570548939983
F  -1.01997556118055721086 -0.46912353988239002822 -1.65639527579461032225
F  1.40489695684021342892 -1.22549449658274967057 -0.78516621968724575886
F  1.41649904376420732177 -0.58736912600847657195 1.28812824092487110406
F  -0.88054246007516268069 -1.83711168521268009002 0.63237273834351537261
F  -1.36015077872168510531 -0.09166327168214422061 1.82767439315596624816
F  3.15986419679270369443 0.62854186696860148142 -1.48746998852706746597
F  2.97696567407077150591 1.69085986434344182072 0.37218970509262072621
F  3.83120078723498691531 -0.27611860861636661202 0.33697378299753333319
O  -3.93483705605220146495 -0.29033528937348013210 1.10333073945230020207
O  -3.42219289902699852490 -1.84501368390711917300 -0.43476098413843861090
C  0.33522644160244535749 0.85471834016972636494 -0.25951405802961324820
C  -1.06828803581071740680 0.21679012896688920620 -0.49594473133339989079
C  1.48514389454535788992 -0.15169359003203522485 0.01936909044961202669
C  -1.60851451784805377088 -0.68322127861580184138 0.62507417614061122624
C  2.88936407722837129697 0.49363062377912170220 -0.19505519473371693562
C  -3.22188800266282626694 -0.98673384250628715098 0.40569331366092581392
19
-73.3627209853 converged=true
F  0.98232207442487062821 -0.72612804202780922846 -1.74792959508181700023
F  0.32886333193281352960 -1.62076915664453791166 0.09338313854348197218
F  -0.98341803015832340851 1.02810892374341666944 -1.81534854607639095647
F  -1.64975369843574104500 -1.01277637403442022368 -1.64909026637306599383
F  0.94975277194002249992 0.52277131507077756467 1.51827372104019153731
F  0.97835009296242025911 1.82257797149913636225 -0.21430066163488015185
F  -1.47770278154780831947 1.41520841018301157810 0.90105557276545555911
F  -3.18645405814113269471 0.78051039383883491496 -0.26771440776995214517
F  3.44080371271982476955 0.95558054370653411347 0.92846149592600701883
F  3.03295665554829829702 -0.99957659597191383938 0.14610487446150810520
F  3.15620321399780667804 0.68896993031092912396 -1.17786076134389205983
O  -1.42699744325288202518 -0.96142230014739482602 2.17665406762106128369
O  -3.13334975540572369113 -1.67453652111228845634 0.90055847629585084047
C  0.34872296053609902478 -0.45898153442852346329 -0.57852197024897666910
C  -1.09145485446163714727 -0.00805095525118308501 -0.93847346450644641980
C  1.21604870983418655861 0.56584269835457734477 0.20658745679682316565
C  -2.00105199797542665507 0.34035633525631386886 0.24339179742726005373
C  2.74101976735242480743 0.28881300886340488532 0.01869323597759003572
C  -2.22516067207005274753 -0.94659805130887086921 1.25607583618019291727
19
-73.3626373214 converged=true
F  0.30616087319774887288 1.41384273872227517188 0.97758054306206676465
F  0.53143901710240148972 1.91446398950845875220 -1.09995735379624726136
F  -1.81605491912755234729 1.12393809583632497962 -1.19814455606763936579
F  -0.82197415985593791365 -0.76124989661985165146 -1.51564192062376390524
F  1.87435456126029564849 -0.16727590046011850400 -1.70256187204892550646
F  1.28983389939054293727 -1.31565052153657169320 0.03211100200745097694
F  -0.88901706440331418335 -0.94714021341262522036 1.47224171608632725672
F  -2.30967213028765527838 0.68212611965261871205 1.32122027079688741935
F  3.88188153747422237672 -0.21032526122332240170 0.00489756585107986152
F  3.01100620486732095671 1.74450106404929861093 0.13423427468038406918
F  2.64961090424561751533 0.29936476679054219163 1.68518869870447240977
O  -3.95999491887773569232 -0.85918308735370574336 -0.26512020233704997052
O  -2.62842298928511786116 -2.59128530030064485601 0.25723193143091721558
C  0.32764189405102589481 0.88060816199777847135 -0.25794032523694898629
C  -1.04141567498074616438 0.20338557422638636751 -0.59189322654103326826
C  1.55033861594825728147 -0.07219764426066929697 -0.39963207017051949332
C  -1.78768129544065024206 -0.36747267981121484182 0.62553191544713715455
C  2.79466381790919626837 0.45609199908192005202 0.37603643361966820891
C  -2.96299817338785986820 -1.42664200498691573493 0.14461717513573835170
19
-73.3625934556 converged=true
F  0.39245497579187460513 2.14703776250994859964 -1.40026682844592076371
F  0.34421775046165370426 0.07964137895649611720 -1.96118870106749487725
F  -1.27870750237435704122 1.64447654732864800842 0.76444164318753293763
F  -1.97057450324943750353 1.50393838336427254632 -1.26474594826250830160
F  1.25279936831069305114 1.14815180226370938676 1.27633192202932099768
F  2.46130307249427549010 1.41747763970467977046 -0.45374782953530667928
F  -3.19949877421350814544 -0.35177016579170583555 -0.07806147220271802967
F  -1.55516650897415842358 -1.38672393594781540038 -1.02721798489813087585
F  2.45412930130288975406 -1.12962349161593333946 1.27717964412695783594
F  1.16264011265728006705 -1.73480035326923442973 -0.34638380785712891141
F  3.05483207860872241213 -0.86617777998634815084 -0.75303570489361837392
O  -0.15894980363505128995 -0.88727688624607081724 1.58822223502268311535
O  -2.22688567815378135606 -1.60525234985477083249 2.08857437715696647729
C  0.23413180203910460841 0.89803056127842162404 -0.89770049674942420381
C  -1.21592705194845263073 0.86032933617206652777 -0.33370715157854541344
C  1.45157001483759739990 0.66059852102255023354 0.04947015641965118310
C  -1.84830433230792756660 -0.50855159879591227412 -0.02530430138494449074
C  2.00495338684090418369 -0.80478953045246015563 0.07879028120472453267
C  -1.35931770868827661580 -1.08481584074054970834 1.41834996772790944419
19
-73.3625778574 converged=true
F  0.32655214542054039617 -1.69236477693202802541 0.59065497763762753181
F  0.35571931269582796054 0.31649843905282243339 1.39411834118886535094
F  -0.55411798509789267353 1.07091752098669590332 -1.36917846816430777146
F  -0.93981805493927172979 -1.03983186059202825646 -1.57495344256147951079
F  1.65971946319729024566 -0.25676082679282530297 -1.78314695664428368715
F  2.63554429474927109922 -1.08053303403851952424 -0.05228130828461904217
F  -2.07209484754989636812 1.20082144943807533899 0.89559464909765595930
F  -3.13515256045742374269 0.33861215761552654335 -0.78314116294430002885
F  3.35565629953282096309 1.53043442963113274224 -0.95809761333288367968
F  1.49703381518240741244 2.23658168717634220357 -0.15726895147628522365
F  2.90550910037073073511 1.22840075649763247334 1.11595942257068037051
O  -3.03872151170712934132 -2.13213811183617352185 0.36002605223262879042
O  -2.06737835511992207316 -1.19141374895314022808 2.15364375563593446472
C  0.38302160845448440796 -0.39226491327812151866 0.25088709994221225497
C  -0.83117987155992700821 -0.05762964922940301549 -0.65811606131820754584
C  1.75818056578918513466 -0.14024595296172048808 -0.44879424622788466337
C  -2.14556108044512416910 0.08233222336024240140 0.11996268581806185383
C  2.37931930762966237225 1.24730448301894458751 -0.10247535872374316512
C  -2.47253164634559974289 -1.26882027226342630755 1.00660658555432802608
19
-73.3625274183 converged=true
F  -0.18823142110210344669 1.70339535009658238351 0.83831029443393945133
F  0.76450672723976298428 1.69845714446764994854 -1.06689899380637664983
F  -1.36974344632578293179 0.94045152268231557713 -1.86791298276777384402
F  -0.58574379468479764732 -0.99524192979773951073 -1.37620471476616246242
F  0.97978411536848997176 -1.34989642206127968826 0.49873417805931913316
F  1.74055039250038801057 0.34944330930951211789 1.60719987074853554176
F  -2.72567429370671110433 1.11108859626173162027 0.46565281430312227551
F  -3.17278327134157445144 -0.67294020234104978684 -0.67606882517221400519
F  3.46756771200371627373 -0.96540417526414534777 -0.14668639641997080481
F  2.27863316301386209517 -0.30107124547657226898 -1.80197695464013518674
F  3.22247307897568946444 1.13092994978478844637 -0.50128176352936160143
O  -0.90712346087619866175 -0.54286908690946433786 2.03620950438930625737
O  -2.59258290913015443380 -1.95344700205407351135 1.57896130012342061910
C  0.20979353813691226094 0.87697536951195342869 -0.13583400946077520133
C  -0.99645371003503468987 0.16448272203015201764 -0.81702752119047716839
C  1.34534461066747934588 -0.06155243968830780010 0.39293163442638029403
C  -2.20787386970510857154 -0.09718437647592571837 0.09291004754829662593
C  2.59921794745055434461 -0.04003085437976702798 -0.53843428739615750711
C  -1.86196110864940833629 -0.99568622979637688708 1.41741680511706924506
19
-73.3624564303 converged=true
F  0.24689133459108009161 0.79444136483907956681 1.41844677238880123582
F  0.66604621058675628209 2.20277096000783778607 -0.12795207546833090029
F  -1.88977280930503455103 1.87258618372469731739 0.12693856546328999291
F  -1.14127048486344406797 1.20627679491762340724 -1.78769597009847536206
F  1.77818067585090244798 0.68870119201107105056 -1.66692439687589288866
F  0.77690028087085050146 -1.11835162520434194811 -1.11300657056862117855
F  -3.33325326427296664278 -0.10844823953670897076 -0.37049466506424116874
F  -1.78483426964159019867 -1.24114902201228360923 -1.36337578164179884510
F  3.44272401695696794732 -0.91152442840737146756 -0.39356974285371176814
F  3.00814812094877792603 0.81289065276776339974 0.80376083208873538855
F  2.19867831046138517692 -1.10176883160011929164 1.33867499353123675654
O  -0.50912381845769072441 -1.64646436082360114739 1.09773735074217593244
O  -2.57397508350286319256 -1.27664634279019084673 1.90182382107035441443
C  0.23429736927892783060 0.93289268509817824260 0.08347556393876319480
C  -1.21349041106289590175 0.86741615790538995068 -0.47335286135162979448
C  1.28049522645131541587 0.01008431155173701056 -0.60640225417281590214
C  -2.01376633681562200451 -0.43560876017841182462 -0.28637360394644484352
C  2.48893999762852935476 -0.31590631143471059605 0.31925147812566745387
C  -1.66211506590341318024 -1.23229238093563764345 1.09903854469293849050
19
-73.3623953778 converged=true
F  0.80195682355836273025 1.93305900033392408233 -0.09713375089104699101
F  -0.38540615234737407580 0.93113908103084619405 -1.54974645766426233351
F  -0.33561643445549821374 -0.46879240071986072458 1.62784497984513487623
F  -0.91143986064277049408 1.59112509028241144726 1.51251791761537446313
F  1.66048986325460123936 -0.43738712271244700736 -1.83195261466991077270
F  1.08473229024754425076 -1.53373868717522521266 -0.06219421339808342553
F  -3.01330142946778156698 -0.05931711900052583780 1.38245928848252264132
F  -2.74103712143507172172 1.04580989984493655243 -0.45761054503668435745
F  2.40821357877703379202 0.53587766442433892866 1.45864508901202083457
F  3.53598450552211485132 -0.84349872303155648545 0.26611636138695693443
F  3.25427414415323479346 1.16449142219435475276 -0.41776391436704907179
O  -1.17494226949073032884 -1.50651830144847775905 -1.22059518468204042385
O  -3.19825247152412694973 -2.05068317276614164868 -0.41693626936168448616
C  0.21292390410438855053 0.73755418837924158204 -0.36759086907657850807
C  -0.81644276012124195052 0.45788123476653652677 0.77092302264990886229
C  1.36629811833600278703 -0.30905544550640490220 -0.52708098350076015848
C  -2.21144378617202574944 0.02868399184782798039 0.28507460233526693560
C  2.66322904492924195097 0.15558327485475498264 0.20978446079782456235
C  -2.20051998742588317270 -1.37231387569854312858 -0.56476091947690554296
19
-73.3623745409 converged=true
F  0.53070386101306321613 0.47500105055003183363 -2.34300774670602018901
F  0.19868816550114423714 -1.29540539316522407276 -1.21572822865894969446
F  -1.25601902515984620301 1.88679257164539460057 -1.01484137949406383328
F  -1.99051541207731808036 0.05678374029522206129 -1.89175975713582555926
F  0.69013579443871431174 1.32197783940730118069 0.86967834166163182630
F  1.96348295680320550360 1.54422740059041463390 -0.81949313730536599287
F  -1.89564923691117570570 1.20355455698370850115 1.31661532149063287278
F  -3.28560271304021078720 -0.01097599869966495861 0.19442278296496917633
F  2.18662696683807222797 -1.63561331258789777188 0.15820093161825066197
F  3.53171545494385652475 0.00215662816074666365 0.06670629175227102414
F  2.34228131595385136166 -0.26664108570462369263 1.81482717137220306292
O  -2.12946601654662126535 -2.01492898366234074459 1.51866482006982961295
O  -0.10370874296774713896 -1.07645916979395628310 1.28234402795394308860
C  0.19092838103823964180 0.04046153107166918644 -1.10147900082517202769
C  -1.26243817437629224365 0.54017698232855848595 -0.85870145223027705139
C  1.26014681611202350453 0.61914583938392675488 -0.12003570843662231260
C  -1.96008451348409939996 0.14260372010883456961 0.46140009219141275842
C  2.31597739443647299140 -0.36585421256711447846 0.49669434824609526302
C  -1.32750327271535595308 -1.16710370444501010390 1.18549228147105556452
19
-73.3623570917 converged=true
F  0.98266933621672480914 1.98604444430939919286 0.14159181575537171938
F  0.34452959502283020399 1.03174241955073875410 -1.67609400733912949910
F  -1.03994545253404302443 0.89842484050753934621 1.55874992943222023811
F  -1.58448945671048635475 2.14106547493593346587 -0.10642021418531222299
F  0.90160497497867642114 -1.39995777230441986738 -0.74637244881063646851
F  1.07609887295570172405 -0.69210704178026061228 1.31195502593482071774
F  -3.24370263122159130376 0.38091993960355385873 -0.58786710317027568440
F  -1.58714388327424638092 -0.66445820556193113671 -1.50326058005913565374
F  3.23135354807492092277 0.71632305523386186064 0.76405724932970242591
F  3.43752282711095347167 -1.19199301505296073600 -0.18990055467524619148
F  2.97601798192638744567 0.54261071351644463157 -1.36117689931691776550
O  -3.27820844700116342807 -1.41593577362009614973 1.36129063400807948092
O  -1.20347895461511078530 -2.11222955967553627232 0.85604804724952832107
C  0.35681522833574103037 0.88513427889570761575 -0.33918345239732622387
C  -1.09809307092939945072 0.91264151759272837960 0.20620912417420322882
C  1.22727692345946048924 -0.35101604441879519225 0.02178462007461325414
C  -2.04183824333663466177 -0.19038151642910416950 -0.30525366420908162102
C  2.74666671738897738564 -0.05902497662715578547 -0.19909403230928260364
C  -2.20395586604767679262 -1.41790277877566373022 0.79293651051378544192
19
-73.3623180739 converged=true
F  0.33437423616669836868 -0.14685438279496243474 1.56385940417697244520
F  -0.42567282526454902625 1.72661234147038444853 0.78277161257598004696
F  -0.46878770958505844302 0.28345182684437203458 -1.82335455150768144250
F  -0.18814014792833302914 -1.48310335499458378905 -0.61840812099993514028
F  2.25167316792749572230 1.58849309661680160310 0.92345899129853337151
F  1.51886485165713769341 1.83214138889047850611 -1.08900319626077446422
F  -2.67620419698226497118 0.99978955496089283450 -0.38181641076315803174
F  -2.79687362115269655405 -1.01717877455262972752 -1.16031771275848916147
F  3.75615549641570778405 0.17536617301319465390 -0.64837725482234798147
F  2.48479082920307847715 -1.23460831600193965407 0.34588871343704347128
F  2.12155088503220490281 -0.70732361159176904142 -1.71161318823496677588
O  -2.42937495430192385015 -2.05152881980846935051 1.34553684357488934076
O  -2.51167507887019203494 0.05068850690318350144 2.13378989378196770588
C  0.18157789828745421468 0.57794874332357448754 0.43843293189170678970
C  -0.67393358800844194167 -0.22372610639957543621 -0.57667206917908608865
C  1.60495657253677226350 0.95430396230612213326 -0.07458135249938191436
C  -2.16613627379990525412 -0.25326097518747586745 -0.22237617172398704835
C  2.49726137626531397018 -0.23694405025087617034 -0.52904785675288545921
C  -2.41470691779847523861 -0.83436720284672794001 1.30182949476560505531
19
-73.3621618069 converged=true
F  0.64587356091897196730 0.12265369809525364375 1.59822234154456488397
F  0.34835525170461173472 1.68074516215654989892 0.13536006350795901088
F  -1.06421737695297413673 0.18483824001243315260 -1.46838478722482146388
F  -0.58964184913091388651 -1.65422326906375016797 -0.41922366382404807617
F  1.53023878992124506837 -0.30721809622097806525 -1.76781100543083447008
F  2.10924433762580276763 -1.34050733129199706184 0.04191961316340509641
F  -1.77382674492793501742 -0.61736566116466973231 1.89971722772179285599
F  -2.30016109196937179604 1.17914162240683095817 0.80155475368708195560
F  3.08773074610756692593 1.22225408088776954507 0.98380811049189420547
F  4.07013313798941478439 0.26339857682544959294 -0.66442503525092511119
F  2.76965368641886922063 1.93082494088516809505 -1.02198111255875101477
O  -4.15726404914362479559 -1.30760870946198881626 0.97773630088394591908
O  -3.48199323565144469583 -0.97893811305608868789 -1.13568954600196758697
C  0.46257108886722730912 0.34626211811017681974 0.28543501561267137223
C  -0.83725045776047213320 -0.33700856583678456824 -0.24620791129130503716
C  1.74486490606034316819 -0.14392853186323009695 -0.45173666478353458054
C  -2.07269907805347264329 -0.16068111511927965496 0.65144587862377656418
C  2.93832562575599132160 0.84327347717648992731 -0.27998778582444694418
C  -3.43023724797978823986 -0.92601252357735164278 0.08024820695355389111
19
-73.3621576310 converged=true
F  -0.15159697503965943732 2.09405082191358937749 -0.24934265135152403059
F  -0.00886996216594181271 0.47634347123380693656 -1.66642883116917128739
F  0.05280830774962101681 -1.25124804033224701350 0.76743242188381211033
F  -0.57561241190460199491 0.54506820880275685948 1.79313759793750215898
F  2.05962356622615860857 0.41682417234757074276 1.13357492990977992697
F  2.31628283237193333122 1.96419965453832245927 -0.33986044466301440492
F  -2.55218358835793157624 0.80935987560906696991 -0.37667887790306819884
F  -1.98668475393672916418 -1.21576971925353416459 -0.90791809376751786420
F  1.89840460876601202500 -1.41925440679782455256 -1.18311081104840809530
F  2.60361891566171044232 0.26852843512077073651 -2.31303811793961644483
F  3.74658688363260372611 -0.46586917779096964631 -0.65472255836691206632
O  -3.63874553495171904061 -0.07935993384548607754 1.90718820002681344050
O  -2.73825417681063854047 -2.11259116562564930319 1.59039386622659661974
C  0.24017753546189515856 0.81543474042815144998 -0.38610806212593357101
C  -0.58730352364509175178 -0.07614363710817761977 0.59269886858470355318
C  1.78005523759374284509 0.74524418591710406279 -0.13818318432524967498
C  -2.03111557856427493718 -0.34000508771831899901 0.13659131234984431269
C  2.51167366132347158469 -0.24654350962420509830 -1.09188319800310096319
C  -2.93916504361053476657 -0.92836888791471527949 1.38625763374445676313
19
-73.3620102413 converged=true
F  -0.36661118380521801052 2.10876465398481061086 -0.24817833537527775323
F  -0.13036438692766533221 0.66264835352442885696 -1.83463228385696930367
F  -0.24327780999198689305 -1.39274693464457977043 -0.23811754427785358779
F  0.05299754880668752083 -0.21864468532023659253 1.55359956277609767561
F  2.00623439773333966940 1.43077459746601309831 0.85131486872993500370
F  2.13252565123216175635 1.93820284084093019672 -1.24075276564656244993
F  -2.27597933215146008834 1.00476091063663752756 1.34569628412120434469
F  -2.58569358210767674677 0.34092574341998371779 -0.69561079006388670809
F  2.37570718723622098523 -1.17777458265832435380 0.33076104647912774048
F  2.07960527440535702937 -0.89897645898142863885 -1.78647518698921170532
F  3.77289132610991195804 -0.02170014787382083810 -0.80862997303670525184
O  -2.54133200689011040652 -1.59379015310247562631 2.25857253612894570693
O  -3.27913840239516130026 -2.08764625012880067345 0.19513483775277512544
C  0.14366867840798511202 0.89681449356551801166 -0.53709530966656793272
C  -0.53189899445407784473 -0.20174106595338098247 0.33877404405747979510
C  1.68925906379592905004 0.99792530740016283097 -0.38048845221121935234
C  -2.05223563265976061132 -0.03971099253254151834 0.49846510208456629165
C  2.48202517754352092183 -0.30975979854281976422 -0.66720970746179963928
C  -2.72868297408800142279 -1.43842583120009548381 1.06487206645592435983
19
-73.3619693815 converged=true
F  0.03936246206977518647 -0.83652657443531108772 1.53498156981575717417
F  0.67961937820260964749 1.19703066447312789222 1.17555198138317318346
F  -1.03136012639285579162 1.56450884691115055247 -0.55651056672552612348
F  -0.35859375652846553484 -0.12114539357300503630 -1.69566063920222909189
F  1.48168957442525583978 -1.56730857974697657120 -0.85127380619171988396
F  2.50470299161257736742 -0.93427803388991670364 0.92863562877854599620
F  -2.93467460177240013763 -0.37679308929448679377 -1.11990590702759762465
F  -1.76769199227942119812 -1.84883762652428829121 -0.04312917081719513240
F  3.26527327793955723934 1.28114814224014939015 -0.02396705424830785150
F  3.28858896406739464879 0.01827823183696150947 -1.75746068786611320256
F  1.70992928393361043327 1.44466221210395739938 -1.49021907729857550073
O  -2.06134661928025364475 0.83906937386738900120 1.90076514697255261055
O  -3.81765615472741082215 -0.51617891135390270296 1.56036827864857619019
C  0.38315592103694684489 0.03347130519155577799 0.56782673652330839520
C  -0.77801590598143210986 0.24783249505577581440 -0.45200501300692602635
C  1.70466672651156292417 -0.50205789263092770458 -0.06624427226072344965
C  -2.06041474844240557474 -0.51444187095722981873 -0.08174439726486557034
C  2.49765393285853054550 0.58542619906824100440 -0.85447387189565204846
C  -2.74518860745312043292 0.00604050155774227444 1.32446512168351060446
19
-73.3618434938 converged=true
F  -0.07166860656242546312 0.24883398818018506726 1.77208552712375122518
F  0.35474198508966126031 1.83565645056377202415 0.37073021234348163544
F  -1.15128338930110296623 0.86458062006792368859 -1.34388883268924819170
F  -0.03164718550475061759 -0.96442201415690154143 -1.33914927695434715638
F  1.74214834620855296698 -1.39616915052326873159 0.49524434268863620767
F  2.49024563994748016071 0.43134110756315274804 1.34925780502655601190
F  -2.59682513100259981798 -1.45712674749398685137 -0.85079210004836391956
F  -1.40985289774111799410 -1.82811138218912438980 0.92235320082265981334
F  3.54335354308015526570 1.01246030403752618199 -0.77596710247952027650
F  2.79779676097332252738 -0.78713223702916246260 -1.66707185013178360578
F  1.66938514916777358543 1.03292185962919180753 -1.80741479615761679867
O  -3.88831100058497636240 -0.34043497411898365756 1.39973130200171880233
O  -2.43565831809237076655 1.33337264853902093265 1.04318010939849736829
C  0.29474753337442360923 0.49947349804337914936 0.50122989435211973142
C  -0.71190016035252823290 -0.10479002023732600368 -0.52301843670987679946
C  1.74250396570199561630 -0.06127328092849457231 0.34417983232640075864
C  -1.89877423859900673619 -0.82341125944349968790 0.13528540764951757502
C  2.44267832335449019965 0.30645691245053935381 -1.00696455591328581924
C  -2.88198031935695242467 0.19767367694603110717 0.98098931735070249438
19
-73.3617993292 converged=true
F  0.45558156906592012225 0.20424907365597494424 1.39262911858125959519
F  0.03402066725333307423 2.08604014105996293793 0.41017653185972802188
F  -1.61651734306761540871 1.14375232151216743581 -1.15624560046719704332
F  -0.39421523586036327780 -0.54243930910026449954 -1.67082837323302757504
F  2.47545141955540071166 1.65615319079635603394 -0.01897558118831669735
F  1.54203726788811423809 1.02677800648699291131 -1.84801555376829984567
F  -2.66857256929685116020 -1.36701973125706288670 -0.63817576378614970789
F  -1.04842403765874903065 -1.78404669568332074903 0.73556537675522881692
F  1.57260310620625864964 -1.69187341691143400269 -0.46586987885014891075
F  3.30965788958931117492 -0.79234640279370938121 -1.34300659822119228259
F  3.01668054840861588062 -0.70554219505572879356 0.77933712783212727437
O  -2.13195752008529249011 1.10735607037962968668 1.69269373915263554586
O  -3.57712221492358484198 -0.60278089724193195664 1.84122700806480876778
C  0.28883212384925083249 0.78751283200049226885 0.18877458299277036224
C  -0.89109541789502388909 0.15046029695745047339 -0.60809010297953680624
C  1.66500749134987580113 0.71791197642011339575 -0.54754644051615042333
C  -1.80329554225238908316 -0.76456104052998152820 0.22677702217767703452
C  2.39286060658037369464 -0.65121425328435067481 -0.39175286955031490832
C  -2.62183280890654568651 0.02151003248861908801 1.42132625514412369583
19
-73.3617575213 converged=true
F  0.21984421891856620324 -1.65866654389221013233 -1.24629007407767500304
F  0.54891409725049511437 -1.12966138418845973845 0.82680239646490549799
F  -0.45012315557716231496 1.60727638474704526139 -0.58256265637803306134
F  -1.47756513379757747906 0.07409944775186072530 -1.67917461527521694187
F  1.56053339795524492750 0.86771199554697864276 -1.87899259060498935447
F  2.60597778921520450979 -0.86517718216476413584 -1.15989480845423531541
F  -1.24362668732501213675 0.38297063948365628328 1.83146566305496505400
F  -2.76982516907890552460 1.19265168950086231092 0.52957357503847024560
F  1.45698464310834241431 1.50529450158322197773 1.12855063371655894855
F  3.07036450911457103885 0.09062995098994136578 1.14245857957845120545
F  3.17405301798580818939 1.82351541783063031410 -0.11599994910534930370
O  -3.82161844350933943559 -1.22553340717118519620 0.97109452965509290845
O  -1.91930618214358617024 -2.20597481162859532233 0.29750947203090316595
C  0.37780437845561920529 -0.62215905233401780361 -0.40837479992345598889
C  -0.86708034315011395243 0.31312293808839786191 -0.50059148293848043654
C  1.71627804981842890797 0.08142418858239997004 -0.80240422197556204864
C  -1.88297964895672786945 0.16455741360403139395 0.64359849728018947435
C  2.35507392936101522807 0.89486394569251925812 0.36464194983229236691
C  -2.65400326784485196541 -1.29104613212235319608 0.63858990208118859844
19
-73.3617374079 converged=true
F  -0.16866285791006491168 0.63332857953229582115 1.66041984140126386293
F  0.03989197248936320050 1.87510486361605477335 -0.08831802161392308947
F  -0.47094496055542667268 0.00690328927930006220 -1.77969456929560099212
F  -0.19017237340739720497 -1.60389664369926232546 -0.38345188820494935378
F  1.98782009950996574332 -0.86692967399924258931 0.95197895794483056164
F  2.36815124575900615156 1.25454615148076631392 1.06563781313167771359
F  -2.57415803802838372150 0.99663016283231586900 -0.29392907174975119178
F  -2.83558898949843474213 -1.04159682342428738799 -0.98992446273780443367
F  3.72119169543419880952 0.30668044535037708442 -0.93360749485363425659
F  2.08708570439641905025 -0.81790917084276659743 -1.74014700660686938427
F  2.04948133508983865170 1.33385679135453516508 -1.79450616653530614641
O  -1.84203271667803725187 -1.79268094320747839454 1.75513573689715407511
O  -3.25865609287895630075 -0.07322754693863192665 2.03193711993168557584
C  0.21354730789523007628 0.61853980864762758696 0.37020980968661032495
C  -0.65833156035531970041 -0.34675568188490685229 -0.47411325178003393965
C  1.73780759022645359124 0.30399079076077734074 0.34480726054534011071
C  -2.14265893573968257968 -0.28029001861444385879 -0.09087520270013182966
C  2.39839628161535012296 0.28036555294346710010 -1.06523912461749725722
C  -2.46246670756413887915 -0.78675993328651960823 1.45367972115695831548
19
-73.3617135589 converged=true
F  0.43305026844623606408 -0.19893039526753125701 1.52796838668459100674
F  -0.22613811996860974651 1.74178983201887160881 0.83975926230880182377
F  -1.23934597858364359269 0.92717620520434951281 -1.33723336004969972635
F  -0.05782449465244237502 -0.86799642767182094705 -1.44282975467865526298
F  2.33934229354724942951 1.64087948693217144935 0.59895932305113652738
F  1.50227404587601998109 1.47140034759315541102 -1.37766734851367478321
F  -2.66110534423067601750 -1.38136213855454625943 -0.91016207709110374946
F  -1.39858483800420163590 -1.89526272798551631560 0.77222620166222410987
F  3.72355108333689788225 -0.30400703032522025104 0.08529557075578468595
F  1.99748091609073052943 -1.56719390014296111602 0.04684740640398114137
F  2.70100073969189713452 -0.65413234618781623819 -1.76327879330141756853
O  -2.30266557878705002693 0.31028346872578221882 2.15386140536391357259
O  -3.78577842476157977458 0.60917561012529464204 0.49395709166484647046
C  0.25434066542349176299 0.55250566472462148138 0.43026111024167346120
C  -0.75058372519458704808 -0.07323203245657068650 -0.57561533335202197392
C  1.65113572112828754790 0.81776322552674596267 -0.21249335185020148953
C  -1.90561967493048523004 -0.83330716017037720356 0.08360577079448547333
C  2.52392761327795200899 -0.45991570392123870548 -0.46311772399480150009
C  -2.79875716790549722290 0.16426602173259749473 1.04965621390014685055
19
-73.3616231673 converged=true
F  0.49825359561559173782 2.06767354154771343389 0.08348520086054216083
F  -0.67660502250717802220 1.05739223499693935082 -1.39075715000248467668
F  0.01314774003433832016 -1.10820857113024340279 1.02709975455267010780
F  -0.34698356275316727393 0.79117378127803617005 1.95607337701105543637
F  1.93338823440582041613 0.95511389427791026918 -1.84365060732857144465
F  1.20118471285884620414 -1.02941911459619639402 -1.45425483041437630938
F  -2.62005303119441190773 -0.52103036526396806494 1.78323752091065257375
F  -2.63870438520579675412 1.14172894525783408248 0.39568220212331572938
F  2.75058925163329393015 -1.32262576823061372977 0.46354426886304755939
F  3.70383823066738626650 0.46464278635473721391 -0.23069143584834911342
F  2.27254567219970926573 0.57001063049603117872 1.35337688116343146660
O  -1.46447528186727216060 -1.48265438651663172820 -1.24302949731129741551
O  -3.63825868519672335211 -1.39799336913303640095 -0.68771510947595548835
C  0.13914935612491613481 0.83580761908232215074 -0.34755827674808803529
C  -0.57582047639582711884 0.08965717708956610910 0.81678707791664828530
C  1.43645847856790376262 0.15271485788667449324 -0.87745925311484795905
C  -2.08813861486329388484 -0.09067318403980201280 0.60328160029046029589
C  2.55352514939611952016 -0.03806732341085512089 0.20482025725086219770
C  -2.45334136172021155531 -1.13534338604643503245 -0.61227198069871235919
19
-73.3614327673 converged=true
F  0.61220421931700663709 -0.23130600968433556730 1.30682019637912727461
F  0.25408540614646457634 1.71810324642035960885 0.43235159854972704530
F  -1.09667083465207459980 0.46308070501552539566 -1.69636495906257889210
F  -0.79524477788685798973 -1.43864263438280337581 -0.73764753708879471361
F  1.55647771277964364067 1.22667026423838199101 -1.72528369935135894586
F  1.59965283651751799532 -0.91472450148169226480 -1.45034748276339220396
F  -1.89179028085745937204 0.85829222799376314601 1.48384250038959164542
F  -3.08660873554104009386 0.87528529224152418209 -0.31704173466822765937
F  3.18925086989074335619 -0.72089173709698717296 0.68722137118207882178
F  3.94787228342989715557 0.53435186696643910409 -0.87692503518945641439
F  2.95112492637785006622 1.41464982505345271413 0.80521457796319839684
O  -2.27238854528091405172 -1.82379057070249928074 1.79753517088545256009
O  -3.83397834588207775397 -1.66135928308343139292 0.18995503754173265198
C  0.36469133004137277432 0.40579903484344226339 0.14941085195068695701
C  -0.95624437816614271668 -0.11774046012228427116 -0.48331414539692407750
C  1.59702125328553190542 0.25629597169000428725 -0.79407651454343375352
C  -2.21000828110027258688 0.11021282287251470133 0.38857126297914285074
C  2.94460321294014226723 0.37476908214509974115 -0.02005721676110777327
C  -2.87434987155935273151 -1.32915514302647053135 0.86013575700452216122
19
-73.3613747927 converged=true
F  1.34048243376425912921 -1.57166338530454474665 0.15017172213229215694
F  0.26124950643109728921 -0.52602033123108205004 1.68235856682365780834
F  -0.42060029762019290889 -0.65064409678303603002 -1.78177516535091440275
F  -1.13683389613200969137 -2.02290452633428996521 -0.29907219402760815141
F  1.31423292073988640105 1.61276055047748179128 1.09386770452576098656
F  0.71001949514474860248 1.48759629665428194656 -0.97522314611813665230
F  -1.42593282361099116251 1.31119004752063506025 0.53128869873298822935
F  -2.46405708579871074448 0.69354138898770822941 -1.26541068356562069752
F  3.37687803690639487542 1.70090669444950237654 -0.65317166278310734295
F  3.45844283754181036628 -0.06204589727761788964 0.56229412433349379441
F  2.84662131653579297819 -0.19581736504890243089 -1.49923456192140691634
O  -4.07789213468831324150 -0.81401103258683527031 0.24355921320676610087
O  -2.64180597867624245012 -0.72636558656606386997 1.96939292270208898827
C  0.52444149038449550115 -0.51334046247411013741 0.36975391042206240400
C  -0.76374376295372525814 -0.73292635276062345628 -0.47183054691011544479
C  1.29672817157849151748 0.80266467525150053675 0.02313389174794228120
C  -1.92375537275165497952 0.21219630962232979843 -0.11546468471165011183
C  2.77459061131526185662 0.54453818198211567658 -0.39956863114945256887
C  -3.04936546831035837357 -0.54975510867845611696 0.83493052191096106540
19
-73.3613552572 converged=true
F  -0.18191866851726812282 2.19624093793141605957 0.32253136723597158886
F  -0.24304175242835696080 1.07764799030996361040 -1.51658915491421897315
F  0.19886137558696556638 -1.26723410921578216737 0.36437089232652358772
F  -0.41840076741921278236 0.16424690431997454598 1.85826316791263224104
F  2.16090967379090193035 0.82317601036658860636 1.04806207805201867522
F  2.21053150784392249406 2.11618309972909468542 -0.67536145882113463035
F  -2.60714884700714844001 0.82156050734087204823 0.01778330576048993070
F  -2.00306606196567571487 -0.94935603766854625984 -1.08080466054182133817
F  1.50371555748818153120 -0.74616459236953136536 -1.93282386669650629862
F  3.38144812859640442326 0.26744525778836630847 -1.77621350835441194072
F  2.82601434742861146177 -1.16903539704643333330 -0.28990546890195029173
O  -2.39661445321895660854 -2.51168006399666055017 1.17893746889049921833
O  -3.46105598276289283532 -0.72500282467228271965 2.02795930815343083964
C  0.17250386895595479220 1.02412854524178986715 -0.23837963526958494409
C  -0.51723506268170382771 -0.13557711430602994995 0.54468890972043226828
C  1.72737685875493962584 0.94487162536420632453 -0.21834685374066420405
C  -1.98367727884120448323 -0.38177980214162909878 0.15869389860749474885
C  2.35795584713445416369 -0.20651885887718074430 -1.07209301612423280048
C  -2.72745829093789460273 -1.34325207819817094013 1.27922722670503197229
19
-73.3613457292 converged=true
F  0.07861140932660545810 0.21004861116946921262 1.79579304649117932335
F  -0.09512979819871780762 1.69226321923171063588 0.22844448950601292658
F  -0.32664812705862927844 -0.38343710795781799083 -1.65916410903404987209
F  -0.23751880153534374318 -1.82284019201025437873 -0.05782792252109215936
F  2.21761851510915919405 -0.93980836242035903361 0.57023772213466783487
F  2.41948533045613212167 1.15544547115525864101 1.04264655840346698312
F  -2.49362417666647928627 0.83396173951724394957 -0.56823128329974326167
F  -2.77788138032529730026 -1.29527586167812969187 -0.85085675537226512777
F  2.24329420813895241693 -0.52042692513693677991 -1.97585086594927905601
F  1.58965683945184221848 1.52804816160304701711 -1.83205925898084265313
F  3.55637713269731214893 0.97589369266144043724 -1.19159628900963365794
O  -2.41178254380870216167 -1.70773097777764282235 1.89600853834203975090
O  -2.85016791832709381893 0.49105816309341177028 2.03902220188946703416
C  0.26246261673411602766 0.41949576399939791926 0.47755828066373051666
C  -0.61637174185381338187 -0.56180865520446798822 -0.33877668371335084574
C  1.79483543910411857958 0.28769441806073026147 0.22201548815153226979
C  -2.11830952474024414300 -0.38114070848252151746 -0.07946095265532879259
C  2.28917817043230220619 0.57514206060503580975 -1.22935390348931949944
C  -2.52438564913618002095 -0.55668251052862338657 1.51145169844279680937
19
-73.3612870213 converged=true
F  1.04465527535265634285 1.07410084099788627476 1.63766386061836199950
F  -0.19844984115370115085 2.08753799905602299702 0.21458713648781777006
F  -0.18939899331731213650 -1.40265381814470257993 0.59863743037814687309
F  -1.13916960176987558384 -0.08219396523446287350 2.00981018447630210844
F  1.60659365997792646930 1.63001760827469666104 -1.39254314621931141183
F  0.89051699961840691255 -0.40077319421877266592 -1.48467223791171343272
F  -2.75981323660900379480 0.96217650024717304991 0.32162126305635874157
F  -1.58194335165425092882 0.42734607160976789686 -1.41336547859907146751
F  3.41532419078958726644 1.02467440480524185631 0.46754747071913427270
F  2.59081687312618536012 -0.93351394507412288615 0.80296631647132055143
F  3.47715823149270830683 -0.44530479567732483837 -1.08936167185994725592
O  -2.64413508545274211770 -2.02831530539476778685 -1.36272474199697590791
O  -3.43275156866621466989 -1.70819100022687808682 0.71639829657107367833
C  0.35805534851450748768 0.89595343887484635292 0.48673178254410931487
C  -0.75212849828180439182 -0.17659036705373390430 0.72334645419490606333
C  1.36804957503348001424 0.53452785463118079878 -0.64783650391824454395
C  -1.98037992037099241927 -0.03147847869015084343 -0.19196091530586797957
C  2.73691564344181292867 0.03175869280317644705 -0.09620074269697236058
C  -2.81021570027133549274 -1.45917854168508842605 -0.30064475700941839520
19
-73.3610868222 converged=true
F  -0.04275822253553216573 1.43832296211905297234 1.21822631376573697892
F  0.90042076361867062761 1.82163239257653719605 -0.65843671274314008457
F  -1.62676145066755450941 1.67210101054856563607 -1.00073874582116850718
F  -0.60061055329927948154 0.03201303229508314224 -1.96038994752060791171
F  0.75503603710065869681 -1.50953947683275035985 -0.03150414897837626460
F  1.65292870527225299604 -0.35627604645942045902 1.57382304635459968623
F  -3.25473391596747019250 -0.15363519927468399784 -0.62016600216968109649
F  -1.77703149683849792595 -1.72830191342451899850 -0.54679652236516473884
F  3.35063367161593328447 -1.22671039478598054018 -0.40483884166768924207
F  2.31752712516158476674 -0.03910907389089737785 -1.85902112890988591154
F  3.28649160585329269679 0.90203163331843183581 -0.18330373031378349724
O  -3.00510035375560491389 0.10210960879375276245 2.02600987585148795134
O  -1.01362495847215106082 -0.93722094976271053124 1.99049669873427559352
C  0.26936216896584425085 0.85094370338129432518 0.05472920242524254020
C  -1.01143357082727547436 0.49515937580708685450 -0.75009409470312915502
C  1.27914103185394467666 -0.31480113388321878665 0.28621377944251702452
C  -2.03198971014404561330 -0.46372526743917374947 -0.10500568184396101568
C  2.58048773217133886604 -0.15619645416889765821 -0.56257681808408122048
C  -2.02828460930606846446 -0.42889780901758944864 1.53337345854681439405
19
-73.3607185180 converged=true
F  0.20971475982503950952 1.72250712017409135512 0.62704981462341191634
F  0.87179335611314245913 1.49997871344995470366 -1.40902285688649575590
F  -1.65791450644032933859 1.59916619086488509538 -1.44754848599397845099
F  -1.09222374949341793915 -0.43436920623910091344 -1.84654961670852912903
F  1.12027878378193013198 -1.37226487233913019281 -0.78402098656446217451
F  0.87524752377927317326 -0.72559698531688443524 1.28515221013463598609
F  -2.24465666064393110091 1.01809601927529014276 1.16035197838878301191
F  -3.36161018133986866374 -0.09503334472043896419 -0.32682541339859738638
F  3.42838334666894306579 -0.76391500847724458367 0.73439014179587336351
F  3.19043115723175452203 0.21518557812978575394 -1.15750055023937181709
F  2.86047268732732851149 1.30209493339516679811 0.66444813053754814280
O  -2.01581632543301836336 -1.42309750657383693451 2.17672658961037379655
O  -1.30423718623165130204 -2.24875974093743202786 0.21417291583348413431
C  0.26967111286277595239 0.84281282445666449998 -0.39030593939963698080
C  -1.16356225877649888112 0.47277699955579677304 -0.85607169858912290916
C  1.20130849795501393196 -0.32215993945839083157 0.04435528957346925039
C  -2.12404412291265964896 0.01009100733066851593 0.25141920884701396410
C  2.69829347492099946848 0.12509564865426128777 0.07211305647322889534
C  -1.76182970939485494810 -1.42270843132410251819 0.98766621196234249958
19
-73.3606195994 converged=true
F  -0.27902323003519813316 1.93911243132760691132 -0.81115335680552713704
F  0.04371145894358621775 0.01703156629546116047 -1.72705726627275124585
F  0.05387748847117099921 -1.05318196868914149000 0.99682637080388958317
F  -0.56199852632795654905 0.93686742278901491421 1.61143666305969901487
F  1.99490753195670378339 0.78912194985440331507 1.03315255510959613794
F  2.18071324271105915216 2.01413336384583852023 -0.72704426896363516519
F  -2.70249749093377911180 0.84774287438717099707 -0.11712101005442014656
F  -2.07223406715967506386 -1.09316190288951031739 -0.85430287175749286543
F  2.08615724636993338237 -1.49944640956496177964 -0.78893223541629864393
F  2.64526420853199262240 -0.06621456995318918126 -2.29321470071635857835
F  3.82086646159695142444 -0.26723412445505251300 -0.51296557984344226533
O  -2.47204637946356831080 -0.71423518618679304737 2.60057982989965585929
O  -3.72851261876797934747 -1.80678459016165327000 1.09680876241596148013
C  0.20394719106549774601 0.70543555899548027188 -0.58020602489227135479
C  -0.60169854698884950306 0.05825839286834581798 0.59057459223949060334
C  1.73460452339276471889 0.82331546913178710323 -0.28373729421184828992
C  -2.05820043564692944926 -0.29997810886978493183 0.25310255547259868925
C  2.57893511578947620677 -0.28273297950858994332 -0.98482520028887898800
C  -2.86707317370517689170 -1.04814918931642075961 1.49807848022203016214
19
-73.3605947661 converged=true
F  0.15940343124456948787 2.07284775224699702179 -1.43880779398637437261
F  0.36897216997267928695 -0.01188298813526910205 -1.90863271192911843066
F  -1.20999629140184827847 1.48660888910743738123 0.86421820254938108707
F  -2.08399419423515475103 0.87153347760830857105 -1.01107424299124071254
F  1.27393090650506279893 0.86948090391659671461 1.30682959023470401938
F  2.27549730260566018814 1.90100456647614923789 -0.28635866559191575087
F  -1.21078132637424573659 -1.72107109219264975408 -0.62091451822972876240
F  -0.31126395177976057260 -1.15567004465525036139 1.26860264815983070363
F  3.03089958629975697590 -0.28878683542714472798 -1.48095528743374615921
F  3.39766604307634256799 -0.50752900469717554532 0.62001408258853218936
F  1.78163064313736607680 -1.57639929943928236433 -0.30118491379186157486
O  -2.75924343723866094535 -0.66235495370435515383 2.33726352822037597434
O  -3.69224856879078577876 -1.28924832696348534711 0.39215108203263454589
C  0.24130827718136740878 0.84794024834482373265 -0.87877988948602347996
C  -1.10243796975780661285 0.57747777660411603318 -0.12844634612135566454
C  1.53523242177623653326 0.80836048640967161916 -0.00699568978639203941
C  -1.32738164727343677107 -0.84099567352020021538 0.41279464223573203441
C  2.44085673162060690089 -0.42739372829809912924 -0.29704720448156529677
C  -2.80835012676792228348 -0.95402215378115917677 1.15732348780813065758
19
-73.3605439582 converged=true
F  -0.21272788429913594421 2.12989550667080029811 0.23079172902573880100
F  -0.13652496286002138715 1.08435847885884228958 -1.65513246435265326539
F  -0.27009439837733367762 -1.28476964491388945255 -0.56835317323912715182
F  0.04876478629796721781 -0.54923173665975644209 1.44756438791759167728
F  2.12199884863032162130 1.06487422789990038297 1.04054686269599572235
F  2.22737796842175361789 2.03977495847082224145 -0.88027768695940789012
F  -2.26657791553263621154 1.00559658300876253456 1.23934919764545847798
F  -2.59933941352651176615 0.21469580632784879271 -0.75420108065172819511
F  1.96755433290727377305 -0.59892532293891842521 -2.05635923722299551741
F  3.74611684539690825702 -0.03994999789666585366 -1.00086865110766187748
F  2.33758655616730237625 -1.35668187693209341127 -0.06985454805948979051
O  -3.76168026421398282721 -1.12224368900823878725 1.78384849789013322230
O  -2.23067499647232247995 -2.46922131107570441699 0.84947883175003913170
C  0.19202634104989257935 0.98660743146977292195 -0.35215201886407659915
C  -0.52893864737854856539 -0.25278236041412183166 0.26241429609739136408
C  1.74551141093926287517 0.95105403279597400257 -0.24465010696147992952
C  -2.04528306334189879934 -0.08834660029424448724 0.45827077410169586580
C  2.44768250014337018783 -0.29513332954323406865 -0.85674101762335785892
C  -2.78307804415168069667 -1.41967115592586190509 1.12632540791791013746
19
-73.3603690579 converged=true
F  0.99679975340958903995 1.64139461035964506763 1.41291110598242597440
F  -0.27891889173941492031 2.26003161966574728226 -0.20456797211314375895
F  -0.01525433519650308892 -0.86363864229522924187 1.38896638335697453215
F  -1.45008262905030504974 0.72138233000028006980 1.70097976191600430695
F  2.22869724776152011714 1.81445890513414909151 -0.94451564724975356491
F  0.88474938035911598888 0.42203723980834084717 -1.88864486574629997229
F  -1.92181156550162168806 0.49424661657690283079 -1.22979136689909140934
F  -0.84997228442662542403 -1.38077513125683504214 -1.04368095645793723669
F  2.73838239730103971681 -0.29430096329187221960 1.01472854712870685923
F  1.80996247594839809736 -1.60712587509592830237 -0.41706972637786221547
F  3.48045432299075852001 -0.39806607808315053187 -0.99167267418431048753
O  -3.93750303495480213911 -0.53525735527220064114 0.20248599635537062325
O  -2.65220044767073570569 -2.24527628791059230551 0.88939571196040401180
C  0.35553423030796321713 1.19074165649234786635 0.31052939579957722360
C  -0.68757332016270344965 0.12295266460050727209 0.75637382203267633507
C  1.43838787344231944232 0.74385490641263074529 -0.70979747029861206542
C  -1.58793346139993474253 -0.47676219964883803648 -0.33539032705504201459
C  2.37189230414025731264 -0.41874348798779548186 -0.25568951502501946482
C  -2.92391001575832110149 -1.19125452830811506821 0.34444979687492310871
19
-73.3603641660 converged=true
F  0.83552559966091721755 1.36006149926831176877 1.59034609102568502692
F  -0.41214992933200361724 2.10356456945392267244 0.01292262492913022302
F  0.04172475023232807834 -1.29478585243197974464 0.00817529993249553784
F  -0.74009297946142171831 -0.50349157664809074397 1.85672611420398325777
F  2.00647642367255185647 2.04488910757142461350 -0.86979105381408772235
F  0.98902675262181871663 0.39133125003216595594 -1.79746985990992502735
F  -2.69181037093684594197 0.86487349175431327275 0.55301953303295425801
F  -1.84671563714112285659 0.34193193293440737879 -1.37876815050744072622
F  3.73542935608912163303 0.56198207993431026352 0.00512508072436593763
F  2.33809886082649676098 -0.67037325303509964769 1.05253831992257129713
F  2.81062734099371747121 -1.09029703245487219476 -0.99948693096067897645
O  -2.63553178105455687685 -2.21907784428978693825 -1.06559653527192077505
O  -3.38498541653587148303 -1.73785050225376003219 0.99646044572878289536
C  0.30138914161305108141 1.03058828051252282521 0.39652706672076909467
C  -0.61277024938916890839 -0.23405021803858941376 0.54446037155589033230
C  1.46046560464051777828 0.83806437727419613726 -0.62327045454341756248
C  -2.00137616533523310380 -0.10999891864965367916 -0.10171325533315131451
C  2.60055024893901309824 -0.11611005279164531012 -0.12669739125424173132
C  -2.79418155030325987553 -1.56135133824210625697 -0.05350731618175893350
19
-73.3603632015 converged=true
F  0.47685880081477094450 1.22345794992831380377 -2.19488362297381867094
F  0.53378223749641573459 -0.82361269587786833934 -1.59404012251724735982
F  -1.44076604296137622541 1.91853136977101645932 -0.68133251177815012944
F  -1.91729897021062778428 0.14412713698402471185 -1.81022462236215586628
F  0.87520442390287189749 1.81517548948297857692 0.71351507545449111003
F  2.37674287285315966045 1.39983832182104039887 -0.76541930973291349982
F  -1.14687239116402261985 0.41419967175433758388 1.61083632564430079270
F  -3.05980523310607610554 0.19265376140967663265 0.62153336789488622394
F  3.18282810780611935542 0.28317831067728566063 1.27371227180791413147
F  1.32134382697733854251 -0.51814800120383375237 1.92067155150066937175
F  2.33723514882731375764 -1.34936680541446829551 0.19333797262596313926
O  -2.49003524405683140941 -2.41361518296819266283 0.31875557405375137821
O  -0.29134208329997052234 -2.00038058065212354109 0.53689215382182664538
C  0.29070198982222755779 0.40702702312331595635 -1.12430936300973693953
C  -1.20780334978483727681 0.58003602600085768515 -0.74321300808390100556
C  1.35932754876076700157 0.83773172945543794565 -0.07390972743800892919
C  -1.74160879324805506485 -0.12698984144720359968 0.50716257860819102810
C  2.02667913041208747060 -0.24001065111703084876 0.84026346087465153545
C  -1.48547198004123193193 -1.74393303182759473735 0.45065195560927850948
19
-73.3603185471 converged=true
F  0.73311249892944696516 1.57347791319834806600 1.50518502247905550107
F  -0.57206571303838726905 1.92540041921042637263 -0.16396877161844286563
F  0.03361486731994150351 -1.00156909508421132493 1.69557199472577191379
F  -1.58300818692761580131 0.41191780309411624161 1.85812153583669381618
F  2.02802162104590966152 1.73500568877013328084 -0.75741611640185579901
F  0.89725250699542569155 0.17619765025968345262 -1.72115835382837434331
F  -0.72112666870049801915 -1.64272155640731121196 -0.86380853796039291925
F  -2.32223213897070657197 -1.83717234056482459081 0.58104756981032634755
F  2.69764985744635987786 -0.18968460874162532126 1.27966875189565532089
F  1.89226379708613934305 -1.68603335898374262491 -0.03815979439285781954
F  3.46512628619465790081 -0.39816574862367232202 -0.70833774605537158653
O  -2.01317587435183265043 0.38407498104132742345 -2.05722199627334356720
O  -3.55440873140002056019 0.39931778968260212004 -0.42197637150918110294
C  0.16890989541041007138 0.97254174373754453953 0.42916432729680159541
C  -0.74811340069435150468 -0.15638283909685302131 0.96307234621997928059
C  1.33463496645741663826 0.59642338548715956303 -0.52844314856091967325
C  -1.57099516208562173247 -0.91349565985733061080 -0.08434287986968136419
C  2.35535692076014013807 -0.44559354187743444031 0.02168655896560101048
C  -2.52111734167676404539 0.09636137465567146121 -0.98868439075945968586
19
-73.3600505040 converged=true
F  -0.05222717551733701419 2.48556121181801126241 -0.68620293323999936863
F  -0.21489937275012005458 0.68741809069592463288 -1.85005037544629713508
F  -0.09811347806898873536 0.30827014318070528054 1.58508933188790157587
F  -1.69416461740448109907 1.53482300311236086188 0.81896468822995827086
F  2.04548347408307762407 1.44854815563105954190 0.74075456560142383111
F  2.28954536658144780503 1.58966908848295740420 -1.39434339836747001051
F  -2.50134080214052412217 -0.33597392744222409622 -0.90795632640646839473
F  -0.74490983510515729193 -1.55989661487549047258 -0.54916080716072046553
F  1.72646036194452112689 -1.29721604381568567099 0.52171286435286523542
F  1.78201534336837874584 -1.14282806762528110767 -1.63214424561853377327
F  3.47840358799562077152 -0.55946909590138393931 -0.46309332484019449794
O  -1.73800160466984543461 -2.32535717019297516472 1.81837103722346093981
O  -3.39514463937125787751 -0.81692733117005733590 1.65558504074545043139
C  0.12006490696876322144 1.14804289395480152436 -0.63088333630201620661
C  -0.82749235931850739778 0.56368974102082514133 0.47336308538811061597
C  1.64372693331320962606 0.90900999484708000509 -0.42210620399906351174
C  -1.60793476253439759915 -0.69255841520516436827 0.05620018619364953311
C  2.14660641224062631593 -0.56127434370534234898 -0.49667179206052858298
C  -2.35837773981497100806 -1.38363131291012497748 1.36257194381847512865
19
-73.3597988237 converged=true
F  0.34232850860618690980 0.94736725852235770251 1.44013372567326536355
F  -0.31572269655734469529 2.16253072591345762987 -0.22780764375545323186
F  -0.71625916082130514084 -0.17846450112383843711 -1.73060619107532143168
F  -0.13086278309760554506 -1.34766571499627385577 -0.02365823772497921071
F  2.33404912242672191169 1.98855686531066555567 0.00656860295652053530
F  1.58076423661921183772 1.17310986126791005901 -1.84161193908579878808
F  -2.31970321506596821592 1.05429786020553706294 0.88559483740533306850
F  -3.00885652806982628604 0.00339683180733626935 -0.87248860135156414142
F  2.19039612450661858034 -1.28148533252693419549 -1.16138394333496464128
F  3.78808285801020616645 -0.04289166483373241939 -0.46116604336219918503
F  2.36753238662836462680 -0.81934117022338337488 0.94099044973142276227
O  -3.11262776369743754401 -2.27785366503842556796 0.55781174476916040028
O  -2.02417556045201685322 -1.28525782900153262567 2.25521507468257764728
C  0.22099769868276969431 0.97026249534430308863 0.10239132452797870820
C  -0.71240009563515704905 -0.17372672532883740026 -0.37893165606076856244
C  1.65150619489689298724 0.95018657377916093676 -0.51723391376787375417
C  -2.15106102720526637384 -0.09922141415692541100 0.17780724696655877959
C  2.50084565839691608247 -0.33396586985616322218 -0.28597496107821462896
C  -2.48513395837190742554 -1.40993458516468339603 1.13435012388432121533
19
-73.3596127661 converged=true
F  0.36747054998675793280 2.09107459892481228891 -1.03831358067734846884
F  -0.65758626960592547750 0.37836453668883679446 -1.81345154157617782786
F  -0.10913074265416602970 0.39273287936507633722 1.60840298245506274633
F  -1.10189677976322686348 2.10305308691747061545 0.79552842229812237296
F  2.28128897070749747655 0.83754304274491386817 -1.53458318671376359177
F  1.34088744211884569602 -1.07725696447201979566 -1.57157717420161135990
F  -2.77403548340756200830 0.10565765994685777374 1.58683832129790758358
F  -2.90395782375425870470 0.53813893604099216628 -0.52753381215358463585
F  1.76938765746774229193 -1.24436120112716208652 1.23512574385606899163
F  3.47495471161193369980 -0.64057551739212714725 0.11038862728317176687
F  2.36789225055544738652 0.82673281985719049292 1.20502883690451256804
O  -0.51627419323416012809 -1.72345900855215861114 -0.03805291906710749072
O  -2.67483806079981922821 -2.33935192309328821025 0.06109059856152295603
C  0.07444861288271856226 0.79666527481950899503 -0.76375111302241160960
C  -0.80100693449658211254 0.80688182821454013105 0.52944880913266723077
C  1.44416018212976404733 0.02859967646827225179 -0.82903478993090318205
C  -2.09328789035028162147 -0.02263903618888842353 0.41226343416139005216
C  2.24083120433181370856 -0.28026008645743710757 0.47057024841293099149
C  -1.72960740392651013408 -1.57764060280539197834 0.10161209297955439701
19
-73.3595949895 converged=true
F  0.84667608597413479554 2.08428037013336409089 -0.53789741493999154720
F  0.01599723053206809908 0.85259578129883573094 -2.07597707877698356427
F  -0.91420470661730657280 1.72041585615005643284 1.07823270829831052708
F  -2.00771075229741491341 1.41299472012272264720 -0.74711443929281062815
F  2.26921120371386875192 -0.12359212710125502821 -1.47013512678189495198
F  0.95499947018435826784 -1.44120612127377834000 -0.39819058744718549558
F  -0.69201226763286916022 -1.02407875588981056580 1.43239049428464770841
F  -2.68908593237559356837 -0.20113137134674938244 1.34141494414324435880
F  1.40388162279728834214 0.61225020612975977752 1.82808087564796828417
F  2.78582041330364793552 -0.94194332543983083639 1.30078377656501475990
F  3.11044975026077885616 1.06081723758173951389 0.61309813179948002837
O  -1.38360600758147556100 -1.32450407029229211275 -1.66438573552776380993
O  -2.85056790061140397086 -2.35341642388958582899 -0.31186634213386216219
C  0.27133368549874853359 0.87035194999496856560 -0.76217300516893837781
C  -1.06614665451949397479 0.85229184100505939181 0.04322421849737388688
C  1.38231642035143309499 -0.17462753667475577890 -0.45296479740042971951
C  -1.60631275233421177973 -0.48768762698951073631 0.56578801710083004295
C  2.17575212331559564305 0.14758125763868742975 0.85286801559045366528
C  -2.00709103216212092491 -1.54149186125763115740 -0.63517665445745519204
19
-73.3589064743 converged=true
F  0.97357997827788034240 -0.89960925018572523992 -1.62765081058067506703
F  -0.09855839383141130894 -1.80570525562637929085 -0.02474281715117512478
F  -0.51589247051950215539 1.54601599007501078198 -1.01535055090837822434
F  -1.24399574023501813258 -0.11439406707194312018 -2.16467434458748719805
F  1.61899850792923283294 -0.79494135409831812034 1.48707541334043025216
F  0.82826101516066141794 1.18380939160228049190 1.06560347443986880300
F  -2.62111900308859491204 1.43998780618572586043 0.22403970366585193585
F  -3.17421915230120221807 -0.40816209999023272958 -0.75952429751113381684
F  3.40619140948513132727 1.13998873775021403176 0.63877092751741260113
F  3.32649547121964461738 -0.60660402525517487238 -0.59606081602706206812
F  2.42615263779680656597 1.23091480127123142907 -1.26468713877775806864
O  -3.00124169738165624821 -1.30250696227291529183 1.71079315975070667122
O  -0.99512767193046847147 -0.33963855694621242209 1.99763230438117944665
C  0.29413881035375216699 -0.60902458029678829821 -0.48646023394891207969
C  -0.92632230078291932784 0.26306708895194957920 -0.90301785050434346669
C  1.30271332738149658859 0.06070691788658826721 0.50358080995181897510
C  -2.19284229477648251461 0.16345958116962561180 -0.01083146751974831123
C  2.63827262507328175190 0.45874977425982982338 -0.20399640263980839405
C  -2.04578505803060473056 -0.60621393750876872986 1.42950093710921355417
19
-73.3583115474 converged=true
F  -0.39899372074382055686 1.83255482267339320224 0.78253392984811454003
F  0.60720376581210500078 1.96857352662115125952 -1.11384359058281057209
F  -1.39857889938892876458 0.90341497618671084968 -1.93042564093733792774
F  -0.36830144277417758980 -0.90121839959908833784 -1.40209033705548979931
F  1.18928803291606577375 -0.11949126094336148807 1.61478979769698494096
F  2.28459979645283173255 1.45498774137014397212 0.65869154802890739209
F  -2.81650793614275940513 0.92507911074017856734 0.34203451965024894710
F  -2.92619531432460622256 -0.99323693425113424027 -0.65500111367153412978
F  3.50035844202698509520 -0.55489516609126765534 -0.13647920301089341844
F  1.79917919575110207830 -1.82896929181867018421 -0.34828013995975309891
F  2.14598045563654693524 -0.23935350490348111796 -1.76191366092354595452
O  -2.07300642047123906409 -0.57223006712895296832 2.44639497684732010185
O  -0.75651137359526265946 -1.84189021732425795008 1.14184533452912440055
C  0.15858368499925121209 1.08658169941159132854 -0.19204550062985220604
C  -0.92733413569122447040 0.20038540616569175401 -0.86603884685736876037
C  1.43290550141685790742 0.42724760286386892494 0.41930510087316391621
C  -2.08739691249408521045 -0.18964414345158364661 0.06572235511219849668
C  2.21252168214832245496 -0.58226499369533191164 -0.47654591999626777499
C  -1.57809440173393245033 -0.97573090692560560111 1.41134639103880821231
19
-73.3574674306 converged=true
F  1.15211391918443561977 1.50284549657481347751 1.33918751229533961045
F  -0.19438092757963135182 2.21137232259958560476 -0.18370063380322970703
F  -0.12133046712232722908 -0.85641260191070112118 1.51642468318917411629
F  -1.42400131243306171669 0.85593985690515272946 1.68526019344628719132
F  2.00605727728017235734 1.70406387025718686345 -1.30962631287655351109
F  0.74986472767074463519 0.05081308762716665178 -1.84980746512559002248
F  -1.84555817188319060129 0.38781798527688737810 -1.26053677164680499878
F  -0.96851762600145185900 -1.55034982119711051141 -0.81257631973953658999
F  2.59535614223307486981 -1.41782261419829569427 -1.13910637131450664938
F  3.69110526230311153384 0.24591202950555110518 -0.34505577201638359952
F  2.33101552972068315484 -0.82617947060072161047 0.90481114493424319445
O  -3.99538768794727605638 -0.27822765130786064613 0.18168105599141001760
O  -2.90267157286962040885 -1.99684880203718240210 1.13027883329307354821
C  0.40646609108350367778 1.10049152845806630374 0.28348354962571709059
C  -0.70090613952099845019 0.12720210562207115434 0.80027200393072905893
C  1.39228701394577125683 0.60783132122057004221 -0.81498118567092847631
C  -1.63316219921876282228 -0.49789437487315085784 -0.24862877371296621121
C  2.51490085088300840965 -0.37223664895975205891 -0.32753145967295738128
C  -3.05355070992816779452 -0.99841761906230674928 0.45015208887348023836
