80
Coordinates from ORCA-job R4N+PFOA-_r2 E -2865.052294656509
  N       5.449201      0.645062      2.451362
  C       3.437855     -4.190842     -1.559289
  C       4.297459     -4.630569     -2.753214
  C       4.513530     -3.498781     -3.768202
  C       4.042260     -2.995304     -0.871018
  C       3.231466     -5.350344     -0.574308
  C       5.709364      0.520425      0.985900
  C       5.137875     -0.723359      0.358991
  C       3.202366     -2.931946     -4.254173
  C       3.334223     -1.801589     -0.812334
  C       5.312059     -3.033412     -0.305631
  C       5.355184     -3.992133     -4.948306
  C       4.005787      0.587788      2.724472
  C       5.968491      1.947026      2.899261
  C       6.129162     -0.430410      3.188895
  C       3.872643     -0.679235     -0.214235
  C       5.854654     -1.913744      0.298850
  C       2.225408     -4.993194      0.513692
  C       2.265746     -3.730084     -4.901047
  C       2.906375     -1.587217     -4.067942
  C       1.068559     -3.199188     -5.344928
  C       1.703581     -1.054084     -4.498323
  C       0.779142     -1.860035     -5.140337
  H       2.454137     -3.896801     -1.943764
  H       3.804942     -5.470754     -3.244431
  H       5.271146     -4.974066     -2.401340
  H       5.061210     -2.692054     -3.269614
  H       4.184154     -5.617796     -0.115594
  H       2.868316     -6.218570     -1.127063
  H       6.789752      0.547260      0.835906
  H       5.252806      1.384884      0.499386
  H       2.355609     -1.742885     -1.262337
  H       5.889840     -3.943525     -0.346682
  H       5.510651     -3.185740     -5.660964
  H       4.857559     -4.810620     -5.461403
  H       6.323840     -4.340022     -4.599178
  H       3.604297     -0.384620      2.450599
  H       3.481246      1.341991      2.139595
  H       3.820555      0.767641      3.779838
  H       7.029038      2.026304      2.673244
  H       5.823025      2.053278      3.971401
  H       5.435158      2.749017      2.393356
  H       5.752792     -1.396575      2.863053
  H       5.940480     -0.319643      4.253682
  H       7.200577     -0.382290      3.011151
  H       3.308496      0.241555     -0.212324
  H       6.852792     -1.968564      0.705362
  H       1.255520     -4.760449      0.076419
  H       2.556323     -4.121133      1.072642
  H       2.099156     -5.822902      1.203994
  H       2.467574     -4.778129     -5.061366
  H       3.619434     -0.944716     -3.571201
  H       0.352986     -3.830119     -5.851890
  H       1.485204     -0.009541     -4.322232
  H      -0.162534     -1.448302     -5.474065
  F      -0.363432     -2.013791      0.421392
  F      -2.318846     -1.189027      0.015197
  F       0.625160      0.117600     -1.361636
  F      -1.371431      0.939360     -1.174404
  F      -1.450467     -1.224719     -2.818229
  F       0.180917     -2.445110     -2.088186
  F      -1.052159      0.437225      1.705535
  F       1.020809      0.055789      1.256188
  F      -1.859808     -3.964103     -0.656609
  F      -3.292990     -2.866495     -1.852726
  F       0.550482      2.588196      2.087904
  F      -0.873108      2.922677      0.482995
  F      -2.669050     -5.214980     -2.985411
  F      -0.563668     -4.813617     -2.905311
  F      -1.845248     -3.614807     -4.155325
  O       2.592263      2.422974      0.328245
  O       1.150296      2.918133     -1.317941
  C      -1.064789     -1.279038     -0.457295
  C      -0.461168      0.158411     -0.570773
  C      -1.069619     -2.037531     -1.822561
  C      -0.064280      0.727230      0.819154
  C      -2.015826     -3.276713     -1.800480
  C       0.252373      2.230434      0.803914
  C      -1.759063     -4.247209     -2.993661
  C       1.505754      2.584896     -0.202262
80
Coordinates from ORCA-job R4N+PFOA-_r2 E -2865.063378254301
  N       5.456096      0.661246      2.488368
  C       3.448390     -4.201924     -1.559806
  C       4.294199     -4.629297     -2.775300
  C       4.512601     -3.506018     -3.810155
  C       4.050330     -3.004567     -0.861155
  C       3.238487     -5.371200     -0.582632
  C       5.724868      0.521516      1.001284
  C       5.151347     -0.722328      0.373304
  C       3.202942     -2.925497     -4.305786
  C       3.337502     -1.808816     -0.792603
  C       5.329327     -3.041144     -0.300287
  C       5.360570     -4.017432     -4.983621
  C       3.994916      0.617471      2.764057
  C       5.993565      1.981116      2.927283
  C       6.133421     -0.422957      3.254019
  C       3.879432     -0.679370     -0.197248
  C       5.873443     -1.916307      0.308053
  C       2.245231     -5.024869      0.527839
  C       2.255955     -3.725489     -4.950774
  C       2.911330     -1.571516     -4.126403
  C       1.050136     -3.190261     -5.389227
  C       1.698529     -1.033773     -4.548942
  C       0.760612     -1.844289     -5.180102
  H       2.459735     -3.905634     -1.934849
  H       3.795711     -5.476029     -3.263705
  H       5.274889     -4.982190     -2.431824
  H       5.066410     -2.695826     -3.318580
  H       4.200899     -5.657195     -0.140434
  H       2.865244     -6.234193     -1.148044
  H       6.809860      0.548971      0.865106
  H       5.276800      1.394441      0.516590
  H       2.354134     -1.754275     -1.243597
  H       5.915767     -3.954971     -0.349223
  H       5.532220     -3.218059     -5.711628
  H       4.857310     -4.844088     -5.495354
  H       6.331366     -4.374943     -4.624612
  H       3.592888     -0.360290      2.500662
  H       3.480475      1.371841      2.166597
  H       3.815039      0.809222      3.823853
  H       7.059899      2.038613      2.699049
  H       5.844021      2.094630      4.002848
  H       5.464520      2.780729      2.403974
  H       5.742217     -1.392855      2.942555
  H       5.938973     -0.283432      4.319198
  H       7.209681     -0.383199      3.072463
  H       3.314074      0.249707     -0.198267
  H       6.879281     -1.967640      0.717027
  H       1.266583     -4.766934      0.104502
  H       2.594127     -4.164962      1.110835
  H       2.109325     -5.871156      1.208273
  H       2.455352     -4.782810     -5.107720
  H       3.634460     -0.928795     -3.630432
  H       0.325257     -3.828267     -5.888626
  H       1.481881      0.017484     -4.368791
  H      -0.193997     -1.433794     -5.498394
  F      -0.360567     -2.026623      0.439572
  F      -2.348222     -1.203260      0.015134
  F       0.620276      0.103248     -1.347099
  F      -1.398075      0.929504     -1.163454
  F      -1.476958     -1.239616     -2.803066
  F       0.175656     -2.472727     -2.070668
  F      -1.089315      0.529686      1.707284
  F       1.012567      0.092496      1.286113
  F      -1.868749     -4.018649     -0.666818
  F      -3.313772     -2.895134     -1.873203
  F       0.577437      2.628619      2.076727
  F      -0.852909      2.971605      0.457140
  F      -2.734645     -5.241486     -2.986784
  F      -0.596716     -4.880145     -2.911453
  F      -1.872392     -3.631373     -4.166941
  O       2.606434      2.449893      0.339648
  O       1.160275      2.952370     -1.337224
  C      -1.080065     -1.296807     -0.441050
  C      -0.476583      0.152475     -0.557354
  C      -1.083616     -2.065379     -1.811048
  C      -0.073963      0.764216      0.827588
  C      -2.033492     -3.315123     -1.807512
  C       0.268876      2.272670      0.790772
  C      -1.792189     -4.290214     -3.006915
  C       1.504652      2.614089     -0.198976
80
Coordinates from ORCA-job R4N+PFOA-_r2 E -2865.065910029688
  N       5.452473      0.657369      2.501142
  C       3.452875     -4.202700     -1.567197
  C       4.295337     -4.619732     -2.786014
  C       4.514912     -3.499634     -3.821816
  C       4.050330     -3.003621     -0.864103
  C       3.240160     -5.379437     -0.600480
  C       5.729338      0.519492      1.002956
  C       5.154263     -0.718834      0.373124
  C       3.205619     -2.918563     -4.320263
  C       3.336044     -1.806773     -0.791264
  C       5.332655     -3.040959     -0.303421
  C       5.370724     -4.015766     -4.987282
  C       3.982442      0.621391      2.780802
  C       6.002231      1.980740      2.943106
  C       6.128461     -0.436144      3.270087
  C       3.880021     -0.674864     -0.197038
  C       5.876666     -1.915424      0.309065
  C       2.246460     -5.047696      0.513763
  C       2.257036     -3.725327     -4.960518
  C       2.910431     -1.562474     -4.145819
  C       1.046684     -3.194413     -5.399818
  C       1.694970     -1.027451     -4.574147
  C       0.755347     -1.844548     -5.199587
  H       2.460042     -3.907080     -1.935773
  H       3.799256     -5.469491     -3.275907
  H       5.278157     -4.975411     -2.445324
  H       5.066142     -2.686789     -3.329110
  H       4.204977     -5.675829     -0.165680
  H       2.869763     -6.237307     -1.178008
  H       6.817143      0.545886      0.889113
  H       5.293508      1.404316      0.526606
  H       2.349957     -1.754898     -1.239395
  H       5.921023     -3.955062     -0.354759
  H       5.554010     -3.221124     -5.719647
  H       4.869860     -4.844890     -5.501805
  H       6.339137     -4.377763     -4.621089
  H       3.582813     -0.359882      2.520364
  H       3.476578      1.381393      2.180981
  H       3.814675      0.812621      3.843533
  H       7.069396      2.019417      2.712281
  H       5.849003      2.085131      4.019605
  H       5.475304      2.778266      2.413756
  H       5.724205     -1.401166      2.958482
  H       5.932831     -0.283205      4.333908
  H       7.203679     -0.397141      3.078931
  H       3.316783      0.256648     -0.196666
  H       6.880693     -1.965445      0.726248
  H       1.270844     -4.766857      0.093104
  H       2.600617     -4.206848      1.123065
  H       2.093662     -5.907312      1.176056
  H       2.459887     -4.784283     -5.111168
  H       3.635548     -0.917958     -3.652136
  H       0.321253     -3.841505     -5.888245
  H       1.478596      0.025650     -4.402139
  H      -0.203021     -1.438835     -5.515284
  F      -0.348904     -2.012054      0.453399
  F      -2.352489     -1.203721      0.023734
  F       0.615635      0.099295     -1.345408
  F      -1.415306      0.928248     -1.159323
  F      -1.495053     -1.250644     -2.786154
  F       0.170439     -2.488842     -2.056320
  F      -1.113125      0.598753      1.684008
  F       1.000592      0.118419      1.290258
  F      -1.855407     -4.025017     -0.642470
  F      -3.316685     -2.912183     -1.861424
  F       0.583917      2.650720      2.055374
  F      -0.839211      3.002048      0.424556
  F      -2.743500     -5.268245     -2.944467
  F      -0.598247     -4.907648     -2.886524
  F      -1.883997     -3.664207     -4.146484
  O       2.611069      2.474867      0.345300
  O       1.178269      2.990093     -1.347711
  C      -1.082150     -1.297598     -0.431256
  C      -0.485747      0.154055     -0.557012
  C      -1.090057     -2.078530     -1.796032
  C      -0.080286      0.791826      0.815536
  C      -2.034183     -3.331330     -1.789703
  C       0.280837      2.303339      0.765665
  C      -1.796864     -4.318194     -2.980958
  C       1.500225      2.641403     -0.195738
80
Coordinates from ORCA-job R4N+PFOA-_r2 E -2865.066652668789
  N       5.449238      0.651020      2.506669
  C       3.453130     -4.198815     -1.573547
  C       4.297191     -4.611507     -2.790145
  C       4.517958     -3.494766     -3.827048
  C       4.047058     -2.999470     -0.867689
  C       3.237740     -5.379154     -0.613034
  C       5.730557      0.515721      1.003362
  C       5.153081     -0.717030      0.371977
  C       3.209894     -2.916268     -4.329308
  C       3.333227     -1.802554     -0.792397
  C       5.329816     -3.038719     -0.307032
  C       5.378434     -4.013743     -4.986160
  C       3.977072      0.618426      2.791310
  C       6.003755      1.974923      2.950770
  C       6.125726     -0.445883      3.274691
  C       3.878705     -0.671221     -0.198057
  C       5.874824     -1.914410      0.306298
  C       2.244086     -5.053526      0.500459
  C       2.261218     -3.728516     -4.963269
  C       2.914467     -1.559380     -4.164815
  C       1.051108     -3.201282     -5.407268
  C       1.699733     -1.027835     -4.599437
  C       0.760999     -1.849285     -5.219889
  H       2.458063     -3.904684     -1.938584
  H       3.806145     -5.464402     -3.279493
  H       5.280019     -4.966391     -2.448577
  H       5.066117     -2.679288     -3.334879
  H       4.202130     -5.683294     -0.182450
  H       2.868278     -6.232823     -1.197172
  H       6.819926      0.539794      0.907448
  H       5.306308      1.410247      0.534796
  H       2.345954     -1.751589     -1.238093
  H       5.917757     -3.952443     -0.360305
  H       5.569199     -3.223179     -5.720572
  H       4.880234     -4.843596     -5.501809
  H       6.343882     -4.377577     -4.615007
  H       3.581025     -0.365423      2.533956
  H       3.476378      1.383120      2.192987
  H       3.823281      0.807865      3.856112
  H       7.070456      2.003694      2.718505
  H       5.847898      2.072240      4.027088
  H       5.476728      2.769655      2.418381
  H       5.712206     -1.406855      2.964864
  H       5.933407     -0.283939      4.337434
  H       7.198589     -0.407333      3.073407
  H       3.318161      0.261020     -0.195429
  H       6.877181     -1.963606      0.726371
  H       1.275297     -4.749537      0.080602
  H       2.605194     -4.231208      1.129718
  H       2.072627     -5.921529      1.146612
  H       2.465581     -4.787821     -5.105717
  H       3.640233     -0.913173     -3.675007
  H       0.325923     -3.854343     -5.886697
  H       1.485156      0.026796     -4.439473
  H      -0.196799     -1.446286     -5.538659
  F      -0.339159     -2.002574      0.461259
  F      -2.349369     -1.208522      0.034576
  F       0.610832      0.100433     -1.344539
  F      -1.425164      0.926525     -1.156334
  F      -1.503045     -1.256463     -2.772496
  F       0.167081     -2.497034     -2.046666
  F      -1.124795      0.637116      1.671251
  F       0.989783      0.134096      1.293509
  F      -1.843176     -4.023487     -0.620211
  F      -3.316246     -2.923458     -1.839571
  F       0.575641      2.661759      2.046649
  F      -0.838547      3.016513      0.409363
  F      -2.749253     -5.279783     -2.909417
  F      -0.603869     -4.924293     -2.866865
  F      -1.892512     -3.686489     -4.126368
  O       2.609779      2.493986      0.348721
  O       1.190000      3.015507     -1.348238
  C      -1.080270     -1.297902     -0.424101
  C      -0.491630      0.155059     -0.556179
  C      -1.092416     -2.084927     -1.784256
  C      -0.085962      0.805938      0.807854
  C      -2.032337     -3.338237     -1.771360
  C       0.282296      2.320722      0.753071
  C      -1.801033     -4.332641     -2.956773
  C       1.493395      2.660046     -0.189655
80
Coordinates from ORCA-job R4N+PFOA-_r2 E -2865.066921358271
  N       5.449649      0.645528      2.507553
  C       3.450296     -4.194162     -1.577283
  C       4.297834     -4.608421     -2.789534
  C       4.520360     -3.494259     -3.827620
  C       4.043036     -2.994394     -0.871604
  C       3.232246     -5.374153     -0.616861
  C       5.730767      0.513618      1.002547
  C       5.150623     -0.715140      0.370006
  C       3.213405     -2.918219     -4.333614
  C       3.330405     -1.797279     -0.795773
  C       5.325027     -3.035692     -0.310274
  C       5.383292     -4.014782     -4.983212
  C       3.978370      0.611416      2.797316
  C       6.003978      1.969138      2.953656
  C       6.129415     -0.452283      3.270987
  C       3.876667     -0.667535     -0.199957
  C       5.871036     -1.913072      0.303260
  C       2.239198     -5.047086      0.495033
  C       2.265088     -3.733512     -4.963367
  C       2.919437     -1.560722     -4.178106
  C       1.057711     -3.207687     -5.414170
  C       1.707719     -1.030690     -4.620634
  C       0.770424     -1.854206     -5.238707
  H       2.454766     -3.901490     -1.942181
  H       3.810729     -5.463831     -3.277628
  H       5.279746     -4.961634     -2.444761
  H       5.066448     -2.677087     -3.336118
  H       4.195511     -5.682462     -0.187456
  H       2.861746     -6.226302     -1.202110
  H       6.820785      0.535530      0.915053
  H       5.313724      1.414395      0.540252
  H       2.342852     -1.745868     -1.240398
  H       5.911459     -3.949806     -0.363749
  H       5.577953     -3.226175     -5.718092
  H       4.886536     -4.844470     -5.499604
  H       6.346852     -4.379332     -4.609162
  H       3.585986     -0.373979      2.540959
  H       3.478710      1.379921      2.203455
  H       3.836124      0.797691      3.863985
  H       7.070128      1.997051      2.720209
  H       5.848152      2.062229      4.029998
  H       5.475141      2.762783      2.422135
  H       5.711386     -1.411509      2.963010
  H       5.943542     -0.288416      4.334273
  H       7.200278     -0.414019      3.061270
  H       3.317589      0.265013     -0.194742
  H       6.872656     -1.962205      0.723924
  H       1.276505     -4.725943      0.074987
  H       2.607188     -4.236921      1.135058
  H       2.053387     -5.918444      1.132009
  H       2.468986     -4.793388     -5.098413
  H       3.645113     -0.913373     -3.690395
  H       0.332915     -3.863178     -5.889550
  H       1.495376      0.025431     -4.471561
  H      -0.184511     -1.451270     -5.564737
  F      -0.332038     -1.997672      0.462992
  F      -2.344664     -1.212259      0.043557
  F       0.606641      0.106442     -1.344468
  F      -1.431175      0.926176     -1.153372
  F      -1.505679     -1.258063     -2.767030
  F       0.165301     -2.498800     -2.044668
  F      -1.130859      0.645240      1.669383
  F       0.982361      0.140123      1.296805
  F      -1.837187     -4.019339     -0.607873
  F      -3.315608     -2.929177     -1.826789
  F       0.562138      2.664099      2.050294
  F      -0.848800      3.019466      0.411632
  F      -2.746223     -5.285947     -2.887651
  F      -0.602936     -4.926987     -2.855285
  F      -1.896937     -3.699857     -4.115671
  O       2.602810      2.508484      0.350873
  O       1.186263      3.031113     -1.341626
  C      -1.077757     -1.297344     -0.420907
  C      -0.495294      0.156836     -0.555093
  C      -1.092958     -2.085785     -1.779661
  C      -0.091705      0.808856      0.807015
  C      -2.030704     -3.339141     -1.761303
  C       0.274251      2.326955      0.754360
  C      -1.800516     -4.337998     -2.942652
  C       1.483108      2.671961     -0.182394
80
Coordinates from ORCA-job R4N+PFOA-_r2 E -2865.067119064472
  N       5.453433      0.640564      2.508534
  C       3.445624     -4.188199     -1.579314
  C       4.296405     -4.608876     -2.786404
  C       4.521439     -3.498665     -3.827609
  C       4.038973     -2.987477     -0.876145
  C       3.223883     -5.364562     -0.614553
  C       5.731252      0.513455      1.002372
  C       5.148127     -0.711617      0.368056
  C       3.216037     -2.923888     -4.338295
  C       3.327885     -1.789836     -0.800405
  C       5.320235     -3.030870     -0.314352
  C       5.385390     -4.022677     -4.980390
  C       3.983772      0.600914      2.804526
  C       6.004612      1.964091      2.956741
  C       6.139532     -0.456767      3.265352
  C       3.874501     -0.662138     -0.201638
  C       5.867508     -1.909922      0.299151
  C       2.233221     -5.030053      0.496338
  C       2.267228     -3.740724     -4.964470
  C       2.926198     -1.564850     -4.193505
  C       1.064776     -3.213845     -5.425318
  C       1.719314     -1.034076     -4.646287
  C       0.782849     -1.858191     -5.263356
  H       2.450680     -3.896794     -1.946049
  H       3.811730     -5.466933     -3.271628
  H       5.276987     -4.960522     -2.437303
  H       5.066898     -2.680089     -3.338035
  H       4.185947     -5.676170     -0.185514
  H       2.849812     -6.216669     -1.197285
  H       6.821528      0.533770      0.917715
  H       5.319060      1.419695      0.547227
  H       2.340507     -1.737248     -1.244996
  H       5.904792     -3.945848     -0.367626
  H       5.583286     -3.236104     -5.716200
  H       4.888447     -4.852061     -5.496405
  H       6.347354     -4.388151     -4.603906
  H       3.596170     -0.385863      2.547338
  H       3.482503      1.373526      2.217878
  H       3.853170      0.782327      3.873388
  H       7.070114      1.996214      2.721527
  H       5.850767      2.053840      4.033475
  H       5.472223      2.757321      2.428471
  H       5.719471     -1.415837      2.960174
  H       5.962749     -0.294146      4.330215
  H       7.208399     -0.418194      3.046835
  H       3.315912      0.270437     -0.192961
  H       6.869186     -1.959188      0.718933
  H       1.276122     -4.693483      0.076315
  H       2.609980     -4.228833      1.141996
  H       2.034517     -5.901613      1.128734
  H       2.468236     -4.801940     -5.090773
  H       3.652216     -0.917026     -3.707375
  H       0.339789     -3.869508     -5.899384
  H       1.510754      0.024055     -4.509055
  H      -0.167030     -1.453043     -5.600683
  F      -0.323236     -1.997232      0.460584
  F      -2.338570     -1.219421      0.050710
  F       0.602641      0.115914     -1.343740
  F      -1.437162      0.924810     -1.148635
  F      -1.505756     -1.258437     -2.765382
  F       0.166031     -2.498047     -2.047460
  F      -1.136428      0.637770      1.673397
  F       0.976456      0.142508      1.302303
  F      -1.831086     -4.017084     -0.602302
  F      -3.313283     -2.932439     -1.817983
  F       0.546398      2.661225      2.061563
  F      -0.866853      3.016226      0.425772
  F      -2.743205     -5.288892     -2.875056
  F      -0.601330     -4.927400     -2.851505
  F      -1.900298     -3.707861     -4.111266
  O       2.589022      2.525127      0.354187
  O       1.166796      3.045780     -1.328587
  C      -1.073640     -1.298481     -0.419749
  C      -0.498243      0.158156     -0.552816
  C      -1.091271     -2.085311     -1.779142
  C      -0.098389      0.806273      0.811102
  C      -2.027810     -3.338960     -1.756481
  C       0.259720      2.327899      0.764392
  C      -1.799269     -4.340349     -2.936033
  C       1.465870      2.683240     -0.171919
80
Coordinates from ORCA-job R4N+PFOA-_r2 E -2865.067300025276
  N       5.460570      0.635560      2.510973
  C       3.439028     -4.180945     -1.579395
  C       4.291416     -4.611907     -2.781584
  C       4.519863     -3.507177     -3.827691
  C       4.034795     -2.978909     -0.880721
  C       3.213072     -5.351127     -0.607034
  C       5.732308      0.515208      1.003469
  C       5.146085     -0.706272      0.366370
  C       3.216746     -2.932105     -4.344204
  C       3.325658     -1.780188     -0.805538
  C       5.315790     -3.024460     -0.318986
  C       5.383840     -4.037190     -4.977758
  C       3.992338      0.587385      2.813955
  C       6.007080      1.958990      2.961994
  C       6.155112     -0.461037      3.259362
  C       3.872545     -0.654688     -0.202809
  C       5.864668     -1.904969      0.294496
  C       2.226822     -5.005587      0.504278
  C       2.266418     -3.749360     -4.967127
  C       2.933539     -1.570482     -4.212107
  C       1.070576     -3.219405     -5.440895
  C       1.733057     -1.036861     -4.677637
  C       0.796431     -1.860625     -5.294479
  H       2.445586     -3.889913     -1.949572
  H       3.806646     -5.472190     -3.262534
  H       5.270451     -4.963080     -2.428214
  H       5.066129     -2.687458     -3.341159
  H       4.174397     -5.665100     -0.178362
  H       2.833548     -6.204356     -1.184499
  H       6.822457      0.534683      0.916013
  H       5.322288      1.426332      0.556784
  H       2.338868     -1.725692     -1.251211
  H       5.898362     -3.940636     -0.372095
  H       5.584866     -3.253213     -5.715420
  H       4.885166     -4.866443     -5.492086
  H       6.344323     -4.403943     -4.598831
  H       3.609954     -0.400283      2.553443
  H       3.487514      1.364717      2.236973
  H       3.872591      0.762043      3.885237
  H       7.071756      1.998337      2.723985
  H       5.857111      2.045316      4.039562
  H       5.469933      2.752726      2.439274
  H       5.734755     -1.420973      2.957044
  H       5.988959     -0.302205      4.326505
  H       7.222047     -0.421422      3.031949
  H       3.313761      0.277751     -0.190038
  H       6.866993     -1.954741      0.712507
  H       1.273342     -4.658180      0.085190
  H       2.612785     -4.208853      1.150036
  H       2.019506     -5.874696      1.137219
  H       2.462172     -4.812719     -5.082873
  H       3.660569     -0.922662     -3.727550
  H       0.344940     -3.873589     -5.915773
  H       1.529960      0.023797     -4.553481
  H      -0.146243     -1.451448     -5.646976
  F      -0.311646     -1.999222      0.455362
  F      -2.331196     -1.229325      0.055744
  F       0.599223      0.128040     -1.342140
  F      -1.443953      0.922231     -1.142308
  F      -1.504520     -1.258524     -2.766316
  F       0.169712     -2.495502     -2.054279
  F      -1.142840      0.620743      1.680068
  F       0.972113      0.144361      1.309462
  F      -1.822547     -4.017627     -0.602304
  F      -3.308236     -2.935996     -1.814587
  F       0.529006      2.655327      2.077464
  F      -0.891729      3.008603      0.448284
  F      -2.735382     -5.292920     -2.869086
  F      -0.594493     -4.925516     -2.853597
  F      -1.900979     -3.713322     -4.111808
  O       2.568752      2.546408      0.358139
  O       1.132741      3.063113     -1.311636
  C      -1.067708     -1.301042     -0.420120
  C      -0.500564      0.159253     -0.549622
  C      -1.087172     -2.084541     -1.781632
  C      -0.105777      0.801510      0.818444
  C      -2.022164     -3.339641     -1.756260
  C       0.240193      2.326267      0.779813
  C      -1.794131     -4.342105     -2.935283
  C       1.441623      2.696405     -0.159757
80
Coordinates from ORCA-job R4N+PFOA-_r2 E -2865.067478363769
  N       5.470775      0.630239      2.515472
  C       3.430727     -4.172335     -1.577099
  C       4.281963     -4.616508     -2.775515
  C       4.514769     -3.518838     -3.828038
  C       4.030789     -2.968958     -0.884541
  C       3.200122     -5.334454     -0.595349
  C       5.733911      0.519003      1.006193
  C       5.145045     -0.699103      0.365060
  C       3.214855     -2.941642     -4.351229
  C       3.323977     -1.768661     -0.810141
  C       5.312218     -3.016598     -0.323789
  C       5.377838     -4.057732     -4.975130
  C       4.003510      0.571871      2.825651
  C       6.012384      1.953181      2.970614
  C       6.174535     -0.466349      3.253905
  C       3.871306     -0.645234     -0.203281
  C       5.863098     -1.898159      0.289529
  C       2.219819     -4.975876      0.517505
  C       2.261813     -3.758236     -4.971010
  C       2.940704     -1.576572     -4.233602
  C       1.073963     -3.223501     -5.459886
  C       1.747997     -1.038208     -4.713868
  C       0.809980     -1.860758     -5.330807
  H       2.439633     -3.879962     -1.951796
  H       3.793682     -5.477965     -3.250939
  H       5.259379     -4.969135     -2.419075
  H       5.063400     -2.698301     -3.345633
  H       4.161203     -5.650020     -0.167169
  H       2.813890     -6.189523     -1.165715
  H       6.823464      0.538918      0.910359
  H       5.322469      1.434028      0.569211
  H       2.338207     -1.711652     -1.257952
  H       5.892990     -3.934037     -0.377169
  H       5.581970     -3.277425     -5.716011
  H       4.876007     -4.887330     -5.486014
  H       6.336870     -4.426010     -4.593607
  H       3.625737     -0.415697      2.558797
  H       3.493721      1.354353      2.260210
  H       3.892330      0.737826      3.899353
  H       7.075964      2.000821      2.728526
  H       5.867917      2.035051      4.049424
  H       5.469834      2.748476      2.455593
  H       5.754955     -1.427423      2.953360
  H       6.019016     -0.313286      4.323614
  H       7.239691     -0.424767      3.018126
  H       3.311926      0.286965     -0.186215
  H       6.866491     -1.948930      0.705115
  H       1.267234     -4.624182      0.099977
  H       2.613980     -4.178291      1.157594
  H       2.009570     -5.840265      1.156111
  H       2.450064     -4.824336     -5.074693
  H       3.669597     -0.929213     -3.750988
  H       0.347256     -3.874939     -5.937165
  H       1.552269      0.025383     -4.603924
  H      -0.123528     -1.446173     -5.701482
  F      -0.296113     -2.003205      0.448634
  F      -2.322092     -1.243438      0.058741
  F       0.596897      0.140840     -1.339203
  F      -1.451624      0.917161     -1.134828
  F      -1.501991     -1.259186     -2.767850
  F       0.177450     -2.491766     -2.063833
  F      -1.149934      0.598742      1.687331
  F       0.969785      0.147975      1.317513
  F      -1.809365     -4.022449     -0.606818
  F      -3.298967     -2.941894     -1.815672
  F       0.510497      2.648713      2.094796
  F      -0.922652      2.997724      0.475555
  F      -2.721619     -5.298998     -2.870003
  F      -0.581430     -4.923571     -2.861008
  F      -1.896781     -3.716455     -4.115876
  O       2.542454      2.573752      0.361109
  O       1.086313      3.084786     -1.293951
  C      -1.059300     -1.305804     -0.421186
  C      -0.502083      0.159266     -0.545509
  C      -1.079775     -2.084845     -1.785610
  C      -0.113384      0.796707      0.827488
  C      -2.012077     -3.342994     -1.759573
  C       0.216916      2.323894      0.797238
  C      -1.783626     -4.344604     -2.939556
  C       1.410789      2.712844     -0.148370
80
Coordinates from ORCA-job R4N+PFOA-_r2 E -2865.067635192207
  N       5.482559      0.623866      2.521702
  C       3.421370     -4.162660     -1.572949
  C       4.268880     -4.620586     -2.769118
  C       4.506629     -3.530746     -3.828493
  C       4.027135     -2.958399     -0.887074
  C       3.185666     -5.316484     -0.582482
  C       5.735739      0.524298      1.010278
  C       5.145369     -0.690817      0.363865
  C       3.210518     -2.950316     -4.358461
  C       3.322953     -1.756235     -0.813399
  C       5.309629     -3.008008     -0.328342
  C       5.368429     -4.080327     -4.972095
  C       4.016032      0.555886      2.838403
  C       6.020775      1.945401      2.983078
  C       6.194253     -0.474744      3.249105
  C       3.871247     -0.634501     -0.203473
  C       5.862897     -1.890223      0.284533
  C       2.210884     -4.945629      0.531761
  C       2.254116     -3.765837     -4.974975
  C       2.946191     -1.581703     -4.255707
  C       1.074312     -3.226134     -5.478779
  C       1.761502     -1.038167     -4.750821
  C       0.821234     -1.859336     -5.367290
  H       2.433182     -3.866676     -1.952272
  H       3.774184     -5.481836     -3.238597
  H       5.244764     -4.976651     -2.411449
  H       5.058545     -2.709634     -3.350726
  H       4.146607     -5.633244     -0.154447
  H       2.793076     -6.173423     -1.145848
  H       6.824255      0.546465      0.902669
  H       5.318925      1.441706      0.583400
  H       2.338513     -1.696353     -1.263907
  H       5.888957     -3.926526     -0.382585
  H       5.575370     -3.304855     -5.717535
  H       4.863010     -4.911107     -5.477910
  H       6.326091     -4.449768     -4.587730
  H       3.640820     -0.430010      2.562118
  H       3.500921      1.343453      2.285163
  H       3.909489      0.711336      3.914247
  H       7.083043      1.999920      2.735920
  H       5.882449      2.020604      4.063347
  H       5.473139      2.743335      2.477277
  H       5.775374     -1.436057      2.947593
  H       6.047198     -0.328737      4.321148
  H       7.257915     -0.430304      3.006421
  H       3.311329      0.297541     -0.182677
  H       6.867432     -1.942638      0.697573
  H       1.256758     -4.596602      0.115373
  H       2.610089     -4.142532      1.162243
  H       2.002882     -5.804179      1.179205
  H       2.434078     -4.834692     -5.066433
  H       3.677399     -0.934831     -3.775572
  H       0.346450     -3.874796     -5.958518
  H       1.574041      0.028308     -4.655037
  H      -0.102584     -1.439444     -5.756391
  F      -0.277418     -2.006946      0.442767
  F      -2.311375     -1.260266      0.060765
  F       0.596167      0.151871     -1.335210
  F      -1.459150      0.909989     -1.127755
  F      -1.499040     -1.261209     -2.768021
  F       0.188874     -2.487178     -2.073913
  F      -1.156582      0.578649      1.692815
  F       0.969551      0.155305      1.324462
  F      -1.790202     -4.030535     -0.612105
  F      -3.285033     -2.952620     -1.818972
  F       0.492489      2.645182      2.108337
  F      -0.956527      2.986302      0.501080
  F      -2.699228     -5.308610     -2.874424
  F      -0.560128     -4.922549     -2.869011
  F      -1.884718     -3.719334     -4.119947
  O       2.512455      2.606684      0.360053
  O       1.034145      3.110488     -1.280751
  C      -1.048782     -1.311933     -0.421871
  C      -0.502633      0.158164     -0.541214
  C      -1.069385     -2.086824     -1.788964
  C      -0.120376      0.794389      0.835469
  C      -1.996625     -3.349872     -1.763530
  C       0.192649      2.323408      0.811351
  C      -1.765614     -4.349195     -2.944976
  C       1.376042      2.733002     -0.141736
80
Coordinates from ORCA-job R4N+PFOA-_r2 E -2865.067745003408
  N       5.492434      0.617857      2.526791
  C       3.412816     -4.153456     -1.568973
  C       4.256050     -4.623121     -2.763745
  C       4.498907     -3.540390     -3.828897
  C       4.024568     -2.948867     -0.889190
  C       3.171103     -5.299885     -0.571978
  C       5.737267      0.529991      1.013629
  C       5.147058     -0.683115      0.361971
  C       3.206357     -2.956152     -4.363629
  C       3.322843     -1.745095     -0.815722
  C       5.308230     -3.000169     -0.332854
  C       5.359018     -4.100351     -4.969161
  C       4.026780      0.544228      2.847680
  C       6.030377      1.937050      2.995475
  C       6.208118     -0.485005      3.244476
  C       3.872535     -0.624599     -0.204395
  C       5.863917     -1.882801      0.279371
  C       2.196168     -4.919363      0.539308
  C       2.246866     -3.770003     -4.978039
  C       2.949655     -1.585180     -4.270460
  C       1.072839     -3.226152     -5.491527
  C       1.770591     -1.037325     -4.774940
  C       0.828205     -1.856604     -5.391467
  H       2.427383     -3.852533     -1.951738
  H       3.754242     -5.483141     -3.228156
  H       5.230432     -4.983617     -2.405970
  H       5.054580     -2.719249     -3.355362
  H       4.130868     -5.616284     -0.140656
  H       2.776356     -6.159262     -1.130230
  H       6.824652      0.556210      0.895514
  H       5.312375      1.447680      0.595184
  H       2.339593     -1.682721     -1.268435
  H       5.886498     -3.919435     -0.388153
  H       5.568287     -3.330165     -5.719575
  H       4.850255     -4.932693     -5.469352
  H       6.315451     -4.470699     -4.582337
  H       3.651239     -0.438834      2.561559
  H       3.507202      1.335416      2.303938
  H       3.920032      0.689775      3.924891
  H       7.091525      1.994557      2.743855
  H       5.896721      2.004401      4.076927
  H       5.479629      2.738078      2.497893
  H       5.788678     -1.444909      2.938984
  H       6.065030     -0.345491      4.317997
  H       7.270878     -0.437955      2.997872
  H       3.312392      0.307322     -0.180806
  H       6.869289     -1.937262      0.690360
  H       1.239753     -4.580564      0.119655
  H       2.593196     -4.106483      1.158863
  H       1.993082     -5.771354      1.197069
  H       2.420322     -4.840694     -5.061747
  H       3.682982     -0.939176     -3.792145
  H       0.343956     -3.872636     -5.972980
  H       1.590028      0.031104     -4.688498
  H      -0.088406     -1.432652     -5.793334
  F      -0.257757     -2.010214      0.438952
  F      -2.299692     -1.277767      0.063992
  F       0.597034      0.158032     -1.331307
  F      -1.464615      0.901636     -1.122207
  F      -1.496761     -1.264177     -2.765436
  F       0.201602     -2.482034     -2.082155
  F      -1.159785      0.564705      1.696472
  F       0.971751      0.163867      1.328238
  F      -1.766504     -4.040121     -0.615395
  F      -3.268593     -2.968178     -1.820556
  F       0.479026      2.644659      2.115376
  F      -0.985324      2.976436      0.519483
  F      -2.671787     -5.319582     -2.880386
  F      -0.534245     -4.923408     -2.874272
  F      -1.865236     -3.721993     -4.121758
  O       2.485903      2.637082      0.355111
  O       0.989668      3.133641     -1.274472
  C      -1.037543     -1.318780     -0.421247
  C      -0.501965      0.155445     -0.537468
  C      -1.058024     -2.090198     -1.790226
  C      -0.124880      0.793833      0.840472
  C      -1.977841     -3.359300     -1.765650
  C       0.173168      2.324389      0.819175
  C      -1.742618     -4.355268     -2.948852
  C       1.345387      2.751802     -0.140671
80
Coordinates from ORCA-job R4N+PFOA-_r2 E -2865.067828805662
  N       5.497775      0.613830      2.529630
  C       3.405918     -4.146182     -1.567234
  C       4.246447     -4.623126     -2.761035
  C       4.494337     -3.545369     -3.829938
  C       4.022478     -2.942256     -0.890706
  C       3.158186     -5.287718     -0.566955
  C       5.738293      0.533805      1.015708
  C       5.149234     -0.678469      0.360440
  C       3.204770     -2.958194     -4.368414
  C       3.322755     -1.737399     -0.816224
  C       5.307107     -2.995188     -0.336690
  C       5.353965     -4.113343     -4.966659
  C       4.032970      0.541050      2.851672
  C       6.039295      1.930247      3.004001
  C       6.212067     -0.494365      3.241781
  C       3.874456     -0.617927     -0.205093
  C       5.865053     -1.878484      0.275290
  C       2.176303     -4.901998      0.536556
  C       2.243577     -3.771035     -4.981717
  C       2.952407     -1.586037     -4.280928
  C       1.071880     -3.225380     -5.498642
  C       1.776004     -1.036066     -4.789655
  C       0.831401     -1.854645     -5.403892
  H       2.422550     -3.840237     -1.951610
  H       3.739362     -5.481626     -3.222578
  H       5.219336     -4.987735     -2.403183
  H       5.052656     -2.724394     -3.359080
  H       4.115615     -5.601817     -0.128645
  H       2.766708     -6.149997     -1.123061
  H       6.824863      0.564532      0.891567
  H       5.305315      1.449968      0.602473
  H       2.340246     -1.672904     -1.269903
  H       5.884635     -3.914838     -0.393503
  H       5.565452     -3.347880     -5.721260
  H       4.843525     -4.947374     -5.462403
  H       6.309159     -4.483994     -4.577137
  H       3.654330     -0.439101      2.558952
  H       3.510949      1.333708      2.312087
  H       3.922491      0.680497      3.929229
  H       7.099955      1.985614      2.750052
  H       5.907371      1.991587      4.085980
  H       5.488831      2.734132      2.510862
  H       5.789895     -1.451498      2.931534
  H       6.068583     -0.358388      4.315677
  H       7.274649     -0.447041      2.994475
  H       3.315054      0.314250     -0.179833
  H       6.870982     -1.935103      0.684597
  H       1.217950     -4.579412      0.108911
  H       2.563503     -4.076910      1.146226
  H       1.979251     -5.747628      1.204297
  H       2.413543     -4.842591     -5.061471
  H       3.687153     -0.940364     -3.804276
  H       0.341948     -3.871602     -5.978970
  H       1.599795      0.033554     -4.708480
  H      -0.082848     -1.429481     -5.809825
  F      -0.240442     -2.012444      0.439290
  F      -2.288857     -1.292757      0.071415
  F       0.598318      0.159924     -1.325910
  F      -1.467674      0.894454     -1.115729
  F      -1.496283     -1.267117     -2.758962
  F       0.212014     -2.476995     -2.085973
  F      -1.158398      0.558538      1.701578
  F       0.975994      0.171474      1.330642
  F      -1.744704     -4.048039     -0.613487
  F      -3.253935     -2.984622     -1.817958
  F       0.473762      2.646432      2.117311
  F      -1.002835      2.969905      0.530666
  F      -2.645692     -5.329404     -2.883168
  F      -0.509847     -4.925745     -2.872091
  F      -1.842807     -3.725216     -4.118953
  O       2.469048      2.658143      0.347550
  O       0.960905      3.146930     -1.274503
  C      -1.027839     -1.324800     -0.417282
  C      -0.500797      0.152169     -0.532236
  C      -1.048709     -2.093695     -1.787544
  C      -0.126117      0.794094      0.844525
  C      -1.960630     -3.368448     -1.763308
  C       0.162549      2.325821      0.822242
  C      -1.720084     -4.361506     -2.947594
  C       1.325147      2.763957     -0.143491
80
Coordinates from ORCA-job R4N+PFOA-_r2 E -2865.067916663536
  N       5.503019      0.601694      2.535086
  C       3.392882     -4.128668     -1.570536
  C       4.232703     -4.616499     -2.760159
  C       4.490355     -3.547139     -3.834711
  C       4.017149     -2.927796     -0.895791
  C       3.128731     -5.262418     -0.567692
  C       5.740422      0.539159      1.020762
  C       5.154779     -0.670228      0.356084
  C       3.204850     -2.958792     -4.380074
  C       3.322627     -1.719979     -0.818990
  C       5.302994     -2.985892     -0.345386
  C       5.351740     -4.127940     -4.963448
  C       4.039756      0.539732      2.854929
  C       6.059031      1.908246      3.025553
  C       6.204279     -0.524181      3.235687
  C       3.880346     -0.603367     -0.209150
  C       5.866440     -1.871899      0.267167
  C       2.110661     -4.873288      0.501090
  C       2.242447     -3.774451     -4.987770
  C       2.954057     -1.586000     -4.301993
  C       1.069581     -3.231971     -5.504590
  C       1.777806     -1.038282     -4.813954
  C       0.830401     -1.860331     -5.419065
  H       2.413852     -3.812093     -1.957720
  H       3.718944     -5.472783     -3.218438
  H       5.202471     -4.987097     -2.399804
  H       5.050897     -2.725275     -3.367774
  H       4.076471     -5.563414     -0.099930
  H       2.760622     -6.134468     -1.124587
  H       6.825834      0.579155      0.890344
  H       5.291706      1.451851      0.617081
  H       2.341149     -1.649672     -1.273285
  H       5.878032     -3.906867     -0.405295
  H       5.566436     -3.371414     -5.726007
  H       4.841279     -4.966737     -5.451159
  H       6.305040     -4.496558     -4.567651
  H       3.649932     -0.432437      2.548976
  H       3.516803      1.335669      2.320481
  H       3.917630      0.667713      3.932454
  H       7.119867      1.952209      2.770867
  H       5.926181      1.955481      4.107971
  H       5.515882      2.721585      2.540264
  H       5.770218     -1.471252      2.910634
  H       6.056049     -0.396752      4.309876
  H       7.267556     -0.482338      2.990760
  H       3.325134      0.330985     -0.180781
  H       6.872565     -1.934724      0.674950
  H       1.153202     -4.598586      0.038877
  H       2.457484     -4.016409      1.091627
  H       1.923488     -5.703911      1.190167
  H       2.410962     -4.846689     -5.060482
  H       3.689564     -0.937491     -3.830306
  H       0.338520     -3.883343     -5.976164
  H       1.604452      0.032420     -4.740502
  H      -0.084362     -1.438063     -5.826836
  F      -0.200880     -2.006951      0.444890
  F      -2.262634     -1.315833      0.093792
  F       0.602797      0.166494     -1.316375
  F      -1.471257      0.884992     -1.104235
  F      -1.501671     -1.276726     -2.739877
  F       0.232704     -2.462663     -2.091132
  F      -1.150074      0.559857      1.710989
  F       0.987678      0.193802      1.332181
  F      -1.693905     -4.052842     -0.585494
  F      -3.219624     -3.028300     -1.803374
  F       0.471537      2.660425      2.113034
  F      -1.028590      2.966886      0.544888
  F      -2.564595     -5.368054     -2.853296
  F      -0.436349     -4.928220     -2.828909
  F      -1.782050     -3.755558     -4.091842
  O       2.443217      2.703178      0.324311
  O       0.913601      3.174505     -1.283544
  C      -1.005534     -1.330514     -0.405105
  C      -0.496171      0.151192     -0.522458
  C      -1.029601     -2.099149     -1.775168
  C      -0.124477      0.802593      0.849428
  C      -1.919254     -3.388491     -1.741742
  C       0.149037      2.336903      0.821086
  C      -1.655624     -4.385093     -2.916854
  C       1.292377      2.791888     -0.156824
80
Coordinates from ORCA-job R4N+PFOA-_r2 E -2865.067981919644
  N       5.500220      0.605309      2.533172
  C       3.396583     -4.133024     -1.572531
  C       4.238697     -4.617854     -2.761438
  C       4.494279     -3.546489     -3.834607
  C       4.018384     -2.931337     -0.895982
  C       3.135136     -5.269762     -0.570902
  C       5.740606      0.537070      1.019026
  C       5.154370     -0.673086      0.356807
  C       3.207402     -2.958863     -4.377924
  C       3.323057     -1.723874     -0.819430
  C       5.303529     -2.988789     -0.343950
  C       5.355413     -4.124035     -4.964954
  C       4.036816      0.543266      2.852343
  C       6.053629      1.914367      3.018874
  C       6.203367     -0.515847      3.238728
  C       3.880269     -0.606978     -0.209308
  C       5.866101     -1.874844      0.269049
  C       2.120870     -4.883929      0.502543
  C       2.245343     -3.773680     -4.987319
  C       2.955573     -1.586652     -4.295950
  C       1.072530     -3.230353     -5.503325
  C       1.778783     -1.038621     -4.805760
  C       0.832473     -1.859369     -5.413641
  H       2.416953     -3.818769     -1.959793
  H       3.728456     -5.475480     -3.220834
  H       5.208830     -4.986148     -2.400128
  H       5.054085     -2.724780     -3.366680
  H       4.083978     -5.572715     -0.106999
  H       2.764947     -6.140091     -1.129037
  H       6.826602      0.575629      0.893427
  H       5.295974      1.450636      0.612809
  H       2.340780     -1.654005     -1.272699
  H       5.878559     -3.909725     -0.402694
  H       5.569887     -3.365493     -5.725467
  H       4.845314     -4.961556     -5.454987
  H       6.308909     -4.493328     -4.570414
  H       3.648482     -0.430722      2.550739
  H       3.515308      1.337940      2.315149
  H       3.916911      0.674956      3.929681
  H       7.114919      1.959438      2.766499
  H       5.918658      1.966536      4.100763
  H       5.510319      2.724900      2.529094
  H       5.771730     -1.465132      2.918394
  H       6.055741     -0.384490      4.312495
  H       7.266505     -0.473661      2.993616
  H       3.325117      0.327559     -0.181475
  H       6.871796     -1.936785      0.677819
  H       1.163918     -4.601721      0.044822
  H       2.471654     -4.032783      1.098131
  H       1.931800     -5.717851      1.187009
  H       2.414931     -4.845413     -5.063390
  H       3.690705     -0.939153     -3.822473
  H       0.341156     -3.880552     -5.975869
  H       1.604194      0.031455     -4.728821
  H      -0.083564     -1.436720     -5.817896
  F      -0.208426     -2.008010      0.445498
  F      -2.267251     -1.311025      0.093075
  F       0.601370      0.165553     -1.317499
  F      -1.470371      0.886983     -1.104462
  F      -1.502912     -1.274773     -2.740532
  F       0.227027     -2.464234     -2.089417
  F      -1.148387      0.560512      1.712694
  F       0.987342      0.189483      1.332236
  F      -1.707575     -4.052330     -0.587727
  F      -3.228441     -3.017525     -1.800518
  F       0.474594      2.658518      2.113951
  F      -1.022194      2.967960      0.543716
  F      -2.592798     -5.353857     -2.861298
  F      -0.460872     -4.935328     -2.833059
  F      -1.791787     -3.746533     -4.094053
  O       2.449673      2.694899      0.325254
  O       0.922878      3.166118     -1.282863
  C      -1.009995     -1.329231     -0.405270
  C      -0.497118      0.151437     -0.522729
  C      -1.034783     -2.097948     -1.775273
  C      -0.123303      0.800256      0.849833
  C      -1.930131     -3.383888     -1.742404
  C       0.153106      2.335085      0.821970
  C      -1.674248     -4.379829     -2.920381
  C       1.299192      2.785835     -0.155026
80
Coordinates from ORCA-job R4N+PFOA-_r2 E -2865.068055484071
  N       5.497091      0.607513      2.530025
  C       3.397005     -4.135116     -1.578027
  C       4.244164     -4.618747     -2.763380
  C       4.500789     -3.546291     -3.835508
  C       4.016830     -2.933509     -0.898277
  C       3.133682     -5.273776     -0.577449
  C       5.741463      0.533600      1.016145
  C       5.154353     -0.676827      0.356415
  C       3.213476     -2.959072     -4.378529
  C       3.322529     -1.725323     -0.822116
  C       5.300608     -2.992516     -0.343352
  C       5.362721     -4.122000     -4.965765
  C       4.033877      0.548006      2.847328
  C       6.049835      1.918230      3.011695
  C       6.200230     -0.510030      3.240598
  C       3.881206     -0.609278     -0.211588
  C       5.863922     -1.879945      0.270767
  C       2.113898     -4.891296      0.491759
  C       2.252152     -3.772943     -4.990281
  C       2.960190     -1.587656     -4.291746
  C       1.078800     -3.228986     -5.504110
  C       1.782333     -1.039546     -4.798367
  C       0.837115     -1.858950     -5.408782
  H       2.418235     -3.821707     -1.967730
  H       3.738290     -5.477881     -3.224475
  H       5.213354     -4.985302     -2.398297
  H       5.059733     -2.724878     -3.366239
  H       4.080763     -5.575862     -0.109849
  H       2.767332     -6.144257     -1.137806
  H       6.828132      0.571807      0.897131
  H       5.299933      1.447809      0.608132
  H       2.339316     -1.653661     -1.273438
  H       5.874040     -3.914427     -0.400388
  H       5.579149     -3.362180     -5.724335
  H       4.853045     -4.957983     -5.458594
  H       6.315372     -4.492818     -4.570770
  H       3.644934     -0.426849      2.549562
  H       3.514831      1.341949      2.306995
  H       3.915093      0.682800      3.924415
  H       7.112130      1.962365      2.763766
  H       5.910604      1.975737      4.092726
  H       5.508762      2.726732      2.516139
  H       5.769397     -1.460837      2.924907
  H       6.053486     -0.374409      4.313907
  H       7.263251     -0.469145      2.995187
  H       3.328372      0.326748     -0.183354
  H       6.868619     -1.942878      0.681626
  H       1.158788     -4.610773      0.030219
  H       2.458790     -4.039834      1.089604
  H       1.923544     -5.725369      1.175582
  H       2.423220     -4.844048     -5.070374
  H       3.694715     -0.941335     -3.815939
  H       0.346847     -3.878418     -5.976472
  H       1.606190      0.029814     -4.717133
  H      -0.081354     -1.436359     -5.807302
  F      -0.209016     -2.008308      0.447607
  F      -2.267000     -1.308529      0.100704
  F       0.599266      0.167789     -1.316081
  F      -1.470786      0.888626     -1.098571
  F      -1.509744     -1.273542     -2.735453
  F       0.221663     -2.460972     -2.089011
  F      -1.141299      0.559175      1.721159
  F       0.991741      0.188173      1.333054
  F      -1.716623     -4.049341     -0.580404
  F      -3.233570     -3.013770     -1.794461
  F       0.481513      2.657905      2.116452
  F      -1.020158      2.967567      0.551542
  F      -2.603355     -5.347097     -2.859969
  F      -0.469665     -4.939844     -2.820000
  F      -1.785857     -3.745066     -4.087902
  O       2.451516      2.695957      0.317007
  O       0.917895      3.158595     -1.283636
  C      -1.011163     -1.327975     -0.401157
  C      -0.497624      0.152436     -0.518891
  C      -1.039457     -2.095997     -1.771500
  C      -0.120062      0.797938      0.853961
  C      -1.936148     -3.381167     -1.736049
  C       0.155570      2.334503      0.825950
  C      -1.679487     -4.378311     -2.913259
  C       1.298242      2.783890     -0.155923
80
Coordinates from ORCA-job R4N+PFOA-_r2 E -2865.068119111491
  N       5.494599      0.608918      2.525922
  C       3.394406     -4.135152     -1.584669
  C       4.247503     -4.619624     -2.765231
  C       4.508338     -3.547121     -3.836623
  C       4.013174     -2.934681     -0.901128
  C       3.124793     -5.274175     -0.585333
  C       5.742903      0.529784      1.012277
  C       5.154602     -0.680700      0.355062
  C       3.221915     -2.959002     -4.380916
  C       3.321406     -1.724932     -0.826032
  C       5.295349     -2.996746     -0.342794
  C       5.371654     -4.123080     -4.965374
  C       4.031304      0.552727      2.840362
  C       6.047757      1.920504      3.004603
  C       6.196034     -0.506339      3.240958
  C       3.882763     -0.610283     -0.215395
  C       5.860652     -1.886043      0.272392
  C       2.092989     -4.893908      0.472846
  C       2.261354     -3.771442     -4.995667
  C       2.967516     -1.588244     -4.288750
  C       1.087130     -3.226592     -5.506337
  C       1.788401     -1.039566     -4.791532
  C       0.843711     -1.857457     -5.404284
  H       2.417958     -3.820905     -1.979112
  H       3.744777     -5.479402     -3.228483
  H       5.214713     -4.986080     -2.395089
  H       5.066916     -2.726475     -3.365731
  H       4.067882     -5.573523     -0.108283
  H       2.766100     -6.146001     -1.148532
  H       6.830107      0.567802      0.898806
  H       5.303370      1.444092      0.602505
  H       2.337399     -1.650113     -1.275045
  H       5.866201     -3.920326     -0.397934
  H       5.592011     -3.362720     -5.722241
  H       4.861720     -4.957151     -5.461036
  H       6.322489     -4.496555     -4.568512
  H       3.640676     -0.422200      2.545116
  H       3.515099      1.346493      2.297106
  H       3.912070      0.689828      3.917141
  H       7.111350      1.962463      2.762075
  H       5.903455      1.983116      4.084681
  H       5.510550      2.728076      2.503337
  H       5.764819     -1.458174      2.929048
  H       6.049943     -0.367055      4.313880
  H       7.259157     -0.467958      2.995727
  H       3.333698      0.328004     -0.186499
  H       6.864090     -1.951299      0.685881
  H       1.140657     -4.621250      0.001216
  H       2.425957     -4.037673      1.070529
  H       1.901317     -5.725825      1.158887
  H       2.433573     -4.842017     -5.079900
  H       3.701581     -0.943393     -3.810380
  H       0.354500     -3.875006     -5.978954
  H       1.610800      0.029153     -4.705265
  H      -0.077395     -1.434792     -5.796423
  F      -0.203044     -2.008284      0.450520
  F      -2.262723     -1.309475      0.113279
  F       0.596551      0.171799     -1.312923
  F      -1.473030      0.889051     -1.087516
  F      -1.519981     -1.272989     -2.726219
  F       0.218226     -2.454196     -2.089834
  F      -1.130276      0.554409      1.733972
  F       1.000379      0.188919      1.333701
  F      -1.718429     -4.046259     -0.567647
  F      -3.233876     -3.016990     -1.786729
  F       0.493871      2.656690      2.120433
  F      -1.022108      2.965396      0.569644
  F      -2.598629     -5.347156     -2.853159
  F      -0.464414     -4.943511     -2.795703
  F      -1.767027     -3.748762     -4.076214
  O       2.447987      2.705291      0.300261
  O       0.896994      3.152774     -1.285915
  C      -1.009021     -1.327506     -0.394162
  C      -0.497638      0.153476     -0.511976
  C      -1.042298     -2.093945     -1.765158
  C      -0.115036      0.795812      0.860845
  C      -1.936141     -3.381254     -1.725531
  C       0.156811      2.334257      0.832881
  C      -1.672656     -4.380455     -2.899625
  C       1.289288      2.785660     -0.160073
80
Coordinates from ORCA-job R4N+PFOA-_r2 E -2865.068175479984
  N       5.492951      0.610588      2.520761
  C       3.389779     -4.134854     -1.590516
  C       4.248340     -4.621295     -2.766496
  C       4.515613     -3.549141     -3.836974
  C       4.008333     -2.936191     -0.903383
  C       3.111474     -5.273436     -0.592903
  C       5.744881      0.525825      1.007389
  C       5.154814     -0.684793      0.352948
  C       3.231302     -2.958148     -4.383272
  C       3.319913     -1.724429     -0.830236
  C       5.288938     -3.001857     -0.341599
  C       5.380368     -4.126836     -4.963600
  C       4.028878      0.557089      2.831635
  C       6.046242      1.922991      2.996378
  C       6.191942     -0.502582      3.240574
  C       3.884362     -0.611076     -0.220097
  C       5.856815     -1.892791      0.274078
  C       2.066887     -4.894304      0.452928
  C       2.271374     -3.767956     -5.002395
  C       2.976616     -1.587844     -4.284561
  C       1.096425     -3.221186     -5.509329
  C       1.796541     -1.037325     -4.783144
  C       0.851752     -1.852848     -5.399004
  H       2.416705     -3.818498     -1.991454
  H       3.746680     -5.480351     -3.232342
  H       5.213001     -4.989523     -2.391459
  H       5.074695     -2.730044     -3.364038
  H       4.049844     -5.570296     -0.105147
  H       2.760521     -6.146491     -1.159121
  H       6.832482      0.562433      0.897548
  H       5.307509      1.439908      0.594850
  H       2.335210     -1.646204     -1.276975
  H       5.856804     -3.927435     -0.394642
  H       5.606066     -3.366187     -5.718656
  H       4.869146     -4.958353     -5.462230
  H       6.328645     -4.504237     -4.564207
  H       3.636904     -0.417788      2.538162
  H       3.515639      1.350892      2.285518
  H       3.908132      0.696604      3.907992
  H       7.111168      1.962531      2.759213
  H       5.897008      1.990910      4.075518
  H       5.513292      2.729952      2.489549
  H       5.760256     -1.455503      2.932219
  H       6.045835     -0.359710      4.313063
  H       7.255432     -0.467111      2.996320
  H       3.339508      0.329678     -0.191144
  H       6.858934     -1.960903      0.690349
  H       1.117655     -4.629992     -0.029750
  H       2.387993     -4.032788      1.049776
  H       1.873390     -5.723772      1.141470
  H       2.444103     -4.838083     -5.091625
  H       3.710527     -0.945214     -3.803010
  H       0.363357     -3.867389     -5.984391
  H       1.617894      0.030781     -4.690626
  H      -0.071369     -1.429204     -5.785234
  F      -0.194908     -2.008781      0.453714
  F      -2.257579     -1.312856      0.126722
  F       0.592744      0.175808     -1.309458
  F      -1.476958      0.888810     -1.072921
  F      -1.531752     -1.272553     -2.715243
  F       0.215880     -2.446150     -2.091421
  F      -1.116988      0.546609      1.748438
  F       1.011840      0.189856      1.333218
  F      -1.715187     -4.044480     -0.554544
  F      -3.231379     -3.024816     -1.779972
  F       0.511724      2.653569      2.125243
  F      -1.025967      2.961522      0.596061
  F      -2.584400     -5.351377     -2.846221
  F      -0.450708     -4.945527     -2.769084
  F      -1.742185     -3.753741     -4.063492
  O       2.440560      2.719246      0.277168
  O       0.864170      3.148465     -1.289027
  C      -1.005856     -1.327954     -0.386147
  C      -0.497679      0.154051     -0.503523
  C      -1.044180     -2.092110     -1.758059
  C      -0.108640      0.793649      0.868941
  C      -1.932478     -3.383487     -1.714719
  C       0.158005      2.333406      0.841796
  C      -1.658890     -4.384105     -2.885180
  C       1.274883      2.789470     -0.166945
80
Coordinates from ORCA-job R4N+PFOA-_r2 E -2865.068231330361
  N       5.492017      0.613345      2.514847
  C       3.384755     -4.135888     -1.593926
  C       4.247181     -4.624022     -2.766920
  C       4.521363     -3.551822     -3.835901
  C       4.003644     -2.939251     -0.903899
  C       3.098196     -5.274283     -0.598890
  C       5.747382      0.521788      1.002020
  C       5.154893     -0.689231      0.350756
  C       3.239845     -2.956010     -4.383743
  C       3.318535     -1.725535     -0.833461
  C       5.282879     -3.008058     -0.338943
  C       5.386969     -4.131681     -4.960804
  C       4.026309      0.561171      2.821683
  C       6.044303      1.927152      2.986457
  C       6.188625     -0.497033      3.240512
  C       3.885689     -0.612791     -0.224684
  C       5.853077     -1.899840      0.276442
  C       2.045769     -4.895669      0.439207
  C       2.280249     -3.761695     -5.008737
  C       2.985917     -1.585982     -4.277259
  C       1.105180     -3.211587     -5.512023
  C       1.805569     -1.032038     -4.771700
  C       0.860209     -1.843920     -5.392076
  H       2.415441     -3.816697     -2.001896
  H       3.744380     -5.480948     -3.235681
  H       5.209418     -4.995459     -2.388596
  H       5.081938     -2.735098     -3.360579
  H       4.032988     -5.570971     -0.104031
  H       2.751415     -6.147140     -1.168045
  H       6.835300      0.554706      0.893942
  H       5.313608      1.435509      0.584882
  H       2.333246     -1.644852     -1.278396
  H       5.848012     -3.935524     -0.389709
  H       5.618195     -3.370566     -5.713827
  H       4.873534     -4.960127     -5.462371
  H       6.332514     -4.513779     -4.559233
  H       3.634459     -0.414180      2.530003
  H       3.515999      1.354740      2.272303
  H       3.903379      0.704140      3.897409
  H       7.110341      1.964821      2.753610
  H       5.891121      2.000690      4.064764
  H       5.514755      2.733024      2.474279
  H       5.757376     -1.451487      2.935747
  H       6.041159     -0.350132      4.312336
  H       7.252759     -0.463880      2.998357
  H       3.344292      0.329961     -0.197318
  H       6.853962     -1.970534      0.695397
  H       1.098806     -4.634955     -0.050083
  H       2.360685     -4.031992      1.036562
  H       1.850177     -5.724477      1.128060
  H       2.452717     -4.831412     -5.104148
  H       3.720063     -0.946505     -3.791847
  H       0.372159     -3.853987     -5.992567
  H       1.626565      0.035483     -4.671755
  H      -0.063735     -1.417949     -5.773772
  F      -0.188636     -2.010494      0.456777
  F      -2.254252     -1.317464      0.137572
  F       0.587668      0.177661     -1.307498
  F      -1.482099      0.887914     -1.057481
  F      -1.542596     -1.271641     -2.704931
  F       0.213740     -2.439480     -2.093003
  F      -1.103235      0.537094      1.761394
  F       1.024254      0.189200      1.330385
  F      -1.710674     -4.045084     -0.545827
  F      -3.228816     -3.033493     -1.775969
  F       0.533072      2.648327      2.129020
  F      -1.029432      2.956107      0.625173
  F      -2.570196     -5.355379     -2.844434
  F      -0.437283     -4.946641     -2.749320
  F      -1.719741     -3.755678     -4.054158
  O       2.431749      2.733397      0.250894
  O       0.826970      3.145789     -1.292569
  C      -1.003759     -1.329524     -0.378932
  C      -0.498170      0.153404     -0.495610
  C      -1.046002     -2.090992     -1.751918
  C      -0.101522      0.791051      0.875959
  C      -1.928526     -3.386674     -1.707158
  C       0.160195      2.331207      0.850283
  C      -1.645657     -4.386866     -2.875544
  C       1.258944      2.793449     -0.175835
80
Coordinates from ORCA-job R4N+PFOA-_r2 E -2865.068288857527
  N       5.491288      0.617041      2.508648
  C       3.379955     -4.138361     -1.595210
  C       4.244766     -4.627147     -2.766957
  C       4.525504     -3.554145     -3.833697
  C       3.999676     -2.944137     -0.902477
  C       3.085655     -5.277344     -0.604197
  C       5.751066      0.517007      0.997070
  C       5.155361     -0.694445      0.349022
  C       3.247044     -2.952081     -4.382109
  C       3.317813     -1.728549     -0.835213
  C       5.277599     -3.015710     -0.334470
  C       5.391312     -4.135962     -4.957565
  C       4.023118      0.566048      2.810275
  C       6.042064      1.932743      2.975237
  C       6.184446     -0.490113      3.242162
  C       3.887389     -0.615723     -0.228847
  C       5.849730     -1.907678      0.280078
  C       2.030578     -4.898487      0.431122
  C       2.287560     -3.752387     -5.014248
  C       2.994519     -1.582358     -4.266649
  C       1.112956     -3.197832     -5.514116
  C       1.814532     -1.023790     -4.757087
  C       0.868483     -1.830825     -5.383454
  H       2.414691     -3.815333     -2.010111
  H       3.739097     -5.480731     -3.238967
  H       5.204960     -5.002696     -2.387215
  H       5.088359     -2.740468     -3.355728
  H       4.018012     -5.577026     -0.106244
  H       2.739008     -6.148146     -1.176621
  H       6.839342      0.543210      0.890218
  H       5.323436      1.430375      0.572922
  H       2.332063     -1.646614     -1.278883
  H       5.840237     -3.944918     -0.382767
  H       5.627504     -3.374204     -5.708502
  H       4.875252     -4.961227     -5.461794
  H       6.334304     -4.522848     -4.554470
  H       3.632796     -0.410436      2.520911
  H       3.516287      1.358741      2.256282
  H       3.896819      0.714333      3.884944
  H       7.108995      1.968449      2.745712
  H       5.885648      2.012198      4.052740
  H       5.515241      2.736858      2.457473
  H       5.754240     -1.446171      2.940587
  H       6.033075     -0.338220      4.312804
  H       7.249646     -0.458915      3.004099
  H       3.348517      0.328484     -0.205536
  H       6.849342     -1.980783      0.701818
  H       1.085511     -4.634786     -0.060404
  H       2.345867     -4.036906      1.031500
  H       1.831336     -5.728941      1.117052
  H       2.459313     -4.821609     -5.117120
  H       3.729092     -0.946796     -3.776717
  H       0.380675     -3.835203     -6.002795
  H       1.635688      0.043062     -4.648574
  H      -0.055149     -1.401342     -5.761978
  F      -0.183878     -2.013337      0.460365
  F      -2.252252     -1.323723      0.146554
  F       0.580998      0.176742     -1.308156
  F      -1.488487      0.885829     -1.041509
  F      -1.551909     -1.271136     -2.694771
  F       0.211926     -2.435286     -2.093929
  F      -1.087780      0.527209      1.772490
  F       1.038243      0.187128      1.323939
  F      -1.705501     -4.048319     -0.540236
  F      -3.226441     -3.043006     -1.773004
  F       0.558023      2.642135      2.129591
  F      -1.031723      2.949165      0.654066
  F      -2.558434     -5.358949     -2.846586
  F      -0.426336     -4.948612     -2.736508
  F      -1.701445     -3.755174     -4.047311
  O       2.422408      2.748013      0.219994
  O       0.787397      3.146297     -1.297436
  C      -1.002466     -1.332607     -0.372164
  C      -0.499029      0.151125     -0.488727
  C      -1.047561     -2.091500     -1.746119
  C      -0.093011      0.788067      0.880747
  C      -1.924674     -3.391196     -1.701764
  C       0.164127      2.327963      0.856341
  C      -1.634638     -4.389381     -2.869866
  C       1.242399      2.798131     -0.187932
80
Coordinates from ORCA-job R4N+PFOA-_r2 E -2865.068341197304
  N       5.490381      0.621187      2.503154
  C       3.377254     -4.142482     -1.594279
  C       4.242805     -4.629985     -2.766665
  C       4.527483     -3.554975     -3.830524
  C       3.997773     -2.950305     -0.899481
  C       3.078791     -5.283156     -0.607541
  C       5.755161      0.512045      0.993585
  C       5.156060     -0.699838      0.348462
  C       3.251280     -2.947234     -4.378062
  C       3.318017     -1.733495     -0.834881
  C       5.274581     -3.023482     -0.329035
  C       5.392900     -4.136922     -4.954737
  C       4.019841      0.571719      2.799546
  C       6.039812      1.939041      2.964312
  C       6.179681     -0.482688      3.245375
  C       3.889026     -0.619952     -0.231343
  C       5.847514     -1.915030      0.284536
  C       2.028435     -4.903669      0.432413
  C       2.291809     -3.742225     -5.017039
  C       3.000257     -1.577905     -4.254345
  C       1.118392     -3.183152     -5.514977
  C       1.821349     -1.014734     -4.742234
  C       0.875085     -1.816705     -5.375164
  H       2.414998     -3.815751     -2.013609
  H       3.734235     -5.480253     -3.241677
  H       5.201961     -5.008898     -2.387512
  H       5.092463     -2.744216     -3.350000
  H       4.011013     -5.588858     -0.112731
  H       2.727183     -6.150218     -1.182598
  H       6.843827      0.529924      0.888501
  H       5.335510      1.425181      0.561176
  H       2.332057     -1.651927     -1.278122
  H       5.835630     -3.953810     -0.375097
  H       5.631773     -3.374069     -5.703756
  H       4.874981     -4.959754     -5.461072
  H       6.334427     -4.527138     -4.551454
  H       3.632045     -0.406624      2.513513
  H       3.516383      1.362482      2.239716
  H       3.889865      0.726848      3.872821
  H       7.107172      1.973214      2.736250
  H       5.881687      2.023714      4.041197
  H       5.514171      2.740767      2.441682
  H       5.751086     -1.440151      2.945870
  H       6.022385     -0.325670      4.314435
  H       7.246141     -0.452481      3.012745
  H       3.351032      0.324770     -0.213780
  H       6.846036     -1.989615      0.708696
  H       1.083997     -4.630150     -0.054838
  H       2.351661     -4.048620      1.037842
  H       1.825275     -5.737841      1.112708
  H       2.462670     -4.810930     -5.126905
  H       3.735023     -0.946165     -3.759731
  H       0.387428     -3.815676     -6.012125
  H       1.643153      0.051502     -4.626203
  H      -0.047170     -1.383364     -5.752681
  F      -0.183559     -2.017040      0.463262
  F      -2.252913     -1.328758      0.151371
  F       0.573918      0.173449     -1.312020
  F      -1.494096      0.883795     -1.029106
  F      -1.557086     -1.270839     -2.688387
  F       0.209440     -2.435583     -2.093714
  F      -1.073226      0.518505      1.779819
  F       1.050773      0.182838      1.314747
  F      -1.704961     -4.052585     -0.539823
  F      -3.227366     -3.048020     -1.772029
  F       0.581031      2.635222      2.126833
  F      -1.031502      2.941719      0.675432
  F      -2.557576     -5.358635     -2.853110
  F      -0.425530     -4.950971     -2.735477
  F      -1.695496     -3.750983     -4.045654
  O       2.415768      2.757589      0.191925
  O       0.756620      3.148582     -1.302264
  C      -1.003359     -1.336215     -0.367982
  C      -0.500274      0.147749     -0.484934
  C      -1.049758     -2.093363     -1.742653
  C      -0.084807      0.784012      0.882002
  C      -1.924882     -3.394507     -1.700449
  C       0.169344      2.323335      0.858540
  C      -1.632888     -4.389707     -2.870535
  C       1.230177      2.800861     -0.200103
80
Coordinates from ORCA-job R4N+PFOA-_r2 E -2865.068401097609
  N       5.489341      0.625491      2.497611
  C       3.373795     -4.146305     -1.592836
  C       4.239454     -4.632954     -2.765978
  C       4.528371     -3.555972     -3.826889
  C       3.996338     -2.956709     -0.895967
  C       3.070779     -5.288529     -0.610302
  C       5.761030      0.505807      0.991309
  C       5.157740     -0.706017      0.348710
  C       3.255012     -2.941678     -4.373727
  C       3.319055     -1.738453     -0.833659
  C       5.271751     -3.032063     -0.322889
  C       5.393012     -4.138363     -4.951484
  C       4.016698      0.579801      2.787200
  C       6.038771      1.945339      2.953039
  C       6.172357     -0.475545      3.250563
  C       3.891842     -0.624417     -0.233299
  C       5.845556     -1.923434      0.289929
  C       2.028771     -4.906216      0.437058
  C       2.294976     -3.730360     -5.019771
  C       3.007223     -1.572497     -4.242970
  C       1.124370     -3.165396     -5.517796
  C       1.830903     -1.003470     -4.730165
  C       0.884204     -1.799178     -5.370330
  H       2.414945     -3.813898     -2.015761
  H       3.727573     -5.479703     -3.243720
  H       5.197427     -5.015620     -2.387704
  H       5.096048     -2.748530     -3.343907
  H       4.003112     -5.603140     -0.121166
  H       2.710726     -6.150709     -1.187410
  H       6.850206      0.513437      0.890090
  H       5.351635      1.418845      0.549042
  H       2.333125     -1.657357     -1.276957
  H       5.830873     -3.963646     -0.366535
  H       5.634336     -3.374964     -5.699116
  H       4.873351     -4.959122     -5.459329
  H       6.333133     -4.531641     -4.548048
  H       3.631540     -0.400853      2.505715
  H       3.517325      1.367233      2.219186
  H       3.881715      0.743985      3.858464
  H       7.106371      1.977107      2.725749
  H       5.879299      2.035038      4.029281
  H       5.514148      2.744338      2.425320
  H       5.745054     -1.433773      2.951754
  H       6.006191     -0.312706      4.317369
  H       7.240482     -0.446581      3.025731
  H       3.354605      0.320729     -0.223273
  H       6.842768     -1.999901      0.716826
  H       1.085116     -4.619225     -0.043503
  H       2.364183     -4.059677      1.047602
  H       1.820216     -5.743976      1.111255
  H       2.463621     -4.798726     -5.135958
  H       3.742469     -0.945316     -3.743358
  H       0.394856     -3.792650     -6.023752
  H       1.655005      0.062448     -4.607719
  H      -0.035206     -1.360837     -5.749003
  F      -0.180749     -2.022362      0.466052
  F      -2.251526     -1.337214      0.158561
  F       0.564625      0.170157     -1.318095
  F      -1.501059      0.879876     -1.013709
  F      -1.561553     -1.271977     -2.680914
  F       0.207238     -2.437716     -2.093484
  F      -1.053132      0.505454      1.789604
  F       1.067277      0.177188      1.302022
  F      -1.703259     -4.059397     -0.539693
  F      -3.228055     -3.054422     -1.768388
  F       0.608198      2.625322      2.122358
  F      -1.033006      2.930047      0.702374
  F      -2.559608     -5.357740     -2.860741
  F      -0.427338     -4.955149     -2.738753
  F      -1.692673     -3.745932     -4.044391
  O       2.404814      2.771185      0.155353
  O       0.715900      3.154320     -1.307070
  C      -1.003067     -1.342099     -0.363132
  C      -0.501679      0.142476     -0.480792
  C      -1.051412     -2.097218     -1.738667
  C      -0.074367      0.776811      0.882831
  C      -1.924855     -3.399311     -1.698688
  C       0.174348      2.316255      0.860724
  C      -1.633201     -4.390476     -2.872424
  C       1.212115      2.805161     -0.215433
80
Coordinates from ORCA-job R4N+PFOA-_r2 E -2865.068462257053
  N       5.485392      0.630858      2.491803
  C       3.372023     -4.151496     -1.592605
  C       4.237875     -4.635583     -2.766830
  C       4.529554     -3.555037     -3.823489
  C       3.996677     -2.964887     -0.892389
  C       3.065438     -5.296514     -0.615114
  C       5.768862      0.497149      0.990131
  C       5.160985     -0.714424      0.350246
  C       3.258070     -2.934674     -4.367665
  C       3.322066     -1.744959     -0.832354
  C       5.269975     -3.042874     -0.315481
  C       5.393007     -4.135295     -4.950015
  C       4.010508      0.593690      2.770959
  C       6.037502      1.952210      2.940803
  C       6.157186     -0.467752      3.259488
  C       3.896789     -0.630603     -0.235192
  C       5.844283     -1.934469      0.297550
  C       2.034080     -4.912012      0.441980
  C       2.297627     -3.716535     -5.021458
  C       3.012161     -1.566364     -4.226568
  C       1.129368     -3.145533     -5.518167
  C       1.837769     -0.991649     -4.711319
  C       0.891541     -1.780108     -5.360663
  H       2.416212     -3.812429     -2.017184
  H       3.724097     -5.479207     -3.248017
  H       5.194983     -5.021217     -2.389606
  H       5.099586     -2.751186     -3.337323
  H       3.998243     -5.621932     -0.134001
  H       2.695071     -6.152587     -1.194711
  H       6.858838      0.492684      0.897833
  H       5.373401      1.409826      0.534866
  H       2.336238     -1.664305     -1.276020
  H       5.826896     -3.975873     -0.356054
  H       5.635368     -3.370306     -5.695599
  H       4.872360     -4.954002     -5.460051
  H       6.332488     -4.531099     -4.547721
  H       3.626615     -0.389726      2.497275
  H       3.517513      1.375132      2.189616
  H       3.867351      0.771342      3.838944
  H       7.105622      1.979279      2.715582
  H       5.875370      2.048185      4.016033
  H       5.515814      2.748525      2.406262
  H       5.731116     -1.426122      2.959694
  H       5.977369     -0.297984      4.322927
  H       7.227858     -0.441323      3.047153
  H       3.360548      0.315073     -0.234883
  H       6.839513     -2.013160      0.728637
  H       1.091401     -4.608699     -0.029907
  H       2.383785     -4.076044      1.058689
  H       1.819258     -5.753912      1.108935
  H       2.464773     -4.784154     -5.145977
  H       3.747175     -0.944357     -3.720320
  H       0.401493     -3.767773     -6.032553
  H       1.662697      0.073099     -4.578469
  H      -0.025392     -1.336668     -5.739407
  F      -0.178089     -2.027859      0.467215
  F      -2.249370     -1.343543      0.166662
  F       0.554056      0.167070     -1.329714
  F      -1.507632      0.876425     -0.998625
  F      -1.567016     -1.274830     -2.674809
  F       0.202670     -2.442608     -2.093139
  F      -1.025395      0.490880      1.799457
  F       1.088795      0.169374      1.282083
  F      -1.704275     -4.065929     -0.538495
  F      -3.231660     -3.059816     -1.762230
  F       0.644005      2.612580      2.113892
  F      -1.028616      2.918178      0.730754
  F      -2.565679     -5.357572     -2.864962
  F      -0.433126     -4.958457     -2.743101
  F      -1.696867     -3.742357     -4.042585
  O       2.396862      2.782773      0.110644
  O       0.675968      3.160904     -1.313847
  C      -1.003063     -1.347868     -0.359556
  C      -0.502469      0.137008     -0.479383
  C      -1.054990     -2.102179     -1.735285
  C      -0.059659      0.767393      0.880485
  C      -1.928054     -3.403909     -1.695897
  C       0.184491      2.307819      0.860430
  C      -1.638124     -4.391635     -2.873249
  C       1.196414      2.808670     -0.235013
80
Coordinates from ORCA-job R4N+PFOA-_r2 E -2865.068522887098
  N       5.482896      0.631335      2.494938
  C       3.373378     -4.150735     -1.592227
  C       4.236945     -4.633527     -2.768223
  C       4.525913     -3.552077     -3.824707
  C       4.000217     -2.965772     -0.890602
  C       3.067624     -5.296868     -0.615662
  C       5.774334      0.492946      0.996284
  C       5.164873     -0.717241      0.354953
  C       3.253599     -2.932419     -4.367704
  C       3.326524     -1.745235     -0.829977
  C       5.272399     -3.045511     -0.312151
  C       5.388362     -4.130754     -4.952710
  C       4.007693      0.603036      2.767000
  C       6.040574      1.950878      2.944459
  C       6.144455     -0.469965      3.268788
  C       3.901645     -0.631546     -0.232461
  C       5.846366     -1.938136      0.302899
  C       2.044645     -4.910077      0.448705
  C       2.292247     -3.714466     -5.019936
  C       3.008993     -1.563706     -4.229467
  C       1.125525     -3.142876     -5.519492
  C       1.835966     -0.988669     -4.716828
  C       0.889737     -1.776787     -5.365940
  H       2.417473     -3.807750     -2.013008
  H       3.723550     -5.477651     -3.248828
  H       5.194924     -5.018371     -2.392613
  H       5.096012     -2.748037     -3.339022
  H       4.001687     -5.628278     -0.141284
  H       2.689938     -6.149915     -1.194966
  H       6.864836      0.483334      0.911603
  H       5.386172      1.406045      0.535802
  H       2.341749     -1.664523     -1.275601
  H       5.828611     -3.978895     -0.352388
  H       5.627950     -3.365882     -5.699210
  H       4.868783     -4.950847     -5.461515
  H       6.329255     -4.524593     -4.551880
  H       3.622202     -0.381062      2.498018
  H       3.518663      1.380314      2.176671
  H       3.858720      0.788530      3.832760
  H       7.108824      1.973538      2.719812
  H       5.877631      2.046912      4.019479
  H       5.521721      2.748278      2.408847
  H       5.717337     -1.426243      2.963887
  H       5.954853     -0.299282      4.330321
  H       7.216921     -0.446285      3.065727
  H       3.366226      0.314671     -0.236707
  H       6.840597     -2.018023      0.735999
  H       1.101698     -4.598300     -0.016925
  H       2.403440     -4.079116      1.066849
  H       1.827541     -5.752953      1.113576
  H       2.457991     -4.782525     -5.142027
  H       3.744288     -0.941508     -3.724004
  H       0.397816     -3.766309     -6.032473
  H       1.662344      0.076545     -4.586007
  H      -0.025233     -1.332532     -5.748364
  F      -0.171396     -2.029325      0.463607
  F      -2.243285     -1.346696      0.169201
  F       0.550800      0.169077     -1.339683
  F      -1.508962      0.874116     -0.996050
  F      -1.564567     -1.279537     -2.676698
  F       0.203119     -2.449083     -2.093911
  F      -1.009952      0.483220      1.800352
  F       1.100576      0.166130      1.268839
  F      -1.701012     -4.069039     -0.537729
  F      -3.231972     -3.060687     -1.754252
  F       0.656282      2.606463      2.107277
  F      -1.027058      2.910839      0.737075
  F      -2.573924     -5.359674     -2.858742
  F      -0.440654     -4.961702     -2.751263
  F      -1.712068     -3.745681     -4.042493
  O       2.394325      2.789012      0.090353
  O       0.661813      3.169658     -1.316898
  C      -0.999144     -1.350663     -0.361548
  C      -0.500751      0.134878     -0.483264
  C      -1.053691     -2.106452     -1.736386
  C      -0.051244      0.761936      0.875152
  C      -1.928671     -3.406284     -1.694108
  C       0.188804      2.303528      0.856497
  C      -1.645920     -4.394453     -2.873162
  C       1.190693      2.812038     -0.244607
80
Coordinates from ORCA-job R4N+PFOA-_r2 E -2865.068589928456
  N       5.477910      0.631351      2.500546
  C       3.377381     -4.148836     -1.593613
  C       4.238480     -4.629304     -2.771383
  C       4.521980     -3.546104     -3.827362
  C       4.006228     -2.965657     -0.889914
  C       3.073730     -5.296526     -0.617548
  C       5.780663      0.487873      1.004810
  C       5.170683     -0.720612      0.361575
  C       3.246850     -2.930274     -4.368112
  C       3.333570     -1.744419     -0.828515
  C       5.276832     -3.047904     -0.308988
  C       5.383614     -4.120618     -4.957994
  C       4.002287      0.616874      2.762537
  C       6.044717      1.946885      2.952325
  C       6.124069     -0.474838      3.281099
  C       3.908936     -0.632219     -0.228713
  C       5.850341     -1.942425      0.309659
  C       2.056135     -4.909267      0.451679
  C       2.284618     -3.715473     -5.015078
  C       3.001741     -1.561112     -4.235228
  C       1.117650     -3.146139     -5.516531
  C       1.828431     -0.988556     -4.724787
  C       0.882039     -1.779435     -5.369848
  H       2.420247     -3.802580     -2.008254
  H       3.727713     -5.475364     -3.251297
  H       5.198016     -5.011584     -2.397198
  H       5.090481     -2.740732     -3.342105
  H       4.008948     -5.631523     -0.148221
  H       2.691378     -6.147537     -1.196815
  H       6.871842      0.474660      0.931315
  H       5.399908      1.401436      0.539197
  H       2.350012     -1.662457     -1.276858
  H       5.832121     -3.981829     -0.349045
  H       5.618797     -3.354610     -5.704679
  H       4.866006     -4.942244     -5.466312
  H       6.326862     -4.511529     -4.559792
  H       3.611378     -0.367260      2.500985
  H       3.519401      1.388322      2.159717
  H       3.845294      0.813117      3.825168
  H       7.113708      1.962184      2.731037
  H       5.878811      2.043368      4.026810
  H       5.532703      2.747660      2.415132
  H       5.694679     -1.427873      2.969201
  H       5.922776     -0.304259      4.340454
  H       7.198896     -0.456891      3.090436
  H       3.376040      0.315447     -0.236463
  H       6.843098     -2.023796      0.745845
  H       1.112465     -4.593577     -0.009931
  H       2.419409     -4.080370      1.070054
  H       1.838873     -5.752197      1.116350
  H       2.450171     -4.784078     -5.132268
  H       3.737446     -0.936503     -3.733371
  H       0.389199     -3.773364     -6.023474
  H       1.655701      0.077467     -4.599779
  H      -0.032798     -1.336944     -5.754663
  F      -0.161401     -2.030011      0.456610
  F      -2.234119     -1.347562      0.171868
  F       0.549100      0.173642     -1.353038
  F      -1.509133      0.871770     -0.996238
  F      -1.560899     -1.285578     -2.681376
  F       0.203532     -2.457341     -2.095587
  F      -0.990335      0.475798      1.800126
  F       1.115511      0.163141      1.251562
  F      -1.698674     -4.070175     -0.535388
  F      -3.233015     -3.058358     -1.744300
  F       0.671817      2.600607      2.099633
  F      -1.020328      2.905590      0.741007
  F      -2.584915     -5.363579     -2.844762
  F      -0.450728     -4.964680     -2.757146
  F      -1.733769     -3.754011     -4.041425
  O       2.397637      2.791418      0.069639
  O       0.654601      3.177640     -1.321001
  C      -0.992976     -1.352336     -0.365651
  C      -0.497212      0.134031     -0.490090
  C      -1.052010     -2.110632     -1.738899
  C      -0.039853      0.756881      0.867613
  C      -1.930705     -3.407397     -1.691205
  C       0.197094      2.300184      0.851186
  C      -1.657051     -4.398578     -2.870106
  C       1.190939      2.814441     -0.254795
80
Coordinates from ORCA-job R4N+PFOA-_r2 E -2865.068638440052
  N       5.473248      0.631195      2.505197
  C       3.380615     -4.146186     -1.595738
  C       4.240331     -4.625654     -2.774304
  C       4.520055     -3.541573     -3.830293
  C       4.010861     -2.964515     -0.890392
  C       3.077008     -5.294435     -0.619786
  C       5.785299      0.484101      1.011112
  C       5.175844     -0.723220      0.366486
  C       3.242688     -2.928996     -4.369701
  C       3.339789     -1.742337     -0.829375
  C       5.279949     -3.049601     -0.306666
  C       5.381226     -4.113171     -4.962731
  C       3.996969      0.628202      2.757895
  C       6.047336      1.942783      2.959313
  C       6.106093     -0.479129      3.290406
  C       3.915655     -0.631991     -0.226611
  C       5.853772     -1.946054      0.315040
  C       2.057995     -4.907554      0.448058
  C       2.279342     -3.717475     -5.010818
  C       2.997120     -1.559307     -4.241896
  C       1.110853     -3.150794     -5.511750
  C       1.822444     -0.989399     -4.731468
  C       0.874784     -1.783637     -5.370670
  H       2.422745     -3.797945     -2.006560
  H       3.731868     -5.473439     -3.253596
  H       5.200861     -5.006005     -2.400551
  H       5.087057     -2.734945     -3.345411
  H       4.011961     -5.629191     -0.149872
  H       2.695147     -6.145350     -1.199590
  H       6.876942      0.469683      0.946474
  H       5.408739      1.397960      0.542491
  H       2.357257     -1.657977     -1.279889
  H       5.833796     -3.984425     -0.346291
  H       5.614066     -3.345876     -5.708862
  H       4.864351     -4.935041     -5.471457
  H       6.325791     -4.502936     -4.566407
  H       3.599779     -0.355346      2.503110
  H       3.519637      1.395143      2.144778
  H       3.833285      0.833639      3.817795
  H       7.117473      1.951176      2.743351
  H       5.876957      2.040829      4.032988
  H       5.543359      2.747201      2.419843
  H       5.674303     -1.429604      2.973658
  H       5.896697     -0.308916      4.348279
  H       7.182733     -0.467355      3.109441
  H       3.386596      0.317766     -0.235105
  H       6.845070     -2.029095      0.754265
  H       1.113952     -4.594816     -0.015073
  H       2.418593     -4.076304      1.065149
  H       1.842014     -5.749262      1.114708
  H       2.444960     -4.786554     -5.123583
  H       3.733630     -0.932283     -3.744193
  H       0.380564     -3.781134     -6.012009
  H       1.650113      0.077305     -4.611774
  H      -0.041321     -1.343487     -5.755274
  F      -0.149727     -2.030635      0.450608
  F      -2.224220     -1.349319      0.176207
  F       0.548248      0.178489     -1.362712
  F      -1.509422      0.869526     -0.993873
  F      -1.558653     -1.289630     -2.683422
  F       0.204735     -2.462441     -2.098037
  F      -0.971635      0.468173      1.801602
  F       1.130643      0.161975      1.236829
  F      -1.695361     -4.070388     -0.531835
  F      -3.232169     -3.056674     -1.736317
  F       0.687256      2.596290      2.094913
  F      -1.014144      2.901136      0.747956
  F      -2.590056     -5.368058     -2.831101
  F      -0.455340     -4.967296     -2.756580
  F      -1.746766     -3.762795     -4.038706
  O       2.400154      2.793157      0.051310
  O       0.645253      3.182244     -1.323552
  C      -0.985742     -1.353614     -0.367768
  C      -0.493325      0.133844     -0.494110
  C      -1.049623     -2.113100     -1.740037
  C      -0.028677      0.753621      0.862946
  C      -1.930640     -3.408248     -1.687627
  C       0.204820      2.298139      0.848927
  C      -1.662747     -4.402715     -2.865067
  C       1.190458      2.816379     -0.262668
80
Coordinates from ORCA-job R4N+PFOA-_r2 E -2865.068683967975
  N       5.469489      0.630646      2.509878
  C       3.384230     -4.143304     -1.597231
  C       4.242741     -4.622321     -2.776626
  C       4.518892     -3.538168     -3.833348
  C       4.014962     -2.962259     -0.891370
  C       3.081047     -5.291588     -0.620825
  C       5.788149      0.482260      1.016118
  C       5.180156     -0.724340      0.370182
  C       3.239423     -2.928872     -4.371809
  C       3.345464     -1.739162     -0.831893
  C       5.282783     -3.049781     -0.304931
  C       5.379559     -4.107829     -4.967243
  C       3.992077      0.635803      2.755180
  C       6.048407      1.938681      2.966602
  C       6.092522     -0.483034      3.296887
  C       3.921399     -0.630722     -0.225342
  C       5.857131     -1.947860      0.319109
  C       2.058174     -4.905841      0.443585
  C       2.274423     -3.721222     -5.005461
  C       2.993761     -1.558451     -4.250323
  C       1.103520     -3.157748     -5.504470
  C       1.817131     -0.991520     -4.738906
  C       0.867066     -1.789973     -5.369769
  H       2.425257     -3.795194     -2.005453
  H       3.736128     -5.471868     -3.254797
  H       5.204361     -5.000710     -2.403393
  H       5.084465     -2.730009     -3.349326
  H       4.015657     -5.623586     -0.148273
  H       2.702095     -6.143570     -1.201042
  H       6.880088      0.468424      0.957362
  H       5.413074      1.396545      0.546898
  H       2.364002     -1.652072     -1.284625
  H       5.835122     -3.985578     -0.344020
  H       5.610998     -3.339190     -5.712517
  H       4.862379     -4.929212     -5.476575
  H       6.324970     -4.497412     -4.572584
  H       3.588906     -0.346816      2.506638
  H       3.519551      1.399978      2.134528
  H       3.823878      0.848718      3.812993
  H       7.119852      1.941441      2.756819
  H       5.873005      2.038628      4.039378
  H       5.552432      2.746697      2.424932
  H       5.658404     -1.431632      2.977204
  H       5.879015     -0.313894      4.354202
  H       7.170328     -0.476897      3.122082
  H       3.396770      0.321450     -0.231639
  H       6.847233     -2.032206      0.760863
  H       1.113527     -4.599152     -0.022705
  H       2.413285     -4.070499      1.058722
  H       1.844762     -5.746143      1.112919
  H       2.439994     -4.790892     -5.112984
  H       3.731679     -0.928629     -3.758138
  H       0.370320     -3.790823     -5.996948
  H       1.644970      0.075873     -4.625270
  H      -0.051007     -1.352594     -5.753000
  F      -0.140592     -2.031400      0.445235
  F      -2.216364     -1.350230      0.178381
  F       0.548067      0.182462     -1.370244
  F      -1.509379      0.868065     -0.991806
  F      -1.555746     -1.291002     -2.685832
  F       0.205919     -2.466686     -2.101122
  F      -0.956064      0.461213      1.802285
  F       1.143959      0.161642      1.224102
  F      -1.694523     -4.068860     -0.530391
  F      -3.231794     -3.052569     -1.733313
  F       0.698931      2.593102      2.092840
  F      -1.008926      2.897517      0.753792
  F      -2.593659     -5.371623     -2.819604
  F      -0.458681     -4.967699     -2.756011
  F      -1.758198     -3.770403     -4.037822
  O       2.402937      2.791707      0.039577
  O       0.639041      3.185138     -1.323801
  C      -0.979500     -1.354165     -0.369928
  C      -0.489563      0.134199     -0.497305
  C      -1.047320     -2.113928     -1.741830
  C      -0.018918      0.752081      0.859337
  C      -1.931151     -3.407374     -1.686496
  C       0.211218      2.296903      0.848317
  C      -1.667487     -4.405197     -2.861793
  C       1.191364      2.817263     -0.266785
80
Coordinates from ORCA-job R4N+PFOA-_r2 E -2865.068721925728
  N       5.467014      0.630542      2.513274
  C       3.386945     -4.140999     -1.597348
  C       4.244644     -4.619691     -2.777652
  C       4.518090     -3.535946     -3.835334
  C       4.017722     -2.960163     -0.891610
  C       3.083738     -5.289438     -0.621190
  C       5.790672      0.481298      1.019609
  C       5.183814     -0.724857      0.372592
  C       3.237187     -2.928436     -4.372649
  C       3.350380     -1.735820     -0.835144
  C       5.284234     -3.050010     -0.302203
  C       5.377780     -4.105129     -4.970365
  C       3.987983      0.640501      2.752324
  C       6.047876      1.936481      2.971564
  C       6.083138     -0.484847      3.301962
  C       3.926640     -0.628985     -0.225645
  C       5.859513     -1.949252      0.323035
  C       2.057295     -4.905107      0.440269
  C       2.270127     -3.723386     -4.999842
  C       2.992124     -1.557392     -4.255926
  C       1.097071     -3.161973     -5.496213
  C       1.813803     -0.992232     -4.742617
  C       0.861048     -1.793580     -5.366187
  H       2.427394     -3.793777     -2.005102
  H       3.738570     -5.470261     -3.254624
  H       5.207308     -4.996624     -2.405389
  H       5.083225     -2.726725     -3.352488
  H       4.017934     -5.618940     -0.146007
  H       2.707699     -6.142251     -1.202087
  H       6.882777      0.467037      0.964199
  H       5.416879      1.395966      0.549921
  H       2.370044     -1.646306     -1.290266
  H       5.834551     -3.987092     -0.339971
  H       5.608611     -3.335618     -5.714998
  H       4.859303     -4.925643     -5.479879
  H       6.323556     -4.495328     -4.577120
  H       3.580714     -0.341797      2.509312
  H       3.519908      1.403105      2.126127
  H       3.816547      0.860065      3.808369
  H       7.120622      1.934956      2.768147
  H       5.867046      2.039077      4.043260
  H       5.558810      2.746621      2.426702
  H       5.647106     -1.432362      2.981437
  H       5.867273     -0.315539      4.358866
  H       7.161670     -0.483190      3.131113
  H       3.406168      0.325332     -0.229545
  H       6.848435     -2.035118      0.767198
  H       1.112129     -4.603673     -0.028601
  H       2.407777     -4.066710      1.054096
  H       1.846197     -5.744848      1.111128
  H       2.435202     -4.793542     -5.103572
  H       3.731817     -0.925703     -3.768702
  H       0.360805     -3.796143     -5.982704
  H       1.641925      0.075633     -4.633251
  H      -0.058650     -1.357851     -5.747428
  F      -0.132489     -2.032908      0.441247
  F      -2.209865     -1.353484      0.180101
  F       0.546526      0.183389     -1.377453
  F      -1.510494      0.865823     -0.987906
  F      -1.552797     -1.290624     -2.686673
  F       0.207341     -2.470422     -2.104498
  F      -0.940436      0.453085      1.803303
  F       1.157502      0.161316      1.210498
  F      -1.693954     -4.068613     -0.531446
  F      -3.231119     -3.049196     -1.733121
  F       0.711741      2.589142      2.090753
  F      -1.004923      2.893145      0.762580
  F      -2.597644     -5.372667     -2.814983
  F      -0.462206     -4.969033     -2.758463
  F      -1.766001     -3.773664     -4.038752
  O       2.403368      2.790580      0.026566
  O       0.629320      3.188734     -1.323979
  C      -0.974035     -1.355870     -0.371145
  C      -0.486569      0.133277     -0.499397
  C      -1.044846     -2.114799     -1.743358
  C      -0.009492      0.750531      0.855926
  C      -1.931089     -3.406906     -1.687388
  C       0.216947      2.295169      0.848226
  C      -1.671327     -4.406229     -2.861973
  C       1.189929      2.818625     -0.271485
80
Coordinates from ORCA-job R4N+PFOA-_r2 E -2865.068754741449
  N       5.467631      0.629859      2.516314
  C       3.388049     -4.138494     -1.595634
  C       4.245143     -4.617322     -2.776748
  C       4.516626     -3.534835     -3.836072
  C       4.018632     -2.957115     -0.891117
  C       3.085632     -5.286980     -0.619512
  C       5.792511      0.482233      1.022372
  C       5.186218     -0.723450      0.373916
  C       3.235080     -2.928395     -4.373089
  C       3.353594     -1.731421     -0.838146
  C       5.284139     -3.048752     -0.299335
  C       5.375347     -4.105280     -4.971359
  C       3.987169      0.640165      2.752715
  C       6.047758      1.935083      2.976137
  C       6.082048     -0.486215      3.304485
  C       3.930373     -0.625772     -0.226659
  C       5.860648     -1.948642      0.325908
  C       2.057637     -4.903770      0.440950
  C       2.265940     -3.725300     -4.994657
  C       2.991481     -1.556658     -4.261653
  C       1.091716     -3.165214     -5.489715
  C       1.812461     -0.992506     -4.747806
  C       0.857191     -1.796000     -5.364940
  H       2.427954     -3.793261     -2.004101
  H       3.738647     -5.468618     -3.251991
  H       5.208783     -4.992999     -2.405667
  H       5.081922     -2.724590     -3.355028
  H       4.019871     -5.614672     -0.143098
  H       2.711375     -6.140480     -1.200495
  H       6.884622      0.467400      0.966772
  H       5.418683      1.397576      0.553903
  H       2.374531     -1.640056     -1.295998
  H       5.832330     -3.987152     -0.335486
  H       5.605925     -3.336038     -5.716378
  H       4.855480     -4.925522     -5.479942
  H       6.321226     -4.495807     -4.578727
  H       3.578810     -0.342110      2.512760
  H       3.521870      1.403380      2.125096
  H       3.815499      0.862944      3.808143
  H       7.121397      1.931771      2.777185
  H       5.862902      2.038985      4.047049
  H       5.562547      2.746023      2.429023
  H       5.644351     -1.433215      2.984779
  H       5.867222     -0.316538      4.361603
  H       7.160558     -0.486770      3.133287
  H       3.412633      0.329926     -0.227709
  H       6.848778     -2.036006      0.771545
  H       1.111751     -4.605831     -0.028668
  H       2.405821     -4.063719      1.053786
  H       1.848695     -5.743563      1.112473
  H       2.429888     -4.796032     -5.094317
  H       3.732949     -0.923545     -3.778918
  H       0.352621     -3.799823     -5.971318
  H       1.641342      0.075888     -4.642760
  H      -0.063300     -1.361154     -5.745262
  F      -0.127714     -2.034657      0.438405
  F      -2.206315     -1.357760      0.179777
  F       0.544259      0.181949     -1.383233
  F      -1.511746      0.863868     -0.985202
  F      -1.549590     -1.289208     -2.687682
  F       0.208574     -2.473815     -2.107800
  F      -0.929491      0.445470      1.803066
  F       1.167241      0.161099      1.199411
  F      -1.694073     -4.069220     -0.535476
  F      -3.230756     -3.046676     -1.736094
  F       0.717285      2.585934      2.089326
  F      -1.005363      2.887784      0.768201
  F      -2.601589     -5.371620     -2.817074
  F      -0.465746     -4.969977     -2.765366
  F      -1.771660     -3.772854     -4.042376
  O       2.400536      2.789764      0.017865
  O       0.619937      3.193341     -1.323246
  C      -0.970810     -1.358121     -0.372503
  C      -0.485018      0.131534     -0.501234
  C      -1.042801     -2.115759     -1.745518
  C      -0.003377      0.748961      0.852544
  C      -1.931029     -3.406612     -1.690883
  C       0.218558      2.293114      0.847816
  C      -1.674564     -4.405655     -2.866217
  C       1.186111      2.820238     -0.274381
80
Coordinates from ORCA-job R4N+PFOA-_r2 E -2865.068786958488
  N       5.469382      0.629932      2.518457
  C       3.387777     -4.136586     -1.593470
  C       4.245093     -4.614627     -2.775243
  C       4.515335     -3.532777     -3.835452
  C       4.018244     -2.955027     -0.889423
  C       3.086150     -5.286145     -0.618725
  C       5.796124      0.481830      1.025130
  C       5.188801     -0.723020      0.375570
  C       3.233620     -2.926587     -4.372168
  C       3.356609     -1.727304     -0.840573
  C       5.282124     -3.049189     -0.294301
  C       5.373327     -4.104428     -4.970778
  C       3.987664      0.640871      2.752241
  C       6.048802      1.935415      2.978183
  C       6.081926     -0.485678      3.308683
  C       3.934940     -0.622686     -0.228591
  C       5.860308     -1.949846      0.330693
  C       2.059001     -4.904472      0.443269
  C       2.262656     -3.724344     -4.989939
  C       2.991628     -1.554374     -4.264441
  C       1.087937     -3.164687     -5.484115
  C       1.812400     -0.990433     -4.750203
  C       0.855117     -1.794847     -5.362850
  H       2.427606     -3.792942     -2.003303
  H       3.738081     -5.466127     -3.249536
  H       5.209496     -4.989287     -2.405242
  H       5.081078     -2.722039     -3.355690
  H       4.020632     -5.614357     -0.143146
  H       2.711756     -6.139059     -1.200377
  H       6.888221      0.463812      0.969636
  H       5.424774      1.397771      0.555966
  H       2.379064     -1.634046     -1.301617
  H       5.827320     -3.989397     -0.327793
  H       5.603628     -3.335766     -5.716447
  H       4.852637     -4.924804     -5.478262
  H       6.319260     -4.494911     -4.578367
  H       3.579373     -0.342450      2.515734
  H       3.525754      1.404344      2.122496
  H       3.815729      0.867983      3.806748
  H       7.123190      1.930067      2.783287
  H       5.859931      2.041487      4.048149
  H       5.566804      2.745763      2.427440
  H       5.642407     -1.432391      2.991046
  H       5.867276     -0.313097      4.365373
  H       7.160375     -0.488319      3.137293
  H       3.419142      0.334021     -0.229138
  H       6.847177     -2.039692      0.778567
  H       1.112439     -4.606766     -0.024891
  H       2.407760     -4.065188      1.056546
  H       1.851329     -5.745487      1.113642
  H       2.425392     -4.795493     -5.086877
  H       3.734627     -0.920595     -3.784957
  H       0.346665     -3.799249     -5.962359
  H       1.642208      0.078344     -4.647877
  H      -0.065953     -1.360230     -5.741974
  F      -0.125294     -2.038024      0.436636
  F      -2.204691     -1.363575      0.180385
  F       0.538878      0.178082     -1.390988
  F      -1.515009      0.860861     -0.980065
  F      -1.548833     -1.288694     -2.687333
  F       0.207798     -2.477897     -2.110667
  F      -0.914510      0.435903      1.804798
  F       1.179278      0.160506      1.184300
  F      -1.695027     -4.072255     -0.540192
  F      -3.232000     -3.046747     -1.738137
  F       0.727949      2.581058      2.084468
  F      -1.005751      2.880725      0.777347
  F      -2.607673     -5.369414     -2.823908
  F      -0.471273     -4.972248     -2.774458
  F      -1.776362     -3.769151     -4.046392
  O       2.395268      2.790139      0.000690
  O       0.604364      3.198842     -1.325237
  C      -0.969777     -1.362068     -0.373055
  C      -0.485164      0.127903     -0.502692
  C      -1.042738     -2.118211     -1.747069
  C       0.003702      0.745295      0.848319
  C      -1.932285     -3.407955     -1.694415
  C       0.220794      2.289557      0.845914
  C      -1.678958     -4.404916     -2.872173
  C       1.178741      2.822126     -0.282075
80
Coordinates from ORCA-job R4N+PFOA-_r2 E -2865.068815745165
  N       5.471273      0.630268      2.521756
  C       3.387089     -4.133825     -1.591620
  C       4.245123     -4.610278     -2.773930
  C       4.513685     -3.528651     -3.834764
  C       4.017681     -2.952582     -0.887121
  C       3.086604     -5.285294     -0.619001
  C       5.801825      0.480082      1.030100
  C       5.192416     -0.723241      0.378934
  C       3.231519     -2.923516     -4.371304
  C       3.360845     -1.721976     -0.843008
  C       5.278911     -3.050586     -0.286948
  C       5.371333     -4.100860     -4.970110
  C       3.988516      0.644269      2.751677
  C       6.051730      1.935739      2.981230
  C       6.079961     -0.485102      3.315851
  C       3.941680     -0.618751     -0.230858
  C       5.859128     -1.952669      0.338515
  C       2.061128     -4.905806      0.445549
  C       2.258879     -3.722621     -4.984850
  C       2.990781     -1.550889     -4.268023
  C       1.083653     -3.163898     -5.478601
  C       1.811207     -0.987776     -4.753746
  C       0.852210     -1.793493     -5.361550
  H       2.426741     -3.791533     -2.002116
  H       3.738525     -5.462332     -3.247593
  H       5.210334     -4.983319     -2.404634
  H       5.079418     -2.717222     -3.356149
  H       4.021389     -5.615241     -0.145304
  H       2.711331     -6.136970     -1.201810
  H       6.893951      0.457119      0.976730
  H       5.435406      1.396845      0.558845
  H       2.385558     -1.625864     -1.308395
  H       5.820061     -3.993208     -0.316689
  H       5.600579     -3.332969     -5.716841
  H       4.850858     -4.922197     -5.476201
  H       6.317713     -4.490232     -4.577795
  H       3.580059     -0.340347      2.519518
  H       3.531596      1.407263      2.117998
  H       3.815355      0.877299      3.804699
  H       7.126877      1.926977      2.790799
  H       5.858339      2.044315      4.050073
  H       5.573859      2.745437      2.426040
  H       5.637949     -1.431118      3.000077
  H       5.864090     -0.308363      4.371570
  H       7.158496     -0.490727      3.145445
  H       3.427925      0.339063     -0.232347
  H       6.843868     -2.046313      0.790217
  H       1.113893     -4.607162     -0.020371
  H       2.411192     -4.068098      1.059908
  H       1.854472     -5.748421      1.114173
  H       2.420645     -4.794188     -5.078426
  H       3.735071     -0.916032     -3.792023
  H       0.340405     -3.799436     -5.952370
  H       1.641881      0.081403     -4.654619
  H      -0.069831     -1.359645     -5.739131
  F      -0.122252     -2.041915      0.433899
  F      -2.202473     -1.369858      0.182572
  F       0.531101      0.173831     -1.402247
  F      -1.519317      0.857270     -0.973606
  F      -1.550175     -1.290175     -2.687003
  F       0.205325     -2.483255     -2.113726
  F      -0.892334      0.423084      1.807443
  F       1.196212      0.160139      1.162550
  F      -1.695892     -4.077047     -0.544323
  F      -3.234659     -3.048444     -1.736912
  F       0.745371      2.572950      2.075481
  F      -1.004409      2.871387      0.789258
  F      -2.616850     -5.367231     -2.831005
  F      -0.479662     -4.975905     -2.784419
  F      -1.783428     -3.765182     -4.049752
  O       2.388616      2.790108     -0.025615
  O       0.583559      3.204722     -1.329916
  C      -0.969189     -1.366992     -0.373971
  C      -0.485918      0.123179     -0.505338
  C      -1.044164     -2.122161     -1.748662
  C       0.013765      0.739043      0.841731
  C      -1.934941     -3.410630     -1.696824
  C       0.224991      2.284026      0.841791
  C      -1.685844     -4.404940     -2.877888
  C       1.168960      2.823403     -0.294948
80
Coordinates from ORCA-job R4N+PFOA-_r2 E -2865.068837477160
  N       5.476797      0.628210      2.526117
  C       3.385367     -4.129650     -1.589967
  C       4.243876     -4.606555     -2.771862
  C       4.511586     -3.526460     -3.834387
  C       4.016135     -2.947935     -0.886300
  C       3.086895     -5.281203     -0.616666
  C       5.804031      0.482102      1.034547
  C       5.193448     -0.719927      0.380880
  C       3.229267     -2.923614     -4.372702
  C       3.361951     -1.715778     -0.844264
  C       5.276305     -3.047687     -0.284179
  C       5.369890     -4.100147     -4.968487
  C       3.994324      0.641056      2.759196
  C       6.057725      1.933216      2.988052
  C       6.088665     -0.488383      3.316834
  C       3.944250     -0.613304     -0.231913
  C       5.857834     -1.950561      0.341311
  C       2.061093     -4.902415      0.447879
  C       2.256151     -3.725125     -4.982401
  C       2.989083     -1.550548     -4.275620
  C       1.081078     -3.168309     -5.478382
  C       1.809750     -0.989295     -4.763981
  C       0.850301     -1.797308     -5.367659
  H       2.423974     -3.789539     -1.999876
  H       3.738184     -5.459838     -3.244177
  H       5.209396     -4.978012     -2.401967
  H       5.076622     -2.713687     -3.357275
  H       4.021900     -5.610405     -0.143018
  H       2.712468     -6.133659     -1.198866
  H       6.896054      0.459182      0.978781
  H       5.436498      1.399918      0.566275
  H       2.388493     -1.617314     -1.313000
  H       5.815618     -3.991371     -0.312241
  H       5.598013     -3.334066     -5.717368
  H       4.850744     -4.923663     -5.472365
  H       6.316785     -4.487196     -4.575142
  H       3.587771     -0.342651      2.524477
  H       3.538143      1.406894      2.128897
  H       3.824118      0.870608      3.813422
  H       7.132674      1.924727      2.796731
  H       5.864816      2.039145      4.057186
  H       5.579053      2.743425      2.434349
  H       5.644512     -1.433669      3.001929
  H       5.877151     -0.311901      4.373425
  H       7.166329     -0.493922      3.141424
  H       3.429977      0.344269     -0.232076
  H       6.841832     -2.046355      0.794118
  H       1.113281     -4.606047     -0.018190
  H       2.409904     -4.063280      1.060989
  H       1.856055     -5.744461      1.117663
  H       2.417501     -4.797147     -5.071061
  H       3.733621     -0.913820     -3.802542
  H       0.337161     -3.806376     -5.947648
  H       1.641134      0.080430     -4.669901
  H      -0.072113     -1.365037     -5.746104
  F      -0.122338     -2.041943      0.431467
  F      -2.203065     -1.371684      0.181551
  F       0.528110      0.172045     -1.406263
  F      -1.520344      0.856366     -0.976639
  F      -1.552009     -1.292028     -2.688915
  F       0.203880     -2.484677     -2.115772
  F      -0.888959      0.418385      1.805383
  F       1.198304      0.160429      1.156002
  F      -1.695203     -4.079892     -0.547244
  F      -3.236055     -3.050831     -1.736019
  F       0.738603      2.572139      2.071595
  F      -1.010704      2.866165      0.784017
  F      -2.620401     -5.366320     -2.836531
  F      -0.483004     -4.977030     -2.790527
  F      -1.786197     -3.762375     -4.052262
  O       2.382168      2.788556     -0.030668
  O       0.577659      3.207310     -1.332044
  C      -0.970648     -1.368458     -0.376327
  C      -0.487565      0.121443     -0.508795
  C      -1.045662     -2.124062     -1.750862
  C       0.013662      0.736327      0.837422
  C      -1.936147     -3.412422     -1.698691
  C       0.220039      2.281722      0.837599
  C      -1.688611     -4.404904     -2.881822
  C       1.162594      2.822906     -0.298527
80
Coordinates from ORCA-job R4N+PFOA-_r2 E -2865.068858012898
  N       5.480062      0.627629      2.529298
  C       3.384431     -4.127550     -1.590193
  C       4.244049     -4.602696     -2.771905
  C       4.510954     -3.521722     -3.833740
  C       4.015296     -2.946681     -0.884865
  C       3.086827     -5.280734     -0.618326
  C       5.807993      0.479890      1.038664
  C       5.194953     -0.720539      0.384357
  C       3.227897     -2.921126     -4.372629
  C       3.364120     -1.712750     -0.844613
  C       5.273615     -3.048935     -0.279555
  C       5.370758     -4.093657     -4.967530
  C       3.998038      0.644875      2.762358
  C       6.064775      1.931576      2.991112
  C       6.089005     -0.489960      3.321689
  C       3.948202     -0.610868     -0.232730
  C       5.855956     -1.952994      0.347022
  C       2.060894     -4.903870      0.446717
  C       2.255720     -3.724366     -4.981507
  C       2.985952     -1.548310     -4.276816
  C       1.079766     -3.169592     -5.477636
  C       1.805719     -0.989177     -4.765460
  C       0.847097     -1.798869     -5.367963
  H       2.422418     -3.787837     -1.998662
  H       3.740384     -5.456656     -3.245084
  H       5.209654     -4.972885     -2.401030
  H       5.074457     -2.708297     -3.355999
  H       4.021803     -5.610879     -0.145425
  H       2.712502     -6.132473     -1.201674
  H       6.900005      0.454258      0.983941
  H       5.443711      1.398211      0.569107
  H       2.392387     -1.611488     -1.316389
  H       5.811116     -3.993681     -0.305647
  H       5.597366     -3.327580     -5.716834
  H       4.853960     -4.918735     -5.471247
  H       6.318392     -4.478453     -4.573728
  H       3.590155     -0.338787      2.527050
  H       3.544709      1.411373      2.130623
  H       3.827634      0.874933      3.816356
  H       7.139563      1.920525      2.799317
  H       5.872251      2.037531      4.060263
  H       5.587469      2.742478      2.437253
  H       5.642579     -1.434261      3.007219
  H       5.877249     -0.311649      4.377875
  H       7.166636     -0.497959      3.146481
  H       3.433565      0.346689     -0.235353
  H       6.838491     -2.051262      0.802442
  H       1.113060     -4.607235     -0.019134
  H       2.409072     -4.065103      1.060647
  H       1.856093     -5.746423      1.115876
  H       2.418450     -4.796237     -5.069153
  H       3.729634     -0.910135     -3.804410
  H       0.336794     -3.810311     -5.944768
  H       1.636152      0.080463     -4.672270
  H      -0.076573     -1.368370     -5.745346
  F      -0.123193     -2.043043      0.429242
  F      -2.204240     -1.372884      0.183077
  F       0.522947      0.170441     -1.412576
  F      -1.524144      0.854395     -0.976946
  F      -1.558066     -1.296045     -2.689303
  F       0.199976     -2.485854     -2.116668
  F      -0.880554      0.415512      1.805982
  F       1.203260      0.161435      1.144685
  F      -1.694850     -4.083539     -0.546672
  F      -3.239038     -3.055512     -1.731159
  F       0.742969      2.572710      2.062608
  F      -1.010924      2.863965      0.781406
  F      -2.623107     -5.368450     -2.838056
  F      -0.485853     -4.978333     -2.791489
  F      -1.789440     -3.762485     -4.051414
  O       2.380137      2.785973     -0.046054
  O       0.571288      3.208762     -1.339561
  C      -0.973339     -1.370203     -0.377563
  C      -0.490458      0.119571     -0.511905
  C      -1.049709     -2.126759     -1.751330
  C       0.015880      0.733889      0.832691
  C      -1.938900     -3.415715     -1.697269
  C       0.220373      2.280527      0.830947
  C      -1.691700     -4.406915     -2.881747
  C       1.159039      2.821949     -0.308942
80
Coordinates from ORCA-job R4N+PFOA-_r2 E -2865.068877420941
  N       5.484806      0.625949      2.533327
  C       3.383996     -4.125241     -1.590724
  C       4.243988     -4.599681     -2.772204
  C       4.509977     -3.518364     -3.833879
  C       4.014861     -2.944870     -0.884456
  C       3.087129     -5.278866     -0.618744
  C       5.809325      0.479708      1.042116
  C       5.194962     -0.719721      0.387121
  C       3.225906     -2.920869     -4.373802
  C       3.365026     -1.710242     -0.844611
  C       5.272361     -3.048190     -0.277681
  C       5.371711     -4.088467     -4.967081
  C       4.003685      0.645944      2.769681
  C       6.073325      1.928061      2.996165
  C       6.093451     -0.493785      3.323115
  C       3.949496     -0.608638     -0.232306
  C       5.854782     -1.952898      0.349804
  C       2.058616     -4.903116      0.444068
  C       2.255753     -3.726606     -4.982469
  C       2.980839     -1.548487     -4.278871
  C       1.078600     -3.174814     -5.479189
  C       1.799406     -0.992412     -4.768221
  C       0.842689     -1.804590     -5.370455
  H       2.420958     -3.786047     -1.997060
  H       3.742347     -5.454597     -3.245766
  H       5.209620     -4.968719     -2.400140
  H       5.071382     -2.703822     -3.355623
  H       4.021816     -5.607610     -0.144382
  H       2.714834     -6.131276     -1.202489
  H       6.901273      0.454858      0.985566
  H       5.444156      1.398539      0.574243
  H       2.394855     -1.606208     -1.318784
  H       5.809701     -3.993052     -0.303221
  H       5.596790     -3.322211     -5.716673
  H       4.857391     -4.915113     -5.470813
  H       6.320124     -4.470863     -4.572714
  H       3.594005     -0.335743      2.529577
  H       3.550968      1.415142      2.140750
  H       3.834973      0.871126      3.824909
  H       7.147500      1.915982      2.801127
  H       5.884103      2.031883      4.066119
  H       5.595502      2.740952      2.445635
  H       5.644823     -1.437010      3.008284
  H       5.884271     -0.316707      4.380004
  H       7.170714     -0.503466      3.145715
  H       3.433820      0.348467     -0.235424
  H       6.836760     -2.052121      0.806232
  H       1.110956     -4.609148     -0.023990
  H       2.403474     -4.062339      1.057367
  H       1.854501     -5.744822      1.114498
  H       2.420905     -4.798166     -5.069402
  H       3.722791     -0.908286     -3.806473
  H       0.337643     -3.818738     -5.945159
  H       1.627812      0.076977     -4.675833
  H      -0.082029     -1.376405     -5.747855
  F      -0.125286     -2.041153      0.427355
  F      -2.206561     -1.370941      0.181903
  F       0.521602      0.171376     -1.413785
  F      -1.526157      0.854391     -0.983016
  F      -1.563308     -1.299535     -2.691363
  F       0.198155     -2.483527     -2.117552
  F      -0.885092      0.419563      1.803324
  F       1.198511      0.163326      1.143700
  F      -1.692505     -4.085046     -0.545326
  F      -3.239751     -3.059981     -1.727944
  F       0.734795      2.578632      2.056961
  F      -1.014346      2.866192      0.768856
  F      -2.619925     -5.372445     -2.836725
  F      -0.483367     -4.977617     -2.789148
  F      -1.789454     -3.764950     -4.050091
  O       2.379885      2.781151     -0.047781
  O       0.575348      3.207170     -1.346011
  C      -0.976218     -1.369028     -0.379697
  C      -0.493433      0.120610     -0.515173
  C      -1.052461     -2.127275     -1.752323
  C       0.011787      0.735622      0.829920
  C      -1.939262     -3.417982     -1.695885
  C       0.216344      2.282560      0.824609
  C      -1.690544     -4.409195     -2.880059
  C       1.159385      2.819557     -0.313653
80
Coordinates from ORCA-job R4N+PFOA-_r2 E -2865.068898765040
  N       5.492501      0.623046      2.539087
  C       3.382670     -4.122016     -1.591097
  C       4.242734     -4.596098     -2.772433
  C       4.508131     -3.514617     -3.834040
  C       4.013854     -2.942483     -0.883807
  C       3.085565     -5.275861     -0.619008
  C       5.811006      0.479156      1.046433
  C       5.194621     -0.718899      0.390925
  C       3.223149     -2.920684     -4.375894
  C       3.366113     -1.706856     -0.845085
  C       5.270234     -3.047500     -0.274874
  C       5.372710     -4.082767     -4.966023
  C       4.012475      0.646723      2.780179
  C       6.086223      1.922343      3.002815
  C       6.100461     -0.499821      3.324599
  C       3.950770     -0.605904     -0.231350
  C       5.852985     -1.953057      0.353629
  C       2.053592     -4.900890      0.440551
  C       2.256132     -3.729353     -4.985484
  C       2.973992     -1.548886     -4.281654
  C       1.077648     -3.181236     -5.483357
  C       1.791394     -0.996473     -4.772486
  C       0.837410     -1.811710     -5.375246
  H       2.418765     -3.782780     -1.995306
  H       3.742824     -5.451854     -3.246302
  H       5.208300     -4.964323     -2.399160
  H       5.066811     -2.698643     -3.355028
  H       4.019646     -5.602861     -0.142286
  H       2.715748     -6.128989     -1.203353
  H       6.902803      0.455199      0.986075
  H       5.444124      1.399088      0.581738
  H       2.398253     -1.598539     -1.322978
  H       5.807110     -3.992669     -0.299629
  H       5.596669     -3.316076     -5.715543
  H       4.861121     -4.910859     -5.470244
  H       6.321686     -4.462738     -4.570559
  H       3.598907     -0.331434      2.532325
  H       3.560664      1.421164      2.156626
  H       3.846846      0.864045      3.837438
  H       7.159511      1.908648      2.802977
  H       5.902119      2.023692      4.073939
  H       5.607939      2.738306      2.457197
  H       5.648304     -1.441432      3.009702
  H       5.895612     -0.324652      4.382662
  H       7.177171     -0.512588      3.143820
  H       3.434401      0.350845     -0.234892
  H       6.834308     -2.053425      0.811247
  H       1.106387     -4.610103     -0.030566
  H       2.394442     -4.057748      1.053129
  H       1.849893     -5.741548      1.112459
  H       2.424507     -4.800456     -5.072069
  H       3.713424     -0.906283     -3.808513
  H       0.339896     -3.828596     -5.949775
  H       1.616773      0.072505     -4.680574
  H      -0.088028     -1.386057     -5.753771
  F      -0.126168     -2.038372      0.425550
  F      -2.208766     -1.370750      0.181337
  F       0.518805      0.173563     -1.414392
  F      -1.531182      0.853041     -0.989884
  F      -1.570560     -1.303756     -2.692336
  F       0.197190     -2.478561     -2.119506
  F      -0.893938      0.426643      1.799727
  F       1.190341      0.167793      1.144076
  F      -1.686500     -4.087396     -0.542897
  F      -3.238252     -3.068131     -1.724541
  F       0.722561      2.589390      2.048754
  F      -1.021577      2.870164      0.752885
  F      -2.609912     -5.380130     -2.833532
  F      -0.474888     -4.975923     -2.785143
  F      -1.786403     -3.769766     -4.047703
  O       2.376194      2.776580     -0.052574
  O       0.575332      3.206322     -1.355433
  C      -0.978924     -1.367865     -0.381362
  C      -0.498309      0.122226     -0.518366
  C      -1.054757     -2.127665     -1.752779
  C       0.004481      0.740104      0.826998
  C      -1.936827     -3.421905     -1.693716
  C       0.208735      2.287096      0.816022
  C      -1.684698     -4.413094     -2.877058
  C       1.156290      2.818125     -0.321260
80
Coordinates from ORCA-job R4N+PFOA-_r2 E -2865.068918584965
  N       5.495948      0.621812      2.543493
  C       3.382416     -4.120711     -1.591777
  C       4.242409     -4.593010     -2.773832
  C       4.506715     -3.510497     -3.834639
  C       4.013736     -2.942430     -0.882556
  C       3.084573     -5.276095     -0.621610
  C       5.813780      0.476025      1.050210
  C       5.195343     -0.720908      0.395195
  C       3.220798     -2.918885     -4.377075
  C       3.368593     -1.705479     -0.845998
  C       5.268354     -3.049847     -0.270208
  C       5.373301     -4.076229     -4.966304
  C       4.015825      0.651940      2.784050
  C       6.094932      1.918559      3.006360
  C       6.098485     -0.503187      3.329396
  C       3.953445     -0.605589     -0.230181
  C       5.851600     -1.956414      0.359494
  C       2.051794     -4.902805      0.437658
  C       2.256135     -3.729374     -4.987909
  C       2.968331     -1.547679     -4.282027
  C       1.076276     -3.183800     -5.485589
  C       1.784523     -0.997789     -4.772795
  C       0.832487     -1.815000     -5.376278
  H       2.418397     -3.780474     -1.994850
  H       3.743427     -5.448943     -3.248413
  H       5.208320     -4.960728     -2.400746
  H       5.063317     -2.693633     -3.354667
  H       4.018435     -5.603593     -0.144761
  H       2.715134     -6.128163     -1.207743
  H       6.905540      0.449846      0.989583
  H       5.449119      1.397056      0.585706
  H       2.402929     -1.593516     -1.327573
  H       5.803752     -3.995917     -0.293528
  H       5.596606     -3.308244     -5.714739
  H       4.863308     -4.904526     -5.471857
  H       6.322614     -4.455073     -4.570534
  H       3.596677     -0.323598      2.533270
  H       3.567832      1.429753      2.161662
  H       3.850411      0.867507      3.841687
  H       7.168054      1.900763      2.805737
  H       5.912293      2.021140      4.077675
  H       5.619725      2.736812      2.461457
  H       5.642921     -1.443211      3.014739
  H       5.893905     -0.327346      4.387432
  H       7.175354     -0.520904      3.149666
  H       3.438608      0.351883     -0.235219
  H       6.831753     -2.058190      0.819339
  H       1.104919     -4.611309     -0.033725
  H       2.391917     -4.060593      1.051930
  H       1.847648     -5.744538      1.108137
  H       2.427146     -4.799999     -5.075496
  H       3.706026     -0.903583     -3.808155
  H       0.340874     -3.832722     -5.953647
  H       1.606995      0.070637     -4.679877
  H      -0.093601     -1.390927     -5.755050
  F      -0.123680     -2.036824      0.424633
  F      -2.207972     -1.372828      0.183824
  F       0.514010      0.175340     -1.418049
  F      -1.537455      0.850734     -0.990199
  F      -1.576168     -1.306746     -2.690811
  F       0.196493     -2.475735     -2.121312
  F      -0.893095      0.431337      1.798376
  F       1.190268      0.173041      1.138195
  F      -1.681308     -4.089399     -0.539669
  F      -3.236645     -3.074492     -1.720722
  F       0.725858      2.595748      2.038761
  F      -1.022984      2.873511      0.748084
  F      -2.602782     -5.386859     -2.827739
  F      -0.468901     -4.975578     -2.782105
  F      -1.786204     -3.774935     -4.044502
  O       2.372989      2.773531     -0.067887
  O       0.567825      3.207242     -1.365342
  C      -0.978970     -1.368039     -0.381016
  C      -0.501796      0.122926     -0.520001
  C      -1.055811     -2.128550     -1.751819
  C       0.003200      0.743992      0.823409
  C      -1.934394     -3.425324     -1.690759
  C       0.207498      2.290767      0.808462
  C      -1.680804     -4.416814     -2.873341
  C       1.152245      2.818410     -0.332967
80
Coordinates from ORCA-job R4N+PFOA-_r2 E -2865.068947769016
  N       5.501479      0.618893      2.551363
  C       3.381813     -4.118774     -1.592521
  C       4.241319     -4.587736     -2.776245
  C       4.503064     -3.503662     -3.835994
  C       4.013417     -2.942510     -0.880192
  C       3.083321     -5.277099     -0.626114
  C       5.818196      0.470789      1.057038
  C       5.196479     -0.724447      0.402532
  C       3.215613     -2.916044     -4.379437
  C       3.372477     -1.703478     -0.847285
  C       5.265260     -3.053793     -0.262455
  C       5.372867     -4.065699     -4.967072
  C       4.020876      0.659935      2.790406
  C       6.109221      1.911043      3.013669
  C       6.094698     -0.510214      3.337283
  C       3.957222     -0.605740     -0.227037
  C       5.849582     -1.961958      0.368946
  C       2.051726     -4.906604      0.435199
  C       2.255082     -3.729631     -4.992640
  C       2.957756     -1.545844     -4.283593
  C       1.073732     -3.188204     -5.491585
  C       1.772590     -1.000070     -4.775580
  C       0.824449     -1.820506     -5.381202
  H       2.417847     -3.776612     -1.994276
  H       3.743163     -5.443840     -3.251479
  H       5.208263     -4.954419     -2.404592
  H       5.056263     -2.685065     -3.354931
  H       4.017354     -5.606731     -0.150999
  H       2.712780     -6.126623     -1.215182
  H       6.909857      0.440372      0.995858
  H       5.457194      1.394098      0.594009
  H       2.410743     -1.586083     -1.335564
  H       5.797884     -4.001501     -0.283670
  H       5.594835     -3.295810     -5.714002
  H       4.865572     -4.894589     -5.474394
  H       6.322847     -4.442249     -4.570743
  H       3.592199     -0.309913      2.533834
  H       3.580219      1.445384      2.172237
  H       3.856344      0.871232      3.849075
  H       7.182216      1.885677      2.812868
  H       5.927916      2.015584      4.085095
  H       5.640107      2.733180      2.469335
  H       5.632547     -1.447044      3.022854
  H       5.890990     -0.333149      4.395336
  H       7.171642     -0.536615      3.158740
  H       3.445705      0.353260     -0.234069
  H       6.828084     -2.065943      0.831826
  H       1.105037     -4.611558     -0.034270
  H       2.393475     -4.067863      1.053224
  H       1.846634     -5.751190      1.101864
  H       2.430369     -4.799482     -5.081482
  H       3.692485     -0.899280     -3.808409
  H       0.342457     -3.839003     -5.963605
  H       1.590206      0.067473     -4.681784
  H      -0.101881     -1.398924     -5.762161
  F      -0.116913     -2.032354      0.423968
  F      -2.204687     -1.377108      0.188593
  F       0.506520      0.178929     -1.423682
  F      -1.547116      0.847279     -0.991388
  F      -1.583574     -1.311174     -2.687204
  F       0.197297     -2.470727     -2.124257
  F      -0.894763      0.442401      1.793970
  F       1.188401      0.183650      1.131272
  F      -1.670249     -4.091705     -0.532956
  F      -3.231721     -3.085085     -1.713593
  F       0.727253      2.609008      2.021405
  F      -1.027631      2.880227      0.736725
  F      -2.589750     -5.397914     -2.815110
  F      -0.457758     -4.975867     -2.777513
  F      -1.785482     -3.784274     -4.037934
  O       2.365439      2.769902     -0.093218
  O       0.554964      3.210759     -1.382657
  C      -0.976993     -1.367850     -0.379708
  C      -0.506760      0.124780     -0.522643
  C      -1.055307     -2.129830     -1.749552
  C      -0.000026      0.752670      0.816741
  C      -1.927802     -3.430714     -1.684812
  C       0.203490      2.298647      0.794436
  C      -1.672844     -4.423151     -2.865984
  C       1.143992      2.820807     -0.352892
80
Coordinates from ORCA-job R4N+PFOA-_r2 E -2865.068967824825
  N       5.503573      0.616526      2.556561
  C       3.381540     -4.118151     -1.593174
  C       4.240783     -4.583612     -2.778526
  C       4.499794     -3.497742     -3.837066
  C       4.013371     -2.943539     -0.878167
  C       3.083143     -5.279369     -0.630518
  C       5.821863      0.465854      1.062290
  C       5.197729     -0.728224      0.408100
  C       3.211083     -2.913100     -4.380846
  C       3.375354     -1.703016     -0.847671
  C       5.263098     -3.057737     -0.256540
  C       5.371869     -4.056450     -4.968085
  C       4.022547      0.667379      2.792072
  C       6.118543      1.904902      3.019131
  C       6.087594     -0.516060      3.343908
  C       3.960008     -0.607129     -0.223958
  C       5.848368     -1.967157      0.376094
  C       2.055085     -4.911195      0.435057
  C       2.253784     -3.728751     -4.996410
  C       2.949160     -1.543758     -4.283957
  C       1.071832     -3.190138     -5.496962
  C       1.763293     -1.000807     -4.777254
  C       0.818586     -1.823289     -5.385519
  H       2.417924     -3.774278     -1.994369
  H       3.743118     -5.439674     -3.254384
  H       5.208869     -4.949189     -2.408770
  H       5.050472     -2.677921     -3.355136
  H       4.017742     -5.612450     -0.158921
  H       2.709757     -6.125951     -1.221946
  H       6.913471      0.430951      1.002545
  H       5.464970      1.390801      0.599443
  H       2.416504     -1.582781     -1.340988
  H       5.793263     -4.006846     -0.276334
  H       5.592197     -3.285116     -5.714008
  H       4.867039     -4.886124     -5.476531
  H       6.322637     -4.430664     -4.571528
  H       3.586291     -0.298050      2.532057
  H       3.588889      1.458854      2.176688
  H       3.857534      0.876752      3.851115
  H       7.191824      1.872061      2.820880
  H       5.935552      2.011712      4.090059
  H       5.656278      2.729752      2.473082
  H       5.619641     -1.449812      3.029149
  H       5.883131     -0.337021      4.401494
  H       7.164663     -0.549914      3.167434
  H       3.451778      0.353482     -0.233017
  H       6.825664     -2.072982      0.841075
  H       1.108196     -4.610899     -0.030496
  H       2.400951     -4.077054      1.056816
  H       1.849010     -5.758926      1.097423
  H       2.432272     -4.797962     -5.086461
  H       3.681550     -0.895630     -3.807293
  H       0.343589     -3.841703     -5.972595
  H       1.577295      0.066051     -4.682600
  H      -0.107780     -1.403674     -5.768530
  F      -0.109805     -2.028218      0.424290
  F      -2.200270     -1.380353      0.193440
  F       0.501438      0.181506     -1.428683
  F      -1.553004      0.845040     -0.991503
  F      -1.587455     -1.314527     -2.683400
  F       0.198706     -2.468168     -2.125583
  F      -0.894467      0.451908      1.790350
  F       1.188519      0.192312      1.126277
  F      -1.661228     -4.092622     -0.526010
  F      -3.227229     -3.092506     -1.706276
  F       0.729415      2.620109      2.006984
  F      -1.030406      2.885624      0.727570
  F      -2.581264     -5.405574     -2.802750
  F      -0.450453     -4.977640     -2.773285
  F      -1.785343     -3.791970     -4.031250
  O       2.359948      2.768256     -0.114961
  O       0.545399      3.214774     -1.396948
  C      -0.973812     -1.367602     -0.377865
  C      -0.508951      0.126248     -0.524494
  C      -1.053632     -2.131184     -1.746887
  C      -0.000908      0.759580      0.811136
  C      -1.922026     -3.434475     -1.678637
  C       0.201500      2.305205      0.782767
  C      -1.667257     -4.428180     -2.858667
  C       1.137870      2.823955     -0.369501
80
Coordinates from ORCA-job R4N+PFOA-_r2 E -2865.068987510758
  N       5.503299      0.614035      2.560155
  C       3.381678     -4.118331     -1.593945
  C       4.240902     -4.579818     -2.780990
  C       4.496557     -3.491625     -3.837970
  C       4.013602     -2.945142     -0.876466
  C       3.084242     -5.282480     -0.635006
  C       5.824880      0.461096      1.066735
  C       5.198978     -0.732133      0.412565
  C       3.206480     -2.909966     -4.381673
  C       3.377395     -1.703609     -0.847184
  C       5.261738     -3.061531     -0.252171
  C       5.370669     -4.046451     -4.969382
  C       4.022144      0.674774      2.790889
  C       6.125456      1.898545      3.024386
  C       6.077584     -0.522408      3.349282
  C       3.961905     -0.609343     -0.220662
  C       5.847781     -1.971980      0.381463
  C       2.061459     -4.916337      0.436449
  C       2.252397     -3.727441     -4.999874
  C       2.940504     -1.541549     -4.283250
  C       1.070210     -3.191334     -5.502311
  C       1.754073     -1.001149     -4.777909
  C       0.813148     -1.825319     -5.389577
  H       2.418371     -3.773269     -1.994811
  H       3.743981     -5.435873     -3.257634
  H       5.210312     -4.943885     -2.413385
  H       5.044798     -2.670746     -3.355060
  H       4.019710     -5.619948     -0.168311
  H       2.706704     -6.125848     -1.228323
  H       6.916466      0.421915      1.009777
  H       5.472065      1.387078      0.603227
  H       2.420798     -1.582493     -1.344637
  H       5.789844     -4.011782     -0.271230
  H       5.588550     -3.273810     -5.714636
  H       4.868861     -4.877449     -5.478566
  H       6.322601     -4.417594     -4.572831
  H       3.579094     -0.286507      2.527875
  H       3.595551      1.472062      2.178286
  H       3.855785      0.882649      3.850109
  H       7.199364      1.857346      2.831280
  H       5.938047      2.007643      4.094287
  H       5.671675      2.725854      2.475003
  H       5.603367     -1.452623      3.033656
  H       5.871955     -0.341050      4.406224
  H       7.154682     -0.563730      3.174901
  H       3.456877      0.352952     -0.231745
  H       6.824254     -2.079398      0.847760
  H       1.114081     -4.609621     -0.023723
  H       2.413205     -4.087466      1.061758
  H       1.854418     -5.767281      1.094344
  H       2.434053     -4.795981     -5.091257
  H       3.670480     -0.892150     -3.804653
  H       0.344647     -3.843409     -5.981264
  H       1.564731      0.065053     -4.682150
  H      -0.113443     -1.408010     -5.774492
  F      -0.103005     -2.023478      0.425324
  F      -2.195443     -1.381474      0.197799
  F       0.498973      0.183546     -1.432996
  F      -1.555572      0.844146     -0.992961
  F      -1.589014     -1.317669     -2.680007
  F       0.200552     -2.467159     -2.125312
  F      -0.894796      0.462348      1.786294
  F       1.188339      0.200031      1.123970
  F      -1.653647     -4.092004     -0.517892
  F      -3.223053     -3.097942     -1.698441
  F       0.730134      2.631711      1.993611
  F      -1.032052      2.891235      0.716315
  F      -2.574956     -5.411820     -2.789038
  F      -0.444967     -4.980372     -2.767278
  F      -1.785018     -3.799822     -4.023651
  O       2.357009      2.766306     -0.133339
  O       0.541250      3.218253     -1.410618
  C      -0.970137     -1.366535     -0.376032
  C      -0.509068      0.128063     -0.526538
  C      -1.051313     -2.132463     -1.743945
  C      -0.001080      0.766141      0.805958
  C      -1.916843     -3.437110     -1.671634
  C       0.200469      2.311732      0.771432
  C      -1.662729     -4.432905     -2.850093
  C       1.134576      2.826839     -0.384235
80
Coordinates from ORCA-job R4N+PFOA-_r2 E -2865.069007067153
  N       5.500936      0.610904      2.564394
  C       3.383680     -4.118416     -1.594950
  C       4.242722     -4.574567     -2.784372
  C       4.492415     -3.483178     -3.839492
  C       4.015331     -2.946512     -0.874903
  C       3.088882     -5.286022     -0.639903
  C       5.827906      0.456295      1.072552
  C       5.201071     -0.735985      0.417385
  C       3.199579     -2.906490     -4.381850
  C       3.380302     -1.704171     -0.846121
  C       5.261925     -3.064892     -0.248268
  C       5.368457     -4.032150     -4.972348
  C       4.019804      0.683461      2.788752
  C       6.131753      1.890314      3.032529
  C       6.063196     -0.530773      3.355293
  C       3.964631     -0.611408     -0.216992
  C       5.848334     -1.976447      0.386809
  C       2.072143     -4.922658      0.438418
  C       2.249315     -3.727163     -5.001776
  C       2.927607     -1.539419     -4.281557
  C       1.065966     -3.195113     -5.505426
  C       1.739458     -1.003221     -4.776693
  C       0.803399     -1.830241     -5.391548
  H       2.419930     -3.773457     -1.994646
  H       3.747699     -5.431263     -3.261802
  H       5.214204     -4.935613     -2.419498
  H       5.037358     -2.660663     -3.355679
  H       4.025620     -5.627939     -0.179108
  H       2.706881     -6.126122     -1.234967
  H       6.919512      0.413197      1.019888
  H       5.479273      1.382831      0.607269
  H       2.425991     -1.583602     -1.348019
  H       5.788253     -4.016114     -0.266936
  H       5.581475     -3.257890     -5.717277
  H       4.871036     -4.865619     -5.481714
  H       6.322708     -4.398249     -4.576738
  H       3.569490     -0.273189      2.522282
  H       3.602120      1.487351      2.178632
  H       3.850579      0.889751      3.847931
  H       7.206668      1.838394      2.848047
  H       5.936538      2.001832      4.100726
  H       5.689930      2.720812      2.478271
  H       5.581048     -1.456307      3.038139
  H       5.856363     -0.346898      4.411520
  H       7.140189     -0.581261      3.183120
  H       3.463008      0.352750     -0.229904
  H       6.823918     -2.085610      0.854520
  H       1.123850     -4.609630     -0.015533
  H       2.430051     -4.099000      1.066962
  H       1.864863     -5.776864      1.091932
  H       2.435538     -4.794786     -5.094362
  H       3.654483     -0.887778     -3.801346
  H       0.343129     -3.848872     -5.986069
  H       1.545629      0.062056     -4.679679
  H      -0.124580     -1.416972     -5.777316
  F      -0.097927     -2.017627      0.426201
  F      -2.191015     -1.378420      0.199196
  F       0.500059      0.184652     -1.438815
  F      -1.554107      0.844938     -0.999156
  F      -1.587643     -1.321724     -2.679452
  F       0.203036     -2.468389     -2.123614
  F      -0.894844      0.475050      1.779622
  F       1.188539      0.207686      1.121387
  F      -1.647836     -4.089512     -0.508932
  F      -3.219458     -3.100802     -1.690506
  F       0.730297      2.644998      1.978282
  F      -1.030762      2.898207      0.698537
  F      -2.571205     -5.417697     -2.773027
  F      -0.441741     -4.984133     -2.759195
  F      -1.786173     -3.809432     -4.015564
  O       2.359355      2.760342     -0.149447
  O       0.546764      3.220713     -1.426683
  C      -0.966490     -1.363896     -0.376069
  C      -0.506769      0.130664     -0.531317
  C      -1.048384     -2.133844     -1.741957
  C       0.000175      0.773243      0.798782
  C      -1.912747     -3.438626     -1.664363
  C       0.201781      2.318890      0.757347
  C      -1.660057     -4.438067     -2.840200
  C       1.137160      2.828096     -0.399609
80
Coordinates from ORCA-job R4N+PFOA-_r2 E -2865.069023264898
  N       5.498041      0.608129      2.566950
  C       3.384620     -4.117487     -1.596379
  C       4.243718     -4.570696     -2.787097
  C       4.489582     -3.477186     -3.841028
  C       4.016601     -2.946798     -0.874713
  C       3.090519     -5.286826     -0.643524
  C       5.830167      0.452977      1.077038
  C       5.203255     -0.738500      0.419917
  C       3.194937     -2.903931     -4.382678
  C       3.382425     -1.703866     -0.845659
  C       5.262305     -3.066930     -0.246888
  C       5.367074     -4.022106     -4.974757
  C       4.017227      0.690053      2.785434
  C       6.135751      1.882954      3.039666
  C       6.050160     -0.538190      3.359049
  C       3.967450     -0.612165     -0.215692
  C       5.849099     -1.979505      0.389625
  C       2.076511     -4.924407      0.437804
  C       2.247552     -3.726670     -5.004317
  C       2.918553     -1.537894     -4.280372
  C       1.063281     -3.197367     -5.508430
  C       1.729031     -1.004537     -4.775415
  C       0.796491     -1.833397     -5.392875
  H       2.420700     -3.772632     -1.995698
  H       3.750200     -5.427901     -3.265117
  H       5.216372     -4.929752     -2.423523
  H       5.032221     -2.653640     -3.356427
  H       4.027466     -5.631646     -0.185381
  H       2.706027     -6.125098     -1.239584
  H       6.921833      0.407772      1.028433
  H       5.484228      1.379466      0.609447
  H       2.429320     -1.584294     -1.350154
  H       5.787443     -4.018794     -0.265585
  H       5.576428     -3.247004     -5.719810
  H       4.873075     -4.857709     -5.483930
  H       6.323027     -4.384311     -4.579669
  H       3.561612     -0.262939      2.514870
  H       3.607196      1.499349      2.177166
  H       3.844871      0.894247      3.844559
  H       7.211671      1.821695      2.864347
  H       5.932082      1.996464      4.106024
  H       5.705383      2.716321      2.480745
  H       5.560957     -1.459636      3.040778
  H       5.842994     -0.352261      4.414808
  H       7.126903     -0.596752      3.188162
  H       3.468653      0.353378     -0.229986
  H       6.823872     -2.090421      0.858585
  H       1.127908     -4.608577     -0.013560
  H       2.437296     -4.102778      1.067400
  H       1.868987     -5.779731      1.089725
  H       2.437180     -4.793569     -5.098128
  H       3.642993     -0.884846     -3.798436
  H       0.342326     -3.852452     -5.990066
  H       1.531983      0.060019     -4.676439
  H      -0.132917     -1.423270     -5.778523
  F      -0.093245     -2.013272      0.428075
  F      -2.186770     -1.375565      0.201118
  F       0.502818      0.184968     -1.442089
  F      -1.551137      0.845203     -1.003901
  F      -1.586093     -1.326016     -2.677898
  F       0.205949     -2.469620     -2.121008
  F      -0.892654      0.482910      1.776026
  F       1.190596      0.213663      1.120193
  F      -1.642984     -4.087913     -0.499655
  F      -3.215543     -3.104242     -1.683565
  F       0.733430      2.654375      1.966884
  F      -1.029095      2.902961      0.688566
  F      -2.565827     -5.423125     -2.760555
  F      -0.436609     -4.988773     -2.746753
  F      -1.780662     -3.818108     -4.007121
  O       2.360017      2.757040     -0.165003
  O       0.546800      3.222234     -1.438716
  C      -0.962929     -1.361984     -0.375228
  C      -0.503610      0.132272     -0.534362
  C      -1.045343     -2.135404     -1.739044
  C       0.002596      0.777837      0.794475
  C      -1.908587     -3.440697     -1.656909
  C       0.203576      2.323992      0.747865
  C      -1.654975     -4.443436     -2.829883
  C       1.137217      2.829079     -0.412174
80
Coordinates from ORCA-job R4N+PFOA-_r2 E -2865.069040719998
  N       5.494728      0.604764      2.569740
  C       3.386008     -4.115671     -1.598207
  C       4.244783     -4.566654     -2.790206
  C       4.487102     -3.471380     -3.843211
  C       4.018336     -2.946009     -0.875456
  C       3.092893     -5.286259     -0.646556
  C       5.832205      0.450185      1.081739
  C       5.205658     -0.739992      0.421623
  C       3.190640     -2.901703     -4.384284
  C       3.384864     -1.702532     -0.845825
  C       5.263313     -3.067896     -0.246746
  C       5.365991     -4.012401     -4.977760
  C       4.013913      0.696251      2.782512
  C       6.139655      1.874080      3.048497
  C       6.036363     -0.546940      3.361913
  C       3.970979     -0.611520     -0.215850
  C       5.850143     -1.981548      0.391609
  C       2.081090     -4.924373      0.437060
  C       2.245865     -3.726799     -5.006772
  C       2.910019     -1.536594     -4.280640
  C       1.060176     -3.200518     -5.510611
  C       1.718801     -1.006313     -4.775134
  C       0.789053     -1.837425     -5.393729
  H       2.421336     -3.771768     -1.996493
  H       3.752963     -5.424585     -3.268664
  H       5.218409     -4.923908     -2.427449
  H       5.027379     -2.646766     -3.357823
  H       4.030154     -5.633076     -0.190580
  H       2.706388     -6.123246     -1.243184
  H       6.923962      0.403587      1.037159
  H       5.489028      1.376595      0.611695
  H       2.432653     -1.584191     -1.352416
  H       5.787771     -4.020135     -0.265639
  H       5.571677     -3.236487     -5.722984
  H       4.875252     -4.850094     -5.486698
  H       6.323643     -4.370881     -4.583302
  H       3.553342     -0.252556      2.505881
  H       3.612974      1.511941      2.176467
  H       3.838390      0.896596      3.841869
  H       7.216632      1.802770      2.883846
  H       5.926289      1.989505      4.112726
  H       5.722553      2.711157      2.485080
  H       5.539173     -1.463884      3.042870
  H       5.830379     -0.359456      4.417604
  H       7.112607     -0.614748      3.191300
  H       3.474484      0.355222     -0.231163
  H       6.823927     -2.094187      0.862235
  H       1.132161     -4.606553     -0.012335
  H       2.443945     -4.103854      1.067069
  H       1.873594     -5.780179      1.088337
  H       2.438844     -4.793046     -5.101254
  H       3.632254     -0.881848     -3.797705
  H       0.340943     -3.857580     -5.992191
  H       1.518695      0.057557     -4.674353
  H      -0.142151     -1.430649     -5.778702
  F      -0.090835     -2.008973      0.430752
  F      -2.184063     -1.370485      0.202025
  F       0.507106      0.184646     -1.444655
  F      -1.546963      0.845908     -1.010190
  F      -1.583956     -1.330947     -2.677065
  F       0.208535     -2.471925     -2.116500
  F      -0.890730      0.490299      1.772294
  F       1.192601      0.219711      1.118946
  F      -1.640979     -4.085548     -0.489490
  F      -3.212695     -3.106676     -1.678213
  F       0.736944      2.663609      1.955566
  F      -1.027444      2.907231      0.679032
  F      -2.559869     -5.429167     -2.747984
  F      -0.430868     -4.993251     -2.729989
  F      -1.772727     -3.827992     -3.998075
  O       2.360690      2.752394     -0.180647
  O       0.546158      3.223779     -1.449962
  C      -0.960536     -1.359499     -0.374563
  C      -0.500158      0.133985     -0.537803
  C      -1.042983     -2.136969     -1.735684
  C       0.005028      0.782350      0.790435
  C      -1.905883     -3.442473     -1.649281
  C       0.205304      2.328867      0.738743
  C      -1.649455     -4.449293     -2.818199
  C       1.137122      2.829143     -0.424375
80
Coordinates from ORCA-job R4N+PFOA-_r2 E -2865.069055734583
  N       5.491004      0.602092      2.570835
  C       3.387362     -4.113993     -1.599941
  C       4.245087     -4.565138     -2.792644
  C       4.485962     -3.469507     -3.845605
  C       4.020324     -2.944679     -0.877571
  C       3.094514     -5.284292     -0.647592
  C       5.832835      0.449383      1.084171
  C       5.207573     -0.739772      0.420711
  C       3.188626     -2.901143     -4.386034
  C       3.386580     -1.701249     -0.846849
  C       5.265501     -3.067176     -0.249439
  C       5.364962     -4.009124     -4.980744
  C       4.010004      0.700202      2.778975
  C       6.140728      1.866655      3.055522
  C       6.024478     -0.554295      3.361897
  C       3.973573     -0.610114     -0.217953
  C       5.851881     -1.981350      0.390323
  C       2.083684     -4.921357      0.436543
  C       2.244760     -3.727065     -5.008774
  C       2.906217     -1.536439     -4.281247
  C       1.058217     -3.201882     -5.511851
  C       1.714029     -1.007290     -4.774810
  C       0.785132     -1.839214     -5.393757
  H       2.422006     -3.770797     -1.997184
  H       3.753671     -5.423446     -3.270854
  H       5.219010     -4.922046     -2.430200
  H       5.025503     -2.644527     -3.360022
  H       4.031969     -5.631470     -0.192256
  H       2.706956     -6.121157     -1.243763
  H       6.924719      0.402984      1.042589
  H       5.491261      1.375547      0.612438
  H       2.434060     -1.584441     -1.353240
  H       5.790448     -4.019140     -0.269049
  H       5.568775     -3.232924     -5.726201
  H       4.875222     -4.847697     -5.489273
  H       6.323479     -4.366180     -4.587020
  H       3.546171     -0.245164      2.495394
  H       3.615955      1.520818      2.175173
  H       3.831746      0.895807      3.838726
  H       7.218560      1.787883      2.900039
  H       5.919126      1.983256      4.117945
  H       5.734636      2.707157      2.489151
  H       5.521204     -1.467659      3.041889
  H       5.819809     -0.366643      4.417823
  H       7.100301     -0.629472      3.191458
  H       3.478099      0.357236     -0.233541
  H       6.825094     -2.094617      0.862013
  H       1.134498     -4.603466     -0.012411
  H       2.447215     -4.100228      1.065571
  H       1.876479     -5.776423      1.088897
  H       2.439202     -4.792997     -5.103964
  H       3.627634     -0.881020     -3.797975
  H       0.339805     -3.859881     -5.993481
  H       1.512782      0.056262     -4.672538
  H      -0.146834     -1.433744     -5.778358
  F      -0.090107     -2.006010      0.434383
  F      -2.182734     -1.366046      0.201961
  F       0.512442      0.184211     -1.443733
  F      -1.542530      0.846539     -1.014809
  F      -1.579962     -1.334655     -2.676421
  F       0.211914     -2.474337     -2.110938
  F      -0.890568      0.494489      1.770671
  F       1.193530      0.224054      1.120382
  F      -1.640984     -4.083318     -0.481296
  F      -3.209925     -3.107494     -1.676228
  F       0.740176      2.669344      1.950060
  F      -1.026842      2.909864      0.676450
  F      -2.554782     -5.433067     -2.739703
  F      -0.425531     -4.997991     -2.713433
  F      -1.761707     -3.835688     -3.990814
  O       2.360088      2.750868     -0.190856
  O       0.542583      3.226790     -1.454601
  C      -0.958725     -1.357501     -0.373390
  C      -0.496973      0.135278     -0.539021
  C      -1.040200     -2.138058     -1.732302
  C       0.006349      0.785547      0.789594
  C      -1.903551     -3.443538     -1.643616
  C       0.206080      2.332228      0.735047
  C      -1.643648     -4.453951     -2.808553
  C       1.135588      2.830104     -0.430748
80
Coordinates from ORCA-job R4N+PFOA-_r2 E -2865.069068644748
  N       5.488703      0.599288      2.573178
  C       3.389018     -4.111827     -1.601213
  C       4.244968     -4.563800     -2.794742
  C       4.484763     -3.468860     -3.848550
  C       4.022524     -2.942347     -0.879840
  C       3.097321     -5.281680     -0.647551
  C       5.833461      0.449223      1.086902
  C       5.209281     -0.738504      0.420043
  C       3.186683     -2.901392     -4.388236
  C       3.389034     -1.698747     -0.849097
  C       5.267617     -3.065472     -0.251638
  C       5.363109     -4.008591     -4.984140
  C       4.006945      0.703471      2.777673
  C       6.142646      1.859210      3.063233
  C       6.014874     -0.561554      3.362225
  C       3.976506     -0.607515     -0.220507
  C       5.853454     -1.980178      0.389439
  C       2.088154     -4.917819      0.437746
  C       2.242680     -3.728156     -5.009639
  C       2.903737     -1.536733     -4.284124
  C       1.055305     -3.203845     -5.511905
  C       1.710867     -1.008475     -4.777023
  C       0.781578     -1.841258     -5.394389
  H       2.422612     -3.769488     -1.996581
  H       3.753290     -5.422554     -3.271906
  H       5.219200     -4.920651     -2.432878
  H       5.024223     -2.643377     -3.363700
  H       4.035516     -5.628475     -0.193420
  H       2.708653     -6.118648     -1.242864
  H       6.925435      0.402855      1.047069
  H       5.493444      1.376112      0.615144
  H       2.436530     -1.582256     -1.355674
  H       5.792890     -4.017261     -0.271410
  H       5.565884     -3.232428     -5.729948
  H       4.873051     -4.847427     -5.491991
  H       6.322128     -4.365284     -4.591282
  H       3.540058     -0.237925      2.486314
  H       3.620380      1.529643      2.176315
  H       3.826524      0.893394      3.838036
  H       7.221032      1.774284      2.914737
  H       5.915053      1.976457      4.124344
  H       5.745735      2.703190      2.495503
  H       5.506229     -1.471601      3.041183
  H       5.811701     -0.374514      4.418583
  H       7.090271     -0.643500      3.191918
  H       3.481575      0.360164     -0.235606
  H       6.825954     -2.093811      0.862531
  H       1.138326     -4.599979     -0.009990
  H       2.452624     -4.096255      1.065763
  H       1.881814     -5.772346      1.091116
  H       2.437574     -4.794057     -5.104413
  H       3.625250     -0.880484     -3.802087
  H       0.337219     -3.862790     -5.992809
  H       1.509386      0.055036     -4.675238
  H      -0.150505     -1.436123     -5.779133
  F      -0.090332     -2.003531      0.437487
  F      -2.182518     -1.362982      0.200983
  F       0.516048      0.183843     -1.443061
  F      -1.540065      0.846712     -1.018709
  F      -1.575212     -1.337532     -2.676819
  F       0.215167     -2.476912     -2.105693
  F      -0.890686      0.497342      1.769182
  F       1.194068      0.228391      1.119939
  F      -1.641821     -4.081276     -0.475638
  F      -3.207746     -3.107298     -1.676390
  F       0.741687      2.674056      1.945365
  F      -1.028489      2.911106      0.675240
  F      -2.551145     -5.435853     -2.733638
  F      -0.421617     -5.001840     -2.701049
  F      -1.753061     -3.841874     -3.985856
  O       2.357024      2.749202     -0.199887
  O       0.536150      3.232168     -1.456923
  C      -0.957675     -1.356054     -0.372680
  C      -0.495361      0.136242     -0.540120
  C      -1.037582     -2.139003     -1.729899
  C       0.006597      0.788515      0.788459
  C      -1.901807     -3.444084     -1.640143
  C       0.204959      2.334866      0.731981
  C      -1.639293     -4.457475     -2.801680
  C       1.131998      2.831666     -0.435891
80
Coordinates from ORCA-job R4N+PFOA-_r2 E -2865.069081743749
  N       5.485507      0.598279      2.571542
  C       3.390088     -4.111659     -1.601859
  C       4.243940     -4.566581     -2.795438
  C       4.485375     -3.473455     -3.850694
  C       4.024406     -2.941129     -0.882996
  C       3.098775     -5.279609     -0.645344
  C       5.832356      0.451101      1.085173
  C       5.209947     -0.736140      0.415922
  C       3.188039     -2.903205     -4.389433
  C       3.389772     -1.698240     -0.851759
  C       5.270644     -3.062932     -0.256658
  C       5.361308     -4.016338     -4.986589
  C       4.003174      0.704298      2.773253
  C       6.140050      1.855731      3.065481
  C       6.007860     -0.565233      3.358503
  C       3.977057     -0.605958     -0.224614
  C       5.855574     -1.977151      0.384473
  C       2.091663     -4.913040      0.440864
  C       2.241917     -3.727928     -5.010306
  C       2.907911     -1.537976     -4.284960
  C       1.055084     -3.201197     -5.511610
  C       1.715781     -1.007282     -4.777013
  C       0.784112     -1.838140     -5.393637
  H       2.423253     -3.769302     -1.996100
  H       3.750186     -5.424974     -3.271150
  H       5.217710     -4.925188     -2.433894
  H       5.027166     -2.648729     -3.367105
  H       4.037716     -5.625571     -0.192081
  H       2.708670     -6.117304     -1.238660
  H       6.924445      0.405840      1.046495
  H       5.492911      1.378419      0.614321
  H       2.435434     -1.582693     -1.355185
  H       5.797371     -4.013906     -0.277080
  H       5.565710     -3.240835     -5.732667
  H       4.868098     -4.853725     -5.493798
  H       6.319615     -4.375788     -4.594545
  H       3.535606     -0.234782      2.474486
  H       3.619590      1.533193      2.174320
  H       3.821105      0.888834      3.834200
  H       7.218870      1.768830      2.921077
  H       5.908991      1.972701      4.125911
  H       5.747583      2.701760      2.497702
  H       5.497473     -1.473699      3.035699
  H       5.804511     -0.379907      4.415173
  H       7.083276     -0.649992      3.189372
  H       3.480690      0.361038     -0.239178
  H       6.828236     -2.089488      0.857550
  H       1.141260     -4.595247     -0.005710
  H       2.457699     -4.090816      1.067124
  H       1.885809     -5.766412      1.095937
  H       2.434604     -4.794181     -5.105700
  H       3.631135     -0.883028     -3.803697
  H       0.336162     -3.858750     -5.993218
  H       1.516560      0.056676     -4.675280
  H      -0.146589     -1.430216     -5.778847
  F      -0.092731     -2.002890      0.441969
  F      -2.184152     -1.361675      0.199304
  F       0.519719      0.183354     -1.437769
  F      -1.537762      0.847158     -1.018951
  F      -1.567742     -1.337863     -2.677136
  F       0.219287     -2.479492     -2.099453
  F      -0.893460      0.496344      1.771199
  F       1.192623      0.229589      1.124215
  F      -1.645076     -4.079371     -0.473555
  F      -3.205782     -3.104960     -1.681189
  F       0.741806      2.673833      1.949511
  F      -1.031372      2.910556      0.683079
  F      -2.549032     -5.435015     -2.733785
  F      -0.418762     -5.005203     -2.692278
  F      -1.742068     -3.844018     -3.984260
  O       2.353232      2.752904     -0.200202
  O       0.528280      3.240211     -1.450010
  C      -0.957492     -1.355515     -0.370874
  C      -0.494529      0.136570     -0.537494
  C      -1.034321     -2.139239     -1.727770
  C       0.005052      0.789251      0.792022
  C      -1.900399     -3.443306     -1.639850
  C       0.202700      2.335499      0.736663
  C      -1.635053     -4.458489     -2.798943
  C       1.127414      2.835525     -0.432189
80
Coordinates from ORCA-job R4N+PFOA-_r2 E -2865.069082671601
  N       5.479799      0.590885      2.577117
  C       3.391307     -4.105667     -1.605618
  C       4.239066     -4.566642     -2.800465
  C       4.482137     -3.478436     -3.860077
  C       4.029541     -2.934948     -0.890544
  C       3.100247     -5.270980     -0.645002
  C       5.837883      0.448361      1.091962
  C       5.216111     -0.733530      0.413077
  C       3.185452     -2.904469     -4.396855
  C       3.398774     -1.690289     -0.862544
  C       5.274470     -3.059870     -0.261908
  C       5.352907     -4.028622     -4.996327
  C       3.995059      0.717621      2.762874
  C       6.146290      1.835172      3.084308
  C       5.975924     -0.584193      3.361995
  C       3.987408     -0.598909     -0.234359
  C       5.859309     -1.976103      0.382362
  C       2.102154     -4.898708      0.447355
  C       2.235227     -3.726694     -5.014880
  C       2.910505     -1.538096     -4.294603
  C       1.049372     -3.196587     -5.515723
  C       1.719901     -1.004115     -4.786407
  C       0.783763     -1.832463     -5.399923
  H       2.423813     -3.760974     -1.995920
  H       3.740208     -5.424581     -3.271753
  H       5.212584     -4.928371     -2.441011
  H       5.028261     -2.654000     -3.380745
  H       4.041130     -5.619083     -0.197415
  H       2.702898     -6.107502     -1.235037
  H       6.930053      0.397854      1.060872
  H       5.507702      1.380832      0.623658
  H       2.444300     -1.571630     -1.365431
  H       5.799542     -4.011783     -0.280786
  H       5.559678     -3.255164     -5.743921
  H       4.853450     -4.863872     -5.500927
  H       6.310201     -4.392475     -4.606032
  H       3.517331     -0.208154      2.440096
  H       3.637090      1.562536      2.169131
  H       3.803392      0.886959      3.824465
  H       7.225867      1.731050      2.957309
  H       5.900931      1.954783      4.141311
  H       5.778119      2.689979      2.513417
  H       5.452558     -1.482970      3.033050
  H       5.769224     -0.399811      4.418278
  H       7.050975     -0.687944      3.200703
  H       3.492209      0.368506     -0.249307
  H       6.829279     -2.090189      0.860495
  H       1.150003     -4.577196      0.007392
  H       2.475994     -4.078140      1.071089
  H       1.897046     -5.751051      1.104103
  H       2.423822     -4.793732     -5.109720
  H       3.637062     -0.884352     -3.816703
  H       0.329780     -3.852276     -5.998990
  H       1.524814      0.060749     -4.687889
  H      -0.143158     -1.418913     -5.788297
  F      -0.084157     -1.997758      0.452921
  F      -2.177943     -1.365969      0.204649
  F       0.521582      0.184959     -1.434084
  F      -1.539046      0.842829     -1.015226
  F      -1.552295     -1.345543     -2.671755
  F       0.233000     -2.485357     -2.085097
  F      -0.883838      0.495371      1.776681
  F       1.201495      0.244768      1.118390
  F      -1.638343     -4.077925     -0.457623
  F      -3.192934     -3.111014     -1.679810
  F       0.752729      2.683776      1.937529
  F      -1.045432      2.907543      0.703445
  F      -2.532106     -5.443116     -2.719161
  F      -0.401083     -5.019118     -2.661135
  F      -1.709202     -3.859905     -3.969533
  O       2.322877      2.761473     -0.245425
  O       0.470795      3.269962     -1.448524
  C      -0.949687     -1.356466     -0.363197
  C      -0.493218      0.136632     -0.533095
  C      -1.021998     -2.143926     -1.717986
  C       0.007326      0.795301      0.792794
  C      -1.887479     -3.448314     -1.628953
  C       0.193457      2.341538      0.734154
  C      -1.615187     -4.469275     -2.780809
  C       1.093501      2.850460     -0.450428
80
Coordinates from ORCA-job R4N+PFOA-_r2 E -2865.069107398763
  N       5.481497      0.594724      2.574988
  C       3.391370     -4.109110     -1.604031
  C       4.241975     -4.565864     -2.798854
  C       4.483238     -3.474843     -3.856195
  C       4.027681     -2.938638     -0.886475
  C       3.101209     -5.276765     -0.646575
  C       5.837519      0.447553      1.089749
  C       5.214115     -0.736079      0.415792
  C       3.185863     -2.902826     -4.393142
  C       3.396279     -1.694140     -0.858274
  C       5.272241     -3.062856     -0.257259
  C       5.355952     -4.021184     -4.992859
  C       3.997748      0.715523      2.764692
  C       6.144168      1.844428      3.076045
  C       5.985646     -0.575383      3.363092
  C       3.984012     -0.602884     -0.229275
  C       5.857378     -1.978503      0.385726
  C       2.101929     -4.908153      0.446080
  C       2.237178     -3.726343     -5.011798
  C       2.908680     -1.536943     -4.290287
  C       1.050751     -3.197930     -5.512622
  C       1.717231     -1.004634     -4.781932
  C       0.782927     -1.834244     -5.396243
  H       2.424223     -3.765177     -1.995775
  H       3.745683     -5.424043     -3.272383
  H       5.216082     -4.925521     -2.439190
  H       5.027409     -2.650184     -3.375114
  H       4.041797     -5.625750     -0.199099
  H       2.705106     -6.112517     -1.238572
  H       6.929577      0.396218      1.057913
  H       5.506792      1.378385      0.619856
  H       2.442436     -1.575918     -1.362145
  H       5.796865     -4.015025     -0.275878
  H       5.561396     -3.246565     -5.739581
  H       4.859352     -4.857304     -5.498792
  H       6.313880     -4.382945     -4.602126
  H       3.523304     -0.216199      2.453980
  H       3.630481      1.552846      2.166921
  H       3.808578      0.894365      3.825304
  H       7.223396      1.746478      2.941929
  H       5.904685      1.963517      4.134405
  H       5.766260      2.695290      2.505626
  H       5.468221     -1.477993      3.035314
  H       5.776898     -0.389780      4.418693
  H       7.061352     -0.671476      3.201853
  H       3.488502      0.364553     -0.245023
  H       6.828091     -2.092342      0.862424
  H       1.150293     -4.585091      0.006109
  H       2.475255     -4.089554      1.072601
  H       1.896027     -5.762505      1.099900
  H       2.427482     -4.793078     -5.106589
  H       3.634016     -0.882601     -3.811397
  H       0.331037     -3.854367     -5.994579
  H       1.520200      0.059843     -4.682583
  H      -0.146016     -1.423245     -5.782461
  F      -0.086476     -2.000000      0.447211
  F      -2.179537     -1.365023      0.203390
  F       0.518387      0.184676     -1.438659
  F      -1.539958      0.844540     -1.014924
  F      -1.558656     -1.342269     -2.674418
  F       0.226513     -2.484123     -2.091525
  F      -0.883691      0.494838      1.774698
  F       1.200672      0.238409      1.116433
  F      -1.641271     -4.078515     -0.464876
  F      -3.199296     -3.107688     -1.679178
  F       0.750606      2.678934      1.940574
  F      -1.039056      2.907656      0.695397
  F      -2.542062     -5.439522     -2.723535
  F      -0.411274     -5.012980     -2.677934
  F      -1.728725     -3.853312     -3.976263
  O       2.335874      2.757296     -0.230005
  O       0.494393      3.259724     -1.450233
  C      -0.952522     -1.356511     -0.366672
  C      -0.494125      0.136390     -0.535553
  C      -1.027451     -2.142451     -1.722683
  C       0.008269      0.792047      0.790829
  C      -1.893803     -3.445922     -1.633660
  C       0.198385      2.338600      0.733756
  C      -1.626507     -4.464458     -2.789190
  C       1.107637      2.845174     -0.444832
80
Coordinates from ORCA-job R4N+PFOA-_r2 E -2865.069118684334
  N       5.480344      0.595747      2.574885
  C       3.391324     -4.109754     -1.604532
  C       4.242820     -4.565112     -2.799402
  C       4.483305     -3.473324     -3.856231
  C       4.027619     -2.939797     -0.885872
  C       3.101031     -5.278406     -0.648677
  C       5.839837      0.445390      1.090611
  C       5.215110     -0.737924      0.417162
  C       3.185683     -2.901577     -4.392763
  C       3.397528     -1.694574     -0.858740
  C       5.271267     -3.064936     -0.255112
  C       5.355954     -4.018991     -4.993279
  C       3.996986      0.719664      2.760844
  C       6.144229      1.845381      3.075510
  C       5.981065     -0.573988      3.366080
  C       3.985274     -0.604158     -0.228522
  C       5.857069     -1.981002      0.387947
  C       2.102695     -4.910806      0.445254
  C       2.236770     -3.725233     -5.010897
  C       2.908505     -1.535700     -4.289994
  C       1.050197     -3.196966     -5.511307
  C       1.716760     -1.003542     -4.781050
  C       0.782397     -1.833269     -5.394939
  H       2.424655     -3.765326     -1.996924
  H       3.747155     -5.423319     -3.273519
  H       5.217215     -4.923977     -2.439902
  H       5.027373     -2.648685     -3.375044
  H       4.041434     -5.629162     -0.202251
  H       2.703982     -6.113130     -1.241495
  H       6.931792      0.390970      1.062148
  H       5.512357      1.376660      0.619599
  H       2.444237     -1.575173     -1.363221
  H       5.794396     -4.017941     -0.272852
  H       5.561140     -3.244277     -5.739947
  H       4.859815     -4.855280     -5.499334
  H       6.314042     -4.380370     -4.602580
  H       3.521552     -0.212559      2.453122
  H       3.631369      1.555667      2.160427
  H       3.805453      0.902747      3.820371
  H       7.223382      1.746091      2.942137
  H       5.904009      1.965159      4.133594
  H       5.767178      2.695794      2.503889
  H       5.464500     -1.476447      3.036590
  H       5.767987     -0.387319      4.420593
  H       7.057336     -0.670114      3.208901
  H       3.490541      0.363627     -0.245102
  H       6.827338     -2.095821      0.865303
  H       1.151192     -4.585879      0.006425
  H       2.477355     -4.093848      1.073049
  H       1.896142     -5.766184      1.097488
  H       2.427053     -4.791981     -5.105478
  H       3.634043     -0.881432     -3.811352
  H       0.329721     -3.853256     -5.992250
  H       1.519574      0.060932     -4.681820
  H      -0.147424     -1.422766     -5.779524
  F      -0.083142     -2.000326      0.445999
  F      -2.176890     -1.366784      0.205936
  F       0.515992      0.185356     -1.441551
  F      -1.541054      0.844072     -1.011718
  F      -1.559490     -1.342482     -2.673458
  F       0.226099     -2.484624     -2.092655
  F      -0.877120      0.492807      1.776273
  F       1.205336      0.238364      1.112066
  F      -1.639597     -4.079107     -0.464396
  F      -3.199262     -3.108119     -1.676115
  F       0.755523      2.677439      1.938681
  F      -1.037526      2.906201      0.698306
  F      -2.543833     -5.439708     -2.721391
  F      -0.412996     -5.013338     -2.680258
  F      -1.732804     -3.853614     -3.975749
  O       2.335062      2.756992     -0.235825
  O       0.491264      3.260363     -1.451402
  C      -0.950960     -1.357320     -0.366285
  C      -0.493740      0.135935     -0.535544
  C      -1.027321     -2.143078     -1.722662
  C       0.011575      0.790712      0.789786
  C      -1.893620     -3.446293     -1.632591
  C       0.200388      2.337773      0.733080
  C      -1.628280     -4.464668     -2.788937
  C       1.106310      2.845650     -0.447583
80
Coordinates from ORCA-job R4N+PFOA-_r2 E -2865.069133784114
  N       5.476781      0.595355      2.576628
  C       3.392421     -4.109530     -1.606774
  C       4.244485     -4.562294     -2.802451
  C       4.482488     -3.469325     -3.858755
  C       4.029166     -2.940765     -0.886266
  C       3.102722     -5.280206     -0.653694
  C       5.846384      0.439358      1.094815
  C       5.218675     -0.741331      0.420035
  C       3.183769     -2.898810     -4.393782
  C       3.402692     -1.693622     -0.861795
  C       5.270450     -3.068660     -0.251586
  C       5.354503     -4.013608     -4.996974
  C       3.993743      0.732590      2.750847
  C       6.147755      1.840494      3.080317
  C       5.962579     -0.577215      3.373289
  C       3.990679     -0.605075     -0.228637
  C       5.857294     -1.986147      0.392713
  C       2.108484     -4.914204      0.444589
  C       2.234361     -3.723373     -5.009950
  C       2.906066     -1.533016     -4.291468
  C       1.046762     -3.196132     -5.508736
  C       1.713109     -1.001905     -4.780635
  C       0.778405     -1.832524     -5.392592
  H       2.426025     -3.764434     -1.999045
  H       3.749974     -5.420848     -3.277131
  H       5.219747     -4.919395     -2.443754
  H       5.026277     -2.644361     -3.377874
  H       4.043375     -5.635049     -0.211114
  H       2.702194     -6.112390     -1.247764
  H       6.938006      0.376475      1.075388
  H       5.528945      1.372941      0.621757
  H       2.450756     -1.570813     -1.368077
  H       5.790312     -4.023486     -0.267282
  H       5.558430     -3.238664     -5.743719
  H       4.859079     -4.850384     -5.502859
  H       6.313281     -4.373964     -4.606998
  H       3.513010     -0.196381      2.442657
  H       3.639795      1.571045      2.146791
  H       3.794776      0.919961      3.808354
  H       7.226760      1.732872      2.952877
  H       5.902484      1.962146      4.136990
  H       5.779738      2.692959      2.505912
  H       5.443827     -1.476401      3.038363
  H       5.739885     -0.388822      4.425453
  H       7.039750     -0.679178      3.226518
  H       3.497032      0.363209     -0.247408
  H       6.825922     -2.103533      0.872789
  H       1.156920     -4.583966      0.009929
  H       2.487778     -4.101452      1.074982
  H       1.900683     -5.771820      1.093432
  H       2.425049     -4.790087     -5.104005
  H       3.632074     -0.878305     -3.814197
  H       0.325132     -3.852784     -5.987349
  H       1.515206      0.062480     -4.681857
  H      -0.153375     -1.423249     -5.773680
  F      -0.076041     -1.998214      0.446112
  F      -2.171322     -1.368643      0.211178
  F       0.512155      0.187180     -1.447151
  F      -1.543106      0.843001     -1.007985
  F      -1.558328     -1.345616     -2.671292
  F       0.227962     -2.486783     -2.090813
  F      -0.865096      0.492256      1.778041
  F       1.213929      0.242484      1.102683
  F      -1.635042     -4.079108     -0.458421
  F      -3.196791     -3.110478     -1.668952
  F       0.764687      2.679893      1.930073
  F      -1.037544      2.904791      0.702144
  F      -2.542163     -5.443809     -2.710565
  F      -0.411503     -5.016073     -2.675676
  F      -1.734930     -3.859957     -3.970134
  O       2.328990      2.754395     -0.256252
  O       0.478312      3.267431     -1.456136
  C      -0.947170     -1.357737     -0.364563
  C      -0.492942      0.136100     -0.536360
  C      -1.025015     -2.145160     -1.720380
  C       0.017245      0.791280      0.786418
  C      -1.890889     -3.448116     -1.627014
  C       0.201851      2.339086      0.728398
  C      -1.627242     -4.468321     -2.782400
  C       1.098947      2.848467     -0.458145
80
Coordinates from ORCA-job R4N+PFOA-_r2 E -2865.069142386944
  N       5.476473      0.594406      2.578371
  C       3.392383     -4.108143     -1.608393
  C       4.244467     -4.561143     -2.804055
  C       4.481932     -3.468508     -3.860822
  C       4.029842     -2.939952     -0.887640
  C       3.102134     -5.278788     -0.655548
  C       5.850189      0.436998      1.097758
  C       5.220756     -0.741929      0.420842
  C       3.182930     -2.898445     -4.395545
  C       3.405245     -1.691895     -0.863967
  C       5.270331     -3.069264     -0.251614
  C       5.353516     -4.013187     -4.999194
  C       3.994028      0.739083      2.746861
  C       6.151821      1.836173      3.084776
  C       5.954028     -0.580634      3.376467
  C       3.993512     -0.604339     -0.229411
  C       5.857812     -1.987586      0.393499
  C       2.108192     -4.912362      0.442872
  C       2.232923     -3.723550     -5.010035
  C       2.905449     -1.532526     -4.294273
  C       1.044839     -3.196736     -5.508046
  C       1.712000     -1.001831     -4.782654
  C       0.776654     -1.833006     -5.392864
  H       2.426145     -3.762674     -2.000740
  H       3.750214     -5.419998     -3.278426
  H       5.219860     -4.917715     -2.445227
  H       5.025854     -2.643319     -3.380496
  H       4.042472     -5.634595     -0.213095
  H       2.700970     -6.110628     -1.249692
  H       6.941620      0.370157      1.082265
  H       5.537410      1.372048      0.624433
  H       2.453971     -1.566497     -1.370710
  H       5.788886     -4.024803     -0.266744
  H       5.557037     -3.238673     -5.746484
  H       4.858085     -4.850360     -5.504410
  H       6.312507     -4.373178     -4.609387
  H       3.510105     -0.187182      2.436138
  H       3.646442      1.579777      2.142115
  H       3.791323      0.926696      3.803635
  H       7.230591      1.724060      2.959510
  H       5.904756      1.957625      4.141049
  H       5.788543      2.690734      2.510470
  H       5.433824     -1.477682      3.037959
  H       5.726573     -0.392481      4.427638
  H       7.031570     -0.686078      3.235034
  H       3.499885      0.363892     -0.248465
  H       6.825762     -2.106433      0.874587
  H       1.156733     -4.581772      0.008275
  H       2.487958     -4.099659      1.073114
  H       1.900129     -5.769828      1.091813
  H       2.423463     -4.790362     -5.103190
  H       3.631956     -0.877488     -3.818220
  H       0.322422     -3.853781     -5.984900
  H       1.514206      0.062632     -4.684675
  H      -0.155942     -1.424253     -5.772460
  F      -0.072157     -1.996654      0.446728
  F      -2.168538     -1.370126      0.213397
  F       0.511284      0.188925     -1.447649
  F      -1.544125      0.842070     -1.007435
  F      -1.557708     -1.348085     -2.669908
  F       0.230428     -2.486463     -2.089727
  F      -0.863473      0.492603      1.778610
  F       1.214990      0.245063      1.101727
  F      -1.630022     -4.079711     -0.454559
  F      -3.193405     -3.113862     -1.665026
  F       0.763720      2.683485      1.927159
  F      -1.041108      2.904104      0.702514
  F      -2.536999     -5.447674     -2.704672
  F      -0.406787     -5.017627     -2.671302
  F      -1.732236     -3.864420     -3.966433
  O       2.323143      2.753833     -0.264947
  O       0.469346      3.271785     -1.457180
  C      -0.945037     -1.357800     -0.363510
  C      -0.492816      0.136542     -0.536313
  C      -1.022836     -2.146215     -1.718787
  C       0.017506      0.792487      0.786076
  C      -1.887182     -3.450128     -1.623593
  C       0.199254      2.340578      0.726848
  C      -1.623135     -4.471297     -2.778055
  C       1.092681      2.850300     -0.462032
80
Coordinates from ORCA-job R4N+PFOA-_r2 E -2865.069154531872
  N       5.475585      0.592425      2.581268
  C       3.393872     -4.105769     -1.610958
  C       4.245465     -4.558548     -2.807182
  C       4.481205     -3.466185     -3.864560
  C       4.032007     -2.938368     -0.889834
  C       3.103757     -5.276788     -0.658488
  C       5.856680      0.432586      1.102687
  C       5.224429     -0.742763      0.422288
  C       3.181212     -2.897417     -4.398166
  C       3.410112     -1.688968     -0.867055
  C       5.271150     -3.070006     -0.251642
  C       5.352023     -4.010662     -5.003639
  C       3.993602      0.751459      2.739669
  C       6.159676      1.827138      3.092860
  C       5.936991     -0.587661      3.381250
  C       3.998937     -0.602593     -0.230672
  C       5.859064     -1.989702      0.395223
  C       2.110970     -4.910215      0.440922
  C       2.230214     -3.723929     -5.009195
  C       2.903526     -1.531412     -4.298614
  C       1.040524     -3.198443     -5.504801
  C       1.708654     -1.002009     -4.784875
  C       0.771959     -1.834663     -5.391034
  H       2.427253     -3.760604     -2.002608
  H       3.751871     -5.418122     -3.280910
  H       5.221357     -4.914014     -2.448553
  H       5.024991     -2.640436     -3.385030
  H       4.044131     -5.633661     -0.216974
  H       2.701458     -6.107970     -1.252803
  H       6.947689      0.358287      1.093505
  H       5.553227      1.370011      0.627773
  H       2.459811     -1.559688     -1.374775
  H       5.788131     -4.026403     -0.265987
  H       5.554131     -3.236304     -5.751478
  H       4.856560     -4.848400     -5.507933
  H       6.311691     -4.369897     -4.614775
  H       3.503313     -0.169610      2.424187
  H       3.659507      1.596369      2.133024
  H       3.784251      0.939755      3.795039
  H       7.237971      1.705662      2.972415
  H       5.908828      1.949065      4.148200
  H       5.806823      2.686058      2.518523
  H       5.413057     -1.480262      3.036600
  H       5.701793     -0.399887      4.430785
  H       7.014907     -0.701155      3.249131
  H       3.504712      0.365360     -0.250377
  H       6.825683     -2.110732      0.878489
  H       1.159423     -4.578681      0.007234
  H       2.491883     -4.097979      1.071183
  H       1.902905     -5.767797      1.089710
  H       2.420968     -4.790827     -5.100929
  H       3.630877     -0.875331     -3.825270
  H       0.316843     -3.856629     -5.978133
  H       1.510640      0.062480     -4.687992
  H      -0.162337     -1.427172     -5.767783
  F      -0.069119     -1.993896      0.448848
  F      -2.166518     -1.370718      0.215079
  F       0.510155      0.190711     -1.448635
  F      -1.546108      0.840631     -1.008598
  F      -1.555804     -1.352630     -2.668751
  F       0.234143     -2.487051     -2.086184
  F      -0.863705      0.495177      1.777912
  F       1.214621      0.249304      1.100292
  F      -1.624212     -4.080335     -0.448307
  F      -3.189049     -3.118418     -1.660172
  F       0.762066      2.690462      1.921088
  F      -1.046333      2.904427      0.700773
  F      -2.529136     -5.454637     -2.694164
  F      -0.399826     -5.019645     -2.663776
  F      -1.729516     -3.872614     -3.960495
  O       2.315701      2.749421     -0.278328
  O       0.458349      3.279502     -1.459897
  C      -0.943310     -1.357401     -0.362163
  C      -0.493351      0.137422     -0.537098
  C      -1.019910     -2.148083     -1.716035
  C       0.016569      0.795571      0.784831
  C      -1.882527     -3.453175     -1.618468
  C       0.195204      2.343728      0.722978
  C      -1.617547     -4.476381     -2.770745
  C       1.084776      2.852371     -0.468897
80
Coordinates from ORCA-job R4N+PFOA-_r2 E -2865.069161568103
  N       5.474177      0.595323      2.577883
  C       3.393515     -4.106981     -1.611167
  C       4.245306     -4.561348     -2.806652
  C       4.483188     -3.469512     -3.864088
  C       4.032091     -2.939655     -0.890354
  C       3.101417     -5.277034     -0.658102
  C       5.857484      0.432622      1.100291
  C       5.224948     -0.743320      0.420501
  C       3.184352     -2.897731     -4.397159
  C       3.409553     -1.690662     -0.866645
  C       5.271846     -3.070833     -0.253084
  C       5.352484     -4.015806     -5.003428
  C       3.991740      0.752765      2.734330
  C       6.155732      1.831879      3.087183
  C       5.935992     -0.582427      3.381133
  C       3.998732     -0.603849     -0.231541
  C       5.859801     -1.990225      0.393478
  C       2.107667     -4.908846      0.439893
  C       2.231309     -3.721908     -5.008028
  C       2.909562     -1.531255     -4.296682
  C       1.042369     -3.193681     -5.502394
  C       1.715475     -0.999082     -4.781729
  C       0.776628     -1.829470     -5.387560
  H       2.427845     -3.760788     -2.004377
  H       3.750668     -5.420286     -3.280431
  H       5.220460     -4.918195     -2.447458
  H       5.028876     -2.645053     -3.384563
  H       4.041158     -5.633931     -0.215184
  H       2.699295     -6.108533     -1.252156
  H       6.948685      0.356924      1.092811
  H       5.555934      1.369578      0.622377
  H       2.457990     -1.561937     -1.371962
  H       5.789269     -4.027009     -0.267730
  H       5.556286     -3.241752     -5.751085
  H       4.854830     -4.852148     -5.507821
  H       6.311300     -4.377503     -4.614885
  H       3.504207     -0.170666      2.424380
  H       3.656582      1.592493      2.121838
  H       3.780415      0.947460      3.788274
  H       7.234093      1.712370      2.965807
  H       5.905389      1.954923      4.142641
  H       5.800734      2.689210      2.511957
  H       5.415496     -1.476649      3.036148
  H       5.696755     -0.393965      4.429890
  H       7.014655     -0.693551      3.252464
  H       3.503876      0.363690     -0.251337
  H       6.826672     -2.110996      0.876423
  H       1.156587     -4.577806      0.004864
  H       2.488190     -4.095846      1.069432
  H       1.898924     -5.765556      1.089605
  H       2.419800     -4.789123     -5.100420
  H       3.638523     -0.876956     -3.823454
  H       0.316931     -3.850005     -5.975486
  H       1.519702      0.065734     -4.683888
  H      -0.157090     -1.419903     -5.763393
  F      -0.069821     -1.997007      0.448783
  F      -2.166813     -1.372506      0.215444
  F       0.509785      0.190237     -1.447298
  F      -1.545817      0.840409     -1.003718
  F      -1.555874     -1.351022     -2.668009
  F       0.233505     -2.487362     -2.086959
  F      -0.860646      0.487966      1.781536
  F       1.217244      0.242820      1.101476
  F      -1.625463     -4.081589     -0.451078
  F      -3.190019     -3.117445     -1.661614
  F       0.767688      2.681831      1.928709
  F      -1.044642      2.899705      0.713151
  F      -2.531355     -5.452415     -2.698639
  F      -0.401819     -5.018669     -2.667942
  F      -1.731052     -3.869207     -3.962976
  O       2.315317      2.752794     -0.276052
  O       0.452473      3.278160     -1.452656
  C      -0.943478     -1.359036     -0.361569
  C      -0.492679      0.135809     -0.534658
  C      -1.020396     -2.147989     -1.716281
  C       0.018978      0.790922      0.788266
  C      -1.883612     -3.452810     -1.620432
  C       0.197615      2.338891      0.730464
  C      -1.619253     -4.474592     -2.774022
  C       1.083302      2.851645     -0.463261
80
Coordinates from ORCA-job R4N+PFOA-_r2 E -2865.069137141489
  N       5.469421      0.603244      2.570911
  C       3.396495     -4.110948     -1.611680
  C       4.247102     -4.567672     -2.806894
  C       4.487528     -3.476431     -3.864296
  C       4.034950     -2.943441     -0.891519
  C       3.101971     -5.279088     -0.656775
  C       5.856459      0.434070      1.095454
  C       5.225405     -0.744279      0.417063
  C       3.189875     -2.898813     -4.393989
  C       3.407665     -1.697540     -0.862190
  C       5.277776     -3.071150     -0.259459
  C       5.352236     -4.025263     -5.005799
  C       3.985854      0.755052      2.723866
  C       6.143941      1.844656      3.073567
  C       5.933446     -0.567974      3.381017
  C       3.996603     -0.608646     -0.230960
  C       5.863914     -1.989227      0.387292
  C       2.104164     -4.908864      0.436719
  C       2.231633     -3.718827     -5.002279
  C       2.920724     -1.531356     -4.291428
  C       1.042460     -3.185746     -5.490902
  C       1.726932     -0.994089     -4.771555
  C       0.782103     -1.820707     -5.373612
  H       2.431591     -3.763841     -2.006185
  H       3.750303     -5.425550     -3.280385
  H       5.221354     -4.927318     -2.447812
  H       5.037287     -2.654573     -3.384948
  H       4.040997     -5.632675     -0.209696
  H       2.702857     -6.112457     -1.250286
  H       6.947766      0.357781      1.090492
  H       5.557468      1.368637      0.609432
  H       2.451769     -1.572269     -1.359746
  H       5.799301     -4.024858     -0.277550
  H       5.558304     -3.250779     -5.752334
  H       4.848892     -4.857900     -5.510643
  H       6.309865     -4.392709     -4.620001
  H       3.504570     -0.175537      2.430003
  H       3.647468      1.578610      2.093152
  H       3.769586      0.967964      3.773126
  H       7.222122      1.731337      2.948007
  H       5.897036      1.970703      4.129508
  H       5.782379      2.698187      2.497644
  H       5.422686     -1.466980      3.035364
  H       5.684664     -0.378817      4.427771
  H       7.013644     -0.672407      3.260911
  H       3.498611      0.356621     -0.249527
  H       6.832269     -2.107126      0.867761
  H       1.153437     -4.582383     -0.002599
  H       2.480678     -4.092088      1.063921
  H       1.896038     -5.763356      1.089596
  H       2.415640     -4.786710     -5.096103
  H       3.653812     -0.880025     -3.820407
  H       0.312432     -3.839089     -5.961108
  H       1.535797      0.071420     -4.671619
  H      -0.151259     -1.407302     -5.745933
  F      -0.080267     -2.004298      0.449146
  F      -2.172957     -1.370679      0.208717
  F       0.514998      0.185806     -1.440486
  F      -1.540045      0.840893     -1.001517
  F      -1.554149     -1.346797     -2.670268
  F       0.231408     -2.488921     -2.087039
  F      -0.866782      0.481407      1.781594
  F       1.211324      0.224953      1.112232
  F      -1.631505     -4.083590     -0.460833
  F      -3.194311     -3.112078     -1.668997
  F       0.774093      2.663941      1.946939
  F      -1.027241      2.897058      0.725708
  F      -2.538031     -5.447830     -2.709044
  F      -0.408345     -5.012815     -2.682374
  F      -1.742098     -3.861217     -3.972229
  O       2.326218      2.747822     -0.247675
  O       0.470393      3.266958     -1.430560
  C      -0.947428     -1.360853     -0.362951
  C      -0.490241      0.132695     -0.531417
  C      -1.022692     -2.146762     -1.718710
  C       0.019542      0.783414      0.795075
  C      -1.888591     -3.450383     -1.628333
  C       0.208742      2.329046      0.745735
  C      -1.626546     -4.469235     -2.784586
  C       1.098063      2.842727     -0.440458
80
Coordinates from ORCA-job R4N+PFOA-_r2 E -2865.069181493731
  N       5.473594      0.600785      2.572755
  C       3.394663     -4.108163     -1.611167
  C       4.246532     -4.564829     -2.805565
  C       4.486642     -3.473660     -3.863181
  C       4.033315     -2.940600     -0.891079
  C       3.100057     -5.276579     -0.656474
  C       5.858587      0.433860      1.096927
  C       5.225735     -0.743127      0.418565
  C       3.188649     -2.898547     -4.395082
  C       3.408423     -1.693040     -0.863925
  C       5.274690     -3.070365     -0.256623
  C       5.353944     -4.021800     -5.003197
  C       3.990653      0.758332      2.726032
  C       6.155066      1.838356      3.079874
  C       5.933577     -0.575686      3.378498
  C       3.997918     -0.605322     -0.230720
  C       5.862068     -1.989213      0.389926
  C       2.101219     -4.907203      0.436377
  C       2.232697     -3.720565     -5.004398
  C       2.916953     -1.531448     -4.293718
  C       1.043777     -3.189507     -5.496078
  C       1.723059     -0.996375     -4.776444
  C       0.781004     -1.824722     -5.380307
  H       2.429650     -3.761503     -2.005830
  H       3.750997     -5.423467     -3.278998
  H       5.220884     -4.923346     -2.445567
  H       5.034500     -2.650585     -3.383625
  H       4.038624     -5.630497     -0.208981
  H       2.701582     -6.109856     -1.250263
  H       6.949281      0.356577      1.091166
  H       5.560172      1.369083      0.613923
  H       2.454714     -1.565594     -1.365639
  H       5.794163     -4.025350     -0.273049
  H       5.559549     -3.247643     -5.750389
  H       4.853114     -4.856138     -5.507881
  H       6.311938     -4.386952     -4.615666
  H       3.504210     -0.169611      2.426245
  H       3.655353      1.588566      2.101156
  H       3.777045      0.965654      3.776890
  H       7.233717      1.719461      2.957004
  H       5.906473      1.962593      4.135526
  H       5.799160      2.695819      2.504617
  H       5.416040     -1.471466      3.031582
  H       5.689202     -0.387357      4.425777
  H       7.013052     -0.685709      3.255151
  H       3.501402      0.361142     -0.248747
  H       6.829685     -2.108793      0.871518
  H       1.150896     -4.581130     -0.003543
  H       2.476655     -4.090557      1.063869
  H       1.892782     -5.761732      1.088995
  H       2.418674     -4.788248     -5.097178
  H       3.648134     -0.878776     -3.821499
  H       0.315493     -3.844242     -5.967061
  H       1.529979      0.068928     -4.677650
  H      -0.152618     -1.413265     -5.754668
  F      -0.075320     -2.002514      0.448337
  F      -2.170993     -1.374421      0.212576
  F       0.510209      0.189241     -1.442390
  F      -1.545778      0.839950     -1.000266
  F      -1.557010     -1.349222     -2.668914
  F       0.231959     -2.486738     -2.088315
  F      -0.867567      0.482205      1.782921
  F       1.211090      0.230384      1.109937
  F      -1.627785     -4.084867     -0.457890
  F      -3.192208     -3.116735     -1.665779
  F       0.770118      2.669111      1.942044
  F      -1.038788      2.897101      0.724824
  F      -2.533784     -5.451115     -2.705849
  F      -0.404558     -5.015182     -2.678951
  F      -1.738279     -3.864836     -3.969307
  O       2.319609      2.749068     -0.260549
  O       0.458399      3.271979     -1.438745
  C      -0.946504     -1.361387     -0.362114
  C      -0.493590      0.133589     -0.531549
  C      -1.022370     -2.147813     -1.717912
  C       0.016637      0.785147      0.794034
  C      -1.885953     -3.452902     -1.625646
  C       0.201140      2.332170      0.741805
  C      -1.622854     -4.472215     -2.781458
  C       1.088430      2.846146     -0.448993
80
Coordinates from ORCA-job R4N+PFOA-_r2 E -2865.069188512207
  N       5.476264      0.601789      2.571285
  C       3.393422     -4.108232     -1.610665
  C       4.246003     -4.565444     -2.804429
  C       4.487628     -3.474456     -3.861891
  C       4.032048     -2.940600     -0.890591
  C       3.098381     -5.276583     -0.655994
  C       5.859980      0.433203      1.095452
  C       5.225566     -0.743477      0.418577
  C       3.190319     -2.898611     -4.394622
  C       3.407882     -1.692537     -0.863742
  C       5.273097     -3.070946     -0.255797
  C       5.355329     -4.023194     -5.001313
  C       3.993721      0.760091      2.725146
  C       6.157242      1.839736      3.077144
  C       5.937028     -0.573052      3.377717
  C       3.997860     -0.605070     -0.230289
  C       5.861122     -1.989942      0.390139
  C       2.100679     -4.906210      0.437595
  C       2.234499     -3.719934     -5.004972
  C       2.919071     -1.531519     -4.292815
  C       1.046112     -3.188211     -5.497144
  C       1.725624     -0.995836     -4.775938
  C       0.783708     -1.823454     -5.380779
  H       2.428505     -3.761934     -2.005837
  H       3.750357     -5.423822     -3.278186
  H       5.219860     -4.924519     -2.443721
  H       5.035686     -2.651725     -3.382032
  H       4.036972     -5.631852     -0.209199
  H       2.698429     -6.109296     -1.249756
  H       6.950444      0.354401      1.088719
  H       5.562738      1.368718      0.612633
  H       2.454707     -1.564481     -1.366439
  H       5.791934     -4.026313     -0.271822
  H       5.562029     -3.249207     -5.748390
  H       4.854342     -4.857237     -5.506335
  H       6.312818     -4.388964     -4.613061
  H       3.506797     -0.168034      2.426362
  H       3.660413      1.590785      2.099401
  H       3.781664      0.968852      3.775932
  H       7.234980      1.721762      2.953407
  H       5.909537      1.964796      4.132772
  H       5.800228      2.695687      2.501892
  H       5.419986     -1.469145      3.032344
  H       5.693648     -0.383117      4.424931
  H       7.015865     -0.682827      3.253545
  H       3.500918      0.361331     -0.247329
  H       6.828754     -2.109913      0.871493
  H       1.150646     -4.577276     -0.001758
  H       2.478238     -4.090928      1.066192
  H       1.890531     -5.761346      1.089218
  H       2.420168     -4.787600     -5.098083
  H       3.650161     -0.879429     -3.819755
  H       0.317819     -3.842394     -5.968711
  H       1.532846      0.069408     -4.676859
  H      -0.149625     -1.411515     -5.755288
  F      -0.078613     -2.004948      0.448189
  F      -2.173989     -1.376285      0.212611
  F       0.506875      0.188778     -1.440742
  F      -1.548722      0.839258     -0.997007
  F      -1.559350     -1.348187     -2.668669
  F       0.229855     -2.485297     -2.089101
  F      -0.870092      0.479358      1.785607
  F       1.208684      0.228049      1.111816
  F      -1.629917     -4.086409     -0.461465
  F      -3.194055     -3.117022     -1.668278
  F       0.769004      2.666125      1.944175
  F      -1.041651      2.895033      0.728642
  F      -2.534052     -5.449967     -2.711216
  F      -0.405215     -5.012664     -2.683834
  F      -1.739668     -3.861517     -3.972397
  O       2.317027      2.744466     -0.259808
  O       0.454861      3.269728     -1.436777
  C      -0.949396     -1.362867     -0.361747
  C      -0.496574      0.132200     -0.529423
  C      -1.024594     -2.147643     -1.718583
  C       0.013907      0.782437      0.796415
  C      -1.887743     -3.452905     -1.628246
  C       0.198473      2.329743      0.744412
  C      -1.623842     -4.470428     -2.785496
  C       1.085379      2.843322     -0.447401
80
Coordinates from ORCA-job R4N+PFOA-_r2 E -2865.069199907677
  N       5.477874      0.604619      2.569809
  C       3.393740     -4.108063     -1.611486
  C       4.246993     -4.563704     -2.805446
  C       4.488570     -3.471653     -3.861888
  C       4.032493     -2.941701     -0.889322
  C       3.098332     -5.278065     -0.658926
  C       5.867739      0.427997      1.096269
  C       5.229236     -0.747087      0.420988
  C       3.190991     -2.895848     -4.393993
  C       3.410354     -1.692333     -0.862421
  C       5.272537     -3.074701     -0.253055
  C       5.356287     -4.019113     -5.001793
  C       3.994875      0.776931      2.714665
  C       6.166791      1.838957      3.074787
  C       5.924594     -0.571787      3.383489
  C       4.002191     -0.605896     -0.228434
  C       5.862050     -1.995003      0.393447
  C       2.101285     -4.909013      0.435773
  C       2.235101     -3.717216     -5.004263
  C       2.919344     -1.528906     -4.291377
  C       1.045974     -3.185773     -5.494866
  C       1.725198     -0.993492     -4.773137
  C       0.782983     -1.821228     -5.377276
  H       2.429039     -3.761287     -2.006705
  H       3.751880     -5.421858     -3.280126
  H       5.220881     -4.922787     -2.444902
  H       5.036389     -2.649160     -3.381337
  H       4.036936     -5.635102     -0.213124
  H       2.697457     -6.109306     -1.254384
  H       6.958176      0.341495      1.094629
  H       5.579589      1.364049      0.608892
  H       2.458149     -1.562473     -1.366999
  H       5.789636     -4.031094     -0.268706
  H       5.562878     -3.244387     -5.748019
  H       4.855394     -4.852726     -5.507646
  H       6.313835     -4.385100     -4.613961
  H       3.501230     -0.150281      2.420941
  H       3.673522      1.606103      2.079232
  H       3.779937      0.996172      3.762799
  H       7.245184      1.711456      2.957798
  H       5.913387      1.969451      4.128832
  H       5.819938      2.696277      2.493644
  H       5.403131     -1.465378      3.037903
  H       5.675278     -0.376328      4.428673
  H       7.004072     -0.690316      3.267031
  H       3.505927      0.361258     -0.244717
  H       6.829046     -2.116914      0.875879
  H       1.151236     -4.578253     -0.002756
  H       2.479619     -4.095206      1.066334
  H       1.890620     -5.765472      1.085537
  H       2.421165     -4.784732     -5.098074
  H       3.650574     -0.876796     -3.818551
  H       0.317052     -3.840065     -5.965296
  H       1.532147      0.071619     -4.673422
  H      -0.151186     -1.409784     -5.750063
  F      -0.081425     -2.008667      0.449626
  F      -2.177004     -1.380544      0.214853
  F       0.501451      0.187213     -1.439576
  F      -1.553757      0.836197     -0.992014
  F      -1.563612     -1.350128     -2.666654
  F       0.227605     -2.484870     -2.088539
  F      -0.872790      0.477946      1.788654
  F       1.205659      0.224394      1.113560
  F      -1.629456     -4.091315     -0.462797
  F      -3.195545     -3.121702     -1.666973
  F       0.773770      2.663357      1.942085
  F      -1.041322      2.893167      0.732854
  F      -2.532692     -5.453410     -2.712476
  F      -0.404901     -5.011381     -2.689384
  F      -1.744592     -3.861626     -3.973429
  O       2.315226      2.733880     -0.267968
  O       0.449614      3.269054     -1.436247
  C      -0.952506     -1.366321     -0.359829
  C      -0.500701      0.129237     -0.526599
  C      -1.027232     -2.149924     -1.717551
  C       0.011158      0.779203      0.798576
  C      -1.888750     -3.456259     -1.628425
  C       0.198180      2.326964      0.744881
  C      -1.624878     -4.471749     -2.787600
  C       1.082423      2.839023     -0.449882
80
Coordinates from ORCA-job R4N+PFOA-_r2 E -2865.069208643055
  N       5.481581      0.607954      2.565759
  C       3.392311     -4.107005     -1.610029
  C       4.245525     -4.565915     -2.802626
  C       4.490161     -3.475636     -3.860110
  C       4.031986     -2.940297     -0.889366
  C       3.095274     -5.274667     -0.655134
  C       5.870451      0.429325      1.093010
  C       5.230460     -0.745817      0.419095
  C       3.194114     -2.897101     -4.392897
  C       3.409111     -1.691374     -0.860235
  C       5.273137     -3.073130     -0.255536
  C       5.356757     -4.026349     -4.999226
  C       3.998841      0.782561      2.709260
  C       6.172358      1.841858      3.069850
  C       5.926116     -0.568353      3.380225
  C       4.001911     -0.604856     -0.227223
  C       5.863563     -1.993359      0.389959
  C       2.093112     -4.904637      0.434390
  C       2.236556     -3.716575     -5.003130
  C       2.925316     -1.529667     -4.290568
  C       1.048767     -3.182675     -5.494262
  C       1.732530     -0.991816     -4.772949
  C       0.788722     -1.817560     -5.377209
  H       2.428258     -3.759687     -2.006429
  H       3.748802     -5.423522     -3.276592
  H       5.218352     -4.926825     -2.441095
  H       5.039903     -2.654057     -3.380187
  H       4.032696     -5.627933     -0.204877
  H       2.698669     -6.108435     -1.249320
  H       6.960360      0.341704      1.090326
  H       5.583146      1.364589      0.604526
  H       2.456465     -1.562147     -1.363972
  H       5.790627     -4.029224     -0.272370
  H       5.565416     -3.252856     -5.746136
  H       4.853845     -4.859174     -5.504340
  H       6.313278     -4.394387     -4.610854
  H       3.504620     -0.145852      2.421133
  H       3.680012      1.606761      2.067127
  H       3.784018      1.009299      3.755717
  H       7.250149      1.713438      2.951888
  H       5.920517      1.973019      4.123702
  H       5.825823      2.698983      2.488962
  H       5.404223     -1.461613      3.033677
  H       5.675569     -0.372421      4.424687
  H       7.005388     -0.687660      3.265618
  H       3.504401      0.361541     -0.239920
  H       6.831494     -2.115008      0.870420
  H       1.143234     -4.582360     -0.008707
  H       2.464679     -4.085452      1.060536
  H       1.885160     -5.757624      1.088684
  H       2.420317     -4.784479     -5.096589
  H       3.657720     -0.878985     -3.817582
  H       0.318371     -3.835589     -5.964297
  H       1.541947      0.073703     -4.673668
  H      -0.144076     -1.404195     -5.751246
  F      -0.084835     -2.014378      0.449720
  F      -2.180961     -1.386992      0.214381
  F       0.499374      0.185837     -1.432949
  F      -1.557059      0.833442     -0.987359
  F      -1.566405     -1.348742     -2.665808
  F       0.226773     -2.482006     -2.090602
  F      -0.883118      0.472417      1.791898
  F       1.197210      0.216215      1.123968
  F      -1.627856     -4.097154     -0.470336
  F      -3.195810     -3.125269     -1.670303
  F       0.769392      2.654096      1.952102
  F      -1.044528      2.889651      0.742113
  F      -2.530723     -5.452601     -2.723942
  F      -0.403677     -5.007518     -2.702175
  F      -1.746890     -3.854940     -3.980046
  O       2.312136      2.729208     -0.254967
  O       0.449291      3.266488     -1.425606
  C      -0.955685     -1.370477     -0.359047
  C      -0.504362      0.125746     -0.521867
  C      -1.028777     -2.150515     -1.718813
  C       0.004646      0.773404      0.805208
  C      -1.888503     -3.458378     -1.633662
  C       0.194244      2.321236      0.753952
  C      -1.624529     -4.469350     -2.796738
  C       1.080180      2.834846     -0.438967
80
Coordinates from ORCA-job R4N+PFOA-_r2 E -2865.069212666486
  N       5.482769      0.609385      2.564678
  C       3.392039     -4.107662     -1.609140
  C       4.244745     -4.566276     -2.802150
  C       4.489773     -3.475622     -3.859136
  C       4.032158     -2.941390     -0.888026
  C       3.094492     -5.275814     -0.654866
  C       5.872055      0.428902      1.092186
  C       5.231295     -0.746619      0.419190
  C       3.194007     -2.896532     -4.391996
  C       3.409035     -1.692670     -0.858582
  C       5.273747     -3.074115     -0.254883
  C       5.356480     -4.026146     -4.998283
  C       4.000045      0.785927      2.707149
  C       6.174739      1.842991      3.067518
  C       5.925563     -0.566667      3.380396
  C       4.002041     -0.605973     -0.226293
  C       5.864512     -1.994132      0.390119
  C       2.093410     -4.905685      0.435702
  C       2.236398     -3.715613     -5.002728
  C       2.925694     -1.528936     -4.289634
  C       1.049120     -3.181250     -5.494566
  C       1.733506     -0.990541     -4.772818
  C       0.789680     -1.815934     -5.377743
  H       2.428198     -3.759362     -2.005277
  H       3.747398     -5.423280     -3.276583
  H       5.217468     -4.927871     -2.440964
  H       5.039625     -2.654369     -3.378765
  H       4.032064     -5.630375     -0.205388
  H       2.696566     -6.108860     -1.249571
  H       6.962042      0.340577      1.089703
  H       5.585299      1.364042      0.602538
  H       2.456272     -1.563942     -1.362141
  H       5.791393     -4.030091     -0.272101
  H       5.565457     -3.252412     -5.744863
  H       4.853521     -4.858660     -5.503846
  H       6.312847     -4.394486     -4.609806
  H       3.505320     -0.142221      2.420104
  H       3.682501      1.608663      2.063087
  H       3.784752      1.014905      3.753088
  H       7.252405      1.713030      2.949869
  H       5.922933      1.975743      4.121178
  H       5.829455      2.700030      2.485642
  H       5.403185     -1.459598      3.033905
  H       5.674460     -0.370095      4.424586
  H       7.004847     -0.686824      3.266708
  H       3.504345      0.360228     -0.238451
  H       6.832827     -2.115416      0.869953
  H       1.143566     -4.580666     -0.006873
  H       2.467042     -4.087904      1.063505
  H       1.884028     -5.760059      1.088591
  H       2.419715     -4.783675     -5.096179
  H       3.658128     -0.878478     -3.816339
  H       0.319079     -3.833978     -5.965563
  H       1.543319      0.075179     -4.673678
  H      -0.142283     -1.401842     -5.752990
  F      -0.088049     -2.015736      0.450375
  F      -2.183177     -1.387446      0.212733
  F       0.499706      0.184218     -1.430747
  F      -1.556740      0.832796     -0.987403
  F      -1.566642     -1.348737     -2.666036
  F       0.226311     -2.482136     -2.090334
  F      -0.886463      0.471576      1.792130
  F       1.194504      0.214020      1.127171
  F      -1.628336     -4.098550     -0.472493
  F      -3.196354     -3.126078     -1.672118
  F       0.767703      2.652564      1.953700
  F      -1.044983      2.888667      0.743019
  F      -2.530152     -5.453028     -2.727296
  F      -0.403245     -5.006404     -2.705339
  F      -1.747570     -3.853499     -3.982211
  O       2.310936      2.727348     -0.252319
  O       0.449157      3.266204     -1.423225
  C      -0.957386     -1.371326     -0.359155
  C      -0.505057      0.124552     -0.520900
  C      -1.029468     -2.150906     -1.719227
  C       0.002766      0.772001      0.806745
  C      -1.888994     -3.458984     -1.635441
  C       0.193126      2.319679      0.755530
  C      -1.624581     -4.468953     -2.799404
  C       1.079485      2.833322     -0.436902
80
Coordinates from ORCA-job R4N+PFOA-_r2 E -2865.069215406916
  N       5.483862      0.610083      2.564297
  C       3.391761     -4.108198     -1.608149
  C       4.243967     -4.566291     -2.801723
  C       4.489013     -3.475169     -3.858267
  C       4.032359     -2.942255     -0.886848
  C       3.094612     -5.276687     -0.654334
  C       5.873871      0.428149      1.091753
  C       5.232429     -0.747504      0.419317
  C       3.193399     -2.895847     -4.391235
  C       3.409529     -1.693386     -0.857866
  C       5.274006     -3.075240     -0.253760
  C       5.355980     -4.025321     -4.997436
  C       4.001285      0.789179      2.705807
  C       6.177287      1.843014      3.066337
  C       5.924593     -0.565975      3.381152
  C       4.002823     -0.606757     -0.225981
  C       5.865381     -1.995163      0.390640
  C       2.094249     -4.907090      0.437034
  C       2.236059     -3.714609     -5.002811
  C       2.925187     -1.528214     -4.288614
  C       1.049203     -3.180013     -5.495437
  C       1.733482     -0.989531     -4.772629
  C       0.789989     -1.814640     -5.378604
  H       2.428011     -3.759131     -2.003772
  H       3.746156     -5.422813     -3.276604
  H       5.216724     -4.928246     -2.440974
  H       5.038803     -2.654065     -3.377547
  H       4.032421     -5.631402     -0.205539
  H       2.696414     -6.109572     -1.249087
  H       6.963985      0.339267      1.089819
  H       5.587467      1.363382      0.601508
  H       2.456955     -1.564797     -1.361759
  H       5.791150     -4.031526     -0.270684
  H       5.565110     -3.251362     -5.743771
  H       4.853302     -4.857760     -5.503400
  H       6.312284     -4.393602     -4.608767
  H       3.505481     -0.138065      2.418555
  H       3.685231      1.611938      2.061179
  H       3.785459      1.018967      3.751487
  H       7.254799      1.711003      2.949776
  H       5.924756      1.977373      4.119779
  H       5.833941      2.699942      2.483164
  H       5.401059     -1.458183      3.035053
  H       5.673489     -0.368483      4.425280
  H       7.003808     -0.687527      3.267800
  H       3.505495      0.359631     -0.237583
  H       6.833835     -2.116424      0.870327
  H       1.143988     -4.582437     -0.004654
  H       2.468049     -4.089322      1.064535
  H       1.885803     -5.761588      1.089902
  H       2.419245     -4.782683     -5.096538
  H       3.657378     -0.877944     -3.814679
  H       0.319807     -3.832614     -5.967656
  H       1.543272      0.076209     -4.673375
  H      -0.141342     -1.399952     -5.754843
  F      -0.088897     -2.016610      0.450666
  F      -2.184235     -1.388805      0.212852
  F       0.499370      0.182633     -1.429934
  F      -1.557205      0.831913     -0.987274
  F      -1.567115     -1.348898     -2.665743
  F       0.225645     -2.482794     -2.090063
  F      -0.887098      0.470619      1.792665
  F       1.193836      0.213642      1.127466
  F      -1.628866     -4.100043     -0.474064
  F      -3.197046     -3.126893     -1.672934
  F       0.766597      2.652470      1.953038
  F      -1.046299      2.887322      0.743096
  F      -2.530694     -5.452499     -2.730967
  F      -0.403659     -5.006087     -2.707412
  F      -1.747307     -3.851455     -3.983595
  O       2.308813      2.726181     -0.253078
  O       0.447052      3.267231     -1.422863
  C      -0.958379     -1.372351     -0.358894
  C      -0.505840      0.123425     -0.520435
  C      -1.030183     -2.151551     -1.719293
  C       0.001891      0.771065      0.807159
  C      -1.889669     -3.459633     -1.636508
  C       0.191697      2.318764      0.755385
  C      -1.624948     -4.468383     -2.801474
  C       1.077454      2.832720     -0.437345
80
Coordinates from ORCA-job R4N+PFOA-_r2 E -2865.069217789644
  N       5.485572      0.611466      2.563292
  C       3.391445     -4.108849     -1.606615
  C       4.243225     -4.566398     -2.800765
  C       4.488392     -3.474628     -3.856658
  C       4.032637     -2.943253     -0.885167
  C       3.094341     -5.277763     -0.653438
  C       5.876022      0.427612      1.090779
  C       5.233801     -0.748342      0.419502
  C       3.192999     -2.895116     -4.389964
  C       3.410151     -1.694174     -0.856736
  C       5.274351     -3.076419     -0.252275
  C       5.355883     -4.024131     -4.995794
  C       4.003394      0.793571      2.703863
  C       6.181301      1.843383      3.064591
  C       5.923805     -0.564887      3.381043
  C       4.003784     -0.607597     -0.225353
  C       5.866449     -1.996134      0.391253
  C       2.094279     -4.908740      0.438395
  C       2.236143     -3.713501     -5.002767
  C       2.924785     -1.527484     -4.286965
  C       1.049861     -3.178617     -5.496547
  C       1.733669     -0.988497     -4.772071
  C       0.790799     -1.813230     -5.379635
  H       2.427812     -3.758920     -2.001725
  H       3.745007     -5.422375     -3.276227
  H       5.215961     -4.928774     -2.440386
  H       5.037966     -2.653711     -3.375371
  H       4.032199     -5.632833     -0.205037
  H       2.695973     -6.110388     -1.248433
  H       6.966060      0.338124      1.089469
  H       5.590060      1.362555      0.599615
  H       2.457812     -1.565770     -1.361130
  H       5.790934     -4.033005     -0.268867
  H       5.565173     -3.249828     -5.741748
  H       4.853677     -4.856502     -5.502343
  H       6.312113     -4.392293     -4.606830
  H       3.506132     -0.132775      2.416430
  H       3.688746      1.616420      2.058618
  H       3.787055      1.024352      3.749203
  H       7.258638      1.708648      2.949349
  H       5.928117      1.979539      4.117712
  H       5.840580      2.700496      2.480120
  H       5.398390     -1.456205      3.035501
  H       5.673184     -0.366269      4.425114
  H       7.002854     -0.688579      3.267695
  H       3.507010      0.359068     -0.236017
  H       6.835094     -2.117285      0.870579
  H       1.143872     -4.583782     -0.002798
  H       2.468381     -4.091309      1.066132
  H       1.886018     -5.763635      1.090870
  H       2.419271     -4.781548     -5.096851
  H       3.656547     -0.877472     -3.812017
  H       0.321280     -3.831049     -5.970300
  H       1.543342      0.077195     -4.672556
  H      -0.139777     -1.397922     -5.757147
  F      -0.090468     -2.018220      0.450605
  F      -2.185775     -1.390343      0.212552
  F       0.498911      0.180734     -1.428961
  F      -1.557655      0.830989     -0.987223
  F      -1.567809     -1.348999     -2.665839
  F       0.224531     -2.483793     -2.090067
  F      -0.887694      0.468118      1.793553
  F       1.193107      0.212417      1.127632
  F      -1.629811     -4.102069     -0.476451
  F      -3.198347     -3.127694     -1.673885
  F       0.765124      2.651133      1.953326
  F      -1.048907      2.884858      0.744648
  F      -2.532699     -5.451156     -2.736422
  F      -0.405372     -5.006202     -2.710530
  F      -1.747321     -3.848436     -3.985691
  O       2.305929      2.724747     -0.253499
  O       0.443815      3.268170     -1.421737
  C      -0.959860     -1.373738     -0.358921
  C      -0.506848      0.121920     -0.519970
  C      -1.031370     -2.152314     -1.719733
  C       0.000812      0.769264      0.807853
  C      -1.890975     -3.460375     -1.638134
  C       0.189491      2.317031      0.756022
  C      -1.626238     -4.467499     -2.804533
  C       1.074435      2.831747     -0.437165
80
Coordinates from ORCA-job R4N+PFOA-_r2 E -2865.069219457597
  N       5.487060      0.612892      2.562292
  C       3.391305     -4.109301     -1.605508
  C       4.242976     -4.566453     -2.799972
  C       4.488288     -3.474176     -3.855317
  C       4.032870     -2.943961     -0.883965
  C       3.094169     -5.278512     -0.652835
  C       5.877850      0.427098      1.089931
  C       5.234938     -0.749038      0.419777
  C       3.193052     -2.894581     -4.388905
  C       3.410774     -1.694624     -0.855945
  C       5.274436     -3.077440     -0.250886
  C       5.356200     -4.023093     -4.994448
  C       4.005300      0.797092      2.702212
  C       6.184500      1.844121      3.062844
  C       5.923499     -0.563455      3.380919
  C       4.004776     -0.608143     -0.224848
  C       5.867088     -1.997092      0.392092
  C       2.093927     -4.909955      0.438985
  C       2.236586     -3.712720     -5.002604
  C       2.924768     -1.526970     -4.285562
  C       1.050665     -3.177649     -5.497118
  C       1.733982     -0.987814     -4.771272
  C       0.791597     -1.812297     -5.379979
  H       2.427718     -3.758936     -2.000319
  H       3.744646     -5.422122     -3.275863
  H       5.215658     -4.929081     -2.439723
  H       5.037649     -2.653399     -3.373557
  H       4.031948     -5.633696     -0.204434
  H       2.696006     -6.111006     -1.248082
  H       6.967780      0.336784      1.089469
  H       5.592788      1.361700      0.597689
  H       2.458574     -1.566162     -1.360647
  H       5.790438     -4.034364     -0.267003
  H       5.565599     -3.248469     -5.740044
  H       4.854323     -4.855369     -5.501491
  H       6.312372     -4.391232     -4.605320
  H       3.506955     -0.128815      2.414908
  H       3.691530      1.620021      2.056457
  H       3.788610      1.028779      3.747234
  H       7.261672      1.707468      2.948593
  H       5.930890      1.981750      4.115673
  H       5.845679      2.701245      2.477350
  H       5.396825     -1.454324      3.036103
  H       5.673190     -0.363670      4.424831
  H       7.002333     -0.688850      3.267654
  H       3.508539      0.358818     -0.234674
  H       6.835731     -2.118379      0.871450
  H       1.143611     -4.584831     -0.002077
  H       2.467935     -4.092779      1.066948
  H       1.885647     -5.764975      1.091180
  H       2.419751     -4.780737     -5.096978
  H       3.656227     -0.877152     -3.809880
  H       0.322643     -3.829971     -5.971910
  H       1.543521      0.077836     -4.671489
  H      -0.138568     -1.396637     -5.758127
  F      -0.091629     -2.019895      0.450011
  F      -2.186956     -1.391542      0.212414
  F       0.498249      0.179354     -1.428759
  F      -1.558209      0.830309     -0.987071
  F      -1.568582     -1.348927     -2.666264
  F       0.223076     -2.485030     -2.090457
  F      -0.887234      0.464905      1.794388
  F       1.193131      0.210860      1.126652
  F      -1.631635     -4.103378     -0.478532
  F      -3.200146     -3.127650     -1.674860
  F       0.763969      2.649175      1.954219
  F      -1.051010      2.882094      0.746704
  F      -2.535758     -5.449668     -2.740859
  F      -0.408084     -5.006641     -2.712937
  F      -1.748098     -3.846050     -3.987536
  O       2.303685      2.723810     -0.253629
  O       0.440733      3.268815     -1.420008
  C      -0.961125     -1.374955     -0.359214
  C      -0.507690      0.120649     -0.519872
  C      -1.032788     -2.152901     -1.720365
  C       0.000356      0.767285      0.808219
  C      -1.892892     -3.460667     -1.639636
  C       0.187856      2.315139      0.757038
  C      -1.628378     -4.466731     -2.807051
  C       1.071905      2.830996     -0.436375
80
Coordinates from ORCA-job R4N+PFOA-_r2 E -2865.069220970208
  N       5.488603      0.614354      2.561454
  C       3.391206     -4.109447     -1.604755
  C       4.242950     -4.566325     -2.799340
  C       4.488470     -3.473720     -3.854265
  C       4.033022     -2.944403     -0.883005
  C       3.093774     -5.278942     -0.652595
  C       5.879608      0.426481      1.089391
  C       5.235996     -0.749722      0.420272
  C       3.193346     -2.894194     -4.388174
  C       3.411353     -1.694806     -0.855092
  C       5.274414     -3.078289     -0.249793
  C       5.356815     -4.022154     -4.993309
  C       4.007217      0.800292      2.700913
  C       6.187562      1.845076      3.061097
  C       5.923459     -0.561808      3.381171
  C       4.005848     -0.608479     -0.224172
  C       5.867545     -1.998054      0.392902
  C       2.092923     -4.910759      0.438789
  C       2.237335     -3.712245     -5.002665
  C       2.924783     -1.526674     -4.284435
  C       1.051599     -3.177161     -5.497643
  C       1.734144     -0.987546     -4.770488
  C       0.792258     -1.811925     -5.380091
  H       2.427659     -3.758814     -1.999416
  H       3.744657     -5.421834     -3.275521
  H       5.215541     -4.929139     -2.439060
  H       5.037566     -2.653007     -3.372115
  H       4.031319     -5.634225     -0.203828
  H       2.696014     -6.111292     -1.248257
  H       6.969367      0.335146      1.089775
  H       5.595777      1.360643      0.595843
  H       2.459244     -1.566091     -1.359969
  H       5.789934     -4.035455     -0.265692
  H       5.566224     -3.247290     -5.738640
  H       4.855246     -4.854407     -5.500696
  H       6.312959     -4.390215     -4.604045
  H       3.507867     -0.125263      2.413797
  H       3.694200      1.623408      2.054843
  H       3.790257      1.032635      3.745709
  H       7.264602      1.706791      2.947704
  H       5.933558      1.984174      4.113607
  H       5.850360      2.702082      2.474538
  H       5.395766     -1.452447      3.037222
  H       5.673229     -0.360671      4.424819
  H       7.002089     -0.688856      3.268197
  H       3.510157      0.358786     -0.233270
  H       6.836122     -2.119640      0.872242
  H       1.142947     -4.585284     -0.002597
  H       2.466655     -4.093922      1.067263
  H       1.884152     -5.765902      1.090571
  H       2.420741     -4.780175     -5.097382
  H       3.655915     -0.876951     -3.808138
  H       0.324083     -3.829469     -5.973235
  H       1.543428      0.078004     -4.670351
  H      -0.137744     -1.396193     -5.758493
  F      -0.092927     -2.021529      0.449193
  F      -2.188013     -1.392302      0.211928
  F       0.497657      0.178272     -1.428813
  F      -1.558589      0.829708     -0.987132
  F      -1.569365     -1.348924     -2.666956
  F       0.221538     -2.486346     -2.091153
  F      -0.886538      0.461522      1.795010
  F       1.193317      0.209209      1.125312
  F      -1.633868     -4.104156     -0.480154
  F      -3.202038     -3.127305     -1.675950
  F       0.763112      2.646752      1.955649
  F      -1.052932      2.879358      0.749329
  F      -2.539025     -5.448450     -2.744200
  F      -0.411010     -5.007545     -2.714357
  F      -1.748891     -3.844622     -3.988998
  O       2.301603      2.723303     -0.253316
  O       0.437728      3.269168     -1.417849
  C      -0.962268     -1.375987     -0.359788
  C      -0.508360      0.119524     -0.520008
  C      -1.034225     -2.153438     -1.721132
  C       0.000071      0.765333      0.808395
  C      -1.894948     -3.460819     -1.640942
  C       0.186477      2.313251      0.758385
  C      -1.630653     -4.466376     -2.808892
  C       1.069602      2.830452     -0.435121
80
Coordinates from ORCA-job R4N+PFOA-_r2 E -2865.069222577260
  N       5.490575      0.615892      2.560764
  C       3.390899     -4.109150     -1.604281
  C       4.242883     -4.565988     -2.798744
  C       4.488789     -3.473293     -3.853422
  C       4.032936     -2.944492     -0.882178
  C       3.092763     -5.278881     -0.652615
  C       5.881642      0.425699      1.089154
  C       5.237062     -0.750424      0.421049
  C       3.193791     -2.893905     -4.387773
  C       3.411803     -1.694591     -0.854074
  C       5.274076     -3.079091     -0.248671
  C       5.357625     -4.021478     -4.992208
  C       4.009477      0.803224      2.700050
  C       6.190789      1.846398      3.059187
  C       5.924197     -0.559831      3.381794
  C       4.006997     -0.608530     -0.223231
  C       5.867729     -1.999195      0.394031
  C       2.091016     -4.910856      0.438012
  C       2.238328     -3.711981     -5.003078
  C       2.924772     -1.526524     -4.283581
  C       1.052683     -3.177015     -5.498394
  C       1.734178     -0.987560     -4.769884
  C       0.792847     -1.811944     -5.380282
  H       2.427465     -3.758278     -1.999003
  H       3.744669     -5.421440     -3.275075
  H       5.215314     -4.929011     -2.438250
  H       5.037596     -2.652573     -3.370964
  H       4.029917     -5.634388     -0.203190
  H       2.695435     -6.111023     -1.248843
  H       6.971234      0.332955      1.090317
  H       5.599520      1.359407      0.593999
  H       2.459748     -1.565400     -1.359012
  H       5.789066     -4.036548     -0.264419
  H       5.567047     -3.246517     -5.737422
  H       4.856353     -4.853804     -5.499767
  H       6.313731     -4.389410     -4.602733
  H       3.509213     -0.122057      2.413269
  H       3.697041      1.626559      2.053905
  H       3.792548      1.036025      3.744743
  H       7.267681      1.706897      2.946291
  H       5.936629      1.986963      4.111403
  H       5.854681      2.703052      2.471562
  H       5.395857     -1.450455      3.038689
  H       5.673787     -0.357285      4.425072
  H       7.002648     -0.688210      3.269326
  H       3.511848      0.359044     -0.231731
  H       6.836139     -2.121398      0.873566
  H       1.141635     -4.584645     -0.004089
  H       2.464475     -4.094554      1.067338
  H       1.881179     -5.766172      1.089190
  H       2.422152     -4.779794     -5.098191
  H       3.655530     -0.876816     -3.806705
  H       0.325694     -3.829369     -5.974721
  H       1.543134      0.077879     -4.669369
  H      -0.137149     -1.396352     -5.758775
  F      -0.093655     -2.023316      0.447852
  F      -2.188769     -1.393490      0.211387
  F       0.496828      0.177607     -1.429273
  F      -1.559401      0.828860     -0.987099
  F      -1.570254     -1.349013     -2.667910
  F       0.219994     -2.487726     -2.092469
  F      -0.885920      0.457692      1.795409
  F       1.193482      0.207271      1.123677
  F      -1.636244     -4.104742     -0.481657
  F      -3.203896     -3.127012     -1.677409
  F       0.761701      2.643829      1.957662
  F      -1.054842      2.876360      0.752086
  F      -2.542100     -5.447836     -2.746658
  F      -0.413784     -5.008759     -2.715410
  F      -1.749856     -3.844260     -3.990435
  O       2.299539      2.723632     -0.252179
  O       0.434620      3.269622     -1.414962
  C      -0.963131     -1.377185     -0.360674
  C      -0.509105      0.118379     -0.520366
  C      -1.035595     -2.154080     -1.722214
  C      -0.000290      0.763181      0.808415
  C      -1.896959     -3.461072     -1.642343
  C       0.185052      2.311224      0.760094
  C      -1.632864     -4.466548     -2.810444
  C       1.067349      2.830346     -0.433090
80
Coordinates from ORCA-job R4N+PFOA-_r2 E -2865.069224237809
  N       5.492910      0.617217      2.560429
  C       3.390354     -4.108417     -1.604065
  C       4.242652     -4.565346     -2.798251
  C       4.489028     -3.472757     -3.852863
  C       4.032580     -2.944260     -0.881419
  C       3.091358     -5.278354     -0.652844
  C       5.883911      0.424703      1.089363
  C       5.238131     -0.751193      0.422088
  C       3.194112     -2.893725     -4.387800
  C       3.412073     -1.694057     -0.852798
  C       5.273554     -3.079764     -0.247837
  C       5.358518     -4.020852     -4.991167
  C       4.011995      0.806063      2.699772
  C       6.194351      1.847606      3.057488
  C       5.925327     -0.558008      3.382897
  C       4.008154     -0.608386     -0.221968
  C       5.867823     -2.000409      0.395078
  C       2.088571     -4.910449      0.436852
  C       2.239445     -3.712059     -5.004029
  C       2.924255     -1.526565     -4.283072
  C       1.053718     -3.177517     -5.499580
  C       1.733543     -0.988059     -4.769593
  C       0.792956     -1.812685     -5.380741
  H       2.427105     -3.757262     -1.998990
  H       3.744512     -5.420800     -3.274642
  H       5.214894     -4.928579     -2.437445
  H       5.037418     -2.651894     -3.370171
  H       4.028059     -5.633995     -0.202607
  H       2.694548     -6.110300     -1.249677
  H       6.973340      0.330342      1.090997
  H       5.603671      1.357984      0.592478
  H       2.460090     -1.564152     -1.357735
  H       5.788066     -4.037453     -0.263798
  H       5.567885     -3.245947     -5.736440
  H       4.857701     -4.853450     -5.498722
  H       6.314613     -4.388411     -4.601320
  H       3.510582     -0.118628      2.413026
  H       3.700414      1.630031      2.054024
  H       3.795383      1.038728      3.744587
  H       7.271135      1.706883      2.944992
  H       5.940017      1.989713      4.109424
  H       5.859244      2.703851      2.468663
  H       5.396450     -1.448599      3.040485
  H       5.674581     -0.354089      4.425792
  H       7.003659     -0.687564      3.271081
  H       3.513549      0.359484     -0.230069
  H       6.836086     -2.123393      0.874621
  H       1.139769     -4.583961     -0.006157
  H       2.461416     -4.094439      1.066860
  H       1.877863     -5.765805      1.087592
  H       2.424023     -4.779698     -5.099648
  H       3.654464     -0.876673     -3.805607
  H       0.327391     -3.830067     -5.976642
  H       1.541905      0.077226     -4.668636
  H      -0.137243     -1.397571     -5.759197
  F      -0.095012     -2.024773      0.446447
  F      -2.189698     -1.394177      0.209880
  F       0.496052      0.177282     -1.429694
  F      -1.560051      0.828114     -0.987246
  F      -1.570980     -1.349255     -2.669218
  F       0.218685     -2.488856     -2.094131
  F      -0.885899      0.454190      1.795472
  F       1.193267      0.205490      1.122379
  F      -1.638763     -4.104736     -0.482813
  F      -3.205353     -3.126746     -1.679712
  F       0.760254      2.640749      1.959988
  F      -1.056784      2.873709      0.755033
  F      -2.543930     -5.448112     -2.747847
  F      -0.415439     -5.010079     -2.715350
  F      -1.750053     -3.845397     -3.991699
  O       2.297346      2.724238     -0.250509
  O       0.431561      3.269807     -1.411990
  C      -0.964000     -1.378088     -0.361967
  C      -0.509822      0.117429     -0.520839
  C      -1.036682     -2.154660     -1.723586
  C      -0.000953      0.761229      0.808382
  C      -1.898567     -3.461310     -1.643816
  C       0.183538      2.309374      0.761995
  C      -1.634177     -4.467332     -2.811387
  C       1.065122      2.830401     -0.430807
80
Coordinates from ORCA-job R4N+PFOA-_r2 E -2865.069225762621
  N       5.495102      0.618102      2.560359
  C       3.389454     -4.107399     -1.603952
  C       4.241945     -4.564779     -2.797760
  C       4.488915     -3.472529     -3.852557
  C       4.031974     -2.943687     -0.880837
  C       3.089358     -5.277349     -0.652934
  C       5.885890      0.424002      1.089729
  C       5.238930     -0.751605      0.422942
  C       3.194135     -2.893739     -4.388123
  C       3.412003     -1.693240     -0.851575
  C       5.272923     -3.080056     -0.247347
  C       5.358994     -4.020933     -4.990235
  C       4.014236      0.808119      2.700087
  C       6.197353      1.848541      3.056324
  C       5.926832     -0.556753      3.383831
  C       4.008894     -0.607945     -0.220768
  C       5.867800     -2.001211      0.395800
  C       2.085950     -4.909118      0.436088
  C       2.240214     -3.712267     -5.005302
  C       2.923505     -1.526794     -4.282841
  C       1.054438     -3.178095     -5.501082
  C       1.732721     -0.988673     -4.769646
  C       0.792819     -1.813477     -5.381542
  H       2.426498     -3.755811     -1.999186
  H       3.743662     -5.420193     -3.274085
  H       5.213965     -4.928326     -2.436643
  H       5.037015     -2.651509     -3.369789
  H       4.025658     -5.633424     -0.202103
  H       2.692541     -6.109029     -1.250200
  H       6.975237      0.328299      1.091335
  H       5.607118      1.357025      0.591533
  H       2.460052     -1.562687     -1.356400
  H       5.787068     -4.037942     -0.263629
  H       5.568460     -3.246305     -5.735774
  H       4.858569     -4.853878     -5.497594
  H       6.315024     -4.388115     -4.599864
  H       3.511818     -0.115906      2.413174
  H       3.703392      1.632810      2.055070
  H       3.798320      1.040232      3.745196
  H       7.274010      1.707108      2.943741
  H       5.943165      1.991651      4.108134
  H       5.862605      2.704397      2.466760
  H       5.397712     -1.447291      3.041658
  H       5.675782     -0.352037      4.426483
  H       7.005154     -0.686786      3.272493
  H       3.514598      0.360103     -0.228796
  H       6.836001     -2.124909      0.875287
  H       1.137609     -4.582026     -0.007719
  H       2.458699     -4.093433      1.066737
  H       1.874213     -5.764619      1.086432
  H       2.425481     -4.779737     -5.101449
  H       3.653163     -0.876746     -3.804751
  H       0.328675     -3.830743     -5.978842
  H       1.540564      0.076465     -4.668285
  H      -0.137559     -1.398830     -5.760079
  F      -0.094595     -2.025971      0.444957
  F      -2.189807     -1.395999      0.208943
  F       0.495309      0.177506     -1.430141
  F      -1.561198      0.827042     -0.987098
  F      -1.571067     -1.349508     -2.670319
  F       0.218449     -2.489518     -2.095839
  F      -0.886686      0.451534      1.795271
  F       1.192618      0.204130      1.121933
  F      -1.639966     -4.105035     -0.483990
  F      -3.205636     -3.127033     -1.682128
  F       0.758312      2.638291      1.962017
  F      -1.058419      2.871783      0.756917
  F      -2.544021     -5.448983     -2.748501
  F      -0.415461     -5.011178     -2.715576
  F      -1.749484     -3.847105     -3.993008
  O       2.295638      2.725308     -0.248161
  O       0.429569      3.270154     -1.409391
  C      -0.964005     -1.379198     -0.363076
  C      -0.510500      0.116620     -0.521231
  C      -1.036768     -2.155290     -1.724945
  C      -0.001899      0.759691      0.808408
  C      -1.898888     -3.461839     -1.645323
  C       0.182066      2.308008      0.763594
  C      -1.634130     -4.468371     -2.812315
  C       1.063485      2.830770     -0.428472
80
Coordinates from ORCA-job R4N+PFOA-_r2 E -2865.069227271494
  N       5.497434      0.618814      2.560362
  C       3.388374     -4.106347     -1.603604
  C       4.240941     -4.564185     -2.797104
  C       4.488474     -3.472260     -3.852140
  C       4.031243     -2.943055     -0.880090
  C       3.087510     -5.276214     -0.652622
  C       5.887874      0.423519      1.090025
  C       5.239712     -0.751845      0.423668
  C       3.193813     -2.893810     -4.388406
  C       3.411782     -1.692402     -0.850231
  C       5.272320     -3.080188     -0.246936
  C       5.359248     -4.020998     -4.989091
  C       4.016609      0.810386      2.700652
  C       6.200685      1.849146      3.055430
  C       5.928424     -0.555944      3.384469
  C       4.009470     -0.607471     -0.219552
  C       5.867907     -2.001766      0.396276
  C       2.083638     -4.907857      0.435887
  C       2.240757     -3.712628     -5.006607
  C       2.922280     -1.527077     -4.282606
  C       1.054884     -3.178959     -5.502672
  C       1.731388     -0.989450     -4.769792
  C       0.792269     -1.814548     -5.382482
  H       2.425755     -3.754185     -1.999134
  H       3.742401     -5.419476     -3.273416
  H       5.212765     -4.928062     -2.435759
  H       5.036215     -2.651025     -3.369304
  H       4.023553     -5.632328     -0.201346
  H       2.690829     -6.107829     -1.250068
  H       6.977175      0.326694      1.091229
  H       5.610131      1.356387      0.590804
  H       2.459818     -1.561111     -1.354842
  H       5.786124     -4.038257     -0.263608
  H       5.568872     -3.246695     -5.734930
  H       4.859351     -4.854367     -5.496273
  H       6.315194     -4.387668     -4.598033
  H       3.512879     -0.112673      2.413349
  H       3.706789      1.636049      2.056541
  H       3.801637      1.041728      3.746161
  H       7.277227      1.706822      2.942580
  H       5.946825      1.993052      4.107231
  H       5.866342      2.704864      2.465371
  H       5.398913     -1.446242      3.042269
  H       5.677285     -0.350791      4.427029
  H       7.006791     -0.686330      3.273377
  H       3.515432      0.360692     -0.227679
  H       6.836180     -2.126027      0.875485
  H       1.135321     -4.581599     -0.008459
  H       2.455687     -4.091699      1.066268
  H       1.872129     -5.763146      1.086534
  H       2.426803     -4.779937     -5.103275
  H       3.651279     -0.876761     -3.803852
  H       0.329697     -3.831757     -5.981113
  H       1.538555      0.075552     -4.668036
  H      -0.138336     -1.400479     -5.761160
  F      -0.095697     -2.026974      0.443700
  F      -2.190579     -1.397114      0.206664
  F       0.494543      0.177708     -1.430360
  F      -1.561999      0.826270     -0.986826
  F      -1.570707     -1.349643     -2.671843
  F       0.218513     -2.489899     -2.097529
  F      -0.887820      0.448921      1.795094
  F       1.191811      0.202782      1.121957
  F      -1.641289     -4.105108     -0.485710
  F      -3.205607     -3.127213     -1.685752
  F       0.756566      2.635739      1.964109
  F      -1.059988      2.869999      0.758935
  F      -2.543036     -5.450103     -2.749556
  F      -0.414494     -5.011819     -2.715993
  F      -1.748182     -3.849048     -3.994952
  O       2.293987      2.725943     -0.245512
  O       0.427846      3.270103     -1.407001
  C      -0.964435     -1.380040     -0.364529
  C      -0.511210      0.115869     -0.521516
  C      -1.036609     -2.155756     -1.726684
  C      -0.002980      0.758106      0.808631
  C      -1.898907     -3.462235     -1.647510
  C       0.180569      2.306568      0.765328
  C      -1.633306     -4.469342     -2.813746
  C       1.061933      2.830760     -0.426149
80
Coordinates from ORCA-job R4N+PFOA-_r2 E -2865.069228800851
  N       5.499356      0.619511      2.560172
  C       3.387233     -4.105557     -1.602872
  C       4.239651     -4.563981     -2.796205
  C       4.487755     -3.472349     -3.851484
  C       4.030597     -2.942514     -0.879270
  C       3.085711     -5.275205     -0.651776
  C       5.889355      0.423645      1.089860
  C       5.240324     -0.751636      0.423895
  C       3.193304     -2.893999     -4.388398
  C       3.411452     -1.691732     -0.849030
  C       5.271972     -3.079991     -0.246727
  C       5.359063     -4.021548     -4.987783
  C       4.018640      0.812664      2.701099
  C       6.203660      1.849522      3.054738
  C       5.929731     -0.555411      3.384425
  C       4.009706     -0.606982     -0.218659
  C       5.868209     -2.001698      0.396194
  C       2.081803     -4.906522      0.436572
  C       2.240908     -3.712864     -5.007592
  C       2.921238     -1.527398     -4.282157
  C       1.055145     -3.179391     -5.504114
  C       1.730441     -0.989960     -4.769853
  C       0.791950     -1.815108     -5.383449
  H       2.424968     -3.752699     -1.998607
  H       3.740654     -5.419015     -3.272524
  H       5.211284     -4.928283     -2.434770
  H       5.035322     -2.651005     -3.368624
  H       4.021639     -5.631513     -0.200371
  H       2.688794     -6.106776     -1.249166
  H       6.978649      0.326275      1.090488
  H       5.611898      1.356452      0.590185
  H       2.459351     -1.559966     -1.353228
  H       5.785561     -4.038166     -0.263723
  H       5.569060     -3.247591     -5.733890
  H       4.859543     -4.855209     -5.494847
  H       6.314840     -4.387915     -4.596029
  H       3.513647     -0.109497      2.413486
  H       3.709788      1.639147      2.057666
  H       3.804665      1.043521      3.746924
  H       7.280075      1.706320      2.941459
  H       5.950323      1.993793      4.106661
  H       5.869667      2.705366      2.464612
  H       5.399705     -1.445355      3.042177
  H       5.678850     -0.350119      4.427061
  H       7.008122     -0.686054      3.273174
  H       3.515790      0.361223     -0.226958
  H       6.836729     -2.126125      0.874859
  H       1.133270     -4.580966     -0.008008
  H       2.453607     -4.089802      1.066484
  H       1.870671     -5.761669      1.087667
  H       2.427384     -4.780068     -5.104681
  H       3.649688     -0.876996     -3.802676
  H       0.330335     -3.832124     -5.983206
  H       1.537163      0.074933     -4.667756
  H      -0.138671     -1.401326     -5.762480
  F      -0.095547     -2.028203      0.442523
  F      -2.190911     -1.399364      0.205268
  F       0.493695      0.177797     -1.430511
  F      -1.563123      0.825208     -0.986172
  F      -1.569787     -1.349517     -2.673073
  F       0.219161     -2.490206     -2.098843
  F      -0.889037      0.446362      1.795061
  F       1.190946      0.201403      1.122417
  F      -1.641875     -4.105943     -0.488241
  F      -3.205163     -3.127498     -1.689249
  F       0.754897      2.633313      1.965998
  F      -1.061406      2.868310      0.760655
  F      -2.542072     -5.450509     -2.752255
  F      -0.413486     -5.012133     -2.717953
  F      -1.746730     -3.849627     -3.997540
  O       2.292742      2.726230     -0.242473
  O       0.427045      3.270002     -1.404856
  C      -0.964487     -1.381322     -0.365575
  C      -0.511956      0.114932     -0.521585
  C      -1.036001     -2.156276     -1.728294
  C      -0.004014      0.756440      0.809042
  C      -1.898500     -3.462725     -1.650097
  C       0.179171      2.305057      0.766934
  C      -1.632347     -4.469696     -2.816247
  C       1.060784      2.830412     -0.423849
80
Coordinates from ORCA-job R4N+PFOA-_r2 E -2865.069231002153
  N       5.501927      0.620813      2.559327
  C       3.385792     -4.104857     -1.601304
  C       4.237884     -4.564050     -2.794563
  C       4.486758     -3.472691     -3.850073
  C       4.029872     -2.941957     -0.877967
  C       3.083849     -5.274067     -0.649858
  C       5.891008      0.424485      1.088800
  C       5.241075     -0.750911      0.423670
  C       3.192661     -2.894325     -4.387843
  C       3.410910     -1.691112     -0.847377
  C       5.271770     -3.079477     -0.246404
  C       5.358719     -4.022449     -4.985591
  C       4.021526      0.816560      2.701212
  C       6.208237      1.849895      3.053526
  C       5.931192     -0.554773      3.383253
  C       4.009771     -0.606372     -0.217726
  C       5.868803     -2.001069      0.395735
  C       2.079929     -4.905106      0.438357
  C       2.241088     -3.713066     -5.008474
  C       2.920082     -1.527849     -4.280960
  C       1.055641     -3.179624     -5.505786
  C       1.729559     -0.990442     -4.769431
  C       0.791899     -1.815477     -5.384492
  H       2.423957     -3.751084     -1.997214
  H       3.738194     -5.418648     -3.270964
  H       5.209268     -4.928976     -2.433102
  H       5.034176     -2.651294     -3.367132
  H       4.019777     -5.630199     -0.198352
  H       2.686883     -6.105868     -1.246885
  H       6.980302      0.326819      1.088539
  H       5.613297      1.357207      0.588911
  H       2.458375     -1.558898     -1.350589
  H       5.785167     -4.037764     -0.263628
  H       5.569361     -3.248870     -5.731923
  H       4.859612     -4.856355     -5.492658
  H       6.314208     -4.388597     -4.592929
  H       3.514571     -0.104368      2.413258
  H       3.714176      1.644114      2.058434
  H       3.808958      1.047154      3.747373
  H       7.284392      1.705181      2.939461
  H       5.955944      1.994382      4.105720
  H       5.874978      2.706311      2.463787
  H       5.399887     -1.444010      3.041099
  H       5.681212     -0.349410      4.426132
  H       7.009510     -0.686345      3.271314
  H       3.515937      0.361847     -0.226254
  H       6.837791     -2.125377      0.873560
  H       1.130774     -4.581528     -0.006322
  H       2.450965     -4.086985      1.066895
  H       1.870241     -5.759714      1.090670
  H       2.427931     -4.780168     -5.106110
  H       3.647826     -0.877479     -3.800360
  H       0.331237     -3.832122     -5.985814
  H       1.535764      0.074324     -4.666768
  H      -0.138589     -1.401870     -5.764132
  F      -0.096926     -2.030416      0.441153
  F      -2.192230     -1.402032      0.202684
  F       0.492465      0.177470     -1.430351
  F      -1.564367      0.823996     -0.984927
  F      -1.568214     -1.348953     -2.675091
  F       0.219822     -2.490786     -2.100240
  F      -0.890671      0.441926      1.795440
  F       1.189760      0.198722      1.123279
  F      -1.643311     -4.107362     -0.492917
  F      -3.205081     -3.127409     -1.694790
  F       0.752501      2.629373      1.969150
  F      -1.063358      2.865274      0.763446
  F      -2.541615     -5.450070     -2.758283
  F      -0.412891     -5.012099     -2.722049
  F      -1.744878     -3.848818     -4.002182
  O       2.291234      2.725640     -0.237623
  O       0.426249      3.269193     -1.401452
  C      -0.965322     -1.383172     -0.367077
  C      -0.513071      0.113367     -0.521385
  C      -1.035532     -2.156861     -1.730717
  C      -0.005385      0.753468      0.810066
  C      -1.898551     -3.463113     -1.654559
  C       0.177238      2.302238      0.769679
  C      -1.631644     -4.469344     -2.821116
  C       1.059314      2.829008     -0.420162
80
Coordinates from ORCA-job R4N+PFOA-_r2 E -2865.069233509362
  N       5.504672      0.622789      2.557837
  C       3.384395     -4.104394     -1.599192
  C       4.236120     -4.564435     -2.792433
  C       4.485908     -3.473338     -3.848096
  C       4.029242     -2.941472     -0.876462
  C       3.082182     -5.273047     -0.647279
  C       5.892526      0.425935      1.086892
  C       5.241855     -0.749732      0.422956
  C       3.192294     -2.894752     -4.386782
  C       3.410267     -1.690650     -0.845562
  C       5.271819     -3.078638     -0.246186
  C       5.358438     -4.023706     -4.982883
  C       4.024817      0.822019      2.700636
  C       6.213952      1.850241      3.051804
  C       5.932081     -0.553807      3.381271
  C       4.009726     -0.605681     -0.216989
  C       5.869601     -1.999906      0.394808
  C       2.078120     -4.903744      0.440675
  C       2.241486     -3.713141     -5.009019
  C       2.919445     -1.528355     -4.279191
  C       1.056593     -3.179431     -5.507369
  C       1.729396     -0.990707     -4.768557
  C       0.792570     -1.815398     -5.385394
  H       2.422953     -3.749778     -1.995242
  H       3.735680     -5.418548     -3.268915
  H       5.207205     -4.930090     -2.430936
  H       5.033304     -2.651994     -3.365054
  H       4.018128     -5.628837     -0.195555
  H       2.685348     -6.105251     -1.243818
  H       6.981799      0.328194      1.085802
  H       5.614221      1.358553      0.587055
  H       2.456933     -1.558190     -1.347153
  H       5.785148     -4.036951     -0.263606
  H       5.569867     -3.250465     -5.729346
  H       4.859582     -4.857702     -5.490044
  H       6.313562     -4.389879     -4.589369
  H       3.515417     -0.097545      2.412501
  H       3.719514      1.650697      2.058201
  H       3.813625      1.052888      3.746982
  H       7.289772      1.703245      2.937003
  H       5.962791      1.994994      4.104287
  H       5.882133      2.707614      2.462566
  H       5.398695     -1.442008      3.039650
  H       5.683463     -0.348050      4.424428
  H       7.010094     -0.687408      3.268345
  H       3.515993      0.362577     -0.225745
  H       6.839183     -2.123828      0.871534
  H       1.128318     -4.582273     -0.004178
  H       2.448319     -4.084029      1.067668
  H       1.869931     -5.757680      1.094412
  H       2.428471     -4.780174     -5.107188
  H       3.646539     -0.878218     -3.797297
  H       0.332540     -3.831521     -5.988488
  H       1.535234      0.073943     -4.665216
  H      -0.137597     -1.401720     -5.765786
  F      -0.098858     -2.033656      0.439712
  F      -2.194081     -1.405325      0.200200
  F       0.490915      0.176581     -1.429961
  F      -1.565832      0.822424     -0.983255
  F      -1.566480     -1.348095     -2.677314
  F       0.220081     -2.491898     -2.101384
  F      -0.892140      0.435915      1.796317
  F       1.188527      0.194873      1.124074
  F      -1.645591     -4.109449     -0.498950
  F      -3.205773     -3.126946     -1.700908
  F       0.750029      2.624009      1.973377
  F      -1.065620      2.861069      0.767532
  F      -2.542765     -5.448446     -2.767124
  F      -0.413752     -5.011995     -2.727839
  F      -1.743424     -3.846157     -4.007981
  O       2.289575      2.724215     -0.231659
  O       0.425398      3.267766     -1.396894
  C      -0.966717     -1.385664     -0.368532
  C      -0.514455      0.111164     -0.520914
  C      -1.035586     -2.157617     -1.733320
  C      -0.006794      0.749404      0.811522
  C      -1.899488     -3.463433     -1.659969
  C       0.175123      2.298282      0.773358
  C      -1.632036     -4.468223     -2.827626
  C       1.057653      2.826711     -0.415417
80
Coordinates from ORCA-job R4N+PFOA-_r2 E -2865.069236224507
  N       5.507766      0.625456      2.555751
  C       3.383182     -4.104098     -1.596755
  C       4.234698     -4.564936     -2.789934
  C       4.485503     -3.474086     -3.845641
  C       4.028669     -2.941012     -0.874835
  C       3.080826     -5.272165     -0.644343
  C       5.894054      0.427766      1.084295
  C       5.242643     -0.748250      0.421951
  C       3.192461     -2.895126     -4.385261
  C       3.409527     -1.690278     -0.843608
  C       5.271954     -3.077614     -0.245860
  C       5.358533     -4.025015     -4.979790
  C       4.028667      0.829143      2.699263
  C       6.221081      1.850586      3.049509
  C       5.932297     -0.552528      3.378688
  C       4.009654     -0.604874     -0.216409
  C       5.870375     -1.998481      0.393843
  C       2.076147     -4.902581      0.442952
  C       2.242373     -3.713011     -5.009209
  C       2.919498     -1.528796     -4.276887
  C       1.058197     -3.178822     -5.508752
  C       1.730063     -0.990711     -4.767213
  C       0.794081     -1.814892     -5.386044
  H       2.422051     -3.748911     -1.993010
  H       3.733620     -5.418636     -3.266468
  H       5.205439     -4.931323     -2.428293
  H       5.032956     -2.652881     -3.362451
  H       4.016709     -5.627317     -0.192014
  H       2.684621     -6.104970     -1.240426
  H       6.983274      0.329865      1.082481
  H       5.615163      1.360277      0.584645
  H       2.455017     -1.557783     -1.342963
  H       5.785287     -4.035932     -0.263359
  H       5.570710     -3.252026     -5.726294
  H       4.859779     -4.858987     -5.487088
  H       6.313291     -4.391390     -4.585583
  H       3.516324     -0.088970      2.411227
  H       3.725963      1.658894      2.056804
  H       3.818643      1.060939      3.745611
  H       7.296390      1.700572      2.933892
  H       5.971225      1.995744      4.102239
  H       5.891357      2.709179      2.460876
  H       5.395860     -1.439275      3.037905
  H       5.685306     -0.345947      4.422057
  H       7.009772     -0.689592      3.264721
  H       3.516102      0.363479     -0.225511
  H       6.840532     -2.122004      0.869551
  H       1.125926     -4.583193     -0.002416
  H       2.445227     -4.081288      1.068524
  H       1.869185     -5.755719      1.098104
  H       2.429371     -4.779985     -5.107908
  H       3.646014     -0.879065     -3.793587
  H       0.334547     -3.830428     -5.991147
  H       1.535675      0.073830     -4.663088
  H      -0.135602     -1.400948     -5.767308
  F      -0.102017     -2.037875      0.438261
  F      -2.196724     -1.408679      0.197701
  F       0.488871      0.175118     -1.429448
  F      -1.567560      0.820585     -0.981151
  F      -1.565323     -1.347233     -2.679628
  F       0.219375     -2.493594     -2.102404
  F      -0.893138      0.428389      1.797760
  F       1.187468      0.189777      1.124317
  F      -1.648788     -4.112110     -0.505740
  F      -3.207623     -3.126421     -1.706947
  F       0.747353      2.617362      1.978537
  F      -1.068021      2.855581      0.772572
  F      -2.545681     -5.446092     -2.777809
  F      -0.416311     -5.011836     -2.734910
  F      -1.743176     -3.842044     -4.014351
  O       2.287757      2.722201     -0.225204
  O       0.423950      3.265782     -1.391207
  C      -0.968977     -1.388622     -0.369969
  C      -0.516190      0.108366     -0.520197
  C      -1.036661     -2.158618     -1.735941
  C      -0.008141      0.744279      0.813279
  C      -1.901638     -3.463832     -1.665791
  C       0.172952      2.293232      0.777819
  C      -1.633891     -4.466631     -2.835139
  C       1.055728      2.823761     -0.409817
80
Coordinates from ORCA-job R4N+PFOA-_r2 E -2865.069238732955
  N       5.510403      0.627966      2.553876
  C       3.382446     -4.103841     -1.594862
  C       4.234065     -4.565224     -2.787859
  C       4.485712     -3.474618     -3.843545
  C       4.028180     -2.940525     -0.873597
  C       3.079942     -5.271494     -0.642099
  C       5.895272      0.429350      1.081978
  C       5.243210     -0.746883      0.421009
  C       3.193141     -2.895347     -4.383921
  C       3.408791     -1.689924     -0.841974
  C       5.272076     -3.076587     -0.245742
  C       5.359099     -4.025928     -4.977254
  C       4.032076      0.836269      2.697569
  C       6.227926      1.850537      3.047573
  C       5.931422     -0.551416      3.376550
  C       4.009575     -0.604040     -0.216070
  C       5.870882     -1.997178      0.392981
  C       2.074236     -4.901678      0.444179
  C       2.243619     -3.712847     -5.009204
  C       2.920113     -1.529073     -4.274977
  C       1.060069     -3.178256     -5.509787
  C       1.731210     -0.990624     -4.766119
  C       0.795931     -1.814398     -5.386558
  H       2.421468     -3.748620     -1.991454
  H       3.732689     -5.418759     -3.264350
  H       5.204507     -4.932104     -2.425935
  H       5.033212     -2.653529     -3.360230
  H       4.015622     -5.625981     -0.188819
  H       2.684664     -6.104874     -1.237982
  H       6.984431      0.331152      1.079659
  H       5.616065      1.361865      0.582649
  H       2.453009     -1.557713     -1.338997
  H       5.785519     -4.034836     -0.263406
  H       5.571670     -3.253088     -5.723785
  H       4.860356     -4.859875     -5.484600
  H       6.313630     -4.392484     -4.582678
  H       3.516824     -0.080413      2.409677
  H       3.732220      1.667031      2.054930
  H       3.822655      1.069146      3.743784
  H       7.302760      1.697107      2.931735
  H       5.978716      1.996383      4.100363
  H       5.900935      2.710332      2.459083
  H       5.391616     -1.436451      3.036650
  H       5.685897     -0.343667      4.420001
  H       7.008174     -0.692699      3.261829
  H       3.516350      0.364494     -0.225672
  H       6.841434     -2.120483      0.867909
  H       1.124116     -4.583349     -0.002101
  H       2.442354     -4.079504      1.069166
  H       1.867431     -5.754237      1.100092
  H       2.430638     -4.779779     -5.108239
  H       3.646229     -0.879709     -3.790596
  H       0.336903     -3.829553     -5.993350
  H       1.536737      0.073850     -4.661415
  H      -0.133268     -1.400175     -5.768628
  F      -0.105063     -2.041760      0.437187
  F      -2.199245     -1.411353      0.196173
  F       0.486895      0.173522     -1.428944
  F      -1.569185      0.818852     -0.979334
  F      -1.565369     -1.346848     -2.681184
  F       0.217881     -2.495324     -2.103117
  F      -0.893562      0.421825      1.799225
  F       1.186678      0.184953      1.123982
  F      -1.651773     -4.114600     -0.510889
  F      -3.209970     -3.126308     -1.710815
  F       0.745528      2.611149      1.983178
  F      -1.069867      2.850679      0.777348
  F      -2.549184     -5.444107     -2.786531
  F      -0.419550     -5.011795     -2.740832
  F      -1.744254     -3.838134     -4.019042
  O       2.286228      2.720167     -0.220101
  O       0.422392      3.263606     -1.386127
  C      -0.971314     -1.391233     -0.370906
  C      -0.517829      0.105781     -0.519474
  C      -1.038440     -2.159685     -1.737697
  C      -0.009188      0.739690      0.814741
  C      -1.904216     -3.464394     -1.669978
  C       0.171370      2.288640      0.781760
  C      -1.636481     -4.465342     -2.841005
  C       1.054130      2.821031     -0.405026
80
Coordinates from ORCA-job R4N+PFOA-_r2 E -2865.069240899156
  N       5.512566      0.629827      2.552635
  C       3.382100     -4.103455     -1.593728
  C       4.234117     -4.565068     -2.786419
  C       4.486307     -3.474647     -3.842042
  C       4.027700     -2.939945     -0.872759
  C       3.079386     -5.270941     -0.640827
  C       5.896379      0.430348      1.080482
  C       5.243563     -0.745854      0.420438
  C       3.194019     -2.895272     -4.382972
  C       3.408151     -1.689437     -0.840757
  C       5.271997     -3.075763     -0.245612
  C       5.360020     -4.026065     -4.975469
  C       4.034913      0.842615      2.695994
  C       6.234019      1.849951      3.046473
  C       5.929707     -0.550980      3.375215
  C       4.009564     -0.603183     -0.215865
  C       5.871007     -1.996290      0.392612
  C       2.072437     -4.901024      0.444284
  C       2.244957     -3.712647     -5.009119
  C       2.920825     -1.529069     -4.273760
  C       1.061800     -3.177939     -5.510489
  C       1.732278     -0.990510     -4.765599
  C       0.797563     -1.814128     -5.387079
  H       2.421150     -3.748630     -1.990788
  H       3.732788     -5.418670     -3.262825
  H       5.204353     -4.932136     -2.424124
  H       5.033723     -2.653583     -3.358597
  H       4.014761     -5.624849     -0.186437
  H       2.685149     -6.104747     -1.236807
  H       6.985476      0.331528      1.077757
  H       5.617340      1.363034      0.581515
  H       2.451254     -1.557725     -1.335833
  H       5.785536     -4.033961     -0.263457
  H       5.572566     -3.253277     -5.722051
  H       4.861365     -4.860098     -5.482759
  H       6.314508     -4.392583     -4.580751
  H       3.516928     -0.072629      2.408103
  H       3.737866      1.674309      2.053243
  H       3.825569      1.076359      3.742046
  H       7.308340      1.693149      2.930821
  H       5.984955      1.996609      4.099131
  H       5.909947      2.710746      2.457862
  H       5.386492     -1.434124      3.035776
  H       5.685274     -0.342066      4.418650
  H       7.005768     -0.696660      3.260160
  H       3.516800      0.365604     -0.226248
  H       6.841707     -2.119705      0.867196
  H       1.122882     -4.582708     -0.003136
  H       2.439829     -4.078778      1.069586
  H       1.864828     -5.753346      1.100179
  H       2.432138     -4.779525     -5.108289
  H       3.646648     -0.879892     -3.788699
  H       0.339266     -3.829230     -5.995029
  H       1.537765      0.073926     -4.660658
  H      -0.131217     -1.399738     -5.769919
  F      -0.107568     -2.044682      0.436498
  F      -2.201308     -1.413180      0.195555
  F       0.484996      0.172128     -1.428738
  F      -1.570781      0.817380     -0.977949
  F      -1.566791     -1.347209     -2.681818
  F       0.215932     -2.496683     -2.103777
  F      -0.893389      0.417182      1.800470
  F       1.186293      0.181188      1.122923
  F      -1.653684     -4.116786     -0.513735
  F      -3.212193     -3.127124     -1.712101
  F       0.744477      2.606488      1.986275
  F      -1.070929      2.847060      0.780663
  F      -2.552025     -5.443409     -2.791603
  F      -0.422339     -5.011804     -2.745037
  F      -1.746623     -3.835595     -4.021492
  O       2.285060      2.718627     -0.217427
  O       0.420600      3.261810     -1.382610
  C      -0.973372     -1.393200     -0.371378
  C      -0.519334      0.103757     -0.518938
  C      -1.040518     -2.160788     -1.738533
  C      -0.009903      0.736305      0.815578
  C      -1.906486     -3.465341     -1.672028
  C       0.170452      2.285244      0.784360
  C      -1.639012     -4.464875     -2.844413
  C       1.052888      2.819110     -0.401973
80
Coordinates from ORCA-job R4N+PFOA-_r2 E -2865.069242502047
  N       5.513922      0.630621      2.552347
  C       3.382002     -4.102868     -1.593430
  C       4.234489     -4.564493     -2.785793
  C       4.486834     -3.474193     -3.841403
  C       4.027280     -2.939280     -0.872369
  C       3.079014     -5.270391     -0.640562
  C       5.897361      0.430624      1.080165
  C       5.243785     -0.745283      0.420317
  C       3.194592     -2.895021     -4.382677
  C       3.407754     -1.688779     -0.840066
  C       5.271778     -3.075217     -0.245578
  C       5.360861     -4.025509     -4.974646
  C       4.036760      0.847177      2.695000
  C       6.238344      1.848770      3.046652
  C       5.927547     -0.551356      3.374934
  C       4.009689     -0.602389     -0.215735
  C       5.870920     -1.995875      0.392606
  C       2.071134     -4.900424      0.443670
  C       2.245892     -3.712612     -5.009127
  C       2.921088     -1.528888     -4.273603
  C       1.062821     -3.178174     -5.510974
  C       1.732647     -0.990577     -4.765985
  C       0.798331     -1.814382     -5.387795
  H       2.421022     -3.748609     -1.990987
  H       3.733393     -5.418287     -3.262105
  H       5.204645     -4.931481     -2.423184
  H       5.034010     -2.653012     -3.357874
  H       4.014113     -5.624014     -0.185336
  H       2.685451     -6.104357     -1.236789
  H       6.986412      0.331007      1.077147
  H       5.618898      1.363633      0.581508
  H       2.450167     -1.557632     -1.334002
  H       5.785333     -4.033400     -0.263655
  H       5.573093     -3.252738     -5.721337
  H       4.862450     -4.859774     -5.481796
  H       6.315451     -4.391704     -4.579870
  H       3.516495     -0.066593      2.406629
  H       3.742235      1.679883      2.052491
  H       3.827178      1.081036      3.741001
  H       7.312342      1.688868      2.932072
  H       5.988480      1.996370      4.098994
  H       5.917329      2.710307      2.457390
  H       5.381618     -1.432734      3.035472
  H       5.683813     -0.341560      4.418340
  H       7.003047     -0.700531      3.259860
  H       3.517470      0.366682     -0.226956
  H       6.841585     -2.119618      0.867138
  H       1.122283     -4.581318     -0.004673
  H       2.438270     -4.078723      1.069837
  H       1.862266     -5.752865      1.098968
  H       2.433397     -4.779442     -5.108195
  H       3.646683     -0.879597     -3.788348
  H       0.340961     -3.829770     -5.996125
  H       1.538050      0.073859     -4.661258
  H      -0.130190     -1.400037     -5.771286
  F      -0.108753     -2.046054      0.436140
  F      -2.202423     -1.414158      0.195679
  F       0.483675      0.171233     -1.428800
  F      -1.571968      0.816437     -0.977366
  F      -1.568944     -1.348117     -2.681633
  F       0.214329     -2.497212     -2.104484
  F      -0.893072      0.415196      1.801079
  F       1.186078      0.179165      1.121729
  F      -1.653999     -4.118249     -0.514166
  F      -3.213452     -3.128658     -1.711290
  F       0.744497      2.603945      1.987407
  F      -1.071268      2.845464      0.782349
  F      -2.553073     -5.444197     -2.792394
  F      -0.423555     -5.011840     -2.746932
  F      -1.749152     -3.835149     -4.021718
  O       2.284250      2.717612     -0.217250
  O       0.419078      3.260618     -1.381277
  C      -0.974573     -1.394238     -0.371487
  C      -0.520406      0.102661     -0.518762
  C      -1.042089     -2.161655     -1.738620
  C      -0.010370      0.734673      0.815694
  C      -1.907609     -3.466468     -1.672036
  C       0.170141      2.283589      0.785321
  C      -1.640449     -4.465332     -2.845109
  C       1.052087      2.818137     -0.401065
80
Coordinates from ORCA-job R4N+PFOA-_r2 E -2865.069243541870
  N       5.514615      0.630653      2.552618
  C       3.381967     -4.102268     -1.593466
  C       4.234765     -4.563822     -2.785605
  C       4.487013     -3.473544     -3.841240
  C       4.027000     -2.938702     -0.872159
  C       3.078757     -5.269901     -0.640688
  C       5.898199      0.430511      1.080566
  C       5.243967     -0.745023      0.420477
  C       3.194682     -2.894692     -4.382677
  C       3.407651     -1.688119     -0.839773
  C       5.271542     -3.074946     -0.245446
  C       5.361309     -4.024669     -4.974366
  C       4.037742      0.849847      2.694609
  C       6.240835      1.847545      3.047531
  C       5.925708     -0.552236      3.375148
  C       4.009915     -0.601762     -0.215654
  C       5.870810     -1.995759      0.392870
  C       2.070470     -4.899972      0.443168
  C       2.246177     -3.712625     -5.009009
  C       2.920905     -1.528598     -4.274005
  C       1.063001     -3.178605     -5.511060
  C       1.732430     -0.990670     -4.766773
  C       0.798279     -1.814802     -5.388383
  H       2.420971     -3.748391     -1.991384
  H       3.733879     -5.417760     -3.261891
  H       5.204941     -4.930632     -2.422849
  H       5.033907     -2.652197     -3.357654
  H       4.013722     -5.623459     -0.185110
  H       2.685417     -6.103838     -1.237123
  H       6.987214      0.330106      1.077351
  H       5.620469      1.363850      0.582067
  H       2.449819     -1.557402     -1.333389
  H       5.785025     -4.033165     -0.263650
  H       5.573249     -3.251896     -5.721151
  H       4.863202     -4.859176     -5.481419
  H       6.316021     -4.390470     -4.579507
  H       3.515869     -0.062708      2.405566
  H       3.744916      1.683329      2.052490
  H       3.827905      1.083347      3.740661
  H       7.314577      1.685446      2.934136
  H       5.990039      1.995857      4.099526
  H       5.922179      2.709514      2.457711
  H       5.377984     -1.432321      3.035281
  H       5.682332     -0.342055      4.418576
  H       7.000960     -0.703543      3.260189
  H       3.518153      0.367537     -0.227627
  H       6.841379     -2.119815      0.867510
  H       1.122086     -4.580097     -0.005612
  H       2.437617     -4.078874      1.070103
  H       1.860712     -5.752677      1.097820
  H       2.433968     -4.779429     -5.107834
  H       3.646348     -0.879033     -3.788880
  H       0.341626     -3.830604     -5.996392
  H       1.537753      0.073789     -4.662538
  H      -0.130112     -1.400587     -5.772348
  F      -0.108940     -2.046378      0.435835
  F      -2.202774     -1.414696      0.195950
  F       0.482819      0.170809     -1.429175
  F      -1.572778      0.815973     -0.977190
  F      -1.571014     -1.349057     -2.681165
  F       0.213390     -2.497001     -2.105378
  F      -0.892543      0.414792      1.801263
  F       1.186195      0.178430      1.120534
  F      -1.653134     -4.119202     -0.513682
  F      -3.213742     -3.130355     -1.709856
  F       0.745127      2.603072      1.987055
  F      -1.071050      2.845123      0.782713
  F      -2.552625     -5.445716     -2.790971
  F      -0.423391     -5.011683     -2.747869
  F      -1.751371     -3.835976     -4.021151
  O       2.283803      2.717131     -0.218666
  O       0.417872      3.260126     -1.381462
  C      -0.975016     -1.394665     -0.371539
  C      -0.521078      0.102242     -0.518879
  C      -1.042909     -2.162203     -1.738557
  C      -0.010508      0.734186      0.815367
  C      -1.907662     -3.467517     -1.671337
  C       0.170260      2.283116      0.785139
  C      -1.640836     -4.466149     -2.844667
  C       1.051612      2.817844     -0.401598
80
Coordinates from ORCA-job R4N+PFOA-_r2 E -2865.069244212827
  N       5.514808      0.630383      2.553039
  C       3.381900     -4.101723     -1.593528
  C       4.234774     -4.563297     -2.785573
  C       4.486844     -3.473039     -3.841313
  C       4.026897     -2.938215     -0.872061
  C       3.078557     -5.269400     -0.640772
  C       5.898816      0.430380      1.081150
  C       5.244187     -0.744828      0.420627
  C       3.194397     -2.894500     -4.382827
  C       3.407772     -1.687517     -0.839745
  C       5.271420     -3.074750     -0.245341
  C       5.361301     -4.024072     -4.974345
  C       4.038128      0.851257      2.694592
  C       6.242013      1.846456      3.048653
  C       5.924349     -0.553121      3.375411
  C       4.010209     -0.601260     -0.215657
  C       5.870833     -1.995661      0.393065
  C       2.070320     -4.899464      0.443102
  C       2.245942     -3.712761     -5.008815
  C       2.920483     -1.528394     -4.274684
  C       1.062617     -3.179118     -5.510928
  C       1.731928     -0.990818     -4.767684
  C       0.797764     -1.815280     -5.388838
  H       2.420924     -3.747969     -1.991636
  H       3.733966     -5.417292     -3.261850
  H       5.205006     -4.929954     -2.422822
  H       5.033527     -2.651533     -3.357750
  H       4.013523     -5.623017     -0.185238
  H       2.685076     -6.103248     -1.237244
  H       6.987803      0.329404      1.077912
  H       5.621722      1.363992      0.582720
  H       2.449963     -1.557041     -1.333464
  H       5.784783     -4.033034     -0.263556
  H       5.573140     -3.251334     -5.721205
  H       4.863422     -4.858745     -5.481349
  H       6.316069     -4.389587     -4.579357
  H       3.515181     -0.060312      2.404703
  H       3.746400      1.685454      2.053003
  H       3.828205      1.084037      3.740785
  H       7.315674      1.682706      2.936703
  H       5.990056      1.995353      4.100318
  H       5.925363      2.708746      2.458217
  H       5.375645     -1.432392      3.035188
  H       5.681269     -0.342854      4.418916
  H       6.999474     -0.705448      3.260460
  H       3.518805      0.368210     -0.228083
  H       6.841334     -2.119882      0.867809
  H       1.122051     -4.579240     -0.005686
  H       2.437594     -4.078662      1.070335
  H       1.860293     -5.752358      1.097433
  H       2.433875     -4.779576     -5.107314
  H       3.645851     -0.878522     -3.789853
  H       0.341433     -3.831456     -5.996077
  H       1.537192      0.073680     -4.664026
  H      -0.130597     -1.401207     -5.773057
  F      -0.108545     -2.046279      0.435438
  F      -2.202661     -1.415074      0.196075
  F       0.482484      0.170659     -1.429552
  F      -1.573109      0.815851     -0.977245
  F      -1.572524     -1.349642     -2.680832
  F       0.213090     -2.496305     -2.106394
  F      -0.892115      0.414842      1.801175
  F       1.186368      0.178240      1.119754
  F      -1.651833     -4.119734     -0.513269
  F      -3.213405     -3.131703     -1.708837
  F       0.746050      2.602784      1.986345
  F      -1.070755      2.845241      0.782924
  F      -2.551420     -5.447152     -2.789299
  F      -0.422470     -5.011392     -2.748455
  F      -1.752690     -3.837135     -4.020731
  O       2.283490      2.716757     -0.220225
  O       0.417085      3.259891     -1.382086
  C      -0.974962     -1.394800     -0.371691
  C      -0.521362      0.102162     -0.519122
  C      -1.043104     -2.162400     -1.738685
  C      -0.010476      0.734115      0.814996
  C      -1.907098     -3.468247     -1.670834
  C       0.170478      2.283057      0.784740
  C      -1.640494     -4.466855     -2.844189
  C       1.051273      2.817668     -0.402439
80
Coordinates from ORCA-job R4N+PFOA-_r2 E -2865.069244704630
  N       5.514898      0.630295      2.553218
  C       3.381767     -4.101314     -1.593349
  C       4.234552     -4.563007     -2.785395
  C       4.486534     -3.472782     -3.841256
  C       4.026919     -2.937859     -0.871897
  C       3.078381     -5.268945     -0.640544
  C       5.899334      0.430409      1.081481
  C       5.244468     -0.744578      0.420661
  C       3.194045     -2.894392     -4.382822
  C       3.408019     -1.687035     -0.839780
  C       5.271407     -3.074570     -0.245156
  C       5.361041     -4.023870     -4.974212
  C       4.038385      0.852422      2.694547
  C       6.242862      1.845723      3.049431
  C       5.923337     -0.553743      3.375405
  C       4.010546     -0.600842     -0.215731
  C       5.870969     -1.995490      0.393191
  C       2.070373     -4.898990      0.443513
  C       2.245482     -3.712823     -5.008405
  C       2.920217     -1.528225     -4.275192
  C       1.062078     -3.179348     -5.510526
  C       1.731643     -0.990807     -4.768325
  C       0.797306     -1.815455     -5.388976
  H       2.420845     -3.747438     -1.991487
  H       3.733694     -5.416970     -3.261675
  H       5.204825     -4.929616     -2.422716
  H       5.033151     -2.651194     -3.357755
  H       4.013419     -5.622623     -0.185223
  H       2.684663     -6.102736     -1.236931
  H       6.988278      0.328956      1.078391
  H       5.622828      1.364200      0.583012
  H       2.450305     -1.556616     -1.333698
  H       5.784638     -4.032924     -0.263263
  H       5.573007     -3.251190     -5.721100
  H       4.863228     -4.858572     -5.481232
  H       6.315773     -4.389328     -4.579081
  H       3.514619     -0.058396      2.403924
  H       3.747363      1.687160      2.053381
  H       3.828507      1.084594      3.740877
  H       7.316407      1.680703      2.938679
  H       5.990028      1.995084      4.100804
  H       5.927817      2.708262      2.458603
  H       5.373897     -1.432488      3.034970
  H       5.680500     -0.343470      4.418989
  H       6.998423     -0.706765      3.260422
  H       3.519399      0.368751     -0.228433
  H       6.841445     -2.119723      0.867989
  H       1.121972     -4.578902     -0.005087
  H       2.437705     -4.078125      1.070619
  H       1.860582     -5.751925      1.097883
  H       2.433333     -4.779684     -5.106564
  H       3.645617     -0.878154     -3.790674
  H       0.340800     -3.831868     -5.995270
  H       1.536948      0.073740     -4.665174
  H      -0.131045     -1.401424     -5.773277
  F      -0.108177     -2.046465      0.434834
  F      -2.202522     -1.415664      0.195982
  F       0.482176      0.170538     -1.429922
  F      -1.573364      0.815736     -0.977049
  F      -1.573654     -1.349840     -2.680753
  F       0.212969     -2.495483     -2.107579
  F      -0.891570      0.414291      1.801223
  F       1.186693      0.177830      1.119108
  F      -1.650678     -4.120293     -0.513673
  F      -3.213020     -3.132704     -1.708586
  F       0.746956      2.602270      1.985897
  F      -1.070516      2.844919      0.783547
  F      -2.550291     -5.448128     -2.788767
  F      -0.421586     -5.010902     -2.749697
  F      -1.753647     -3.837802     -4.021080
  O       2.283135      2.716361     -0.221453
  O       0.416202      3.259738     -1.382300
  C      -0.974881     -1.395081     -0.371991
  C      -0.521568      0.101975     -0.519296
  C      -1.043167     -2.162462     -1.739140
  C      -0.010297      0.733725      0.814815
  C      -1.906535     -3.468764     -1.671060
  C       0.170671      2.282693      0.784670
  C      -1.640105     -4.467191     -2.844556
  C       1.050815      2.817334     -0.402933
80
Coordinates from ORCA-job R4N+PFOA-_r2 E -2865.069245119128
  N       5.514943      0.630474      2.553123
  C       3.381592     -4.100990     -1.592997
  C       4.234190     -4.562942     -2.785078
  C       4.486227     -3.472843     -3.841109
  C       4.027015     -2.937546     -0.871749
  C       3.078221     -5.268468     -0.640038
  C       5.899696      0.430661      1.081484
  C       5.244769     -0.744205      0.420507
  C       3.193788     -2.894418     -4.382733
  C       3.408283     -1.686625     -0.839862
  C       5.271478     -3.074309     -0.245009
  C       5.360643     -4.024195     -4.973998
  C       4.038603      0.853547      2.694444
  C       6.243605      1.845277      3.049838
  C       5.922593     -0.553977      3.375118
  C       4.010871     -0.600427     -0.215912
  C       5.871168     -1.995182      0.393162
  C       2.070489     -4.898382      0.444212
  C       2.244983     -3.712869     -5.007886
  C       2.920268     -1.528145     -4.275591
  C       1.061598     -3.179343     -5.510004
  C       1.731747     -0.990679     -4.768772
  C       0.797114     -1.815370     -5.388929
  H       2.420730     -3.746889     -1.991066
  H       3.733187     -5.416845     -3.261303
  H       5.204460     -4.929602     -2.422467
  H       5.032945     -2.651246     -3.357745
  H       4.013347     -5.622173     -0.184943
  H       2.684264     -6.102276     -1.236228
  H       6.988595      0.328877      1.078674
  H       5.623666      1.364559      0.582955
  H       2.450634     -1.556181     -1.333880
  H       5.784592     -4.032729     -0.262933
  H       5.572901     -3.251623     -5.720911
  H       4.862692     -4.858808     -5.481027
  H       6.315260     -4.389823     -4.578757
  H       3.514195     -0.056665      2.403106
  H       3.748091      1.688834      2.053736
  H       3.828908      1.085122      3.740927
  H       7.317090      1.679050      2.940338
  H       5.989857      1.995168      4.100926
  H       5.930140      2.708048      2.458530
  H       5.372539     -1.432353      3.034746
  H       5.680091     -0.343639      4.418776
  H       6.997573     -0.707619      3.259968
  H       3.519933      0.369272     -0.228708
  H       6.841647     -2.119336      0.867994
  H       1.121834     -4.578736     -0.004165
  H       2.437822     -4.077175      1.070870
  H       1.861181     -5.751181      1.098932
  H       2.432546     -4.779813     -5.105676
  H       3.645816     -0.878007     -3.791390
  H       0.339983     -3.831892     -5.994188
  H       1.537214      0.073935     -4.666037
  H      -0.131236     -1.401281     -5.773169
  F      -0.107960     -2.047026      0.434030
  F      -2.202454     -1.416405      0.195741
  F       0.481927      0.170390     -1.430143
  F      -1.573518      0.815595     -0.976654
  F      -1.574660     -1.349692     -2.680900
  F       0.212808     -2.494570     -2.108945
  F      -0.891130      0.413075      1.801375
  F       1.186955      0.176969      1.118741
  F      -1.649764     -4.120882     -0.514738
  F      -3.212781     -3.133452     -1.708904
  F       0.747783      2.601190      1.986061
  F      -1.070426      2.844105      0.784871
  F      -2.549437     -5.448632     -2.789406
  F      -0.420939     -5.010272     -2.751448
  F      -1.754319     -3.837858     -4.022047
  O       2.282719      2.715832     -0.221953
  O       0.415320      3.259402     -1.381849
  C      -0.974890     -1.395515     -0.372420
  C      -0.521708      0.101630     -0.519357
  C      -1.043320     -2.162409     -1.739862
  C      -0.010097      0.732910      0.814889
  C      -1.906158     -3.469104     -1.671872
  C       0.170785      2.281887      0.785148
  C      -1.639827     -4.467182     -2.845651
  C       1.050285      2.816726     -0.402788
80
Coordinates from ORCA-job R4N+PFOA-_r2 E -2865.069245457122
  N       5.515030      0.630951      2.552739
  C       3.381408     -4.100821     -1.592532
  C       4.233804     -4.563081     -2.784653
  C       4.486070     -3.473174     -3.840838
  C       4.027125     -2.937342     -0.871603
  C       3.078097     -5.268097     -0.639370
  C       5.899938      0.431019      1.081150
  C       5.245030     -0.743819      0.420228
  C       3.193784     -2.894476     -4.382505
  C       3.408504     -1.686353     -0.839958
  C       5.271575     -3.074051     -0.244879
  C       5.360267     -4.024944     -4.973693
  C       4.038830      0.854758      2.694128
  C       6.244390      1.845202      3.049714
  C       5.922000     -0.553839      3.374648
  C       4.011149     -0.600079     -0.216180
  C       5.871346     -1.994851      0.393057
  C       2.070571     -4.897818      0.445002
  C       2.244608     -3.712757     -5.007280
  C       2.920783     -1.528067     -4.275733
  C       1.061350     -3.178932     -5.509375
  C       1.732399     -0.990311     -4.768879
  C       0.797364     -1.814856     -5.388631
  H       2.420586     -3.746461     -1.990448
  H       3.732605     -5.416919     -3.260779
  H       5.204015     -4.929899     -2.422054
  H       5.033057     -2.651668     -3.357636
  H       4.013285     -5.621796     -0.184415
  H       2.683999     -6.101983     -1.235344
  H       6.988791      0.328975      1.078704
  H       5.624313      1.364953      0.582517
  H       2.450854     -1.555820     -1.333945
  H       5.784603     -4.032517     -0.262605
  H       5.572883     -3.252504     -5.720633
  H       4.861986     -4.859371     -5.480702
  H       6.314730     -4.390937     -4.578423
  H       3.513958     -0.055051      2.402264
  H       3.748675      1.690485      2.053778
  H       3.829299      1.085960      3.740713
  H       7.317771      1.678004      2.941115
  H       5.990022      1.995612      4.100550
  H       5.932174      2.708110      2.458024
  H       5.371308     -1.431930      3.034467
  H       5.679742     -0.343339      4.418327
  H       6.996863     -0.708243      3.259378
  H       3.520350      0.369698     -0.229017
  H       6.841827     -2.118898      0.867905
  H       1.121679     -4.578692     -0.003237
  H       2.437866     -4.076173      1.071123
  H       1.861738     -5.750370      1.100204
  H       2.431705     -4.779806     -5.104745
  H       3.646607     -0.878045     -3.791796
  H       0.339232     -3.831342     -5.992979
  H       1.538185      0.074381     -4.666398
  H      -0.130965     -1.400581     -5.772693
  F      -0.107960     -2.047972      0.433161
  F      -2.202510     -1.417321      0.195516
  F       0.481506      0.170223     -1.430267
  F      -1.573803      0.815301     -0.975919
  F      -1.575606     -1.349368     -2.681120
  F       0.212461     -2.493812     -2.110302
  F      -0.890681      0.411335      1.801747
  F       1.187224      0.175734      1.118481
  F      -1.649215     -4.121584     -0.516241
  F      -3.212824     -3.134037     -1.709511
  F       0.748486      2.599672      1.986720
  F      -1.070411      2.842829      0.786689
  F      -2.549069     -5.448708     -2.791058
  F      -0.420728     -5.009594     -2.753595
  F      -1.754939     -3.837252     -4.023387
  O       2.282232      2.715319     -0.221982
  O       0.414219      3.259078     -1.380747
  C      -0.975067     -1.396141     -0.372851
  C      -0.521900      0.101087     -0.519236
  C      -1.043684     -2.162384     -1.740646
  C      -0.009882      0.731732      0.815185
  C      -1.906109     -3.469365     -1.673026
  C       0.170852      2.280721      0.786051
  C      -1.639841     -4.466900     -2.847269
  C       1.049656      2.816039     -0.402139
80
Coordinates from ORCA-job R4N+PFOA-_r2 E -2865.069245715099
  N       5.515067      0.631459      2.552275
  C       3.381266     -4.100803     -1.592171
  C       4.233501     -4.563367     -2.784305
  C       4.486097     -3.473694     -3.840620
  C       4.027178     -2.937234     -0.871573
  C       3.078039     -5.267870     -0.638770
  C       5.899922      0.431391      1.080658
  C       5.245131     -0.743504      0.419880
  C       3.194016     -2.894574     -4.382302
  C       3.408570     -1.686238     -0.840095
  C       5.271639     -3.073829     -0.244872
  C       5.359995     -4.025944     -4.973476
  C       4.038925      0.855475      2.693832
  C       6.244808      1.845414      3.049278
  C       5.921777     -0.553457      3.374155
  C       4.011253     -0.599847     -0.216508
  C       5.871418     -1.994560      0.392872
  C       2.070625     -4.897332      0.445620
  C       2.244439     -3.712572     -5.006818
  C       2.921601     -1.528032     -4.275732
  C       1.061364     -3.178316     -5.508872
  C       1.733387     -0.989850     -4.768785
  C       0.797947     -1.814128     -5.388278
  H       2.420431     -3.746303     -1.989914
  H       3.732108     -5.417167     -3.260287
  H       5.203612     -4.930394     -2.421648
  H       5.033443     -2.652338     -3.357578
  H       4.013251     -5.621525     -0.183836
  H       2.683899     -6.101880     -1.234541
  H       6.988758      0.329329      1.078459
  H       5.624423      1.365302      0.581973
  H       2.450866     -1.555658     -1.333960
  H       5.784636     -4.032315     -0.262450
  H       5.572903     -3.253648     -5.720475
  H       4.861292     -4.860171     -5.480399
  H       6.314319     -4.392357     -4.578265
  H       3.513929     -0.054167      2.401571
  H       3.748853      1.691580      2.053888
  H       3.829531      1.086332      3.740517
  H       7.318159      1.677669      2.941254
  H       5.990000      1.996248      4.099943
  H       5.933329      2.708335      2.457215
  H       5.370674     -1.431391      3.034232
  H       5.679739     -0.342783      4.417835
  H       6.996496     -0.708413      3.258710
  H       3.520513      0.369967     -0.229336
  H       6.841893     -2.118533      0.867752
  H       1.121605     -4.578566     -0.002610
  H       2.437911     -4.075327      1.071292
  H       1.862049     -5.749606      1.101266
  H       2.431038     -4.779724     -5.104063
  H       3.647762     -0.878256     -3.791975
  H       0.338735     -3.830484     -5.992029
  H       1.539579      0.074924     -4.666384
  H      -0.130351     -1.399601     -5.772120
  F      -0.108036     -2.048865      0.432457
  F      -2.202585     -1.418060      0.195410
  F       0.481133      0.170161     -1.430226
  F      -1.574064      0.815025     -0.975165
  F      -1.576424     -1.349005     -2.681276
  F       0.212038     -2.493247     -2.111384
  F      -0.890539      0.409864      1.802102
  F       1.187286      0.174555      1.118555
  F      -1.648924     -4.122136     -0.517497
  F      -3.213016     -3.134453     -1.709995
  F       0.748902      2.598240      1.987622
  F      -1.070432      2.841707      0.788359
  F      -2.549016     -5.448519     -2.792827
  F      -0.420771     -5.009041     -2.755315
  F      -1.755302     -3.836358     -4.024492
  O       2.281889      2.714968     -0.221541
  O       0.413407      3.258800     -1.379473
  C      -0.975276     -1.396667     -0.373164
  C      -0.522043      0.100608     -0.519007
  C      -1.044122     -2.162337     -1.741239
  C      -0.009781      0.730683      0.815579
  C      -1.906243     -3.469513     -1.673979
  C       0.170878      2.279675      0.787029
  C      -1.639964     -4.466528     -2.848675
  C       1.049227      2.815504     -0.401262
80
Coordinates from ORCA-job R4N+PFOA-_r2 E -2865.069245920990
  N       5.515081      0.631903      2.551813
  C       3.381152     -4.100910     -1.591915
  C       4.233271     -4.563709     -2.784044
  C       4.486241     -3.474242     -3.840429
  C       4.027154     -2.937227     -0.871586
  C       3.078031     -5.267814     -0.638290
  C       5.899810      0.431668      1.080142
  C       5.245118     -0.743322      0.419549
  C       3.194382     -2.894619     -4.382094
  C       3.408533     -1.686244     -0.840249
  C       5.271641     -3.073707     -0.244916
  C       5.359834     -4.026932     -4.973314
  C       4.038929      0.855915      2.693467
  C       6.244998      1.845768      3.048690
  C       5.921669     -0.553046      3.373737
  C       4.011254     -0.599736     -0.216854
  C       5.871402     -1.994381      0.392687
  C       2.070664     -4.897037      0.446071
  C       2.244412     -3.712270     -5.006470
  C       2.922557     -1.527958     -4.275594
  C       1.061536     -3.177529     -5.508463
  C       1.734524     -0.989287     -4.768540
  C       0.798698     -1.813227     -5.387891
  H       2.420252     -3.746384     -1.989476
  H       3.731695     -5.417471     -3.259900
  H       5.203262     -4.930977     -2.421293
  H       5.033963     -2.653076     -3.357495
  H       4.013246     -5.621406     -0.183314
  H       2.683909     -6.101948     -1.233906
  H       6.988651      0.329700      1.078056
  H       5.624267      1.365521      0.581416
  H       2.450769     -1.555648     -1.334004
  H       5.784632     -4.032198     -0.262408
  H       5.572942     -3.254766     -5.720384
  H       4.860714     -4.860982     -5.480119
  H       6.314052     -4.393734     -4.578203
  H       3.513973     -0.053667      2.400886
  H       3.748855      1.692347      2.053929
  H       3.829550      1.086451      3.740232
  H       7.318320      1.677831      2.940858
  H       5.990021      1.996882      4.099255
  H       5.933786      2.708611      2.456386
  H       5.370260     -1.430862      3.033974
  H       5.679747     -0.342217      4.417400
  H       6.996292     -0.708432      3.258181
  H       3.520512      0.370081     -0.229731
  H       6.841860     -2.118330      0.867588
  H       1.121623     -4.578421     -0.002225
  H       2.437989     -4.074834      1.071482
  H       1.862131     -5.749095      1.102012
  H       2.430542     -4.779511     -5.103602
  H       3.649069     -0.878497     -3.791940
  H       0.338468     -3.829408     -5.991350
  H       1.541173      0.075570     -4.666113
  H      -0.129547     -1.398402     -5.771530
  F      -0.108053     -2.049604      0.431943
  F      -2.202615     -1.418721      0.195460
  F       0.480689      0.170217     -1.430145
  F      -1.574431      0.814720     -0.974379
  F      -1.577104     -1.348745     -2.681292
  F       0.211621     -2.492919     -2.112180
  F      -0.890546      0.408819      1.802453
  F       1.187243      0.173617      1.118754
  F      -1.648758     -4.122603     -0.518394
  F      -3.213234     -3.134817     -1.710257
  F       0.749198      2.597081      1.988436
  F      -1.070421      2.840869      0.789715
  F      -2.549097     -5.448276     -2.794351
  F      -0.420904     -5.008656     -2.756592
  F      -1.755521     -3.835451     -4.025255
  O       2.281620      2.714761     -0.221128
  O       0.412693      3.258784     -1.378274
  C      -0.975445     -1.397111     -0.373330
  C      -0.522213      0.100213     -0.518716
  C      -1.044522     -2.162347     -1.741600
  C      -0.009774      0.729878      0.815965
  C      -1.906421     -3.469653     -1.674621
  C       0.170898      2.278880      0.787856
  C      -1.640103     -4.466209     -2.849723
  C       1.048902      2.815220     -0.400488
80
Coordinates from ORCA-job R4N+PFOA-_r2 E -2865.069246106580
  N       5.515046      0.632220      2.551379
  C       3.381043     -4.101110     -1.591741
  C       4.233070     -4.564096     -2.783855
  C       4.486428     -3.474794     -3.840267
  C       4.027044     -2.937289     -0.871628
  C       3.078056     -5.267882     -0.637891
  C       5.899594      0.431899      1.079631
  C       5.245003     -0.743225      0.419210
  C       3.194797     -2.894633     -4.381902
  C       3.408387     -1.686332     -0.840422
  C       5.271576     -3.073660     -0.244999
  C       5.359738     -4.027873     -4.973188
  C       4.038845      0.856015      2.693119
  C       6.244893      1.846181      3.048072
  C       5.921740     -0.552661      3.373340
  C       4.011143     -0.599717     -0.217222
  C       5.871317     -1.994268      0.392486
  C       2.070702     -4.896901      0.446416
  C       2.244457     -3.711907     -5.006228
  C       2.923549     -1.527862     -4.275399
  C       1.061782     -3.176669     -5.508155
  C       1.735701     -0.988685     -4.768254
  C       0.799512     -1.812249     -5.387540
  H       2.420030     -3.746690     -1.989132
  H       3.731307     -5.417800     -3.259625
  H       5.202932     -4.931625     -2.421004
  H       5.034512     -2.653837     -3.357385
  H       4.013281     -5.621365     -0.182845
  H       2.683985     -6.102149     -1.233362
  H       6.988466      0.330188      1.077461
  H       5.623777      1.365662      0.580895
  H       2.450582     -1.555783     -1.334115
  H       5.784577     -4.032148     -0.262433
  H       5.573000     -3.255820     -5.720334
  H       4.860241     -4.861772     -5.479874
  H       6.313866     -4.395017     -4.578172
  H       3.514048     -0.053532      2.400159
  H       3.748686      1.692811      2.054102
  H       3.829428      1.086076      3.739992
  H       7.318239      1.678308      2.940255
  H       5.989851      1.997443      4.098605
  H       5.933634      2.708902      2.455586
  H       5.370181     -1.430412      3.033693
  H       5.679982     -0.341722      4.417012
  H       6.996294     -0.708222      3.257602
  H       3.520364      0.370082     -0.230195
  H       6.841767     -2.118216      0.867397
  H       1.121701     -4.578303     -0.001980
  H       2.438082     -4.074614      1.071697
  H       1.862095     -5.748807      1.102528
  H       2.430161     -4.779227     -5.103328
  H       3.650400     -0.878741     -3.791795
  H       0.338363     -3.828243     -5.990931
  H       1.542835      0.076257     -4.665761
  H      -0.128649     -1.397092     -5.771024
  F      -0.107946     -2.050122      0.431557
  F      -2.202563     -1.419276      0.195598
  F       0.480276      0.170401     -1.430011
  F      -1.574809      0.814474     -0.973642
  F      -1.577689     -1.348545     -2.681204
  F       0.211274     -2.492690     -2.112815
  F      -0.890777      0.408229      1.802732
  F       1.187045      0.172914      1.119152
  F      -1.648587     -4.122945     -0.518950
  F      -3.213387     -3.135137     -1.710335
  F       0.749361      2.596213      1.989144
  F      -1.070387      2.840381      0.790718
  F      -2.549159     -5.448038     -2.795500
  F      -0.420986     -5.008395     -2.757446
  F      -1.755570     -3.834656     -4.025711
  O       2.281466      2.714604     -0.220694
  O       0.412229      3.258952     -1.377236
  C      -0.975514     -1.397428     -0.373404
  C      -0.522376      0.099954     -0.518407
  C      -1.044815     -2.162340     -1.741814
  C      -0.009884      0.729340      0.816340
  C      -1.906533     -3.469763     -1.674985
  C       0.170900      2.278355      0.788523
  C      -1.640161     -4.465951     -2.850410
  C       1.048729      2.815109     -0.399822
80
Coordinates from ORCA-job R4N+PFOA-_r2 E -2865.069246287628
  N       5.515001      0.632481      2.550912
  C       3.380918     -4.101402     -1.591557
  C       4.232865     -4.564507     -2.783665
  C       4.486610     -3.475285     -3.840041
  C       4.026861     -2.937441     -0.871603
  C       3.078105     -5.268094     -0.637510
  C       5.899386      0.432084      1.079099
  C       5.244851     -0.743204      0.418872
  C       3.195207     -2.894576     -4.381640
  C       3.408187     -1.686496     -0.840569
  C       5.271450     -3.073709     -0.245032
  C       5.359691     -4.028665     -4.972995
  C       4.038752      0.856119      2.692657
  C       6.244709      1.846618      3.047402
  C       5.921818     -0.552310      3.372929
  C       4.010989     -0.599785     -0.217594
  C       5.871202     -1.994224      0.392304
  C       2.070716     -4.897027      0.446734
  C       2.244523     -3.711452     -5.005989
  C       2.924530     -1.527699     -4.275105
  C       1.062049     -3.175720     -5.507859
  C       1.736878     -0.988016     -4.767912
  C       0.800337     -1.811181     -5.387180
  H       2.419756     -3.747184     -1.988787
  H       3.730905     -5.418100     -3.259436
  H       5.202599     -4.932314     -2.420738
  H       5.035017     -2.654557     -3.357131
  H       4.013363     -5.621406     -0.182394
  H       2.684128     -6.102496     -1.232864
  H       6.988300      0.330683      1.076709
  H       5.623171      1.365722      0.580321
  H       2.450372     -1.556026     -1.334271
  H       5.784460     -4.032193     -0.262403
  H       5.573123     -3.256693     -5.720179
  H       4.859879     -4.862413     -5.479620
  H       6.313722     -4.396123     -4.578032
  H       3.514067     -0.053325      2.399252
  H       3.748584      1.693308      2.054182
  H       3.829219      1.085616      3.739642
  H       7.318072      1.678920      2.939431
  H       5.989757      1.997916      4.097951
  H       5.933217      2.709219      2.454856
  H       5.370144     -1.430015      3.033369
  H       5.680263     -0.341267      4.416630
  H       6.996352     -0.707928      3.256989
  H       3.520162      0.369982     -0.230741
  H       6.841661     -2.118163      0.867190
  H       1.121769     -4.578416     -0.001767
  H       2.438100     -4.074728      1.072001
  H       1.862023     -5.748875      1.102891
  H       2.429830     -4.778842     -5.103119
  H       3.651692     -0.878916     -3.791512
  H       0.338367     -3.826985     -5.990663
  H       1.544509      0.077014     -4.665365
  H      -0.127697     -1.395645     -5.770574
  F      -0.107708     -2.050531      0.431211
  F      -2.202441     -1.419872      0.195785
  F       0.479824      0.170654     -1.429876
  F      -1.575248      0.814231     -0.972884
  F      -1.578167     -1.348374     -2.681057
  F       0.210999     -2.492558     -2.113386
  F      -0.891061      0.407840      1.803017
  F       1.186798      0.172354      1.119599
  F      -1.648462     -4.123237     -0.519383
  F      -3.213488     -3.135379     -1.710398
  F       0.749538      2.595488      1.989746
  F      -1.070338      2.840078      0.791594
  F      -2.549246     -5.447799     -2.796434
  F      -0.421064     -5.008231     -2.758138
  F      -1.755566     -3.833981     -4.026063
  O       2.281323      2.714362     -0.220374
  O       0.411830      3.259330     -1.376276
  C      -0.975493     -1.397720     -0.373428
  C      -0.522578      0.099753     -0.518086
  C      -1.044996     -2.162336     -1.741981
  C      -0.010058      0.728932      0.816714
  C      -1.906601     -3.469855     -1.675254
  C       0.170890      2.277966      0.789104
  C      -1.640203     -4.465732     -2.850949
  C       1.048573      2.815070     -0.399252
80
Coordinates from ORCA-job R4N+PFOA-_r2 E -2865.069246453744
  N       5.514947      0.632718      2.550398
  C       3.380778     -4.101775     -1.591324
  C       4.232668     -4.564923     -2.783443
  C       4.486759     -3.475683     -3.839725
  C       4.026626     -2.937680     -0.871490
  C       3.078176     -5.268443     -0.637134
  C       5.899163      0.432274      1.078535
  C       5.244671     -0.743218      0.418532
  C       3.195568     -2.894482     -4.381304
  C       3.407935     -1.686741     -0.840654
  C       5.271276     -3.073829     -0.244984
  C       5.359692     -4.029248     -4.972701
  C       4.038679      0.856218      2.692168
  C       6.244462      1.847078      3.046682
  C       5.922006     -0.551933      3.372465
  C       4.010781     -0.599935     -0.217931
  C       5.871070     -1.994214      0.392144
  C       2.070668     -4.897441      0.447013
  C       2.244594     -3.710979     -5.005729
  C       2.925411     -1.527506     -4.274743
  C       1.062315     -3.174797     -5.507585
  C       1.737960     -0.987367     -4.767565
  C       0.801110     -1.810152     -5.386859
  H       2.419457     -3.747835     -1.988433
  H       3.730527     -5.418356     -3.259315
  H       5.202296     -4.932988     -2.420486
  H       5.035413     -2.655178     -3.356713
  H       4.013492     -5.621497     -0.181935
  H       2.684369     -6.102990     -1.232401
  H       6.988122      0.331226      1.075815
  H       5.622440      1.365746      0.579683
  H       2.450136     -1.556383     -1.334417
  H       5.784306     -4.032305     -0.262260
  H       5.573357     -3.257305     -5.719849
  H       4.859644     -4.862828     -5.479373
  H       6.313603     -4.397004     -4.577726
  H       3.514056     -0.053085      2.398309
  H       3.748524      1.693765      2.054185
  H       3.829036      1.085123      3.739268
  H       7.317861      1.679616      2.938476
  H       5.989697      1.998328      4.097300
  H       5.932627      2.709591      2.454159
  H       5.370303     -1.429671      3.033079
  H       5.680768     -0.340775      4.416221
  H       6.996542     -0.707430      3.256236
  H       3.519906      0.369800     -0.231282
  H       6.841570     -2.118094      0.866968
  H       1.121747     -4.578908     -0.001594
  H       2.437916     -4.075124      1.072323
  H       1.861974     -5.749308      1.103142
  H       2.429549     -4.778429     -5.102919
  H       3.652817     -0.879014     -3.791127
  H       0.338466     -3.825783     -5.990520
  H       1.546038      0.077744     -4.665006
  H      -0.126752     -1.394219     -5.770250
  F      -0.107413     -2.050859      0.430867
  F      -2.202281     -1.420423      0.195940
  F       0.479473      0.170909     -1.429710
  F      -1.575604      0.814063     -0.972201
  F      -1.578501     -1.348137     -2.680940
  F       0.210801     -2.492467     -2.113931
  F      -0.891354      0.407506      1.803294
  F       1.186546      0.171876      1.120077
  F      -1.648455     -4.123410     -0.519798
  F      -3.213578     -3.135412     -1.710568
  F       0.749646      2.594875      1.990321
  F      -1.070312      2.839867      0.792357
  F      -2.549445     -5.447488     -2.797202
  F      -0.421216     -5.008125     -2.758716
  F      -1.755559     -3.833435     -4.026419
  O       2.281227      2.713990     -0.220001
  O       0.411618      3.259752     -1.375384
  C      -0.975400     -1.397963     -0.373453
  C      -0.522757      0.099615     -0.517782
  C      -1.045080     -2.162268     -1.742179
  C      -0.010251      0.728594      0.817103
  C      -1.906673     -3.469844     -1.675538
  C       0.170854      2.277645      0.789668
  C      -1.640305     -4.465493     -2.851433
  C       1.048468      2.814992     -0.398670
80
Coordinates from ORCA-job R4N+PFOA-_r2 E -2865.069246599176
  N       5.514923      0.633016      2.549827
  C       3.380632     -4.102206     -1.591019
  C       4.232503     -4.565289     -2.783174
  C       4.486863     -3.475924     -3.839296
  C       4.026375     -2.938014     -0.871254
  C       3.078256     -5.268927     -0.636793
  C       5.899000      0.432428      1.077957
  C       5.244511     -0.743278      0.418242
  C       3.195851     -2.894336     -4.380880
  C       3.407689     -1.687065     -0.840644
  C       5.271066     -3.074034     -0.244790
  C       5.359746     -4.029531     -4.972285
  C       4.038684      0.856563      2.691609
  C       6.244366      1.847548      3.045880
  C       5.922158     -0.551485      3.372010
  C       4.010577     -0.600161     -0.218185
  C       5.870926     -1.994270      0.392077
  C       2.070518     -4.898172      0.447216
  C       2.244663     -3.710507     -5.005407
  C       2.926132     -1.527272     -4.274322
  C       1.062570     -3.173952     -5.507315
  C       1.738882     -0.986760     -4.767228
  C       0.801791     -1.809222     -5.386581
  H       2.419170     -3.748544     -1.988049
  H       3.730233     -5.418534     -3.259246
  H       5.202059     -4.933558     -2.420236
  H       5.035670     -2.655619     -3.356119
  H       4.013635     -5.621673     -0.181492
  H       2.684714     -6.103609     -1.232044
  H       6.987987      0.331621      1.074945
  H       5.621856      1.365713      0.578946
  H       2.449920     -1.556801     -1.334492
  H       5.784115     -4.032502     -0.261921
  H       5.573708     -3.257540     -5.719299
  H       4.859547     -4.862909     -5.479138
  H       6.313519     -4.397577     -4.577247
  H       3.513993     -0.052573      2.397406
  H       3.748654      1.694346      2.053891
  H       3.828936      1.085060      3.738776
  H       7.317772      1.680253      2.937377
  H       5.989895      1.998746      4.096584
  H       5.932205      2.710006      2.453447
  H       5.370414     -1.429309      3.032903
  H       5.681238     -0.340143      4.415811
  H       6.996713     -0.706875      3.255529
  H       3.519681      0.369555     -0.231766
  H       6.841479     -2.118044      0.866825
  H       1.121582     -4.579853     -0.001505
  H       2.437462     -4.075796      1.072610
  H       1.861942     -5.750126      1.103268
  H       2.429315     -4.778009     -5.102650
  H       3.653700     -0.878997     -3.790662
  H       0.338633     -3.824709     -5.990424
  H       1.547311      0.078416     -4.664712
  H      -0.125873     -1.392912     -5.770048
  F      -0.107115     -2.051202      0.430501
  F      -2.202113     -1.420955      0.196059
  F       0.479230      0.171075     -1.429541
  F      -1.575850      0.813923     -0.971606
  F      -1.578685     -1.347831     -2.680894
  F       0.210642     -2.492428     -2.114450
  F      -0.891466      0.407011      1.803614
  F       1.186422      0.171431      1.120415
  F      -1.648626     -4.123501     -0.520298
  F      -3.213713     -3.135215     -1.710893
  F       0.749781      2.594278      1.990886
  F      -1.070336      2.839573      0.793192
  F      -2.549835     -5.447103     -2.797903
  F      -0.421532     -5.008061     -2.759294
  F      -1.755656     -3.833003     -4.026870
  O       2.281085      2.713482     -0.219663
  O       0.411412      3.260151     -1.374508
  C      -0.975280     -1.398214     -0.373496
  C      -0.522899      0.099471     -0.517509
  C      -1.045126     -2.162170     -1.742434
  C      -0.010370      0.728220      0.817490
  C      -1.906817     -3.469737     -1.675924
  C       0.170805      2.277285      0.790270
  C      -1.640555     -4.465225     -2.851965
  C       1.048303      2.814823     -0.398065
80
Coordinates from ORCA-job R4N+PFOA-_r2 E -2865.069246722041
  N       5.514941      0.633394      2.549226
  C       3.380481     -4.102678     -1.590665
  C       4.232380     -4.565611     -2.782872
  C       4.486935     -3.476057     -3.838790
  C       4.026117     -2.938418     -0.870940
  C       3.078321     -5.269502     -0.636494
  C       5.898828      0.432565      1.077365
  C       5.244331     -0.743366      0.418004
  C       3.196075     -2.894184     -4.380413
  C       3.407419     -1.687466     -0.840544
  C       5.270832     -3.074286     -0.244494
  C       5.359842     -4.029594     -4.971792
  C       4.038761      0.857000      2.691115
  C       6.244390      1.848069      3.044973
  C       5.922411     -0.550904      3.371578
  C       4.010334     -0.600443     -0.218343
  C       5.870746     -1.994366      0.392084
  C       2.070242     -4.899101      0.447314
  C       2.244747     -3.710086     -5.005061
  C       2.926705     -1.527046     -4.273882
  C       1.062845     -3.173223     -5.507105
  C       1.739660     -0.986234     -4.766935
  C       0.802411     -1.808435     -5.386404
  H       2.418912     -3.749258     -1.987659
  H       3.730046     -5.418679     -3.259189
  H       5.201895     -4.934018     -2.419976
  H       5.035818     -2.655920     -3.355420
  H       4.013748     -5.621916     -0.181040
  H       2.685141     -6.104316     -1.231792
  H       6.987825      0.331899      1.074119
  H       5.621371      1.365654      0.578146
  H       2.449677     -1.557290     -1.334459
  H       5.783915     -4.032738     -0.261449
  H       5.574129     -3.257489     -5.718592
  H       4.859545     -4.862743     -5.478926
  H       6.313470     -4.397928     -4.576678
  H       3.513980     -0.052040      2.396773
  H       3.748823      1.694837      2.053426
  H       3.828995      1.085348      3.738304
  H       7.317798      1.680897      2.936156
  H       5.990250      1.999279      4.095766
  H       5.931921      2.710473      2.452605
  H       5.370659     -1.428889      3.032884
  H       5.681800     -0.339321      4.415405
  H       6.996970     -0.706184      3.254857
  H       3.519438      0.369269     -0.232140
  H       6.841358     -2.117989      0.866760
  H       1.121260     -4.581145     -0.001560
  H       2.436733     -4.076583      1.072770
  H       1.861883     -5.751144      1.103312
  H       2.429132     -4.777631     -5.102330
  H       3.654362     -0.878929     -3.790148
  H       0.338863     -3.823795     -5.990391
  H       1.548336      0.078990     -4.664492
  H      -0.125041     -1.391797     -5.770022
  F      -0.106894     -2.051580      0.430124
  F      -2.201968     -1.421378      0.196119
  F       0.479184      0.171129     -1.429321
  F      -1.575903      0.813836     -0.971161
  F      -1.578757     -1.347437     -2.680941
  F       0.210493     -2.492385     -2.114944
  F      -0.891444      0.406334      1.803950
  F       1.186416      0.170983      1.120668
  F      -1.648939     -4.123499     -0.520882
  F      -3.213912     -3.134821     -1.711338
  F       0.749802      2.593698      1.991525
  F      -1.070435      2.839147      0.794033
  F      -2.550381     -5.446637     -2.798591
  F      -0.421992     -5.007977     -2.759885
  F      -1.755860     -3.832611     -4.027412
  O       2.280943      2.712947     -0.219179
  O       0.411280      3.260392     -1.373624
  C      -0.975173     -1.398442     -0.373570
  C      -0.522943      0.099320     -0.517266
  C      -1.045188     -2.162024     -1.742736
  C      -0.010402      0.727795      0.817884
  C      -1.907045     -3.469525     -1.676409
  C       0.170728      2.276868      0.790943
  C      -1.640938     -4.464901     -2.852561
  C       1.048136      2.814568     -0.397349
80
Coordinates from ORCA-job R4N+PFOA-_r2 E -2865.069246833734
  N       5.515006      0.633839      2.548651
  C       3.380319     -4.103156     -1.590316
  C       4.232283     -4.565856     -2.782591
  C       4.486969     -3.476078     -3.838267
  C       4.025861     -2.938869     -0.870583
  C       3.078342     -5.270131     -0.636292
  C       5.898706      0.432601      1.076824
  C       5.244147     -0.743520      0.417863
  C       3.196231     -2.894003     -4.379951
  C       3.407165     -1.687909     -0.840387
  C       5.270562     -3.074608     -0.244095
  C       5.359951     -4.029449     -4.971293
  C       4.038892      0.857612      2.690649
  C       6.244605      1.848594      3.044007
  C       5.922590     -0.550244      3.371279
  C       4.010100     -0.600765     -0.218416
  C       5.870514     -1.994556      0.392217
  C       2.069873     -4.900128      0.447292
  C       2.244825     -3.709699     -5.004723
  C       2.927129     -1.526804     -4.273469
  C       1.063119     -3.172588     -5.506976
  C       1.740286     -0.985756     -4.766712
  C       0.802956     -1.807760     -5.386340
  H       2.418681     -3.749894     -1.987285
  H       3.729953     -5.418783     -3.259157
  H       5.201780     -4.934344     -2.419738
  H       5.035866     -2.656076     -3.354691
  H       4.013787     -5.622259     -0.180656
  H       2.685564     -6.105047     -1.231708
  H       6.987692      0.331891      1.073490
  H       5.621173      1.365519      0.577337
  H       2.449446     -1.557787     -1.334356
  H       5.783668     -4.033051     -0.260858
  H       5.574520     -3.257176     -5.717836
  H       4.859603     -4.862368     -5.478752
  H       6.313456     -4.398040     -4.576124
  H       3.513978     -0.051396      2.396386
  H       3.749092      1.695346      2.052741
  H       3.829153      1.086122      3.737799
  H       7.317986      1.681434      2.934905
  H       5.990780      1.999946      4.094854
  H       5.931935      2.710917      2.451624
  H       5.370797     -1.428385      3.033016
  H       5.682146     -0.338356      4.415079
  H       6.997139     -0.705544      3.254456
  H       3.519233      0.368961     -0.232441
  H       6.841158     -2.118042      0.866872
  H       1.120833     -4.582601     -0.001766
  H       2.435857     -4.077422      1.072793
  H       1.861763     -5.752248      1.103266
  H       2.428978     -4.777285     -5.101977
  H       3.654825     -0.878805     -3.789641
  H       0.339105     -3.823012     -5.990408
  H       1.549124      0.079501     -4.664352
  H      -0.124294     -1.390868     -5.770155
  F      -0.106697     -2.051979      0.429769
  F      -2.201810     -1.421728      0.196175
  F       0.479283      0.171090     -1.429084
  F      -1.575818      0.813743     -0.970841
  F      -1.578764     -1.347062     -2.681028
  F       0.210367     -2.492343     -2.115380
  F      -0.891249      0.405540      1.804298
  F       1.186556      0.170600      1.120785
  F      -1.649246     -4.123480     -0.521452
  F      -3.214106     -3.134409     -1.711763
  F       0.749818      2.593151      1.992159
  F      -1.070597      2.838606      0.794927
  F      -2.550920     -5.446216     -2.799203
  F      -0.422457     -5.007889     -2.760445
  F      -1.756119     -3.832294     -4.027943
  O       2.280724      2.712463     -0.218750
  O       0.411034      3.260558     -1.372765
  C      -0.975067     -1.398664     -0.373648
  C      -0.522892      0.099143     -0.517052
  C      -1.045256     -2.161901     -1.743018
  C      -0.010328      0.727351      0.818245
  C      -1.907276     -3.469311     -1.676891
  C       0.170635      2.276434      0.791624
  C      -1.641335     -4.464607     -2.853135
  C       1.047891      2.814322     -0.396645
80
Coordinates from ORCA-job R4N+PFOA-_r2 E -2865.069246935846
  N       5.515104      0.634316      2.548103
  C       3.380118     -4.103666     -1.589986
  C       4.232164     -4.566087     -2.782340
  C       4.486962     -3.476075     -3.837743
  C       4.025570     -2.939366     -0.870217
  C       3.078301     -5.270806     -0.636148
  C       5.898563      0.432551      1.076306
  C       5.243900     -0.743740      0.417780
  C       3.196346     -2.893814     -4.379510
  C       3.406871     -1.688404     -0.840208
  C       5.270240     -3.074987     -0.243656
  C       5.360040     -4.029228     -4.970810
  C       4.039039      0.858207      2.690265
  C       6.244878      1.849168      3.042954
  C       5.922810     -0.549499      3.371074
  C       4.009810     -0.601128     -0.218448
  C       5.870203     -1.994818      0.392420
  C       2.069422     -4.901179      0.447193
  C       2.244890     -3.709323     -5.004429
  C       2.927483     -1.526561     -4.273076
  C       1.063409     -3.171965     -5.506959
  C       1.740860     -0.985278     -4.766553
  C       0.803503     -1.807099     -5.386402
  H       2.418432     -3.750496     -1.986917
  H       3.729873     -5.418905     -3.259135
  H       5.201645     -4.934638     -2.419513
  H       5.035852     -2.656199     -3.353955
  H       4.013735     -5.622687     -0.180299
  H       2.685942     -6.105810     -1.231713
  H       6.987528      0.331707      1.072943
  H       5.621095      1.365317      0.576527
  H       2.449172     -1.558344     -1.334225
  H       5.783367     -4.033423     -0.260235
  H       5.574823     -3.256754     -5.717082
  H       4.859657     -4.861925     -5.478598
  H       6.313450     -4.398050     -4.575627
  H       3.514043     -0.050866      2.396280
  H       3.749305      1.695710      2.052007
  H       3.829414      1.087107      3.737345
  H       7.318234      1.681981      2.933615
  H       5.991315      2.000798      4.093824
  H       5.932057      2.711348      2.450426
  H       5.370994     -1.427798      3.033241
  H       5.682439     -0.337273      4.414816
  H       6.997334     -0.704856      3.254216
  H       3.518986      0.368620     -0.232722
  H       6.840857     -2.118185      0.867083
  H       1.120320     -4.584130     -0.002087
  H       2.434884     -4.078231      1.072684
  H       1.861570     -5.753329      1.103208
  H       2.428815     -4.776947     -5.101641
  H       3.655205     -0.878689     -3.789119
  H       0.339349     -3.822234     -5.990523
  H       1.549841      0.080007     -4.664259
  H      -0.123544     -1.390001     -5.770470
  F      -0.106490     -2.052368      0.429450
  F      -2.201610     -1.422003      0.196230
  F       0.479543      0.171018     -1.428783
  F      -1.575596      0.813657     -0.970620
  F      -1.578732     -1.346711     -2.681115
  F       0.210296     -2.492247     -2.115782
  F      -0.891020      0.404729      1.804640
  F       1.186764      0.170290      1.120922
  F      -1.649426     -4.123461     -0.521973
  F      -3.214219     -3.134067     -1.712121
  F       0.749710      2.592679      1.992831
  F      -1.070833      2.838009      0.795780
  F      -2.551288     -5.445858     -2.799759
  F      -0.422779     -5.007749     -2.760976
  F      -1.756320     -3.831988     -4.028425
  O       2.280461      2.712098     -0.218271
  O       0.410723      3.260684     -1.371900
  C      -0.974935     -1.398855     -0.373721
  C      -0.522731      0.098967     -0.516839
  C      -1.045293     -2.161787     -1.743261
  C      -0.010203      0.726926      0.818608
  C      -1.907421     -3.469118     -1.677329
  C       0.170499      2.276029      0.792313
  C      -1.641610     -4.464335     -2.853664
  C       1.047609      2.814147     -0.395913
80
Coordinates from ORCA-job R4N+PFOA-_r2 E -2865.069247037271
  N       5.515233      0.634794      2.547599
  C       3.379862     -4.104191     -1.589691
  C       4.231978     -4.566302     -2.782138
  C       4.486890     -3.476054     -3.837243
  C       4.025234     -2.939895     -0.869848
  C       3.078188     -5.271508     -0.636057
  C       5.898453      0.432379      1.075835
  C       5.243606     -0.744047      0.417764
  C       3.196398     -2.893596     -4.379100
  C       3.406557     -1.688923     -0.840036
  C       5.269851     -3.075446     -0.243171
  C       5.360072     -4.028954     -4.970367
  C       4.039194      0.858852      2.689896
  C       6.245224      1.849750      3.041855
  C       5.922957     -0.548736      3.370995
  C       4.009502     -0.601523     -0.218469
  C       5.869814     -1.995182      0.392712
  C       2.068937     -4.902220      0.447065
  C       2.244908     -3.708920     -5.004196
  C       2.927769     -1.526290     -4.272705
  C       1.063677     -3.171305     -5.507044
  C       1.741381     -0.984758     -4.766444
  C       0.804028     -1.806393     -5.386563
  H       2.418133     -3.751050     -1.986537
  H       3.729733     -5.419030     -3.259139
  H       5.201436     -4.934934     -2.419321
  H       5.035766     -2.656306     -3.353227
  H       4.013596     -5.623195     -0.180003
  H       2.686218     -6.106578     -1.231789
  H       6.987394      0.331299      1.072499
  H       5.621205      1.365023      0.575732
  H       2.448888     -1.558926     -1.334120
  H       5.782971     -4.033891     -0.259571
  H       5.574974     -3.256265     -5.716384
  H       4.859675     -4.861461     -5.478454
  H       6.313423     -4.397957     -4.575208
  H       3.514120     -0.050336      2.396350
  H       3.749524      1.696053      2.051197
  H       3.829733      1.088328      3.736879
  H       7.318543      1.682466      2.932348
  H       5.991858      2.001796      4.092706
  H       5.932342      2.711727      2.449057
  H       5.371098     -1.427147      3.033504
  H       5.682533     -0.336147      4.414645
  H       6.997456     -0.704225      3.254209
  H       3.518734      0.368254     -0.233047
  H       6.840449     -2.118480      0.867432
  H       1.119774     -4.585650     -0.002442
  H       2.433922     -4.079013      1.072508
  H       1.861337     -5.754369      1.103166
  H       2.428609     -4.776585     -5.101357
  H       3.655521     -0.878571     -3.788586
  H       0.339553     -3.821400     -5.990741
  H       1.550520      0.080560     -4.664191
  H      -0.122821     -1.389130     -5.770924
  F      -0.106208     -2.052715      0.429184
  F      -2.201343     -1.422274      0.196294
  F       0.479884      0.170963     -1.428448
  F      -1.575322      0.813539     -0.970453
  F      -1.578672     -1.346456     -2.681165
  F       0.210330     -2.492105     -2.116143
  F      -0.890796      0.403987      1.804963
  F       1.186999      0.170095      1.121093
  F      -1.649360     -4.123512     -0.522405
  F      -3.214169     -3.133924     -1.712375
  F       0.749562      2.592284      1.993478
  F      -1.071129      2.837423      0.796619
  F      -2.551332     -5.445643     -2.800259
  F      -0.422813     -5.007578     -2.761486
  F      -1.756364     -3.831708     -4.028820
  O       2.280115      2.711843     -0.217867
  O       0.410265      3.260892     -1.371048
  C      -0.974745     -1.399032     -0.373778
  C      -0.522500      0.098790     -0.516626
  C      -1.045243     -2.161721     -1.743446
  C      -0.010067      0.726558      0.818955
  C      -1.907382     -3.469023     -1.677681
  C       0.170316      2.275695      0.792960
  C      -1.641633     -4.464138     -2.854120
  C       1.047253      2.814099     -0.395241
80
Coordinates from ORCA-job R4N+PFOA-_r2 E -2865.069247128307
  N       5.515365      0.635178      2.547192
  C       3.379568     -4.104676     -1.589460
  C       4.231711     -4.566513     -2.782004
  C       4.486746     -3.476061     -3.836829
  C       4.024880     -2.940384     -0.869533
  C       3.078020     -5.272139     -0.635986
  C       5.898362      0.432135      1.075450
  C       5.243285     -0.744383      0.417781
  C       3.196378     -2.893392     -4.378773
  C       3.406244     -1.689394     -0.839910
  C       5.269442     -3.075910     -0.242741
  C       5.360023     -4.028725     -4.970012
  C       4.039324      0.859366      2.689603
  C       6.245519      1.850266      3.040858
  C       5.923083     -0.548074      3.370992
  C       4.009192     -0.601894     -0.218504
  C       5.869402     -1.995570      0.393004
  C       2.068515     -4.903095      0.446992
  C       2.244866     -3.708536     -5.004073
  C       2.927965     -1.526042     -4.272385
  C       1.063880     -3.170668     -5.507224
  C       1.741799     -0.984258     -4.766380
  C       0.804468     -1.805706     -5.386787
  H       2.417788     -3.751527     -1.986176
  H       3.729482     -5.419161     -3.259167
  H       5.201131     -4.935257     -2.419184
  H       5.035615     -2.656436     -3.352594
  H       4.013409     -5.623694     -0.179789
  H       2.686332     -6.107253     -1.231847
  H       6.987282      0.330825      1.072114
  H       5.621364      1.364689      0.575056
  H       2.448614     -1.559480     -1.334084
  H       5.782532     -4.034374     -0.258996
  H       5.574951     -3.255852     -5.715835
  H       4.859632     -4.861103     -5.478317
  H       6.313349     -4.397839     -4.574893
  H       3.514204     -0.049972      2.396594
  H       3.749645      1.696251      2.050498
  H       3.830083      1.089465      3.736494
  H       7.318814      1.682856      2.931296
  H       5.992249      2.002780      4.091664
  H       5.932651      2.712012      2.447709
  H       5.371211     -1.426553      3.033722
  H       5.682567     -0.335164      4.414553
  H       6.997565     -0.703657      3.254301
  H       3.518479      0.367909     -0.233396
  H       6.840004     -2.118848      0.867790
  H       1.119288     -4.586939     -0.002691
  H       2.433146     -4.079650      1.072343
  H       1.861143     -5.755216      1.103208
  H       2.428375     -4.776235     -5.101203
  H       3.655754     -0.878496     -3.788086
  H       0.339689     -3.820575     -5.991069
  H       1.551120      0.081093     -4.664120
  H      -0.122202     -1.388316     -5.771446
  F      -0.105891     -2.052953      0.429015
  F      -2.201050     -1.422508      0.196323
  F       0.480257      0.170976     -1.428106
  F      -1.575044      0.813434     -0.970342
  F      -1.578562     -1.346311     -2.681169
  F       0.210510     -2.491908     -2.116420
  F      -0.890701      0.403460      1.805215
  F       1.187166      0.170037      1.121367
  F      -1.649038     -4.123612     -0.522709
  F      -3.213915     -3.133995     -1.712545
  F       0.749294      2.592051      1.994039
  F      -1.071463      2.836965      0.797255
  F      -2.550965     -5.445579     -2.800681
  F      -0.422477     -5.007379     -2.761910
  F      -1.756140     -3.831456     -4.029093
  O       2.279759      2.711725     -0.217505
  O       0.409794      3.261198     -1.370306
  C      -0.974509     -1.399158     -0.373816
  C      -0.522243      0.098660     -0.516431
  C      -1.045061     -2.161686     -1.743560
  C      -0.009987      0.726317      0.819270
  C      -1.907116     -3.469026     -1.677920
  C       0.170079      2.275500      0.793480
  C      -1.641324     -4.464021     -2.854459
  C       1.046898      2.814191     -0.394683
80
Coordinates from ORCA-job R4N+PFOA-_r2 E -2865.069247200611
  N       5.515466      0.635398      2.546935
  C       3.379297     -4.105022     -1.589325
  C       4.231417     -4.566666     -2.781955
  C       4.486558     -3.476067     -3.836572
  C       4.024580     -2.940741     -0.869315
  C       3.077857     -5.272592     -0.635949
  C       5.898346      0.431869      1.075215
  C       5.243032     -0.744682      0.417824
  C       3.196285     -2.893228     -4.378578
  C       3.406020     -1.689715     -0.839862
  C       5.269087     -3.076303     -0.242411
  C       5.359911     -4.028560     -4.969794
  C       4.039416      0.859747      2.689373
  C       6.245740      1.850590      3.040164
  C       5.923091     -0.547659      3.371053
  C       4.008982     -0.602167     -0.218560
  C       5.869058     -1.995920      0.393263
  C       2.068273     -4.903700      0.447010
  C       2.244768     -3.708234     -5.004065
  C       2.928024     -1.525848     -4.272171
  C       1.063958     -3.170181     -5.507422
  C       1.742015     -0.983874     -4.766351
  C       0.804708     -1.805174     -5.386983
  H       2.417458     -3.751857     -1.985887
  H       3.729167     -5.419241     -3.259233
  H       5.200796     -4.935535     -2.419137
  H       5.035421     -2.656540     -3.352160
  H       4.013255     -5.624090     -0.179726
  H       2.686282     -6.107712     -1.231881
  H       6.987255      0.330361      1.071866
  H       5.621580      1.364377      0.574600
  H       2.448437     -1.559865     -1.334141
  H       5.782116     -4.034802     -0.258558
  H       5.574799     -3.255573     -5.715515
  H       4.859551     -4.860890     -5.478211
  H       6.313238     -4.397698     -4.574698
  H       3.514223     -0.049707      2.396886
  H       3.749717      1.696378      2.049953
  H       3.830377      1.090391      3.736191
  H       7.319010      1.683026      2.930653
  H       5.992484      2.003506      4.090913
  H       5.932970      2.712148      2.446700
  H       5.371213     -1.426154      3.033853
  H       5.682477     -0.334514      4.414545
  H       6.997579     -0.703307      3.254473
  H       3.518318      0.367657     -0.233727
  H       6.839621     -2.119232      0.868123
  H       1.118986     -4.587788     -0.002729
  H       2.432739     -4.080115      1.072288
  H       1.861072     -5.755812      1.103301
  H       2.428167     -4.775954     -5.101202
  H       3.655843     -0.878445     -3.787721
  H       0.339727     -3.819937     -5.991412
  H       1.551499      0.081506     -4.664050
  H      -0.121842     -1.387711     -5.771866
  F      -0.105601     -2.053031      0.428963
  F      -2.200804     -1.422690      0.196301
  F       0.480528      0.171073     -1.427854
  F      -1.574869      0.813357     -0.970282
  F      -1.578423     -1.346293     -2.681140
  F       0.210798     -2.491706     -2.116566
  F      -0.890738      0.403232      1.805354
  F       1.187220      0.170115      1.121653
  F      -1.648565     -4.123738     -0.522849
  F      -3.213525     -3.134242     -1.712653
  F       0.749032      2.591992      1.994392
  F      -1.071766      2.836734      0.797633
  F      -2.550297     -5.445667     -2.800970
  F      -0.421865     -5.007217     -2.762160
  F      -1.755675     -3.831301     -4.029218
  O       2.279443      2.711697     -0.217298
  O       0.409393      3.261604     -1.369796
  C      -0.974277     -1.399220     -0.373834
  C      -0.522053      0.098608     -0.516301
  C      -1.044784     -2.161682     -1.743607
  C      -0.009995      0.726241      0.819485
  C      -1.906696     -3.469119     -1.678029
  C       0.169840      2.275467      0.793779
  C      -1.640764     -4.464005     -2.854637
  C       1.046591      2.814381     -0.394356
80
Coordinates from ORCA-job R4N+PFOA-_r2 E -2865.069247254385
  N       5.515528      0.635485      2.546780
  C       3.379084     -4.105219     -1.589254
  C       4.231149     -4.566777     -2.781944
  C       4.486387     -3.476098     -3.836448
  C       4.024366     -2.940945     -0.869198
  C       3.077735     -5.272845     -0.635904
  C       5.898370      0.431674      1.075081
  C       5.242878     -0.744881      0.417845
  C       3.196182     -2.893136     -4.378495
  C       3.405890     -1.689875     -0.839879
  C       5.268832     -3.076561     -0.242224
  C       5.359787     -4.028520     -4.969672
  C       4.039478      0.859964      2.689212
  C       6.245863      1.850742      3.039763
  C       5.923067     -0.547456      3.371083
  C       4.008881     -0.602319     -0.218637
  C       5.868832     -1.996157      0.393416
  C       2.068209     -4.904024      0.447130
  C       2.244669     -3.708043     -5.004136
  C       2.928012     -1.525744     -4.272041
  C       1.063957     -3.169871     -5.507587
  C       1.742088     -0.983647     -4.766321
  C       0.804794     -1.804838     -5.387096
  H       2.417183     -3.752068     -1.985679
  H       3.728844     -5.419281     -3.259296
  H       5.200491     -4.935763     -2.419135
  H       5.035253     -2.656642     -3.351918
  H       4.013171     -5.624332     -0.179752
  H       2.686136     -6.107950     -1.231844
  H       6.987272      0.330056      1.071686
  H       5.621733      1.364157      0.574334
  H       2.448348     -1.560067     -1.334244
  H       5.781798     -4.035094     -0.258300
  H       5.574651     -3.255498     -5.715367
  H       4.859460     -4.860851     -5.478122
  H       6.313112     -4.397648     -4.574562
  H       3.514202     -0.049574      2.397183
  H       3.749720      1.696401      2.049582
  H       3.830612      1.091012      3.735982
  H       7.319122      1.683032      2.930370
  H       5.992572      2.003929      4.090468
  H       5.933229      2.712190      2.446076
  H       5.371205     -1.425954      3.033894
  H       5.682426     -0.334167      4.414543
  H       6.997569     -0.703103      3.254563
  H       3.518257      0.367522     -0.233988
  H       6.839366     -2.119515      0.868319
  H       1.118870     -4.588190     -0.002558
  H       2.432665     -4.080405      1.072371
  H       1.861116     -5.756154      1.103435
  H       2.428029     -4.775768     -5.101321
  H       3.655845     -0.878437     -3.787484
  H       0.339721     -3.819525     -5.991710
  H       1.551694      0.081750     -4.663953
  H      -0.121690     -1.387325     -5.772098
  F      -0.105436     -2.053019      0.428984
  F      -2.200679     -1.422812      0.196215
  F       0.480649      0.171224     -1.427695
  F      -1.574820      0.813330     -0.970220
  F      -1.578280     -1.346308     -2.681112
  F       0.211095     -2.491517     -2.116614
  F      -0.890875      0.403170      1.805422
  F       1.187169      0.170206      1.121909
  F      -1.648156     -4.123832     -0.522928
  F      -3.213147     -3.134498     -1.712801
  F       0.748764      2.592014      1.994612
  F      -1.072016      2.836649      0.797808
  F      -2.549596     -5.445771     -2.801227
  F      -0.421219     -5.007093     -2.762275
  F      -1.755095     -3.831183     -4.029288
  O       2.279212      2.711711     -0.217132
  O       0.409130      3.262013     -1.369451
  C      -0.974119     -1.399236     -0.373845
  C      -0.521976      0.098615     -0.516216
  C      -1.044509     -2.161665     -1.743636
  C      -0.010081      0.726248      0.819632
  C      -1.906285     -3.469216     -1.678103
  C       0.169621      2.275501      0.793942
  C      -1.640163     -4.464010     -2.854746
  C       1.046365      2.814566     -0.394152
