52
Coordinates from ORCA-job R4N+FHEA-_wb E -2200.287018484580
  N      -2.734339      0.483095      0.802690
  C      -1.902824      0.215310     -0.455530
  C      -2.184395      1.643748      1.576014
  C      -4.131111      0.812277      0.359649
  C      -2.774275     -0.726349      1.687805
  C      -0.463338     -0.113536     -0.190958
  C       0.497601      0.901423     -0.152434
  C      -0.059837     -1.441014     -0.018960
  C       1.835507      0.596392      0.077187
  C       1.278077     -1.746305      0.211110
  C       2.226989     -0.727607      0.263803
  H      -1.991544      1.121109     -1.061499
  H      -2.406869     -0.610085     -0.965568
  H      -2.140255      2.515125      0.919473
  H      -1.188861      1.390758      1.943198
  H      -2.854626      1.835456      2.416485
  H      -4.092852      1.687694     -0.292080
  H      -4.733060      1.024703      1.245423
  H      -4.538740     -0.045618     -0.178892
  H      -1.764388     -0.947875      2.036184
  H      -3.176069     -1.566039      1.116832
  H      -3.422026     -0.501664      2.537862
  H       0.194193      1.933598     -0.308638
  H      -0.798045     -2.237353     -0.071682
  H       2.574175      1.392377      0.103581
  H       1.581244     -2.781093      0.342203
  H       3.272159     -0.966276      0.439545
  F     -10.827281      0.769236      7.568032
  F      -8.684609      0.306012      7.579062
  F     -10.262115     -1.620961      8.467995
  F      -9.106248     -2.169449      6.687907
  F      -9.580046      2.035839      5.695243
  F     -10.934650      0.512111      4.878059
  F      -8.881530     -1.063075      4.195649
  F      -8.792992      0.983270      3.398510
  F     -11.239280     -2.235408      5.159343
  F     -12.476722     -1.138172      6.610343
  F     -12.454275     -3.188457      8.315791
  F     -10.917357     -4.240013      7.179880
  F     -12.885723     -3.900918      6.309894
  O      -5.168676      1.149528      4.036584
  O      -6.228572     -0.586902      3.075873
  C      -9.851720      0.080104      6.927583
  C      -9.738614      0.700904      5.495525
  C     -10.160341     -1.449697      7.124307
  C      -8.598720      0.230820      4.536627
  C     -11.463002     -2.020833      6.472233
  C      -7.194005      0.409845      5.048753
  C     -11.938022     -3.376257      7.097302
  C      -6.111143      0.317690      3.943983
  H      -6.989763     -0.371619      5.789227
  H      -7.123711      1.377069      5.552436
52
Coordinates from ORCA-job R4N+FHEA-_wb E -2200.289511491093
  N      -2.730650      0.478173      0.814572
  C      -1.906884      0.213491     -0.434155
  C      -2.191976      1.635888      1.581526
  C      -4.117801      0.799250      0.369955
  C      -2.768899     -0.721597      1.697392
  C      -0.463709     -0.110051     -0.182189
  C       0.491438      0.904136     -0.154846
  C      -0.054550     -1.431136     -0.013376
  C       1.828803      0.605491      0.061601
  C       1.282566     -1.731255      0.203495
  C       2.225576     -0.712638      0.245554
  H      -2.003382      1.114064     -1.038310
  H      -2.409457     -0.609922     -0.938855
  H      -2.150151      2.501820      0.924483
  H      -1.200480      1.389057      1.951306
  H      -2.862491      1.827381      2.416673
  H      -4.079469      1.669530     -0.281655
  H      -4.722303      1.011310      1.249239
  H      -4.517983     -0.058466     -0.166033
  H      -1.763283     -0.937443      2.048299
  H      -3.164291     -1.560505      1.128803
  H      -3.417401     -0.499061      2.542192
  H       0.183936      1.932385     -0.308563
  H      -0.788438     -2.228003     -0.057247
  H       2.562612      1.402218      0.080919
  H       1.589311     -2.762055      0.333742
  H       3.270237     -0.946730      0.412225
  F     -10.799719      0.759189      7.554314
  F      -8.679422      0.280323      7.559776
  F     -10.245125     -1.623600      8.447252
  F      -9.129486     -2.182760      6.666603
  F      -9.571205      2.014960      5.692235
  F     -10.914955      0.510021      4.873101
  F      -8.875568     -1.052850      4.175929
  F      -8.791618      0.982682      3.400946
  F     -11.277486     -2.225714      5.173717
  F     -12.472864     -1.125746      6.631104
  F     -12.443852     -3.170969      8.328391
  F     -10.957742     -4.234338      7.169269
  F     -12.920941     -3.863990      6.344959
  O      -5.172652      1.141764      4.031701
  O      -6.217412     -0.590944      3.078332
  C      -9.840850      0.065955      6.913101
  C      -9.727139      0.690042      5.487503
  C     -10.162761     -1.455024      7.111516
  C      -8.592988      0.228902      4.525224
  C     -11.476704     -2.012561      6.481309
  C      -7.188547      0.402466      5.036471
  C     -11.956886     -3.358685      7.108305
  C      -6.107679      0.311145      3.940113
  H      -6.987566     -0.377914      5.772456
  H      -7.116344      1.365231      5.538572
52
Coordinates from ORCA-job R4N+FHEA-_wb E -2200.289317362236
  N      -2.751520      0.479448      0.833353
  C      -1.930995      0.211519     -0.411958
  C      -2.205841      1.628161      1.603927
  C      -4.132825      0.813268      0.388182
  C      -2.802640     -0.719944      1.711478
  C      -0.490232     -0.130156     -0.165619
  C       0.476224      0.871296     -0.136560
  C      -0.096148     -1.455389     -0.004882
  C       1.809968      0.556249      0.072312
  C       1.237159     -1.772604      0.204278
  C       2.191674     -0.766370      0.247232
  H      -2.016810      1.114259     -1.013764
  H      -2.441665     -0.603136     -0.921885
  H      -2.154755      2.496025      0.950689
  H      -1.217991      1.372696      1.976823
  H      -2.876459      1.823167      2.437378
  H      -4.086806      1.684812     -0.260620
  H      -4.737203      1.028218      1.265877
  H      -4.539942     -0.038939     -0.150606
  H      -1.800609     -0.946041      2.065255
  H      -3.204222     -1.553896      1.140560
  H      -3.450618     -0.494476      2.555034
  H       0.180574      1.903889     -0.283252
  H      -0.839326     -2.243358     -0.049567
  H       2.552896      1.344159      0.093018
  H       1.531861     -2.807494      0.328060
  H       3.233990     -1.013641      0.408252
  F     -10.858529      0.768312      7.543908
  F      -8.722010      0.383927      7.586141
  F     -10.248219     -1.586023      8.446540
  F      -9.029614     -2.089770      6.720236
  F      -9.606796      2.062041      5.690348
  F     -10.938483      0.543184      4.884982
  F      -8.912389     -1.008857      4.184800
  F      -8.816632      1.021691      3.408535
  F     -11.088749     -2.237143      5.129200
  F     -12.411881     -1.207492      6.521137
  F     -12.358475     -3.251703      8.218303
  F     -10.767940     -4.232584      7.132568
  F     -12.702058     -3.959582      6.215213
  O      -5.194546      1.156054      4.044924
  O      -6.249035     -0.562557      3.087513
  C      -9.860514      0.117525      6.923222
  C      -9.753707      0.737116      5.495003
  C     -10.114944     -1.416340      7.117432
  C      -8.623191      0.269711      4.530506
  C     -11.365881     -2.038971      6.422827
  C      -7.217275      0.433080      5.042983
  C     -11.805084     -3.410713      7.024923
  C      -6.135499      0.335108      3.950656
  H      -7.024229     -0.349321      5.778328
  H      -7.138691      1.394501      5.545725
52
Coordinates from ORCA-job R4N+FHEA-_wb E -2200.289641788549
  N      -2.734424      0.479465      0.822645
  C      -1.911468      0.213878     -0.420860
  C      -2.197867      1.634578      1.589935
  C      -4.118311      0.801264      0.376458
  C      -2.776910     -0.717266      1.704588
  C      -0.467716     -0.116187     -0.173959
  C       0.491080      0.892594     -0.148256
  C      -0.063419     -1.437759     -0.009036
  C       1.827363      0.588445      0.060588
  C       1.272390     -1.744282      0.200119
  C       2.219275     -0.730696      0.239192
  H      -2.003245      1.113732     -1.026706
  H      -2.415122     -0.606303     -0.929623
  H      -2.153028      2.501485      0.934511
  H      -1.208062      1.388302      1.964786
  H      -2.870419      1.827046      2.422627
  H      -4.079698      1.671365     -0.275216
  H      -4.724482      1.014557      1.253475
  H      -4.519570     -0.055756     -0.159631
  H      -1.773343     -0.935218      2.060105
  H      -3.172376     -1.556502      1.136607
  H      -3.426796     -0.493955      2.547423
  H       0.187519      1.922753     -0.297688
  H      -0.800684     -2.231767     -0.050544
  H       2.564339      1.382277      0.078494
  H       1.574990     -2.776726      0.327048
  H       3.263770     -0.969578      0.400252
  F     -10.816128      0.760421      7.550299
  F      -8.692065      0.310210      7.562543
  F     -10.228954     -1.618242      8.443120
  F      -9.107485     -2.157058      6.662139
  F      -9.585295      2.027434      5.688428
  F     -10.924295      0.518819      4.875436
  F      -8.887094     -1.040293      4.176095
  F      -8.803938      0.990284      3.398503
  F     -11.250308     -2.213956      5.166210
  F     -12.463232     -1.149689      6.631253
  F     -12.393427     -3.209298      8.310998
  F     -10.901892     -4.238771      7.132517
  F     -12.871291     -3.883969      6.323082
  O      -5.183397      1.148364      4.031773
  O      -6.224175     -0.581078      3.080363
  C      -9.847074      0.081099      6.914690
  C      -9.738966      0.704475      5.486684
  C     -10.148058     -1.445858      7.110402
  C      -8.606705      0.240213      4.520279
  C     -11.454279     -2.016914      6.473336
  C      -7.201020      0.413662      5.032299
  C     -11.911785     -3.377987      7.088002
  C      -6.118241      0.320185      3.940636
  H      -7.002760     -0.365907      5.769614
  H      -7.128552      1.377024      5.532910
52
Coordinates from ORCA-job R4N+FHEA-_wb E -2200.289651999526
  N      -2.734538      0.477517      0.819902
  C      -1.911884      0.211061     -0.424048
  C      -2.197834      1.634838      1.585157
  C      -4.120057      0.797303      0.374987
  C      -2.774692     -0.718567      1.704127
  C      -0.467624     -0.115961     -0.176243
  C       0.489419      0.895036     -0.151681
  C      -0.060739     -1.436894     -0.009325
  C       1.826575      0.593686      0.057867
  C       1.275943     -1.740567      0.200643
  C       2.221097     -0.724789      0.238478
  H      -2.004692      1.109603     -1.031961
  H      -2.413783     -0.610978     -0.931857
  H      -2.154508      2.501121      0.928659
  H      -1.207242      1.390316      1.959319
  H      -2.869633      1.827962      2.418601
  H      -4.083824      1.666475     -0.278232
  H      -4.725209      1.011494      1.252829
  H      -4.521678     -0.060863     -0.159172
  H      -1.770541     -0.935493      2.058886
  H      -3.170292     -1.559295      1.138305
  H      -3.423679     -0.494469      2.547725
  H       0.183943      1.924469     -0.302487
  H      -0.796429     -2.232473     -0.049612
  H       2.562012      1.389019      0.074733
  H       1.580496     -2.772277      0.329149
  H       3.266084     -0.961433      0.399908
  F     -10.812071      0.760878      7.555506
  F      -8.688827      0.302981      7.568282
  F     -10.245235     -1.617594      8.448965
  F      -9.110019     -2.164900      6.678557
  F      -9.579956      2.024917      5.695729
  F     -10.921219      0.518703      4.879970
  F      -8.881731     -1.042148      4.179760
  F      -8.801137      0.990023      3.403557
  F     -11.238480     -2.219103      5.163355
  F     -12.461843     -1.144256      6.613451
  F     -12.414604     -3.199473      8.302572
  F     -10.919180     -4.240527      7.138149
  F     -12.881075     -3.877349      6.312088
  O      -5.180228      1.149816      4.032347
  O      -6.220629     -0.583372      3.085047
  C      -9.844927      0.077703      6.919936
  C      -9.735152      0.701936      5.492069
  C     -10.152146     -1.448428      7.116233
  C      -8.602591      0.238914      4.525019
  C     -11.454638     -2.016506      6.468264
  C      -7.196703      0.414286      5.036875
  C     -11.924216     -3.373897      7.083222
  C      -6.114768      0.320038      3.944095
  H      -6.997224     -0.364131      5.775183
  H      -7.124720      1.378561      5.536057
52
Coordinates from ORCA-job R4N+FHEA-_wb E -2200.289655633334
  N      -2.735732      0.478151      0.820557
  C      -1.912427      0.212364     -0.422614
  C      -2.198242      1.633648      1.587977
  C      -4.120488      0.800348      0.375162
  C      -2.778383     -0.719046      1.703116
  C      -0.468703     -0.117027     -0.174035
  C       0.489746      0.892581     -0.147489
  C      -0.063730     -1.438725     -0.008552
  C       1.826381      0.589128      0.062505
  C       1.272412     -1.744563      0.201862
  C       2.218977     -0.730144      0.241587
  H      -2.002978      1.111571     -1.029911
  H      -2.414485     -0.608243     -0.932619
  H      -2.152993      2.500989      0.933008
  H      -1.208390      1.387531      1.963036
  H      -2.870564      1.826620      2.421058
  H      -4.083075      1.670255     -0.277027
  H      -4.725949      1.014375      1.252851
  H      -4.523244     -0.056458     -0.160325
  H      -1.775008     -0.938301      2.058647
  H      -3.174859     -1.558589      1.136146
  H      -3.427620     -0.495146      2.546585
  H       0.185906      1.922677     -0.297064
  H      -0.800422     -2.233307     -0.050206
  H       2.562861      1.383457      0.080893
  H       1.575386     -2.776873      0.329254
  H       3.263543     -0.968455      0.403301
  F     -10.814174      0.761086      7.554382
  F      -8.689158      0.310441      7.564256
  F     -10.234869     -1.616138      8.446570
  F      -9.102839     -2.157955      6.672512
  F      -9.584738      2.029140      5.692802
  F     -10.925784      0.521349      4.879055
  F      -8.887478     -1.037482      4.175632
  F      -8.805275      0.995305      3.400692
  F     -11.235581     -2.217897      5.162952
  F     -12.459389     -1.151213      6.618836
  F     -12.395267     -3.209555      8.304935
  F     -10.901899     -4.242278      7.130543
  F     -12.869013     -3.884076      6.314894
  O      -5.183279      1.150550      4.032346
  O      -6.224707     -0.580489      3.082708
  C      -9.845362      0.081456      6.917553
  C      -9.739140      0.706016      5.489542
  C     -10.146436     -1.445921      7.113815
  C      -8.607520      0.243149      4.521341
  C     -11.448645     -2.018466      6.468832
  C      -7.201706      0.416586      5.034495
  C     -11.910216     -3.379166      7.082749
  C      -6.118903      0.322013      3.942852
  H      -7.004083     -0.362712      5.772409
  H      -7.129088      1.380350      5.534544
52
Coordinates from ORCA-job R4N+FHEA-_wb E -2200.289657796007
  N      -2.735445      0.477388      0.820860
  C      -1.912767      0.211398     -0.422118
  C      -2.198698      1.633652      1.587354
  C      -4.120492      0.798190      0.376049
  C      -2.777080     -0.719049      1.704208
  C      -0.468526     -0.117145     -0.174530
  C       0.489473      0.892835     -0.149732
  C      -0.062742     -1.438455     -0.008600
  C       1.826440      0.590178      0.059035
  C       1.273716     -1.743561      0.200596
  C       2.219831     -0.728733      0.238598
  H      -2.003846      1.109911     -1.030356
  H      -2.414276     -0.609727     -0.931823
  H      -2.154050      2.500710      0.931991
  H      -1.208659      1.388695      1.962643
  H      -2.870971      1.826845      2.420396
  H      -4.084393      1.667500     -0.277004
  H      -4.725651      1.012634      1.253780
  H      -4.523189     -0.059209     -0.158516
  H      -1.773600     -0.937817      2.059709
  H      -3.173342     -1.559355      1.138246
  H      -3.426018     -0.494976      2.547828
  H       0.185125      1.922721     -0.299694
  H      -0.799015     -2.233491     -0.048921
  H       2.562527      1.384892      0.076081
  H       1.577239     -2.775656      0.328362
  H       3.264678     -0.966456      0.399325
  F     -10.816884      0.761638      7.553775
  F      -8.692086      0.310832      7.567892
  F     -10.239115     -1.615455      8.447536
  F      -9.104877     -2.157809      6.675270
  F      -9.583231      2.029032      5.693837
  F     -10.924124      0.521978      4.879112
  F      -8.884904     -1.039644      4.180854
  F      -8.803817      0.991224      3.401813
  F     -11.235048     -2.214946      5.162001
  F     -12.461150     -1.150755      6.617517
  F     -12.397076     -3.211749      8.301359
  F     -10.904204     -4.242564      7.124900
  F     -12.870887     -3.881795      6.309864
  O      -5.182644      1.151700      4.033467
  O      -6.222295     -0.581376      3.086543
  C      -9.846927      0.081895      6.919050
  C      -9.738255      0.706037      5.490938
  C     -10.148699     -1.445412      7.115114
  C      -8.606055      0.241748      4.523832
  C     -11.450008     -2.017353      6.467723
  C      -7.200284      0.417312      5.036867
  C     -11.912027     -3.379043      7.078943
  C      -6.117562      0.322256      3.945585
  H      -7.002133     -0.360645      5.775975
  H      -7.128608      1.381890      5.535408
52
Coordinates from ORCA-job R4N+FHEA-_wb E -2200.289658615742
  N      -2.734988      0.477675      0.820809
  C      -1.912357      0.212368     -0.422199
  C      -2.198047      1.633272      1.588174
  C      -4.119957      0.799081      0.376259
  C      -2.777047     -0.719334      1.703343
  C      -0.468172     -0.116723     -0.174735
  C       0.490062      0.893016     -0.149083
  C      -0.062688     -1.438261     -0.009866
  C       1.826966      0.589882      0.059481
  C       1.273707     -1.743848      0.199109
  C       2.220064     -0.729270      0.237954
  H      -2.003024      1.111249     -1.029965
  H      -2.413876     -0.608272     -0.932692
  H      -2.152904      2.500773      0.933424
  H      -1.208161      1.387829      1.963573
  H      -2.870438      1.826209      2.421189
  H      -4.083837      1.668661     -0.276450
  H      -4.725001      1.013284      1.254125
  H      -4.523045     -0.057845     -0.158780
  H      -1.773703     -0.938910      2.058753
  H      -3.173590     -1.559198      1.136914
  H      -3.425867     -0.495635      2.547154
  H       0.186018      1.923119     -0.298189
  H      -0.799084     -2.233152     -0.050874
  H       2.563208      1.384439      0.077197
  H       1.576964     -2.776131      0.326013
  H       3.264856     -0.967363      0.398507
  F     -10.817993      0.762307      7.552019
  F      -8.693097      0.312034      7.566848
  F     -10.240280     -1.613359      8.448321
  F      -9.105154     -2.157859      6.677330
  F      -9.584692      2.028628      5.691855
  F     -10.924685      0.520629      4.877542
  F      -8.884505     -1.040045      4.179839
  F      -8.803529      0.990807      3.400869
  F     -11.234755     -2.217040      5.163107
  F     -12.461647     -1.151619      6.617098
  F     -12.396766     -3.211098      8.303430
  F     -10.904329     -4.242808      7.127200
  F     -12.871243     -3.882452      6.312501
  O      -5.182717      1.151765      4.034245
  O      -6.221890     -0.581328      3.087000
  C      -9.847775      0.082180      6.918009
  C      -9.738989      0.705435      5.489553
  C     -10.149311     -1.444998      7.115749
  C      -8.606223      0.241421      4.523002
  C     -11.450187     -2.018079      6.468573
  C      -7.200756      0.417238      5.036915
  C     -11.912069     -3.379214      7.080968
  C      -6.117621      0.322269      3.946211
  H      -7.003001     -0.360679      5.776178
  H      -7.129479      1.381860      5.535440
52
Coordinates from ORCA-job R4N+FHEA-_wb E -2200.289659657050
  N      -2.734414      0.477336      0.820650
  C      -1.912039      0.212613     -0.422518
  C      -2.197331      1.632610      1.588492
  C      -4.119534      0.798903      0.376682
  C      -2.776469     -0.720016      1.702718
  C      -0.467796     -0.116602     -0.175278
  C       0.490341      0.893231     -0.148512
  C      -0.062160     -1.438294     -0.011853
  C       1.827315      0.589984      0.059652
  C       1.274320     -1.743984      0.196613
  C       2.220596     -0.729346      0.236559
  H      -2.002599      1.111732     -1.029969
  H      -2.413428     -0.607796     -0.933539
  H      -2.151675      2.500288      0.933999
  H      -1.207572      1.386876      1.964070
  H      -2.869890      1.825603      2.421376
  H      -4.083877      1.668344     -0.276265
  H      -4.724151      1.013254      1.254809
  H      -4.523124     -0.057822     -0.158326
  H      -1.773144     -0.940389      2.057730
  H      -3.173354     -1.559678      1.136217
  H      -3.424897     -0.496561      2.546901
  H       0.186297      1.923508     -0.296419
  H      -0.798380     -2.233308     -0.053706
  H       2.563432      1.384643      0.078230
  H       1.577641     -2.776402      0.322283
  H       3.265427     -0.967513      0.396767
  F     -10.820087      0.762882      7.550318
  F      -8.694840      0.313528      7.566357
  F     -10.242112     -1.611417      8.449106
  F      -9.105726     -2.157616      6.679322
  F      -9.586857      2.028460      5.690237
  F     -10.925369      0.518961      4.875998
  F      -8.883094     -1.040592      4.180709
  F      -8.803272      0.989933      3.400423
  F     -11.234827     -2.217379      5.163642
  F     -12.462561     -1.152440      6.617432
  F     -12.395799     -3.212542      8.304249
  F     -10.904334     -4.243537      7.126085
  F     -12.871985     -3.882504      6.313215
  O      -5.183048      1.153610      4.036084
  O      -6.220115     -0.581572      3.090558
  C      -9.849217      0.082583      6.917209
  C      -9.740022      0.704950      5.488560
  C     -10.150382     -1.444438      7.116398
  C      -8.606189      0.241430      4.523245
  C     -11.450621     -2.018487      6.469164
  C      -7.201309      0.418736      5.038436
  C     -11.912032     -3.379771      7.081257
  C      -6.117314      0.323204      3.948855
  H      -7.003935     -0.358263      5.778787
  H      -7.131117      1.383980      5.535937
52
Coordinates from ORCA-job R4N+FHEA-_wb E -2200.289660237801
  N      -2.733666      0.477851      0.820665
  C      -1.911640      0.213937     -0.422910
  C      -2.196103      1.632269      1.589504
  C      -4.118832      0.800165      0.377419
  C      -2.775941     -0.720257      1.701625
  C      -0.467573     -0.116413     -0.176105
  C       0.491209      0.892775     -0.148103
  C      -0.062812     -1.438549     -0.014182
  C       1.827983      0.588398      0.059752
  C       1.273464     -1.745345      0.194031
  C       2.220412     -0.731384      0.235174
  H      -2.001776      1.113713     -1.029446
  H      -2.413543     -0.605722     -0.934621
  H      -2.149622      2.500338      0.935580
  H      -1.206606      1.385649      1.965184
  H      -2.868880      1.825127      2.422242
  H      -4.083279      1.669767     -0.275339
  H      -4.722932      1.014391      1.255919
  H      -4.523049     -0.056055     -0.157936
  H      -1.772611     -0.941726      2.055973
  H      -3.173353     -1.559269      1.134520
  H      -3.423914     -0.497380      2.546299
  H       0.187928      1.923440     -0.294848
  H      -0.799516     -2.233070     -0.056886
  H       2.564587      1.382584      0.079273
  H       1.576058     -2.778115      0.318564
  H       3.265075     -0.970413      0.395178
  F     -10.824984      0.763653      7.546934
  F      -8.699112      0.317426      7.566508
  F     -10.244512     -1.608329      8.449851
  F      -9.105289     -2.155581      6.682183
  F      -9.589999      2.028788      5.687385
  F     -10.926340      0.517438      4.873101
  F      -8.881923     -1.041144      4.181776
  F      -8.802837      0.988708      3.399571
  F     -11.233316     -2.219761      5.164169
  F     -12.463645     -1.155581      6.616478
  F     -12.393901     -3.214733      8.305036
  F     -10.900927     -4.244056      7.127341
  F     -12.869067     -3.885968      6.314202
  O      -5.183672      1.155927      4.038684
  O      -6.218079     -0.581427      3.094463
  C      -9.852228      0.083927      6.915952
  C      -9.741800      0.704905      5.486845
  C     -10.151518     -1.443197      7.116986
  C      -8.606441      0.241492      4.523421
  C     -11.450188     -2.020144      6.469464
  C      -7.202298      0.420413      5.040033
  C     -11.909795     -3.381657      7.082156
  C      -6.117067      0.324490      3.951813
  H      -7.005333     -0.355630      5.781494
  H      -7.133427      1.386249      5.536572
52
Coordinates from ORCA-job R4N+FHEA-_wb E -2200.289661697877
  N      -2.732514      0.478331      0.820610
  C      -1.911134      0.215309     -0.423715
  C      -2.194286      1.631873      1.590321
  C      -4.117858      0.801337      0.378526
  C      -2.774642     -0.720571      1.700363
  C      -0.467258     -0.116367     -0.177694
  C       0.492317      0.892013     -0.148453
  C      -0.063584     -1.438998     -0.017307
  C       1.828818      0.586295      0.059110
  C       1.272415     -1.747099      0.190714
  C       2.220172     -0.733976      0.233118
  H      -2.001075      1.115920     -1.029017
  H      -2.413919     -0.603503     -0.935893
  H      -2.146739      2.500177      0.936785
  H      -1.205168      1.384109      1.966220
  H      -2.867447      1.824802      2.422715
  H      -4.082580      1.670959     -0.274230
  H      -4.721011      1.015625      1.257650
  H      -4.522852     -0.054503     -0.156854
  H      -1.771137     -0.943155      2.053504
  H      -3.172796     -1.558821      1.132642
  H      -3.421819     -0.498471      2.545810
  H       0.189937      1.923104     -0.294015
  H      -0.800921     -2.232882     -0.060871
  H       2.566037      1.379884      0.079607
  H       1.574116     -2.780260      0.314154
  H       3.264621     -0.974029      0.392979
  F     -10.830999      0.764506      7.543245
  F      -8.704371      0.322010      7.566596
  F     -10.247785     -1.604992      8.450874
  F      -9.105012     -2.153085      6.685668
  F      -9.595475      2.028822      5.683689
  F     -10.927826      0.513791      4.869675
  F      -8.879448     -1.042244      4.184424
  F      -8.802524      0.986419      3.398796
  F     -11.231839     -2.221085      5.164445
  F     -12.465108     -1.159202      6.616007
  F     -12.391360     -3.218792      8.304866
  F     -10.896940     -4.245071      7.126445
  F     -12.865811     -3.889669      6.313829
  O      -5.185167      1.160924      4.043134
  O      -6.213713     -0.581669      3.102461
  C      -9.856143      0.085424      6.914769
  C      -9.744606      0.704368      5.484940
  C     -10.153104     -1.441825      7.117866
  C      -8.606790      0.241517      4.524339
  C     -11.449878     -2.021840      6.469620
  C      -7.203944      0.423850      5.043079
  C     -11.907203     -3.384280      7.081894
  C      -6.116405      0.327036      3.957240
  H      -7.007242     -0.350077      5.786814
  H      -7.137634      1.390975      5.537450
52
Coordinates from ORCA-job R4N+FHEA-_wb E -2200.289661852481
  N      -2.731658      0.477529      0.821017
  C      -1.910872      0.215233     -0.424073
  C      -2.192684      1.630452      1.591156
  C      -4.117123      0.801252      0.379840
  C      -2.773620     -0.721938      1.699979
  C      -0.466891     -0.116420     -0.179003
  C       0.492388      0.892192     -0.148511
  C      -0.062758     -1.439189     -0.020868
  C       1.829015      0.586557      0.058274
  C       1.273387     -1.747217      0.186242
  C       2.220831     -0.733866      0.230031
  H      -2.001384      1.116420     -1.028415
  H      -2.414122     -0.603246     -0.936313
  H      -2.144392      2.498853      0.937814
  H      -1.203871      1.381695      1.967177
  H      -2.866057      1.823576      2.423318
  H      -4.081745      1.671031     -0.272696
  H      -4.719456      1.015663      1.259496
  H      -4.522743     -0.054357     -0.155421
  H      -1.769919     -0.945078      2.052158
  H      -3.172509     -1.559548      1.131824
  H      -3.420156     -0.500299      2.546030
  H       0.189597      1.923400     -0.292401
  H      -0.799903     -2.233179     -0.065621
  H       2.566011      1.380324      0.079843
  H       1.575465     -2.780476      0.307916
  H       3.265399     -0.973843      0.389224
  F     -10.836170      0.765493      7.540529
  F      -8.709142      0.325507      7.567787
  F     -10.251217     -1.602615      8.451353
  F      -9.105396     -2.150747      6.688146
  F      -9.598549      2.029280      5.681415
  F     -10.928486      0.512394      4.867055
  F      -8.877882     -1.043192      4.187124
  F      -8.801635      0.984374      3.398623
  F     -11.230637     -2.222440      5.164185
  F     -12.466628     -1.161106      6.613893
  F     -12.391804     -3.219646      8.304107
  F     -10.895423     -4.244956      7.127372
  F     -12.864022     -3.892059      6.313073
  O      -5.186128      1.164177      4.047030
  O      -6.209914     -0.582835      3.109237
  C      -9.859556      0.086959      6.914348
  C      -9.746447      0.704535      5.483929
  C     -10.154929     -1.440519      7.118323
  C      -8.606844      0.241300      4.525547
  C     -11.450236     -2.022615      6.468957
  C      -7.204927      0.425826      5.045811
  C     -11.906597     -3.385312      7.081615
  C      -6.115541      0.328259      3.961707
  H      -7.008381     -0.346552      5.791189
  H      -7.140367      1.393882      5.538577
52
Coordinates from ORCA-job R4N+FHEA-_wb E -2200.289662496719
  N      -2.731486      0.477350      0.821232
  C      -1.911237      0.214931     -0.424301
  C      -2.192025      1.630144      1.591250
  C      -4.117107      0.801362      0.380677
  C      -2.773013     -0.722296      1.699981
  C      -0.467169     -0.116487     -0.179794
  C       0.492169      0.892132     -0.150733
  C      -0.063025     -1.439105     -0.020378
  C       1.828844      0.586677      0.055906
  C       1.273171     -1.746971      0.186563
  C       2.220652     -0.733586      0.228949
  H      -2.002243      1.116023     -1.028707
  H      -2.414767     -0.603706     -0.936005
  H      -2.143663      2.498534      0.937911
  H      -1.203309      1.381033      1.967246
  H      -2.865351      1.823405      2.423414
  H      -4.081650      1.671371     -0.271527
  H      -4.718871      1.015809      1.260729
  H      -4.523028     -0.054256     -0.154319
  H      -1.769059     -0.945247      2.051566
  H      -3.172351     -1.559639      1.131756
  H      -3.419133     -0.500846      2.546404
  H       0.189268      1.923160     -0.295659
  H      -0.800351     -2.233006     -0.063876
  H       2.565923      1.380398      0.076370
  H       1.575307     -2.780088      0.309285
  H       3.265265     -0.973424      0.388049
  F     -10.837314      0.765299      7.540129
  F      -8.710274      0.325623      7.568516
  F     -10.252318     -1.603124      8.450946
  F      -9.105646     -2.150526      6.688103
  F      -9.599365      2.029131      5.681167
  F     -10.928098      0.511453      4.866314
  F      -8.876382     -1.043687      4.188485
  F      -8.800567      0.983477      3.399024
  F     -11.229874     -2.222835      5.163209
  F     -12.466882     -1.161190      6.611775
  F     -12.393538     -3.219066      8.302471
  F     -10.896071     -4.244857      7.127500
  F     -12.863912     -3.892450      6.311301
  O      -5.186275      1.166247      4.049185
  O      -6.207130     -0.583609      3.113137
  C      -9.860309      0.086964      6.914543
  C      -9.746655      0.704318      5.483965
  C     -10.155436     -1.440687      7.118001
  C      -8.606213      0.241049      4.526430
  C     -11.450430     -2.022724      6.467700
  C      -7.204768      0.426676      5.047463
  C     -11.907275     -3.385331      7.080463
  C      -6.114475      0.328971      3.964117
  H      -7.008063     -0.345028      5.793490
  H      -7.141121      1.395147      5.539525
52
Coordinates from ORCA-job R4N+FHEA-_wb E -2200.289663734686
  N      -2.731507      0.476663      0.821801
  C      -1.911642      0.214301     -0.423971
  C      -2.191685      1.629296      1.591775
  C      -4.117190      0.801019      0.381614
  C      -2.772923     -0.723114      1.700437
  C      -0.467316     -0.116433     -0.180025
  C       0.491514      0.892696     -0.151741
  C      -0.062365     -1.438812     -0.020551
  C       1.828461      0.588031      0.054267
  C       1.274104     -1.745908      0.185768
  C       2.221054     -0.731988      0.227408
  H      -2.003183      1.115241     -1.028529
  H      -2.415052     -0.604558     -0.935447
  H      -2.143366      2.497775      0.938551
  H      -1.202982      1.380012      1.967688
  H      -2.864859      1.822604      2.424053
  H      -4.081544      1.671364     -0.270121
  H      -4.718661      1.015394      1.261904
  H      -4.523359     -0.054484     -0.153361
  H      -1.768890     -0.945911      2.051858
  H      -3.172582     -1.560272      1.132184
  H      -3.418857     -0.501688      2.547018
  H       0.187894      1.923507     -0.296729
  H      -0.799327     -2.233074     -0.063581
  H       2.565154      1.382122      0.074177
  H       1.576921     -2.778820      0.308530
  H       3.265883     -0.971225      0.386002
  F     -10.837446      0.765634      7.539562
  F      -8.710556      0.325420      7.568669
  F     -10.253075     -1.603108      8.450623
  F      -9.106403     -2.150713      6.687904
  F      -9.598993      2.028880      5.680569
  F     -10.927412      0.511010      4.865570
  F      -8.875583     -1.044299      4.188756
  F      -8.799220      0.982689      3.399056
  F     -11.229843     -2.223143      5.162785
  F     -12.467231     -1.160157      6.609957
  F     -12.396013     -3.216753      8.301927
  F     -10.897981     -4.244045      7.128938
  F     -12.865045     -3.891673      6.310936
  O      -5.185783      1.166264      4.050331
  O      -6.205530     -0.584568      3.114664
  C      -9.860437      0.087018      6.914390
  C      -9.746248      0.704040      5.483670
  C     -10.155985     -1.440604      7.117712
  C      -8.605457      0.240398      4.526628
  C     -11.451086     -2.022184      6.466989
  C      -7.204208      0.426038      5.048226
  C     -11.908859     -3.384227      7.080401
  C      -6.113560      0.328507      3.965154
  H      -7.007591     -0.345733      5.794198
  H      -7.140781      1.394486      5.540355
52
Coordinates from ORCA-job R4N+FHEA-_wb E -2200.289664190656
  N      -2.731892      0.476618      0.822303
  C      -1.912406      0.214058     -0.423563
  C      -2.191610      1.629065      1.592189
  C      -4.117634      0.801411      0.382482
  C      -2.773340     -0.723232      1.700911
  C      -0.467981     -0.116586     -0.179905
  C       0.490816      0.892615     -0.152571
  C      -0.062909     -1.438852     -0.019723
  C       1.827870      0.588157      0.053070
  C       1.273639     -1.745742      0.186390
  C       2.220552     -0.731738      0.227014
  H      -2.003991      1.114795     -1.028422
  H      -2.415833     -0.604881     -0.934914
  H      -2.143336      2.497644      0.939094
  H      -1.202882      1.379629      1.967935
  H      -2.864516      1.822469      2.424679
  H      -4.081778      1.672125     -0.268739
  H      -4.718806      1.015696      1.263019
  H      -4.524134     -0.053891     -0.152547
  H      -1.769274     -0.945948      2.052267
  H      -3.173342     -1.560243      1.132700
  H      -3.419095     -0.501722      2.547608
  H       0.187016      1.923310     -0.298037
  H      -0.799870     -2.233152     -0.062035
  H       2.564565      1.382266      0.072189
  H       1.576594     -2.778543      0.309742
  H       3.265446     -0.970824      0.385416
  F     -10.837452      0.765377      7.538728
  F      -8.710534      0.325411      7.568425
  F     -10.252583     -1.603494      8.449814
  F      -9.106158     -2.150854      6.686912
  F      -9.598688      2.028745      5.679931
  F     -10.926634      0.510607      4.864625
  F      -8.874501     -1.044295      4.188234
  F      -8.797903      0.982771      3.398847
  F     -11.229021     -2.224100      5.162091
  F     -12.466879     -1.160053      6.608012
  F     -12.396792     -3.215268      8.301439
  F     -10.898267     -4.243716      7.130037
  F     -12.864889     -3.891839      6.310769
  O      -5.185039      1.166764      4.051012
  O      -6.204018     -0.584663      3.115468
  C      -9.860192      0.086904      6.913810
  C      -9.745674      0.703869      5.483094
  C     -10.155660     -1.440767      7.116929
  C      -8.604549      0.240319      4.526379
  C     -11.450809     -2.022291      6.466076
  C      -7.203470      0.425930      5.048563
  C     -11.909020     -3.383821      7.080260
  C      -6.112577      0.328710      3.965703
  H      -7.006972     -0.346090      5.794296
  H      -7.140218      1.394260      5.540938
52
Coordinates from ORCA-job R4N+FHEA-_wb E -2200.289664069605
  N      -2.732312      0.476387      0.823077
  C      -1.913286      0.213573     -0.422907
  C      -2.191727      1.628867      1.592657
  C      -4.118195      0.801311      0.383663
  C      -2.773633     -0.723355      1.701886
  C      -0.468664     -0.116782     -0.179722
  C       0.489969      0.892606     -0.153478
  C      -0.063261     -1.438889     -0.019060
  C       1.827192      0.588523      0.051622
  C       1.273466     -1.745418      0.186424
  C       2.220216     -0.731219      0.225960
  H      -2.005087      1.114025     -1.028160
  H      -2.416671     -0.605571     -0.933983
  H      -2.143599      2.497412      0.939500
  H      -1.202899      1.379505      1.968186
  H      -2.864330      1.822455      2.425355
  H      -4.082351      1.672219     -0.267300
  H      -4.719046      1.015576      1.264428
  H      -4.524946     -0.053890     -0.151322
  H      -1.769519     -0.945922      2.053188
  H      -3.173837     -1.560422      1.133914
  H      -3.419218     -0.501650      2.548674
  H       0.185870      1.923165     -0.299282
  H      -0.800074     -2.233367     -0.060588
  H       2.563761      1.382768      0.069904
  H       1.576704     -2.778092      0.310145
  H       3.265248     -0.970034      0.383875
  F     -10.837399      0.765248      7.537703
  F      -8.710483      0.325295      7.568069
  F     -10.252519     -1.603645      8.449039
  F      -9.106160     -2.151162      6.686177
  F      -9.598210      2.028541      5.679252
  F     -10.925673      0.510168      4.863533
  F      -8.873027     -1.044384      4.187871
  F      -8.796294      0.982729      3.398614
  F     -11.228443     -2.224618      5.161286
  F     -12.466670     -1.159738      6.606225
  F     -12.397659     -3.214140      8.300658
  F     -10.898975     -4.243491      7.130217
  F     -12.865248     -3.891493      6.310133
  O      -5.184161      1.167589      4.051804
  O      -6.201808     -0.584930      3.116881
  C      -9.859931      0.086736      6.913085
  C      -9.744921      0.703623      5.482433
  C     -10.155570     -1.440867      7.116170
  C      -8.603367      0.240233      4.526204
  C     -11.450733     -2.022239      6.465141
  C      -7.202530      0.425979      5.049091
  C     -11.909479     -3.383350      7.079705
  C      -6.111249      0.328990      3.966653
  H      -7.006288     -0.346193      5.794738
  H      -7.139608      1.394256      5.541609
52
Coordinates from ORCA-job R4N+FHEA-_wb E -2200.289664243640
  N      -2.732917      0.476012      0.823911
  C      -1.914483      0.213040     -0.422332
  C      -2.191930      1.628506      1.593158
  C      -4.119026      0.801026      0.385137
  C      -2.773947     -0.723660      1.702857
  C      -0.469633     -0.116884     -0.179698
  C       0.488708      0.892794     -0.154413
  C      -0.063773     -1.438785     -0.018564
  C       1.826128      0.589221      0.050167
  C       1.273146     -1.744798      0.186469
  C       2.219626     -0.730309      0.225034
  H      -2.006676      1.113265     -1.027864
  H      -2.417843     -0.606363     -0.933022
  H      -2.144042      2.497009      0.939922
  H      -1.202900      1.379187      1.968197
  H      -2.864066      1.822238      2.426203
  H      -4.083352      1.672120     -0.265592
  H      -4.719434      1.015154      1.266252
  H      -4.526049     -0.054001     -0.149907
  H      -1.769725     -0.946164      2.053899
  H      -3.174344     -1.560792      1.135119
  H      -3.419259     -0.501798      2.549813
  H       0.184229      1.923194     -0.300547
  H      -0.800332     -2.233541     -0.059299
  H       2.562462      1.383699      0.067685
  H       1.576746     -2.777318      0.310594
  H       3.264800     -0.968738      0.382580
  F     -10.837492      0.765437      7.536089
  F      -8.710602      0.325400      7.567812
  F     -10.253061     -1.603281      8.448273
  F      -9.106135     -2.151332      6.685945
  F      -9.597099      2.028297      5.678186
  F     -10.924131      0.509809      4.861939
  F      -8.871050     -1.044811      4.187682
  F      -8.793757      0.982241      3.398299
  F     -11.227552     -2.225121      5.160305
  F     -12.466358     -1.159156      6.603944
  F     -12.398902     -3.212715      8.299534
  F     -10.899972     -4.243125      7.130325
  F     -12.865727     -3.890797      6.309089
  O      -5.182852      1.168343      4.052901
  O      -6.198641     -0.585641      3.118797
  C      -9.859662      0.086723      6.912148
  C      -9.743699      0.703331      5.481516
  C     -10.155614     -1.440726      7.115416
  C      -8.601571      0.239842      4.526114
  C     -11.450594     -2.022029      6.463985
  C      -7.201066      0.425611      5.049880
  C     -11.910137     -3.382637      7.078912
  C      -6.109245      0.328939      3.968015
  H      -7.005275     -0.346779      5.795423
  H      -7.138549      1.393777      5.542657
52
Coordinates from ORCA-job R4N+FHEA-_wb E -2200.289664587885
  N      -2.733629      0.476102      0.825114
  C      -1.915823      0.212841     -0.421472
  C      -2.192172      1.628635      1.593970
  C      -4.119926      0.801216      0.386968
  C      -2.774456     -0.723429      1.704255
  C      -0.470893     -0.117278     -0.179501
  C       0.487662      0.892212     -0.155116
  C      -0.065226     -1.439190     -0.018087
  C       1.825140      0.588432      0.048812
  C       1.271756     -1.745400      0.186260
  C       2.218476     -0.731109      0.223926
  H      -2.008174      1.112987     -1.027096
  H      -2.419537     -0.606596     -0.931752
  H      -2.144403      2.497011      0.940553
  H      -1.202968      1.379259      1.968512
  H      -2.863868      1.822608      2.427311
  H      -4.084468      1.672327     -0.263759
  H      -4.719921      1.015274      1.268379
  H      -4.527227     -0.053649     -0.148128
  H      -1.770142     -0.946061      2.054964
  H      -3.175033     -1.560658      1.136782
  H      -3.419488     -0.501353      2.551339
  H       0.183357      1.922629     -0.301480
  H      -0.801911     -2.233866     -0.058093
  H       2.561627      1.382786      0.065608
  H       1.575184     -2.777948      0.310586
  H       3.263688     -0.969706      0.380957
  F     -10.838907      0.765746      7.533693
  F      -8.711769      0.327056      7.567503
  F     -10.253642     -1.602223      8.447488
  F      -9.105059     -2.150337      6.686251
  F      -9.597329      2.028539      5.676439
  F     -10.923012      0.509147      4.859679
  F      -8.868732     -1.044761      4.187631
  F      -8.791467      0.982069      3.397704
  F     -11.225486     -2.225563      5.158984
  F     -12.465895     -1.160350      6.601839
  F     -12.397676     -3.213963      8.297651
  F     -10.897660     -4.243270      7.128877
  F     -12.863351     -3.892085      6.306965
  O      -5.181904      1.170294      4.054418
  O      -6.195407     -0.585581      3.121498
  C      -9.860088      0.087335      6.910906
  C      -9.743175      0.703429      5.480162
  C     -10.155310     -1.440156      7.114643
  C      -8.600037      0.240116      4.525959
  C     -11.449434     -2.022520      6.462554
  C      -7.200064      0.426473      5.050888
  C     -11.908358     -3.383425      7.077215
  C      -6.107421      0.329894      3.969919
  H      -7.004767     -0.345765      5.796719
  H      -7.138303      1.394745      5.543550
52
Coordinates from ORCA-job R4N+FHEA-_wb E -2200.289665849857
  N      -2.734083      0.476480      0.825600
  C      -1.916525      0.213425     -0.421268
  C      -2.192364      1.628889      1.594477
  C      -4.120484      0.801652      0.387887
  C      -2.774755     -0.723146      1.704573
  C      -0.471721     -0.117271     -0.179525
  C       0.487150      0.891890     -0.154160
  C      -0.066508     -1.439434     -0.019079
  C       1.824482      0.587505      0.049834
  C       1.270336     -1.746235      0.185316
  C       2.217374     -0.732288      0.224008
  H      -2.008750      1.113905     -1.026401
  H      -2.420627     -0.605697     -0.931659
  H      -2.144670      2.497295      0.941093
  H      -1.203038      1.379355      1.968589
  H      -2.863783      1.822806      2.428044
  H      -4.085298      1.672785     -0.262834
  H      -4.720279      1.015439      1.269491
  H      -4.527873     -0.053029     -0.147450
  H      -1.770376     -0.946064      2.054930
  H      -3.175388     -1.560345      1.137079
  H      -3.419618     -0.501118      2.551781
  H       0.183261      1.922537     -0.299752
  H      -0.803401     -2.233878     -0.059784
  H       2.561187      1.381641      0.067433
  H       1.573361     -2.778988      0.308918
  H       3.262471     -0.971342      0.381108
  F     -10.840061      0.766567      7.531324
  F      -8.712728      0.328946      7.566854
  F     -10.254284     -1.600310      8.447489
  F      -9.104128     -2.149296      6.687501
  F      -9.597698      2.028466      5.673980
  F     -10.922341      0.508012      4.857530
  F      -8.867099     -1.045663      4.187910
  F      -8.790010      0.980639      3.396560
  F     -11.224035     -2.226093      5.158752
  F     -12.465501     -1.161340      6.601101
  F     -12.395975     -3.214901      8.297389
  F     -10.895594     -4.243416      7.128433
  F     -12.861513     -3.893063      6.306707
  O      -5.181382      1.171563      4.055316
  O      -6.192992     -0.585750      3.123081
  C      -9.860512      0.088113      6.909732
  C      -9.742981      0.703169      5.478583
  C     -10.155082     -1.439356      7.114578
  C      -8.599058      0.239582      4.525486
  C     -11.448457     -2.022913      6.462211
  C      -7.199504      0.426767      5.051195
  C     -11.906702     -3.384045      7.076934
  C      -6.106118      0.330312      3.970983
  H      -7.004421     -0.345079      5.797490
  H      -7.138533      1.395234      5.543574
52
Coordinates from ORCA-job R4N+FHEA-_wb E -2200.289665058451
  N      -2.734468      0.476413      0.825824
  C      -1.916937      0.213058     -0.421096
  C      -2.192791      1.629152      1.594263
  C      -4.120898      0.801265      0.388070
  C      -2.774963     -0.722912      1.705198
  C      -0.472142     -0.117569     -0.179361
  C       0.486764      0.891568     -0.154168
  C      -0.066954     -1.439723     -0.018750
  C       1.824084      0.587172      0.049865
  C       1.269881     -1.746530      0.185731
  C       2.216946     -0.732601      0.224256
  H      -2.009306      1.113448     -1.026339
  H      -2.421143     -0.606202     -0.931158
  H      -2.145366      2.497347      0.940581
  H      -1.203352      1.379831      1.968214
  H      -2.864063      1.823187      2.427919
  H      -4.085932      1.672139     -0.263012
  H      -4.720792      1.015133      1.269589
  H      -4.528133     -0.053624     -0.147067
  H      -1.770542     -0.945712      2.055510
  H      -3.175505     -1.560369      1.138007
  H      -3.419837     -0.500630      2.552328
  H       0.182935      1.922202     -0.299975
  H      -0.803873     -2.234151     -0.059345
  H       2.560799      1.381302      0.067328
  H       1.572860     -2.779278      0.309485
  H       3.262036     -0.971654      0.381404
  F     -10.839884      0.766397      7.531496
  F      -8.712536      0.328875      7.567049
  F     -10.254187     -1.600636      8.447144
  F      -9.103528     -2.149080      6.687294
  F      -9.597393      2.028806      5.674486
  F     -10.922011      0.508571      4.857619
  F      -8.866550     -1.045217      4.188202
  F      -8.789831      0.981053      3.396705
  F     -11.223468     -2.225494      5.158045
  F     -12.465057     -1.161694      6.601043
  F     -12.394904     -3.216258      8.296245
  F     -10.894625     -4.243876      7.126390
  F     -12.860713     -3.893227      6.305215
  O      -5.181221      1.172398      4.055292
  O      -6.192529     -0.585488      3.123684
  C      -9.860274      0.088155      6.909831
  C      -9.742723      0.703564      5.478783
  C     -10.154681     -1.439439      7.114285
  C      -8.598731      0.240106      4.525664
  C     -11.447858     -2.023012      6.461579
  C      -7.199218      0.427583      5.051365
  C     -11.905847     -3.384594      7.075605
  C      -6.105736      0.330885      3.971237
  H      -7.004080     -0.343949      5.797972
  H      -7.138351      1.396225      5.543414
52
Coordinates from ORCA-job R4N+FHEA-_wb E -2200.289664647962
  N      -2.734769      0.476501      0.825916
  C      -1.917125      0.213078     -0.421007
  C      -2.193085      1.629285      1.594307
  C      -4.121125      0.801322      0.388014
  C      -2.775330     -0.722748      1.705367
  C      -0.472421     -0.117714     -0.179150
  C       0.486672      0.891252     -0.153852
  C      -0.067475     -1.439946     -0.018481
  C       1.823919      0.586605      0.050261
  C       1.269288     -1.747007      0.186077
  C       2.216528     -0.733243      0.224675
  H      -2.009446      1.113528     -1.026168
  H      -2.421453     -0.606119     -0.931044
  H      -2.145846      2.497488      0.940627
  H      -1.203597      1.379977      1.968138
  H      -2.864258      1.823211      2.428068
  H      -4.086220      1.672119     -0.263173
  H      -4.721264      1.015084      1.269395
  H      -4.528232     -0.053618     -0.147152
  H      -1.770934     -0.945641      2.055687
  H      -3.175887     -1.560244      1.138235
  H      -3.420270     -0.500339      2.552416
  H       0.183058      1.921941     -0.299716
  H      -0.804565     -2.234212     -0.059149
  H       2.560774      1.380603      0.067765
  H       1.572061     -2.779813      0.309839
  H       3.261565     -0.972480      0.381896
  F     -10.839934      0.766478      7.531438
  F      -8.712525      0.329305      7.567090
  F     -10.254049     -1.600425      8.447116
  F      -9.102865     -2.148640      6.687527
  F      -9.597555      2.029114      5.674458
  F     -10.921978      0.508736      4.857589
  F      -8.866303     -1.044973      4.188395
  F      -8.789921      0.981160      3.396566
  F     -11.222928     -2.224932      5.157748
  F     -12.464745     -1.162328      6.601458
  F     -12.393371     -3.217853      8.295624
  F     -10.893018     -4.244241      7.124790
  F     -12.859411     -3.893807      6.304287
  O      -5.181165      1.172899      4.055212
  O      -6.192557     -0.585108      3.123713
  C      -9.860200      0.088425      6.909848
  C      -9.742753      0.703860      5.478750
  C     -10.154271     -1.439303      7.114264
  C      -8.598687      0.240433      4.525616
  C     -11.447205     -2.023171      6.461355
  C      -7.199197      0.428244      5.051257
  C     -11.904562     -3.385294      7.074760
  C      -6.105636      0.331335      3.971153
  H      -7.003912     -0.342941      5.798177
  H      -7.138442      1.397071      5.542960
