74
XYZ file generated by Avogadro.
N      1.5435535613   -0.0000000000    0.0000000000
C     -2.6349933497   -5.1051508067   -1.1496772672
C     -1.7907282586   -6.3319237246   -0.7186315249
C     -0.3904792012   -6.4289812057   -1.3711749169
C     -1.9442841914   -3.7862597523   -0.8282977935
C     -4.0400544482   -5.1927866929   -0.5082067746
C      0.0000000000    0.0000000000    0.0000000000
C     -0.6766062122   -1.3159410064   -0.2880796994
C     -0.4201306028   -6.4638105759   -2.8900187509
C     -1.6218560592   -2.9036161058   -1.8676969281
C     -1.6319332861   -3.4156508011    0.4856344537
C      0.3554462351   -7.6571957721   -0.8339788769
C      2.0900401314   -0.9451398130    1.0595482866
C      2.0146763379    1.4162240213    0.3156790191
C      2.0899542632   -0.4052240045   -1.3608105769
C     -0.9990345388   -1.6821850632   -1.6022694254
C     -1.0088763779   -2.1940538251    0.7536961569
C     -5.0075001103   -4.1361923108   -1.0287478442
C      0.3634990126   -5.5579253265   -3.6220671500
C     -1.2007157341   -7.3939715713   -3.5927838524
C      0.3543948654   -5.5718107088   -5.0180803826
C     -1.2103644836   -7.4054176813   -4.9888151879
C     -0.4348251743   -6.4938553636   -5.7008364306
H     -2.7838213142   -5.1672409818   -2.2356425544
H     -2.3601376938   -7.2438848117   -0.9423743452
H     -1.6658940011   -6.3240290204    0.3726683332
H      0.1876354589   -5.5514062708   -1.0538209980
H     -3.9780549221   -5.1150775109    0.5838364319
H     -4.4709189458   -6.1782456579   -0.7260350615
H     -0.3162821301    0.7491317391   -0.7376469110
H     -0.3159597045    0.3718137306    0.9834911214
H     -1.8652075472   -3.1640669121   -2.8978188474
H     -1.8849947947   -4.0735503100    1.3154771783
H     -0.1686648860   -8.5889032839   -1.0743155478
H      0.4569420824   -7.6016140778    0.2552606061
H      1.3630037032   -7.7222364575   -1.2600453711
H      1.6458916999   -0.6807986121    2.0236050897
H      3.1774699722   -0.8271284054    1.0987807788
H      1.8438140572   -1.9739379706    0.7844325799
H      1.6300501946    1.6986552448    1.3002542860
H      1.6292494961    2.0901839873   -0.4552370708
H      3.1088119046    1.4277556756    0.3178371307
H      1.8444548890   -1.4536142716   -1.5488586030
H      3.1773279137   -0.2811469402   -1.3464107487
H      1.6453675763    0.2433579899   -2.1212286464
H     -0.7856919412   -1.0209435023   -2.4398632252
H     -0.8030750337   -1.9378420754    1.7912750604
H     -4.6902878303   -3.1265838677   -0.7512038171
H     -6.0034431595   -4.2990975060   -0.6043108362
H     -5.0928780346   -4.1855103361   -2.1189228582
H      0.9917885129   -4.8359924866   -3.1073369681
H     -1.8065410907   -8.1248251347   -3.0620513090
H      0.9683171613   -4.8698039670   -5.5756415346
H     -1.8194475213   -8.1321972755   -5.5209584595
H     -0.4397718112   -6.5100004663   -6.7877808265
F     10.2618458684   -2.4830541545   -2.6946259650
F      8.3164561564   -2.2354755382   -1.8138104041
F     11.3874641078   -0.5774205139   -1.2944063815
F      9.6357525226    0.0836305886   -2.3630909753
F      9.6597080918   -4.3834734628   -0.9303409469
F      9.3816419126   -2.9945535345    0.7082320162
F     10.0134832396   -0.6696599550    1.0888635335
F     10.0188443506    1.2730011329    0.1053247090
F     12.0087986478   -2.0631387470    0.3842773920
F     11.8721203119   -4.2127836148    0.5950821022
F     12.2497915482   -3.3444501433   -1.3579460489
O      7.4200958648    1.0446868536   -0.4112144134
O      7.4682028222   -1.0830358961    0.3871362859
C      9.6402862328   -2.1104601262   -1.5134586335
C     10.0104375117   -0.6520992010   -1.2689102393
C     10.0381060589   -3.1399750808   -0.4682492659
C      9.5313513945    0.0000000000    0.0000000000
C     11.5363180293   -3.1745479993   -0.2188886231
C      8.0000000000    0.0000000000    0.0000000000
