84
XYZ file generated by Avogadro.
N      1.5536105640   -0.0180803100   -0.0076170440
C     -2.6385074857   -5.1241066864   -1.1370024753
C     -1.7903562346   -6.3405465700   -0.7057928976
C     -0.3899355923   -6.4351380414   -1.3514147048
C     -1.9398488265   -3.8071584217   -0.8409927909
C     -4.0516884151   -5.1887302375   -0.5220713930
C      0.0618473626   -0.0273794033   -0.0115186281
C     -0.6370880827   -1.3412502793   -0.3028522623
C     -0.4197165399   -6.4500946840   -2.8685204322
C     -1.6026391372   -2.9283610875   -1.8929442037
C     -1.6245550624   -3.4307064222    0.4840065246
C      0.3823106687   -7.6487018062   -0.8223989828
C      2.0965775467   -0.9240560226    1.0339358780
C      2.0087541823    1.3636269036    0.3004737434
C      2.0992263018   -0.3973241328   -1.3338327948
C     -0.9673873330   -1.7088458859   -1.6243472218
C     -0.9890363830   -2.2127480773    0.7481084546
C     -4.9947972925   -4.1021329658   -1.0394193430
C      0.3358411108   -5.5070397543   -3.6023247490
C     -1.1977515128   -7.3950150386   -3.5792131129
C      0.3237431142   -5.5181981902   -5.0051362680
C     -1.2152676688   -7.4020390193   -4.9801024999
C     -0.4505992679   -6.4661817741   -5.6930433433
H     -2.7929438452   -5.2292430863   -2.2386388657
H     -2.3561477487   -7.2719409920   -0.9298322352
H     -1.6780438533   -6.3363235344    0.4007537528
H      0.1816522306   -5.5410766355   -1.0025559012
H     -3.9945325316   -5.1278135975    0.5883257362
H     -4.5125211169   -6.1750092747   -0.7573986796
H     -0.3267268478    0.7205329573   -0.7435173956
H     -0.3269728845    0.3433887341    0.9676530969
H     -1.8341349752   -3.1799387900   -2.9224340136
H     -1.8711604201   -4.0829242033    1.3142847746
H     -0.1380590971   -8.5984043669   -1.0745240188
H      0.4838085004   -7.5984360835    0.2824648779
H      1.4050093601   -7.6854110884   -1.2538379762
H      1.7013022047   -0.6831006925    2.0464554716
H      3.2061008025   -0.8781417257    1.1004304840
H      1.8488408973   -1.9916691111    0.8458831699
H      1.6519143857    1.7249339227    1.2894594486
H      1.6526089846    2.1107201810   -0.4417353637
H      3.1149389274    1.4631773179    0.3233512954
H      1.8543157770   -1.4447342482   -1.6158480084
H      3.2085127212   -0.3260829559   -1.3731821417
H      1.7043183072    0.2495175990   -2.1493084391
H     -0.7281918022   -1.0566394830   -2.4542257995
H     -0.7621011004   -1.9665218661    1.7773407428
H     -4.6249018410   -3.0898713105   -0.7668316765
H     -6.0041373613   -4.2263090600   -0.5957527378
H     -5.0855660968   -4.1579322069   -2.1463291778
H      0.9424685739   -4.7638016356   -3.0976000859
H     -1.7901982967   -8.1330655867   -3.0524778747
H      0.9163028149   -4.8006999489   -5.5583167825
H     -1.8124726232   -8.1364296208   -5.5056830769
H     -0.4584355911   -6.4796406603   -6.7750902598
S      7.0000000000    0.0000000000    0.0000000000
F      8.9967996125    3.8324709799    2.3131452353
F      8.7527665211    1.6922757538    2.5012288270
F      9.6827995173    3.6387938534   -0.2942004370
F      7.7179770500    2.9276641155    0.1718257324
F     11.3468456427    1.2713727286    1.7707890354
F     11.0419967700    2.5289772520    3.4919663531
F      9.0907501366    1.5399038796   -1.7966081800
F     10.7435187500    1.2277812891   -0.4623889378
F     13.1241231566    3.2422473787    1.9985505023
F     11.9302364131    3.4115973410    0.2077890074
F      9.3368520603   -0.2707937676    1.2425530043
F      9.3325692008   -0.9896593594   -0.8079654957
F     10.4312887717    5.4360294602    1.3421751062
F     12.5709996209    5.7667687376    1.2720997770
F     12.7845860000    4.8985257706    3.9604680852
F     10.6155686154    4.7398763994    4.0505739715
F     11.5420557516    6.6484039990    3.6121723645
O      6.6222968473   -1.4067535180    0.1480554259
O      6.6154628672    0.5856710738   -1.2824969155
O      6.6473118792    0.8242759038    1.1554306784
C      9.4195792722    2.6368272467    1.7881925639
C      9.0248948035    2.5885104036    0.3124224476
C     10.9019324379    2.5118351543    2.1274314311
C      9.3628401718    1.3278453999   -0.4715181947
C     11.8577688670    3.5551196411    1.5643010469
C      8.8114019552    0.0000000000   -0.0000000000
C     11.6013409564    5.0143054362    1.8916394767
C     11.6357704506    5.3138266915    3.3798395172
