19
Coordinates from ORCA-job PFHxA_r2 E -1477.482528271368
  F      -0.007151      1.030655      1.302858
  F      -0.023043      2.389938     -0.342618
  F      -1.469169      1.118491     -1.759555
  F      -0.476587     -0.753480     -1.463013
  F       2.370197      1.719594     -0.026049
  F       1.680995      0.666253     -1.772687
  F      -2.615326      0.884975      0.820108
  F      -3.158792     -0.603989     -0.654642
  F       2.118263     -0.657174      1.467166
  F       1.755789     -1.703196     -0.401484
  F       3.525185     -0.547492     -0.134295
  O      -0.388977     -1.502392      1.093707
  O      -2.496652     -1.957130      1.721702
  C       0.121326      1.079156     -0.032088
  C      -0.993069      0.296285     -0.790778
  C       1.577183      0.702681     -0.431064
  C      -2.125754     -0.185677      0.129373
  C       2.214666     -0.595319      0.149825
  C      -1.609386     -1.382278      1.123533
19
Coordinates from ORCA-job PFHxA_r2 E -1477.488771212488
  F       0.112447      0.958540      1.354399
  F      -0.014293      2.311827     -0.312009
  F      -1.440225      1.021368     -1.692768
  F      -0.505707     -0.896005     -1.374053
  F       2.375072      1.811929     -0.048196
  F       1.699355      0.720776     -1.805821
  F      -2.632689      0.934644      0.794738
  F      -3.202093     -0.521284     -0.718763
  F       2.482526     -0.595158      1.379831
  F       2.126253     -1.647444     -0.509345
  F       3.772231     -0.273791     -0.324281
  O      -0.840306     -1.785249      1.342075
  O      -3.076913     -1.837593      1.672028
  C       0.182891      1.003172      0.008713
  C      -0.976597      0.191183     -0.715515
  C       1.663836      0.728701     -0.453501
  C      -2.203724     -0.198024      0.156222
  C       2.492830     -0.501194      0.051839
  C      -2.015194     -1.426498      1.194407
19
Coordinates from ORCA-job PFHxA_r2 E -1477.493246098637
  F       0.094474      0.922328      1.357668
  F      -0.047346      2.349982     -0.283756
  F      -1.418427      0.965729     -1.744148
  F      -0.401457     -0.915955     -1.322058
  F       2.395271      1.808758      0.086059
  F       1.719428      0.852886     -1.782938
  F      -2.651212      0.904324      0.710241
  F      -3.120867     -0.655685     -0.762320
  F       2.355293     -0.705489      1.319929
  F       1.956941     -1.600230     -0.636432
  F       3.722963     -0.364480     -0.351905
  O      -0.776689     -1.678797      1.455788
  O      -3.027045     -1.741387      1.755292
  C       0.177766      1.037183      0.014495
  C      -0.939323      0.180614     -0.730908
  C       1.667834      0.780864     -0.429754
  C      -2.167212     -0.239375      0.127975
  C       2.422505     -0.524440     -0.002101
  C      -1.963198     -1.376930      1.218874
19
Coordinates from ORCA-job PFHxA_r2 E -1477.494387988652
  F       0.087848      0.934534      1.329007
  F      -0.045946      2.367428     -0.313745
  F      -1.441302      0.987659     -1.755269
  F      -0.416743     -0.893634     -1.325893
  F       2.389682      1.804979      0.061081
  F       1.716463      0.819342     -1.798982
  F      -2.602427      0.908274      0.768700
  F      -3.121966     -0.635445     -0.718278
  F       2.279381     -0.659499      1.361763
  F       1.898445     -1.618821     -0.557183
  F       3.686822     -0.411113     -0.291804
  O      -0.709081     -1.738660      1.337255
  O      -2.946930     -1.793447      1.720090
  C       0.172369      1.057510     -0.011623
  C      -0.948492      0.207579     -0.745362
  C       1.657543      0.778265     -0.444863
  C      -2.142430     -0.225729      0.148630
  C       2.380830     -0.526391      0.035649
  C      -1.894364     -1.362930      1.200829
19
Coordinates from ORCA-job PFHxA_r2 E -1477.493581954566
  F       0.073528      0.871489      1.299793
  F      -0.046535      2.343845     -0.295157
  F      -1.468595      1.057202     -1.748825
  F      -0.486393     -0.854324     -1.402054
  F       2.351511      1.801768     -0.006178
  F       1.701007      0.737630     -1.818659
  F      -2.540992      0.889645      0.846569
  F      -3.168851     -0.557040     -0.697734
  F       2.292987     -0.557951      1.427782
  F       1.949612     -1.661609     -0.407518
  F       3.685658     -0.388698     -0.226143
  O      -0.688699     -1.830551      1.164350
  O      -2.859924     -1.730673      1.792226
  C       0.159852      1.030351     -0.033948
  C      -0.979526      0.234627     -0.778157
  C       1.640013      0.745863     -0.466597
  C      -2.141159     -0.217858      0.142613
  C       2.389466     -0.510499      0.096640
  C      -1.863261     -1.403318      1.110994
19
Coordinates from ORCA-job PFHxA_r2 E -1477.495317644262
  F       0.084052      0.840765      1.337061
  F      -0.064843      2.334308     -0.237803
  F      -1.417942      0.997987     -1.758022
  F      -0.430408     -0.896448     -1.355982
  F       2.365846      1.813468      0.051436
  F       1.704974      0.820173     -1.794726
  F      -2.621660      0.908696      0.735559
  F      -3.134025     -0.630568     -0.749345
  F       2.362882     -0.632335      1.363104
  F       1.962820     -1.627539     -0.530817
  F       3.706228     -0.365043     -0.324105
  O      -0.760176     -1.789122      1.305129
  O      -2.961703     -1.670156      1.811477
  C       0.166579      1.018800      0.002871
  C      -0.951312      0.198752     -0.758367
  C       1.653193      0.771199     -0.443782
  C      -2.158166     -0.228048      0.123092
  C       2.418507     -0.510155      0.033535
  C      -1.925145     -1.354833      1.189685
19
Coordinates from ORCA-job PFHxA_r2 E -1477.495370862020
  F       0.086815      0.868462      1.344905
  F      -0.070750      2.350828     -0.245815
  F      -1.406735      0.976359     -1.762668
  F      -0.392602     -0.902504     -1.331057
  F       2.381158      1.826351      0.051098
  F       1.702998      0.827436     -1.791311
  F      -2.610021      0.903232      0.735304
  F      -3.115470     -0.636530     -0.752989
  F       2.360022     -0.621211      1.363828
  F       1.903368     -1.609731     -0.524006
  F       3.689190     -0.389246     -0.349746
  O      -0.782016     -1.856284      1.272657
  O      -2.967657     -1.650304      1.825859
  C       0.169802      1.038199      0.007712
  C      -0.934164      0.194859     -0.751133
  C       1.656166      0.788399     -0.439117
  C      -2.144825     -0.234812      0.125087
  C       2.403182     -0.504960      0.031783
  C      -1.928763     -1.368640      1.189610
19
Coordinates from ORCA-job PFHxA_r2 E -1477.495784775296
  F       0.087320      0.795909      1.346358
  F      -0.083006      2.330769     -0.192334
  F      -1.398465      0.990363     -1.765027
  F      -0.405259     -0.903209     -1.352247
  F       2.366077      1.826467      0.058357
  F       1.698259      0.837373     -1.791647
  F      -2.631691      0.911226      0.693400
  F      -3.107604     -0.668606     -0.764654
  F       2.378902     -0.618814      1.357837
  F       1.931729     -1.613517     -0.526676
  F       3.700191     -0.368140     -0.357006
  O      -0.796982     -1.859260      1.270715
  O      -2.961090     -1.578064      1.869704
  C       0.166720      1.013502      0.015425
  C      -0.937359      0.192420     -0.762358
  C       1.653433      0.784962     -0.439930
  C      -2.149449     -0.234923      0.111732
  C       2.417981     -0.500705      0.025394
  C      -1.930005     -1.337852      1.202958
19
Coordinates from ORCA-job PFHxA_r2 E -1477.495948823693
  F       0.083260      0.765507      1.346621
  F      -0.094035      2.318453     -0.169962
  F      -1.390665      0.989400     -1.769371
  F      -0.409523     -0.908260     -1.358338
  F       2.357359      1.829811      0.065273
  F       1.699523      0.847925     -1.788793
  F      -2.636020      0.917607      0.673285
  F      -3.106101     -0.678125     -0.769470
  F       2.399376     -0.615362      1.355218
  F       1.949848     -1.612841     -0.525933
  F       3.706084     -0.354081     -0.364785
  O      -0.824063     -1.894634      1.247107
  O      -2.953932     -1.519550      1.910421
  C       0.164203      1.001232      0.018525
  C      -0.937472      0.187636     -0.767186
  C       1.652657      0.786181     -0.437855
  C      -2.151468     -0.234390      0.105701
  C       2.427965     -0.495470      0.022834
  C      -1.937295     -1.331138      1.206705
19
Coordinates from ORCA-job PFHxA_r2 E -1477.496144151486
  F       0.081598      0.723189      1.347500
  F      -0.103389      2.308967     -0.136175
  F      -1.384496      0.997103     -1.771296
  F      -0.407882     -0.905096     -1.371867
  F       2.350453      1.835769      0.067659
  F       1.695475      0.852150     -1.786736
  F      -2.646098      0.921036      0.642801
  F      -3.095068     -0.703415     -0.776734
  F       2.418989     -0.602076      1.356705
  F       1.951302     -1.610279     -0.514144
  F       3.707771     -0.347111     -0.378078
  O      -0.857619     -1.943394      1.213438
  O      -2.934638     -1.446128      1.959947
  C       0.162637      0.990332      0.023950
  C      -0.935551      0.186842     -0.774111
  C       1.651426      0.788831     -0.435645
  C      -2.149861     -0.236235      0.097317
  C       2.434273     -0.489249      0.023063
  C      -1.939622     -1.321335      1.212407
19
Coordinates from ORCA-job PFHxA_r2 E -1477.496433574361
  F       0.075903      0.668482      1.347353
  F      -0.115584      2.296497     -0.092571
  F      -1.376604      1.005792     -1.775386
  F      -0.403465     -0.900857     -1.388058
  F       2.341508      1.844105      0.073302
  F       1.691501      0.858109     -1.781447
  F      -2.660210      0.924028      0.601367
  F      -3.081649     -0.736911     -0.786986
  F       2.448896     -0.579719      1.361364
  F       1.945153     -1.605665     -0.490670
  F       3.706051     -0.343048     -0.399288
  O      -0.913357     -2.015514      1.152282
  O      -2.886025     -1.342353      2.033369
  C       0.159743      0.976849      0.030920
  C      -0.933140      0.185653     -0.783534
  C       1.649551      0.793215     -0.430275
  C      -2.148560     -0.238384      0.085306
  C       2.440104     -0.480585      0.026410
  C      -1.940116     -1.309792      1.216544
19
Coordinates from ORCA-job PFHxA_r2 E -1477.496738798896
  F       0.068468      0.592185      1.345242
  F      -0.129805      2.279153     -0.030366
  F      -1.368027      1.024095     -1.778640
  F      -0.399276     -0.889725     -1.413046
  F       2.329634      1.856451      0.074493
  F       1.683388      0.857141     -1.774287
  F      -2.684147      0.924425      0.546212
  F      -3.064444     -0.780046     -0.803853
  F       2.499455     -0.531439      1.374557
  F       1.924514     -1.601553     -0.431391
  F       3.697131     -0.349145     -0.433957
  O      -1.007769     -2.114118      1.052332
  O      -2.780885     -1.208776      2.130303
  C       0.155544      0.959157      0.041147
  C      -0.931722      0.187751     -0.796692
  C       1.646072      0.797817     -0.422660
  C      -2.149102     -0.240047      0.067121
  C       2.445615     -0.467852      0.038616
  C      -1.934946     -1.295574      1.214867
19
Coordinates from ORCA-job PFHxA_r2 E -1477.497198181886
  F       0.077140      0.502974      1.348570
  F      -0.145919      2.252057      0.051613
  F      -1.343755      1.036108     -1.778447
  F      -0.390631     -0.887574     -1.421359
  F       2.317376      1.875311      0.067627
  F       1.666801      0.857170     -1.767928
  F      -2.718101      0.922580      0.485856
  F      -3.047569     -0.814413     -0.835520
  F       2.587349     -0.460154      1.378873
  F       1.904646     -1.593396     -0.349178
  F       3.685196     -0.358284     -0.497386
  O      -1.147535     -2.204603      0.964269
  O      -2.671491     -1.083244      2.207696
  C       0.155249      0.935307      0.061554
  C      -0.926415      0.184903     -0.801029
  C       1.643932      0.804862     -0.415816
  C      -2.157791     -0.241338      0.044886
  C       2.460622     -0.447910      0.046933
  C      -1.949405     -1.280454      1.208785
19
Coordinates from ORCA-job PFHxA_r2 E -1477.497702351369
  F       0.095711      0.380297      1.347461
  F      -0.173457      2.201623      0.158232
  F      -1.302762      1.036953     -1.780952
  F      -0.379932     -0.902612     -1.421951
  F       2.293999      1.903469      0.063776
  F       1.646651      0.866847     -1.760630
  F      -2.739787      0.928613      0.419989
  F      -3.037918     -0.835213     -0.872892
  F       2.701609     -0.372036      1.369794
  F       1.907049     -1.575587     -0.259220
  F       3.676077     -0.352249     -0.575970
  O      -1.366137     -2.302557      0.895840
  O      -2.538073     -0.938983      2.271599
  C       0.155968      0.895422      0.087809
  C      -0.916402      0.170405     -0.804519
  C       1.641776      0.816048     -0.408422
  C      -2.169468     -0.241438      0.018356
  C       2.489743     -0.416237      0.049662
  C      -1.984946     -1.262865      1.202037
19
Coordinates from ORCA-job PFHxA_r2 E -1477.498365625132
  F       0.154137      0.275763      1.357971
  F      -0.199146      2.139740      0.260088
  F      -1.228385      0.993621     -1.785686
  F      -0.367123     -0.965019     -1.358392
  F       2.268605      1.941435      0.042852
  F       1.615513      0.877923     -1.761818
  F      -2.738942      0.949260      0.394250
  F      -3.053288     -0.785334     -0.927850
  F       2.831916     -0.271774      1.336723
  F       1.933497     -1.546843     -0.177392
  F       3.672323     -0.335012     -0.670741
  O      -1.552734     -2.346393      0.856299
  O      -2.518962     -0.877912      2.282810
  C       0.167449      0.849555      0.123713
  C      -0.898033      0.134451     -0.782910
  C       1.642827      0.831150     -0.409900
  C      -2.194080     -0.233823     -0.002320
  C       2.532819     -0.373774      0.037257
  C      -2.068692     -1.257114      1.185045
19
Coordinates from ORCA-job PFHxA_r2 E -1477.498638163857
  F       0.190809      0.244066      1.364392
  F      -0.198300      2.122059      0.303590
  F      -1.205543      0.991169     -1.772574
  F      -0.369855     -0.979570     -1.323589
  F       2.263924      1.958789      0.003264
  F       1.600504      0.856551     -1.772908
  F      -2.754296      0.951088      0.402070
  F      -3.050944     -0.749537     -0.962305
  F       2.890431     -0.219711      1.320620
  F       1.946005     -1.538734     -0.127714
  F       3.671291     -0.344793     -0.706665
  O      -1.570597     -2.347726      0.853367
  O      -2.581234     -0.894534      2.264171
  C       0.176744      0.836551      0.141349
  C      -0.894599      0.132197     -0.763648
  C       1.645657      0.833107     -0.421010
  C      -2.208757     -0.230223     -0.008082
  C       2.553117     -0.358786      0.033278
  C      -2.104658     -1.262063      1.172394
19
Coordinates from ORCA-job PFHxA_r2 E -1477.498723102975
  F       0.215835      0.166841      1.354408
  F      -0.207283      2.083206      0.377789
  F      -1.180454      0.999574     -1.764890
  F      -0.372420     -0.986568     -1.314475
  F       2.246571      1.977636     -0.017708
  F       1.589976      0.848250     -1.775919
  F      -2.774590      0.955882      0.370251
  F      -3.037505     -0.753482     -0.988176
  F       2.948215     -0.163835      1.304123
  F       1.951986     -1.522912     -0.072951
  F       3.661310     -0.352042     -0.741123
  O      -1.655076     -2.364731      0.844555
  O      -2.550318     -0.852343      2.270117
  C       0.180919      0.810659      0.158206
  C      -0.890510      0.131110     -0.758431
  C       1.643990      0.838398     -0.424770
  C      -2.217003     -0.226663     -0.021905
  C       2.568289     -0.339884      0.032829
  C      -2.122234     -1.249195      1.168071
19
Coordinates from ORCA-job PFHxA_r2 E -1477.498793277393
  F       0.217037      0.155609      1.353202
  F      -0.210357      2.076547      0.389088
  F      -1.175815      0.996178     -1.765910
  F      -0.371661     -0.991385     -1.309067
  F       2.242638      1.978526     -0.011668
  F       1.593014      0.856125     -1.775085
  F      -2.783428      0.956370      0.354269
  F      -3.033098     -0.767945     -0.986994
  F       2.925656     -0.190014      1.305987
  F       1.964781     -1.526163     -0.120121
  F       3.676787     -0.328290     -0.728671
  O      -1.657796     -2.357950      0.866751
  O      -2.549786     -0.826087      2.273123
  C       0.180101      0.805840      0.160557
  C      -0.889937      0.129319     -0.757197
  C       1.643797      0.840015     -0.424338
  C      -2.218739     -0.227357     -0.024378
  C       2.569637     -0.341122      0.024441
  C      -2.123131     -1.238314      1.176011
19
Coordinates from ORCA-job PFHxA_r2 E -1477.498865146456
  F       0.234215      0.106009      1.350086
  F      -0.211620      2.048458      0.435525
  F      -1.158472      0.992336     -1.761339
  F      -0.376420     -1.004738     -1.295917
  F       2.227007      1.986799     -0.020307
  F       1.585105      0.847885     -1.775637
  F      -2.801054      0.963497      0.323447
  F      -3.031715     -0.777594     -0.997315
  F       2.931463     -0.191152      1.301779
  F       2.006256     -1.522810     -0.155377
  F       3.702057     -0.285469     -0.728583
  O      -1.711273     -2.354773      0.882523
  O      -2.543649     -0.779651      2.278538
  C       0.182674      0.784311      0.173581
  C      -0.889603      0.123185     -0.749906
  C       1.642930      0.838905     -0.425432
  C      -2.230263     -0.223780     -0.032558
  C       2.588746     -0.329966      0.014989
  C      -2.146682     -1.221554      1.181902
19
Coordinates from ORCA-job PFHxA_r2 E -1477.498915103340
  F       0.248838      0.058703      1.346837
  F      -0.218273      2.016109      0.473967
  F      -1.137248      0.977064     -1.760944
  F      -0.380457     -1.027241     -1.277327
  F       2.211398      1.992398     -0.016848
  F       1.576352      0.849843     -1.773571
  F      -2.807935      0.975056      0.295060
  F      -3.032266     -0.780250     -1.007030
  F       2.942992     -0.197452      1.293531
  F       2.053812     -1.517737     -0.197008
  F       3.725719     -0.233562     -0.733825
  O      -1.769838     -2.349403      0.902025
  O      -2.547291     -0.732988      2.283073
  C       0.184645      0.760385      0.185272
  C      -0.887848      0.109854     -0.743069
  C       1.641947      0.838201     -0.423409
  C      -2.239976     -0.219493     -0.038714
  C       2.609573     -0.317182      0.002596
  C      -2.174441     -1.202404      1.189386
19
Coordinates from ORCA-job PFHxA_r2 E -1477.498968936995
  F       0.288158     -0.059038      1.329803
  F      -0.232865      1.932754      0.567006
  F      -1.089313      0.936968     -1.762169
  F      -0.390358     -1.081957     -1.235402
  F       2.172922      2.008507     -0.005590
  F       1.557036      0.860459     -1.767914
  F      -2.817373      1.000685      0.231799
  F      -3.032116     -0.783221     -1.030605
  F       2.979166     -0.196475      1.272470
  F       2.153791     -1.498425     -0.270396
  F       3.768992     -0.122465     -0.750430
  O      -1.934468     -2.339950      0.939028
  O      -2.530309     -0.625777      2.293416
  C       0.191269      0.702266      0.209789
  C      -0.882189      0.076170     -0.729916
  C       1.639400      0.839760     -0.418004
  C      -2.259162     -0.210116     -0.053401
  C       2.654821     -0.283164     -0.022779
  C      -2.237699     -1.157078      1.203294
19
Coordinates from ORCA-job PFHxA_r2 E -1477.498983017481
  F       0.277170     -0.030089      1.332352
  F      -0.226031      1.954700      0.542955
  F      -1.108329      0.948519     -1.761816
  F      -0.388699     -1.065768     -1.250174
  F       2.184373      2.004472     -0.009496
  F       1.563875      0.855290     -1.769683
  F      -2.815953      0.992917      0.251127
  F      -3.032537     -0.781056     -1.025212
  F       2.971455     -0.194760      1.279190
  F       2.130590     -1.504152     -0.248511
  F       3.759402     -0.150073     -0.746062
  O      -1.892791     -2.344536      0.930579
  O      -2.537763     -0.653152      2.291036
  C       0.190405      0.717331      0.201871
  C      -0.884890      0.085483     -0.734824
  C       1.641301      0.838600     -0.419564
  C      -2.254349     -0.213096     -0.048740
  C       2.644796     -0.291490     -0.014788
  C      -2.222324     -1.169239      1.199761
19
Coordinates from ORCA-job PFHxA_r2 E -1477.498990567294
  F       0.284515     -0.053306      1.327319
  F      -0.226771      1.938750      0.562256
  F      -1.101846      0.942800     -1.761508
  F      -0.389972     -1.073525     -1.244395
  F       2.177174      2.008794     -0.011105
  F       1.560325      0.854956     -1.769173
  F      -2.817657      0.996729      0.241970
  F      -3.031319     -0.779668     -1.030591
  F       2.979803     -0.188689      1.275889
  F       2.145253     -1.500451     -0.253534
  F       3.764547     -0.134589     -0.750096
  O      -1.923995     -2.344114      0.935413
  O      -2.532148     -0.636367      2.292165
  C       0.192344      0.707042      0.205770
  C      -0.883553      0.080572     -0.733092
  C       1.640627      0.839123     -0.419337
  C      -2.256878     -0.211336     -0.051294
  C       2.651834     -0.284795     -0.017594
  C      -2.232583     -1.162026      1.200937
19
Coordinates from ORCA-job PFHxA_r2 E -1477.498992030020
  F       0.286227     -0.061662      1.325214
  F      -0.226559      1.933493      0.569326
  F      -1.099805      0.941384     -1.761554
  F      -0.390350     -1.075546     -1.242785
  F       2.174383      2.010449     -0.014152
  F       1.558456      0.852832     -1.769667
  F      -2.817466      0.998561      0.240032
  F      -3.031403     -0.778190     -1.031851
  F       2.980648     -0.185876      1.275714
  F       2.150402     -1.499394     -0.254765
  F       3.766810     -0.129438     -0.749516
  O      -1.933203     -2.343940      0.935853
  O      -2.529441     -0.632233      2.292633
  C       0.192967      0.703805      0.206853
  C      -0.883060      0.079413     -0.732767
  C       1.640011      0.838910     -0.419956
  C      -2.257480     -0.210174     -0.051828
  C       2.653810     -0.282508     -0.017851
  C      -2.235244     -1.159988      1.201066
19
Coordinates from ORCA-job PFHxA_r2 E -1477.498992448094
  F       0.286097     -0.063311      1.324451
  F      -0.225880      1.932826      0.570706
  F      -1.100168      0.941865     -1.761445
  F      -0.390743     -1.075272     -1.243159
  F       2.174001      2.010774     -0.016532
  F       1.558168      0.850698     -1.770346
  F      -2.816908      0.999068      0.240983
  F      -3.032051     -0.777115     -1.031581
  F       2.979776     -0.184697      1.276439
  F       2.151623     -1.499296     -0.254405
  F       3.767710     -0.128649     -0.748173
  O      -1.932859     -2.343882      0.935390
  O      -2.530144     -0.632872      2.292513
  C       0.193131      0.703463      0.206731
  C      -0.883192      0.079679     -0.732919
  C       1.639927      0.838513     -0.420634
  C      -2.257540     -0.209743     -0.051585
  C       2.654154     -0.282059     -0.017314
  C      -2.235404     -1.160091      1.200880
19
Coordinates from ORCA-job PFHxA_r2 E -1477.498992610540
  F       0.286034     -0.064399      1.323873
  F      -0.225281      1.932401      0.571632
  F      -1.100504      0.942698     -1.761194
  F      -0.391267     -1.074795     -1.243832
  F       2.173717      2.011016     -0.018515
  F       1.558091      0.848746     -1.770917
  F      -2.816527      0.999405      0.241686
  F      -3.032666     -0.776461     -1.031210
  F       2.979324     -0.183535      1.277096
  F       2.152275     -1.499203     -0.253563
  F       3.768243     -0.128444     -0.747176
  O      -1.932206     -2.343842      0.934763
  O      -2.530634     -0.633658      2.292436
  C       0.193203      0.703247      0.206614
  C      -0.883438      0.080054     -0.733064
  C       1.639927      0.838181     -0.421184
  C      -2.257625     -0.209455     -0.051409
  C       2.654392     -0.281737     -0.016739
  C      -2.235357     -1.160320      1.200702
19
Coordinates from ORCA-job PFHxA_r2 E -1477.498992651029
  F       0.286248     -0.065202      1.323597
  F      -0.225091      1.931889      0.572296
  F      -1.100457      0.943063     -1.760983
  F      -0.391599     -1.074721     -1.244152
  F       2.173399      2.011169     -0.019259
  F       1.558020      0.847942     -1.771121
  F      -2.816416      0.999599      0.241764
  F      -3.032913     -0.776212     -1.031154
  F       2.979463     -0.182984      1.277260
  F       2.152765     -1.499099     -0.253242
  F       3.768509     -0.128126     -0.746949
  O      -1.932184     -2.343722      0.934720
  O      -2.531064     -0.633641      2.292350
  C       0.193240      0.702908      0.206674
  C      -0.883556      0.080106     -0.733074
  C       1.639934      0.838040     -0.421377
  C      -2.257718     -0.209346     -0.051420
  C       2.654649     -0.281496     -0.016587
  C      -2.235527     -1.160266      1.200658
