19
-73.3645305319
F  -0.00715122133883051847 1.03065459037718487600 1.30285809937902530287
F  -0.02304263444741883049 2.38993777488267067355 -0.34261787694562134687
F  -1.46916921696664104502 1.11849147052543185232 -1.75955453632418445942
F  -0.47658669532864711416 -0.75348035032407967293 -1.46301333882056683322
F  2.37019658605544458752 1.71959411916940663190 -0.02604914392841230220
F  1.68099478599573259885 0.66625300904064199692 -1.77268722022782254655
F  -2.61532559488342553067 0.88497450939326482988 0.82010824881675814524
F  -3.15879201482378269006 -0.60398868445612008404 -0.65464249403585206277
F  2.11826337024806665710 -0.65717354791971438477 1.46716610798536550853
F  1.75578896066449186009 -1.70319625065450863666 -0.40148359878347167351
F  3.52518513250860632269 -0.54749228986116493800 -0.13429538692795639498
O  -0.38897683808420613349 -1.50239226677809978305 1.09370744305355183101
O  -2.49665186828186280721 -1.95712985810571837852 1.72170249680496634248
C  0.12132648508007763677 1.07915607460878537616 -0.03208814010639802344
C  -0.99306905751185281517 0.29628531272403213492 -0.79077816061090089317
C  1.57718299903716041577 0.70268059498322166245 -0.43106437972436800754
C  -2.12575369610898112782 -0.18567722177682893792 0.12937338510391335755
C  2.21466633183579642008 -0.59531871885704557013 0.14982528859110724739
C  -1.60938581384968926180 -1.38227826707136269846 1.12353320670086032074
