19
Coordinates from ORCA-job PFHxA_r2 E -1477.498992651029
  F           0.28624769903611     -0.06520221092200      1.32359723250220
  F          -0.22509075189622      1.93188911058430      0.57229582518760
  F          -1.10045718792704      0.94306326994226     -1.76098329652057
  F          -0.39159872063927     -1.07472087918166     -1.24415241642467
  F           2.17339869356275      2.01116905648686     -0.01925949430962
  F           1.55801966553432      0.84794162205071     -1.77112077985990
  F          -2.81641585818110      0.99959852867921      0.24176356068510
  F          -3.03291321658068     -0.77621186993312     -1.03115444114575
  F           2.97946332063272     -0.18298443121800      1.27725986741928
  F           2.15276461463085     -1.49909943047668     -0.25324162897163
  F           3.76850895160994     -0.12812632370915     -0.74694891224000
  O          -1.93218423300001     -2.34372239020698      0.93472010081603
  O          -2.53106434463754     -0.63364076342227      2.29235009903408
  C           0.19323970706232      0.70290813446746      0.20667428627358
  C          -0.88355556875183      0.08010620614880     -0.73307399782236
  C           1.63993376220865      0.83804037386265     -0.42137737805260
  C          -2.25771847423152     -0.20934557468782     -0.05142002189882
  C           2.65464919160209     -0.28149632275326     -0.01658679935062
  C          -2.23552725023451     -1.16026610581133      1.20065819467869
