80
Coordinates from ORCA-job R4N+PFOA-_altA_r2 E -2865.051422065049
  N       5.436148      0.581302      2.427241
  C       3.501715     -4.312171     -1.565657
  C       4.355647     -4.710340     -2.778139
  C       4.552970     -3.552016     -3.766568
  C       4.065542     -3.095733     -0.880031
  C       3.367423     -5.484664     -0.583091
  C       5.614681      0.488536      0.947406
  C       5.085425     -0.781685      0.336593
  C       3.235014     -2.969834     -4.213988
  C       5.360962     -3.067423     -0.375418
  C       3.290240     -1.949140     -0.761842
  C       5.371893     -4.014624     -4.974853
  C       6.223779     -0.456495      3.109203
  C       4.017707      0.432257      2.783112
  C       5.897924      1.909593      2.860115
  C       5.866873     -1.926432      0.220951
  C       3.791311     -0.806846     -0.169098
  C       2.358690     -5.183443      0.519139
  C       2.948493     -1.628748     -3.990727
  C       2.284429     -3.748266     -4.864560
  C       1.745151     -1.078312     -4.396508
  C       1.084708     -3.200676     -5.280356
  C       0.808712     -1.863424     -5.046900
  H       2.498390     -4.058212     -1.928228
  H       3.868232     -5.543628     -3.286052
  H       5.335838     -5.053090     -2.443814
  H       5.111280     -2.759033     -3.258032
  H       4.339060     -5.703703     -0.138301
  H       3.042856     -6.368809     -1.134633
  H       6.680060      0.585895      0.733361
  H       5.075964      1.328008      0.502088
  H       5.988383     -3.940829     -0.461099
  H       2.287763     -1.942356     -1.160688
  H       6.344936     -4.376159     -4.652699
  H       5.518664     -3.188750     -5.666773
  H       4.862053     -4.816095     -5.502680
  H       6.093482     -0.366830      4.184679
  H       7.277532     -0.340749      2.868242
  H       5.888065     -1.440986      2.793996
  H       3.885703      0.583615      3.850850
  H       3.659791     -0.557868      2.512815
  H       3.420159      1.165427      2.243753
  H       5.804764      1.999363      3.939534
  H       5.288666      2.679171      2.390371
  H       6.937369      2.056582      2.577357
  H       6.886129     -1.927160      0.575419
  H       3.175768      0.078864     -0.122106
  H       1.375244     -4.991200      0.093001
  H       2.657309     -4.302709      1.082706
  H       2.278304     -6.024318      1.202955
  H       3.670338     -1.002429     -3.486108
  H       2.478400     -4.793468     -5.051282
  H       1.536668     -0.035938     -4.196845
  H       0.357546     -3.816006     -5.789937
  H      -0.131582     -1.436781     -5.365442
  F      -0.584732     -1.855258      0.457890
  F      -2.439297     -0.881986     -0.076349
  F       0.683128      0.141504     -1.291531
  F      -1.244625      1.132467     -1.252865
  F      -1.413208     -1.048771     -2.852408
  F       0.062293     -2.388080     -2.006782
  F      -1.136401      0.659059      1.662146
  F       0.926743      0.129895      1.330150
  F      -2.192707     -3.692601     -0.675492
  F      -3.443139     -2.502070     -1.982287
  F       0.593078      2.704694      2.090781
  F      -0.726397      3.100990      0.412524
  F      -2.957988     -4.926209     -3.026402
  F      -0.834375     -4.702071     -2.823158
  F      -1.930450     -3.430204     -4.172553
  O       1.372978      2.904076     -1.292561
  O       2.701419      2.384102      0.438604
  C      -1.172385     -1.085260     -0.472840
  C      -0.444459      0.293880     -0.575401
  C      -1.162269     -1.870179     -1.823278
  C      -0.086633      0.863462      0.825081
  C      -2.213567     -3.021924     -1.839457
  C       0.332726      2.341329      0.800248
  C      -1.969856     -4.039206     -2.996080
  C       1.653126      2.589853     -0.150389
80
Coordinates from ORCA-job R4N+PFOA-_altA_r2 E -2865.062483100209
  N       5.446122      0.593158      2.470335
  C       3.510171     -4.318452     -1.565217
  C       4.347702     -4.710332     -2.798149
  C       4.545385     -3.563850     -3.810978
  C       4.074075     -3.100140     -0.872818
  C       3.373296     -5.495852     -0.584165
  C       5.632604      0.488654      0.967457
  C       5.100622     -0.779175      0.351612
  C       3.228276     -2.968708     -4.267491
  C       5.378180     -3.071793     -0.372989
  C       3.295384     -1.951400     -0.744908
  C       5.369628     -4.047916     -5.012670
  C       6.243001     -0.446452      3.180514
  C       4.008959      0.447043      2.831260
  C       5.915863      1.943700      2.893459
  C       5.886528     -1.927176      0.228770
  C       3.799729     -0.803343     -0.152215
  C       2.382814     -5.197825      0.542862
  C       2.946556     -1.618023     -4.051305
  C       2.267637     -3.748556     -4.917057
  C       1.733172     -1.062703     -4.448170
  C       1.060838     -3.195207     -5.330159
  C       0.784378     -1.851923     -5.089981
  H       2.502511     -4.061520     -1.919464
  H       3.853023     -5.552104     -3.298856
  H       5.335444     -5.060702     -2.472717
  H       5.109908     -2.765886     -3.312066
  H       4.356574     -5.730611     -0.157838
  H       3.035961     -6.378358     -1.142096
  H       6.703411      0.588100      0.767357
  H       5.101621      1.335823      0.523662
  H       6.012799     -3.949151     -0.467467
  H       2.288102     -1.948969     -1.146088
  H       6.346399     -4.415581     -4.681042
  H       5.529675     -3.230948     -5.723605
  H       4.854953     -4.860533     -5.535422
  H       6.105703     -0.327902      4.257155
  H       7.300575     -0.329793      2.933682
  H       5.902610     -1.438868      2.883492
  H       3.883513      0.607839      3.903811
  H       3.656035     -0.553787      2.573252
  H       3.421426      1.183663      2.278717
  H       5.818939      2.039389      3.976706
  H       5.304827      2.708007      2.407688
  H       6.961392      2.075937      2.607254
  H       6.913203     -1.925615      0.585817
  H       3.181798      0.090014     -0.105162
  H       1.387027     -4.988775      0.134952
  H       2.699083     -4.321408      1.120617
  H       2.300268     -6.049336      1.225327
  H       3.678782     -0.991858     -3.547585
  H       2.459102     -4.802927     -5.101321
  H       1.526338     -0.013799     -4.243010
  H       0.325070     -3.815254     -5.835899
  H      -0.167564     -1.426699     -5.395208
  F      -0.582059     -1.869118      0.469445
  F      -2.468347     -0.896173     -0.083460
  F       0.676994      0.129797     -1.280110
  F      -1.273205      1.125032     -1.244363
  F      -1.441202     -1.060755     -2.845400
  F       0.056812     -2.412686     -1.996528
  F      -1.162907      0.744439      1.661792
  F       0.924740      0.164855      1.353459
  F      -2.195506     -3.748570     -0.693955
  F      -3.461303     -2.533037     -2.007152
  F       0.621560      2.736143      2.083570
  F      -0.704695      3.143343      0.391918
  F      -3.011146     -4.951391     -3.037519
  F      -0.860112     -4.754766     -2.846886
  F      -1.961278     -3.440213     -4.195819
  O       1.382457      2.935743     -1.308832
  O       2.714249      2.408908      0.453232
  C      -1.188314     -1.101974     -0.463061
  C      -0.460553      0.288950     -0.565703
  C      -1.176606     -1.895192     -1.819008
  C      -0.092565      0.896667      0.831202
  C      -2.228479     -3.058977     -1.854083
  C       0.350903      2.377971      0.789912
  C      -1.998352     -4.075587     -3.020482
  C       1.651064      2.617203     -0.144784
80
Coordinates from ORCA-job R4N+PFOA-_altA_r2 E -2865.065031777114
  N       5.445251      0.589546      2.485479
  C       3.514270     -4.317014     -1.568321
  C       4.345397     -4.701493     -2.805361
  C       4.543071     -3.560955     -3.822702
  C       4.075527     -3.096847     -0.873165
  C       3.377993     -5.501430     -0.595880
  C       5.639073      0.488042      0.971691
  C       5.104429     -0.774235      0.355438
  C       3.226617     -2.965205     -4.283125
  C       5.383212     -3.069191     -0.374708
  C       3.295773     -1.946960     -0.740764
  C       5.374108     -4.053761     -5.015834
  C       6.248180     -0.455998      3.195705
  C       4.000237      0.442669      2.852478
  C       5.920759      1.946536      2.911648
  C       5.891196     -1.924373      0.232471
  C       3.801308     -0.796606     -0.148338
  C       2.402311     -5.215232      0.546466
  C       2.943788     -1.610956     -4.076412
  C       2.263001     -3.752461     -4.925085
  C       1.728457     -1.057226     -4.480050
  C       1.053097     -3.202151     -5.341770
  C       0.776264     -1.854032     -5.112691
  H       2.503000     -4.059014     -1.916439
  H       3.851600     -5.547287     -3.304346
  H       5.335831     -5.054051     -2.484102
  H       5.105955     -2.759402     -3.325082
  H       4.367355     -5.750188     -0.187153
  H       3.033433     -6.377477     -1.162097
  H       6.714246      0.586062      0.793978
  H       5.119477      1.345993      0.533824
  H       6.019924     -3.946281     -0.473286
  H       2.286561     -1.947862     -1.139922
  H       6.349190     -4.424308     -4.676853
  H       5.544580     -3.243743     -5.734328
  H       4.861477     -4.870670     -5.538148
  H       6.110192     -0.326635      4.271613
  H       7.302977     -0.334046      2.937230
  H       5.898942     -1.446462      2.898480
  H       3.890543      0.599059      3.928300
  H       3.657490     -0.562443      2.596897
  H       3.418447      1.185197      2.300547
  H       5.822124      2.031247      3.996204
  H       5.307340      2.706958      2.421996
  H       6.967377      2.065244      2.621401
  H       6.916828     -1.921323      0.596598
  H       3.184095      0.098578     -0.100071
  H       1.402726     -4.986158      0.154274
  H       2.731769     -4.355288      1.143342
  H       2.313325     -6.078774      1.215192
  H       3.679858     -0.982501     -3.578311
  H       2.456203     -4.809468     -5.099983
  H       1.523170     -0.005719     -4.284606
  H       0.316297     -3.830329     -5.837880
  H      -0.179870     -1.434105     -5.415071
  F      -0.578466     -1.856756      0.480386
  F      -2.477226     -0.894493     -0.086960
  F       0.673260      0.124151     -1.278235
  F      -1.287064      1.125771     -1.244646
  F      -1.455144     -1.067215     -2.835635
  F       0.052087     -2.427061     -1.985332
  F      -1.185221      0.806001      1.634668
  F       0.911351      0.188138      1.358607
  F      -2.186808     -3.760071     -0.686089
  F      -3.465488     -2.543902     -2.006022
  F       0.625111      2.750062      2.068942
  F      -0.694358      3.168578      0.368371
  F      -3.034396     -4.962337     -3.020536
  F      -0.873888     -4.781103     -2.843717
  F      -1.976016     -3.455843     -4.190464
  O       1.392443      2.969373     -1.314608
  O       2.713636      2.433476      0.460775
  C      -1.193595     -1.102649     -0.459313
  C      -0.469457      0.289679     -0.567714
  C      -1.183058     -1.906424     -1.810898
  C      -0.099453      0.920008      0.819145
  C      -2.231898     -3.072301     -1.849399
  C       0.360267      2.403605      0.770875
  C      -2.011111     -4.094534     -3.013637
  C       1.640287      2.643106     -0.137906
80
Coordinates from ORCA-job R4N+PFOA-_altA_r2 E -2865.065809745868
  N       5.443639      0.582829      2.494453
  C       3.515365     -4.312493     -1.571988
  C       4.346139     -4.690892     -2.808695
  C       4.542117     -3.553838     -3.827898
  C       4.074150     -3.092999     -0.873046
  C       3.380951     -5.503583     -0.608800
  C       5.644802      0.483395      0.975832
  C       5.106349     -0.773126      0.358014
  C       3.225833     -2.963384     -4.292600
  C       5.382593     -3.067774     -0.375435
  C       3.295642     -1.942482     -0.737899
  C       5.378173     -4.049243     -5.014878
  C       6.247667     -0.465405      3.204119
  C       3.996465      0.437006      2.865302
  C       5.921789      1.941278      2.923062
  C       5.891966     -1.924312      0.232794
  C       3.803121     -0.792548     -0.145843
  C       2.420200     -5.226640      0.545519
  C       2.942329     -1.607269     -4.102064
  C       2.261915     -3.759829     -4.923283
  C       1.726958     -1.059352     -4.513506
  C       1.051007     -3.216078     -5.345049
  C       0.774889     -1.864506     -5.135108
  H       2.502001     -4.054191     -1.915589
  H       3.857592     -5.540527     -3.306270
  H       5.337766     -5.041258     -2.488577
  H       5.100809     -2.748236     -3.331630
  H       4.373767     -5.765367     -0.216546
  H       3.027692     -6.371652     -1.181686
  H       6.723334      0.576915      0.818494
  H       5.138519      1.351646      0.542709
  H       6.018769     -3.944345     -0.477211
  H       2.285604     -1.944310     -1.134912
  H       6.351200     -4.419857     -4.671147
  H       5.554206     -3.243673     -5.736611
  H       4.869194     -4.868223     -5.537284
  H       6.111320     -0.327639      4.278870
  H       7.299584     -0.343038      2.936368
  H       5.889756     -1.452828      2.908476
  H       3.901530      0.589773      3.942740
  H       3.660677     -0.569710      2.609789
  H       3.418155      1.184183      2.317444
  H       5.820390      2.018336      4.007501
  H       5.307553      2.698328      2.430391
  H       6.968661      2.051279      2.631877
  H       6.916297     -1.920705      0.599187
  H       3.188535      0.103662     -0.096675
  H       1.420658     -4.974594      0.168025
  H       2.765453     -4.386091      1.159671
  H       2.321919     -6.101290      1.197935
  H       3.679903     -0.974194     -3.612702
  H       2.457093     -4.818124     -5.084890
  H       1.522966     -0.005488     -4.334539
  H       0.314597     -3.853128     -5.829223
  H      -0.182313     -1.449844     -5.439430
  F      -0.581760     -1.844770      0.487438
  F      -2.481062     -0.889529     -0.090329
  F       0.672342      0.122258     -1.277683
  F      -1.289095      1.129036     -1.250282
  F      -1.459264     -1.070363     -2.829357
  F       0.046957     -2.435670     -1.975866
  F      -1.201074      0.844981      1.612601
  F       0.895267      0.204260      1.363407
  F      -2.182760     -3.755348     -0.671802
  F      -3.468539     -2.547378     -1.995617
  F       0.614129      2.759289      2.060449
  F      -0.694720      3.183960      0.354156
  F      -3.048269     -4.966041     -2.995758
  F      -0.886522     -4.794987     -2.830695
  F      -1.987219     -3.472193     -4.178555
  O       1.402177      2.993662     -1.315195
  O       2.711043      2.455052      0.463448
  C      -1.196644     -1.099180     -0.458563
  C      -0.473457      0.292061     -0.571574
  C      -1.186938     -1.910654     -1.804612
  C      -0.106959      0.934454      0.808305
  C      -2.234564     -3.074799     -1.839555
  C       0.360538      2.420980      0.758268
  C      -2.020619     -4.104180     -2.998101
  C       1.631339      2.663267     -0.132057
80
Coordinates from ORCA-job R4N+PFOA-_altA_r2 E -2865.066078906945
  N       5.444625      0.577413      2.497276
  C       3.515261     -4.309043     -1.573903
  C       4.348790     -4.684580     -2.808457
  C       4.542529     -3.548036     -3.827260
  C       4.072835     -3.090012     -0.873317
  C       3.382562     -5.504157     -0.615768
  C       5.649594      0.479709      0.977724
  C       5.107769     -0.772914      0.358490
  C       3.225333     -2.963890     -4.294827
  C       5.380673     -3.067145     -0.375040
  C       3.295975     -1.938764     -0.737747
  C       5.381991     -4.040944     -5.012038
  C       6.248325     -0.472501      3.204502
  C       3.997953      0.431697      2.870160
  C       5.923544      1.935055      2.928059
  C       5.891342     -1.925240      0.233127
  C       3.805161     -0.789998     -0.145583
  C       2.431134     -5.232300      0.545514
  C       2.941111     -1.606892     -4.117967
  C       2.262128     -3.767621     -4.916426
  C       1.727141     -1.064231     -4.538074
  C       1.051741     -3.229460     -5.344183
  C       0.776969     -1.875560     -5.152544
  H       2.501124     -4.051336     -1.915706
  H       3.865706     -5.537106     -3.305615
  H       5.340869     -5.031314     -2.487056
  H       5.096903     -2.739569     -3.330940
  H       4.376958     -5.773578     -0.233498
  H       3.023313     -6.367037     -1.192266
  H       6.729928      0.568501      0.831559
  H       5.153189      1.355285      0.548325
  H       6.015234     -3.944281     -0.476892
  H       2.285542     -1.939936     -1.133311
  H       6.354164     -4.410751     -4.666426
  H       5.559450     -3.235725     -5.733190
  H       4.876079     -4.860127     -5.536234
  H       6.115628     -0.332667      4.279143
  H       7.298717     -0.352167      2.931434
  H       5.885165     -1.458002      2.909699
  H       3.912173      0.581645      3.948458
  H       3.664594     -0.574577      2.611953
  H       3.419884      1.182306      2.327761
  H       5.821118      2.008601      4.012308
  H       5.309077      2.691361      2.435284
  H       6.970368      2.043107      2.637090
  H       6.914815     -1.921957      0.600624
  H       3.192992      0.107140     -0.095338
  H       1.433395     -4.961914      0.177147
  H       2.788871     -4.406806      1.171612
  H       2.323987     -6.114787      1.185274
  H       3.678341     -0.969383     -3.634501
  H       2.458485     -4.826920     -5.066437
  H       1.523811     -0.008429     -4.374522
  H       0.316123     -3.872784     -5.820058
  H      -0.179155     -1.463880     -5.462740
  F      -0.586878     -1.836118      0.489607
  F      -2.482802     -0.882627     -0.093571
  F       0.672821      0.123834     -1.278216
  F      -1.286585      1.133196     -1.257109
  F      -1.457112     -1.071384     -2.829685
  F       0.042731     -2.440000     -1.971450
  F      -1.211836      0.856537      1.601663
  F       0.882738      0.211330      1.367105
  F      -2.187578     -3.745797     -0.662645
  F      -3.472283     -2.544238     -1.990649
  F       0.600425      2.762474      2.061007
  F      -0.703487      3.190650      0.353300
  F      -3.057428     -4.965665     -2.978152
  F      -0.896621     -4.799619     -2.818717
  F      -1.995264     -3.483504     -4.171014
  O       1.401000      3.010116     -1.311382
  O       2.706179      2.472201      0.463368
  C      -1.198714     -1.094455     -0.460489
  C      -0.474686      0.295348     -0.575609
  C      -1.189209     -1.910461     -1.803258
  C      -0.114128      0.939378      0.803119
  C      -2.238932     -3.071311     -1.833904
  C       0.353100      2.429117      0.756337
  C      -2.028212     -4.107113     -2.986806
  C       1.622999      2.677341     -0.127481
80
Coordinates from ORCA-job R4N+PFOA-_altA_r2 E -2865.066255421109
  N       5.448454      0.573282      2.499566
  C       3.515348     -4.306315     -1.574046
  C       4.351814     -4.680703     -2.806687
  C       4.542034     -3.544019     -3.825318
  C       4.072620     -3.087407     -0.873061
  C       3.384133     -5.503850     -0.618486
  C       5.655460      0.476810      0.980019
  C       5.110422     -0.772626      0.359058
  C       3.223329     -2.966396     -4.295789
  C       5.379761     -3.066772     -0.373722
  C       3.297561     -1.935103     -0.738099
  C       5.384155     -4.032900     -5.009614
  C       6.251846     -0.477158      3.204900
  C       4.002825      0.426486      2.873675
  C       5.926815      1.929828      2.931846
  C       5.891997     -1.926165      0.233797
  C       3.808474     -0.787665     -0.145272
  C       2.440255     -5.234298      0.548401
  C       2.939425     -1.607988     -4.134209
  C       2.260759     -3.776869     -4.908802
  C       1.727669     -1.069932     -4.564698
  C       1.051893     -3.243446     -5.344699
  C       0.779470     -1.886986     -5.173032
  H       2.500956     -4.049625     -1.915125
  H       3.873990     -5.536275     -3.303033
  H       5.344489     -5.022916     -2.483382
  H       5.092212     -2.732812     -3.329054
  H       4.379646     -5.778716     -0.243690
  H       3.019487     -6.362953     -1.196948
  H       6.736915      0.560949      0.839990
  H       5.167441      1.358890      0.554627
  H       6.012349     -3.945125     -0.474437
  H       2.286863     -1.934699     -1.132686
  H       6.356301     -4.401446     -4.663332
  H       5.561127     -3.226436     -5.729111
  H       4.880754     -4.851924     -5.535918
  H       6.123426     -0.337051      4.279888
  H       7.301513     -0.359753      2.928499
  H       5.885662     -1.461919      2.911753
  H       3.923209      0.574359      3.952567
  H       3.669928     -0.578530      2.611551
  H       3.423210      1.179949      2.337275
  H       5.824329      2.002221      4.016021
  H       5.312024      2.686316      2.440030
  H       6.973514      2.039268      2.641418
  H       6.915095     -1.923507      0.601644
  H       3.198726      0.110631     -0.093404
  H       1.444993     -4.946505      0.187293
  H       2.810227     -4.422184      1.184105
  H       2.323916     -6.123095      1.177393
  H       3.675849     -0.965904     -3.655929
  H       2.457107     -4.837630     -5.046057
  H       1.525161     -0.011978     -4.417490
  H       0.316852     -3.892040     -5.813519
  H      -0.174268     -1.477072     -5.492202
  F      -0.593735     -1.830988      0.488602
  F      -2.484871     -0.875489     -0.100046
  F       0.675052      0.126634     -1.277667
  F      -1.281379      1.137903     -1.263458
  F      -1.450970     -1.072077     -2.834588
  F       0.039310     -2.444242     -1.969201
  F      -1.220991      0.854359      1.596728
  F       0.873213      0.214068      1.371588
  F      -2.198668     -3.734011     -0.658223
  F      -3.476170     -2.534975     -1.992359
  F       0.588111      2.760888      2.067232
  F      -0.716744      3.191983      0.361708
  F      -3.068132     -4.962972     -2.965445
  F      -0.907865     -4.801520     -2.809695
  F      -2.004240     -3.492228     -4.168117
  O       1.387374      3.024825     -1.303877
  O       2.697820      2.490075      0.462823
  C      -1.200699     -1.090095     -0.464578
  C      -0.474257      0.298448     -0.578950
  C      -1.190368     -1.909027     -1.805395
  C      -0.120751      0.939356      0.802075
  C      -2.245059     -3.064877     -1.832772
  C       0.342044      2.432138      0.761160
  C      -2.037187     -4.107387     -2.980008
  C       1.611213      2.689641     -0.121971
80
Coordinates from ORCA-job R4N+PFOA-_altA_r2 E -2865.066410173392
  N       5.455687      0.570421      2.501930
  C       3.515648     -4.304147     -1.571661
  C       4.353624     -4.679070     -2.803383
  C       4.539621     -3.542436     -3.822452
  C       4.073616     -3.084770     -0.871931
  C       3.385639     -5.502297     -0.616220
  C       5.662864      0.475240      0.982439
  C       5.114670     -0.771431      0.359690
  C       3.219507     -2.970488     -4.296211
  C       5.380341     -3.066106     -0.371543
  C       3.300458     -1.931004     -0.738499
  C       5.383793     -4.027350     -5.007126
  C       6.259237     -0.480034      3.205639
  C       4.010951      0.421484      2.876852
  C       5.932906      1.925914      2.935367
  C       5.894419     -1.926351      0.234947
  C       3.813148     -0.784708     -0.144795
  C       2.448287     -5.232206      0.555501
  C       2.937508     -1.609937     -4.151362
  C       2.256954     -3.786829     -4.901117
  C       1.729037     -1.075068     -4.594290
  C       1.050912     -3.256606     -5.347912
  C       0.782285     -1.897114     -5.197528
  H       2.501187     -4.048631     -1.912530
  H       3.879689     -5.537549     -3.298141
  H       5.347098     -5.016986     -2.478569
  H       5.086153     -2.728648     -3.326555
  H       4.382123     -5.780777     -0.246976
  H       3.015986     -6.359097     -1.194869
  H       6.744895      0.555002      0.843981
  H       5.181675      1.363280      0.561853
  H       6.010825     -3.946119     -0.470361
  H       2.289523     -1.928486     -1.132448
  H       6.356440     -4.394465     -4.660779
  H       5.559285     -3.219063     -5.724846
  H       4.882186     -4.846266     -5.535191
  H       6.135035     -0.340729      4.281233
  H       7.308672     -0.365360      2.927203
  H       5.891817     -1.464932      2.914337
  H       3.934890      0.567795      3.956194
  H       3.677300     -0.581888      2.610427
  H       3.428526      1.177170      2.346447
  H       5.831544      1.998201      4.019679
  H       5.317515      2.683306      2.445590
  H       6.979330      2.038407      2.644993
  H       6.917451     -1.924594      0.602888
  H       3.205777      0.114944     -0.090717
  H       1.455584     -4.928837      0.200321
  H       2.829980     -4.431108      1.197978
  H       2.323427     -6.125433      1.176499
  H       3.673247     -0.963606     -3.677746
  H       2.451646     -4.849575     -5.024346
  H       1.528239     -0.014738     -4.464354
  H       0.316126     -3.909223     -5.811197
  H      -0.167499     -1.487571     -5.528898
  F      -0.600318     -1.829661      0.485381
  F      -2.487121     -0.870316     -0.109130
  F       0.678385      0.129195     -1.275340
  F      -1.275897      1.141285     -1.267736
  F      -1.440422     -1.072832     -2.842501
  F       0.037364     -2.450132     -1.967815
  F      -1.229127      0.841375      1.596491
  F       0.867264      0.213426      1.376245
  F      -2.215361     -3.722848     -0.660612
  F      -3.479318     -2.520566     -2.003130
  F       0.577287      2.753652      2.078668
  F      -0.735531      3.187791      0.380158
  F      -3.081163     -4.958080     -2.960355
  F      -0.920522     -4.802411     -2.806842
  F      -2.013998     -3.497452     -4.171309
  O       1.359442      3.040523     -1.293620
  O       2.684673      2.510821      0.461521
  C      -1.202265     -1.087682     -0.469953
  C      -0.473107      0.300038     -0.580844
  C      -1.189934     -1.907987     -1.810149
  C      -0.126860      0.935339      0.804739
  C      -2.252322     -3.057235     -1.837615
  C       0.327751      2.430869      0.771787
  C      -2.047562     -4.105804     -2.979900
  C       1.593452      2.701893     -0.115548
80
Coordinates from ORCA-job R4N+PFOA-_altA_r2 E -2865.066564153923
  N       5.467031      0.568664      2.504606
  C       3.515325     -4.301855     -1.565878
  C       4.352198     -4.679385     -2.798073
  C       4.534016     -3.543672     -3.818519
  C       4.075446     -3.081449     -0.869511
  C       3.386096     -5.498446     -0.607941
  C       5.672406      0.475256      0.984871
  C       5.120845     -0.768814      0.360250
  C       3.213236     -2.975680     -4.296252
  C       5.382233     -3.064697     -0.368679
  C       3.304646     -1.925647     -0.738566
  C       5.379561     -4.026147     -5.003777
  C       6.270980     -0.481847      3.206877
  C       4.022803      0.417212      2.879908
  C       5.943249      1.923142      2.939216
  C       5.898786     -1.925327      0.236153
  C       3.819420     -0.780268     -0.144188
  C       2.454867     -5.224368      0.568077
  C       2.935565     -1.612159     -4.169973
  C       2.249638     -3.796568     -4.893409
  C       1.731911     -1.078441     -4.627617
  C       1.048324     -3.267423     -5.354477
  C       0.785628     -1.904360     -5.226674
  H       2.500834     -4.047240     -1.906626
  H       3.879624     -5.540236     -3.290058
  H       5.346614     -5.014246     -2.472963
  H       5.077941     -2.727569     -3.323628
  H       4.383474     -5.779022     -0.242613
  H       3.011426     -6.354516     -1.184536
  H       6.754476      0.550966      0.843599
  H       5.196231      1.368655      0.570074
  H       6.010426     -3.946719     -0.465340
  H       2.293545     -1.920594     -1.132238
  H       6.353015     -4.391652     -4.657543
  H       5.553060     -3.216439     -5.720520
  H       4.878906     -4.845455     -5.532396
  H       6.150121     -0.343918      4.283129
  H       7.320512     -0.369123      2.927513
  H       5.903628     -1.467320      2.917009
  H       3.947556      0.562609      3.959509
  H       3.687605     -0.584552      2.609942
  H       3.436859      1.174102      2.354546
  H       5.844180      1.995391      4.023872
  H       5.327063      2.682084      2.452526
  H       6.989203      2.038964      2.647979
  H       6.922045     -1.924985      0.603802
  H       3.214453      0.120913     -0.087417
  H       1.464249     -4.908657      0.217643
  H       2.847356     -4.430652      1.213330
  H       2.323364     -6.119475      1.185160
  H       3.671321     -0.962265     -3.701020
  H       2.440421     -4.861813     -5.001173
  H       1.534567     -0.015435     -4.516031
  H       0.313414     -3.922527     -5.814052
  H      -0.158084     -1.493570     -5.574081
  F      -0.605322     -1.833963      0.480229
  F      -2.489084     -0.870559     -0.120161
  F       0.682264      0.130286     -1.270707
  F      -1.271780      1.141477     -1.268268
  F      -1.424115     -1.073914     -2.852317
  F       0.038091     -2.458980     -1.966453
  F      -1.235216      0.817241      1.601214
  F       0.866299      0.209303      1.379871
  F      -2.235273     -3.714314     -0.671527
  F      -3.479874     -2.502379     -2.023913
  F       0.567594      2.739902      2.095025
  F      -0.761979      3.176519      0.409837
  F      -3.094637     -4.951185     -2.965727
  F      -0.932834     -4.802647     -2.813660
  F      -2.022995     -3.498006     -4.182016
  O       1.315045      3.058905     -1.281385
  O       2.665031      2.536418      0.458124
  C      -1.202848     -1.089287     -0.476019
  C      -0.471882      0.298421     -0.580471
  C      -1.186743     -1.908700     -1.817115
  C      -0.132201      0.926767      0.810984
  C      -2.258862     -3.049806     -1.849638
  C       0.309673      2.425038      0.787795
  C      -2.057586     -4.102535     -2.988639
  C       1.567189      2.715300     -0.108859
80
Coordinates from ORCA-job R4N+PFOA-_altA_r2 E -2865.066696872117
  N       5.480047      0.568342      2.506572
  C       3.512897     -4.298948     -1.557492
  C       4.345623     -4.681583     -2.791329
  C       4.525798     -3.548268     -3.814258
  C       4.076720     -3.077218     -0.866410
  C       3.383591     -5.491674     -0.594668
  C       5.681765      0.477389      0.986290
  C       5.127273     -0.764755      0.360144
  C       3.206004     -2.980337     -4.295827
  C       5.384102     -3.062184     -0.366337
  C       3.308596     -1.919108     -0.738330
  C       5.371337     -4.032333     -4.999524
  C       6.284348     -0.482968      3.207290
  C       4.035904      0.415467      2.881866
  C       5.956445      1.921927      2.942576
  C       5.903520     -1.922763      0.236411
  C       3.825586     -0.774287     -0.144002
  C       2.456559     -5.210552      0.583700
  C       2.934883     -1.613812     -4.184423
  C       2.240201     -3.802284     -4.888361
  C       1.736856     -1.077891     -4.654973
  C       1.044971     -3.270782     -5.363471
  C       0.789580     -1.904522     -5.252538
  H       2.498359     -4.044203     -1.897796
  H       3.870342     -5.543218     -3.279605
  H       5.340588     -5.016618     -2.467595
  H       5.069710     -2.730977     -3.321215
  H       4.381476     -5.772418     -0.230519
  H       3.005108     -6.349048     -1.166958
  H       6.763297      0.550713      0.838841
  H       5.206829      1.373895      0.576897
  H       6.010197     -3.946083     -0.461422
  H       2.297475     -1.911810     -1.132203
  H       6.345351     -4.396729     -4.653142
  H       5.543533     -3.223104     -5.717348
  H       4.870149     -4.852707     -5.526367
  H       6.164646     -0.346760      4.284009
  H       7.334096     -0.370428      2.928034
  H       5.917753     -1.468762      2.917160
  H       3.958521      0.561075      3.961420
  H       3.699141     -0.585621      2.611235
  H       3.447267      1.171807      2.358163
  H       5.860368      1.993181      4.027708
  H       5.339438      2.682667      2.459431
  H       7.001786      2.039497      2.649307
  H       6.927221     -1.924305      0.603269
  H       3.222481      0.128175     -0.084816
  H       1.466409     -4.890797      0.235236
  H       2.855185     -4.417050      1.225756
  H       2.323270     -6.103779      1.203355
  H       3.671851     -0.962752     -3.718657
  H       2.425235     -4.869866     -4.984070
  H       1.544721     -0.012529     -4.557278
  H       0.309453     -3.925531     -5.822824
  H      -0.146964     -1.490491     -5.615892
  F      -0.605370     -1.844439      0.475356
  F      -2.489210     -0.880054     -0.127914
  F       0.684524      0.128764     -1.264948
  F      -1.272209      1.136194     -1.263077
  F      -1.404740     -1.075230     -2.859761
  F       0.042881     -2.469421     -1.964767
  F      -1.235823      0.786720      1.611004
  F       0.872120      0.202354      1.380027
  F      -2.249209     -3.714182     -0.689845
  F      -3.475750     -2.488364     -2.048334
  F       0.560799      2.722888      2.111495
  F      -0.791289      3.159324      0.443684
  F      -3.101497     -4.944751     -2.983704
  F      -0.938400     -4.801974     -2.832722
  F      -2.026587     -3.492156     -4.199037
  O       1.264046      3.076888     -1.270586
  O       2.642328      2.562022      0.452041
  C      -1.201417     -1.096768     -0.479955
  C      -0.471732      0.292261     -0.577000
  C      -1.180191     -1.912418     -1.823692
  C      -0.135120      0.914708      0.819165
  C      -2.260346     -3.046608     -1.866437
  C       0.291642      2.415666      0.804614
  C      -2.061756     -4.098542     -3.006459
  C       1.536984      2.727567     -0.104141
80
Coordinates from ORCA-job R4N+PFOA-_altA_r2 E -2865.066816621382
  N       5.493249      0.568760      2.508114
  C       3.507323     -4.294368     -1.547467
  C       4.333390     -4.684464     -2.783484
  C       4.514749     -3.554911     -3.809845
  C       4.076612     -3.071587     -0.862936
  C       3.376827     -5.481429     -0.578110
  C       5.690354      0.481109      0.987230
  C       5.133529     -0.759700      0.359727
  C       3.197322     -2.983463     -4.294417
  C       5.384854     -3.058735     -0.364555
  C       3.311976     -1.910751     -0.738050
  C       5.358644     -4.044714     -4.994446
  C       6.297199     -0.484609      3.206930
  C       4.048886      0.416640      2.882786
  C       5.971621      1.921322      2.946086
  C       5.907679     -1.919276      0.236001
  C       3.831615     -0.766531     -0.144462
  C       2.452165     -5.190813      0.600531
  C       2.934127     -1.614302     -4.192716
  C       2.228833     -3.803031     -4.886291
  C       1.742325     -1.073186     -4.673717
  C       1.040506     -3.266197     -5.373689
  C       0.793101     -1.897373     -5.272673
  H       2.492827     -4.037900     -1.886806
  H       3.851670     -5.545201     -3.267340
  H       5.328341     -5.022946     -2.462661
  H       5.061329     -2.737618     -3.319599
  H       4.374703     -5.761274     -0.212888
  H       2.995499     -6.341632     -1.144330
  H       6.770946      0.554059      0.832326
  H       5.212848      1.378282      0.582333
  H       6.008739     -3.944471     -0.458734
  H       2.301174     -1.901406     -1.132864
  H       6.332906     -4.408480     -4.647733
  H       5.530315     -3.238215     -5.715643
  H       4.855568     -4.866846     -5.517046
  H       6.176293     -0.350487      4.283849
  H       7.347191     -0.370825      2.928670
  H       5.931155     -1.469913      2.914367
  H       3.966959      0.563987      3.961881
  H       3.710878     -0.585000      2.614984
  H       3.459600      1.170714      2.356316
  H       5.878584      1.990151      4.031714
  H       5.354100      2.683995      2.466506
  H       7.016326      2.038358      2.650038
  H       6.931879     -1.923438      0.601774
  H       3.230108      0.136978     -0.083620
  H       1.460684     -4.875575      0.251459
  H       2.851853     -4.390479      1.233771
  H       2.322061     -6.078594      1.228791
  H       3.673206     -0.964554     -3.728206
  H       2.407193     -4.872519     -4.974717
  H       1.556668     -0.005882     -4.584297
  H       0.304100     -3.918089     -5.835984
  H      -0.135756     -1.478506     -5.650442
  F      -0.598476     -1.860117      0.471213
  F      -2.485684     -0.899526     -0.130860
  F       0.685284      0.124865     -1.260403
  F      -1.276873      1.124897     -1.253925
  F      -1.383268     -1.077840     -2.863852
  F       0.053056     -2.481145     -1.963298
  F      -1.229293      0.752650      1.623972
  F       0.884882      0.193628      1.374947
  F      -2.250253     -3.724688     -0.712786
  F      -3.465747     -2.483545     -2.069931
  F       0.556455      2.705035      2.124541
  F      -0.820639      3.137501      0.475855
  F      -3.097859     -4.941149     -3.011628
  F      -0.933808     -4.800862     -2.863082
  F      -2.023245     -3.481337     -4.219970
  O       1.213149      3.094060     -1.263042
  O       2.619192      2.586641      0.442422
  C      -1.196561     -1.110290     -0.481618
  C      -0.472057      0.281581     -0.572022
  C      -1.169300     -1.919994     -1.829262
  C      -0.134701      0.899853      0.826735
  C      -2.253840     -3.049822     -1.885161
  C       0.275453      2.403935      0.818666
  C      -2.057203     -4.095348     -3.031155
  C       1.506077      2.738679     -0.102744
80
Coordinates from ORCA-job R4N+PFOA-_altA_r2 E -2865.066920233725
  N       5.503942      0.569250      2.508886
  C       3.498227     -4.287641     -1.538722
  C       4.317278     -4.686772     -2.776298
  C       4.503876     -3.562007     -3.806688
  C       4.074141     -3.064601     -0.860539
  C       3.365297     -5.468463     -0.562569
  C       5.696891      0.485372      0.987616
  C       5.138433     -0.754559      0.358911
  C       3.190205     -2.984328     -4.294013
  C       5.383118     -3.054868     -0.364043
  C       3.313751     -1.900782     -0.738425
  C       5.345444     -4.061142     -4.989220
  C       6.306404     -0.487446      3.205435
  C       4.059207      0.420527      2.882524
  C       5.986180      1.920493      2.949328
  C       5.909734     -1.915907      0.234840
  C       3.836590     -0.757606     -0.145877
  C       2.441114     -5.167699      0.614305
  C       2.934100     -1.613547     -4.194569
  C       2.219028     -3.799020     -4.888442
  C       1.747492     -1.065762     -4.681047
  C       1.036565     -3.255385     -5.383076
  C       0.796046     -1.885111     -5.283698
  H       2.483841     -4.027892     -1.876407
  H       3.826967     -5.545067     -3.256026
  H       5.311099     -5.031671     -2.458386
  H       5.055048     -2.745902     -3.319501
  H       4.362544     -5.747443     -0.194825
  H       2.982038     -6.332024     -1.122340
  H       6.776507      0.559956      0.826851
  H       5.214052      1.381085      0.585804
  H       6.004499     -3.942438     -0.457925
  H       2.303539     -1.889401     -1.134671
  H       6.319075     -4.425323     -4.641184
  H       5.518536     -3.259438     -5.715453
  H       4.839614     -4.885140     -5.506273
  H       6.182698     -0.355606      4.282309
  H       7.356586     -0.372028      2.928599
  H       5.939802     -1.471215      2.908713
  H       3.972085      0.571302      3.960764
  H       3.720485     -0.582730      2.620527
  H       3.471996      1.171236      2.349231
  H       5.895432      1.985760      4.035332
  H       5.368786      2.685027      2.472641
  H       7.030395      2.034733      2.650560
  H       6.934279     -1.923365      0.599640
  H       3.236593      0.146791     -0.084249
  H       1.447131     -4.863336      0.262675
  H       2.837268     -4.356021      1.235507
  H       2.317420     -6.047761      1.254609
  H       3.675391     -0.967200     -3.728792
  H       2.391377     -4.869663     -4.975340
  H       1.567951      0.002735     -4.592712
  H       0.299070     -3.902914     -5.849940
  H      -0.126422     -1.460926     -5.671393
  F      -0.585528     -1.877099      0.469025
  F      -2.478573     -0.924882     -0.127408
  F       0.684093      0.120571     -1.259176
  F      -1.284788      1.110177     -1.242774
  F      -1.364368     -1.082038     -2.863427
  F       0.066387     -2.491992     -1.962421
  F      -1.216338      0.721149      1.637802
  F       0.902054      0.185194      1.365239
  F      -2.235926     -3.744490     -0.733867
  F      -3.452100     -2.491577     -2.081438
  F       0.554361      2.689412      2.132107
  F      -0.845156      3.115297      0.500631
  F      -3.082349     -4.942846     -3.041618
  F      -0.918160     -4.799418     -2.896788
  F      -2.013181     -3.469359     -4.238901
  O       1.171572      3.108250     -1.259488
  O       2.599976      2.607386      0.430528
  C      -1.188906     -1.126974     -0.480479
  C      -0.472672      0.268862     -0.566996
  C      -1.156366     -1.930293     -1.832252
  C      -0.131049      0.884650      0.831843
  C      -2.239948     -3.059741     -1.900357
  C       0.263512      2.392297      0.827527
  C      -2.043507     -4.094608     -3.055896
  C       1.479793      2.747687     -0.104354
80
Coordinates from ORCA-job R4N+PFOA-_altA_r2 E -2865.066997650852
  N       5.509984      0.569444      2.509250
  C       3.487543     -4.279440     -1.534057
  C       4.301747     -4.687452     -2.771565
  C       4.496199     -3.567734     -3.806055
  C       4.069910     -3.057107     -0.860340
  C       3.351009     -5.455222     -0.552609
  C       5.701286      0.488566      0.988014
  C       5.141701     -0.750525      0.358125
  C       3.186563     -2.983542     -4.295873
  C       5.379105     -3.051471     -0.364839
  C       3.313986     -1.890380     -0.739834
  C       5.335634     -4.077476     -4.985356
  C       6.309641     -0.490836      3.204225
  C       4.064707      0.425936      2.881339
  C       5.996671      1.919279      2.951911
  C       5.909449     -1.913895      0.233555
  C       3.840361     -0.748917     -0.147871
  C       2.425986     -5.146017      0.621355
  C       2.934831     -1.612357     -4.192634
  C       2.213721     -3.792892     -4.894853
  C       1.751291     -1.058733     -4.679719
  C       1.034438     -3.243390     -5.390432
  C       0.798095     -1.872876     -5.286478
  H       2.473428     -4.015702     -1.869733
  H       3.803804     -5.543009     -3.248246
  H       5.293491     -5.039333     -2.454820
  H       5.052303     -2.753322     -3.321650
  H       4.347087     -5.734713     -0.182244
  H       2.966257     -6.321181     -1.107564
  H       6.780398      0.565607      0.825607
  H       5.213278      1.382085      0.587667
  H       5.997681     -3.940904     -0.458657
  H       2.304483     -1.876598     -1.137583
  H       6.307717     -4.443287     -4.635036
  H       5.512132     -3.281366     -5.716800
  H       4.826847     -4.902728     -5.497315
  H       6.182796     -0.360746      4.280877
  H       7.360090     -0.374940      2.929029
  H       5.941228     -1.472540      2.903405
  H       3.973676      0.581506      3.958498
  H       3.725687     -0.579194      2.625937
  H       3.481796      1.173416      2.339455
  H       5.906423      1.981436      4.038017
  H       5.380259      2.685166      2.476334
  H       7.040810      2.029751      2.651876
  H       6.933986     -1.924926      0.598057
  H       3.242020      0.156422     -0.086071
  H       1.429906     -4.852578      0.266553
  H       2.817046     -4.323961      1.232129
  H       2.307702     -6.018946      1.272226
  H       3.677570     -0.970054     -3.723741
  H       2.382393     -4.863798     -4.984840
  H       1.575861      0.010105     -4.586953
  H       0.295757     -3.886861     -5.861014
  H      -0.120967     -1.444498     -5.677753
  F      -0.569665     -1.890613      0.468694
  F      -2.469311     -0.948922     -0.119244
  F       0.681669      0.118699     -1.262073
  F      -1.293241      1.096806     -1.232296
  F      -1.352563     -1.087379     -2.859554
  F       0.079241     -2.499583     -1.962708
  F      -1.200703      0.697767      1.649412
  F       0.919135      0.178925      1.354044
  F      -2.210645     -3.767344     -0.746492
  F      -3.438730     -2.509832     -2.079152
  F       0.554600      2.677859      2.134939
  F      -0.860706      3.097793      0.515864
  F      -3.060158     -4.949607     -3.063506
  F      -0.896607     -4.798190     -2.923489
  F      -2.000658     -3.460719     -4.249986
  O       1.145620      3.117205     -1.258984
  O       2.588463      2.622220      0.419095
  C      -1.180014     -1.142049     -0.477502
  C      -0.472848      0.258059     -0.563488
  C      -1.144693     -1.940565     -1.832323
  C      -0.125310      0.872035      0.833845
  C      -2.222873     -3.073272     -1.907378
  C       0.257340      2.383218      0.831396
  C      -2.025286     -4.096862     -3.072854
  C       1.462717      2.753810     -0.107137
80
Coordinates from ORCA-job R4N+PFOA-_altA_r2 E -2865.067051242537
  N       5.510938      0.569550      2.509885
  C       3.478692     -4.271774     -1.534101
  C       4.291349     -4.686330     -2.769989
  C       4.492526     -3.570444     -3.807617
  C       4.065908     -3.050870     -0.861947
  C       3.337674     -5.444987     -0.550047
  C       5.704240      0.489660      0.989135
  C       5.143956     -0.748516      0.358110
  C       3.185352     -2.981960     -4.298323
  C       5.374631     -3.049624     -0.365686
  C       3.313946     -1.881612     -0.742103
  C       5.330131     -4.088409     -4.984218
  C       6.306697     -0.493365      3.205189
  C       4.064725      0.431382      2.879364
  C       6.000859      1.918268      2.953866
  C       5.908001     -1.914047      0.233569
  C       3.843549     -0.742231     -0.149790
  C       2.410873     -5.130800      0.620837
  C       2.934505     -1.611353     -4.188491
  C       2.212267     -3.787552     -4.901822
  C       1.751573     -1.054558     -4.673001
  C       1.033395     -3.234895     -5.394261
  C       0.797886     -1.865028     -5.283216
  H       2.465188     -4.004364     -1.868468
  H       3.789210     -5.540160     -3.245164
  H       5.281044     -5.042837     -2.452307
  H       5.052355     -2.757411     -3.325280
  H       4.332250     -5.726580     -0.177547
  H       2.951777     -6.311505     -1.103265
  H       6.783531      0.568442      0.829493
  H       5.213722      1.381539      0.588408
  H       5.990424     -3.940887     -0.459087
  H       2.305216     -1.864881     -1.141395
  H       6.300594     -4.456360     -4.632021
  H       5.510193     -3.296604     -5.719318
  H       4.818874     -4.913964     -5.492958
  H       6.177077     -0.364037      4.281533
  H       7.357760     -0.378890      2.932201
  H       5.936126     -1.473378      2.901825
  H       3.971343      0.592200      3.955430
  H       3.725435     -0.574954      2.628757
  H       3.487058      1.176874      2.329723
  H       5.908825      1.979366      4.039770
  H       5.386329      2.684847      2.477098
  H       7.045545      2.025670      2.655052
  H       6.932054     -1.928394      0.599030
  H       3.247086      0.164247     -0.088307
  H       1.414273     -4.843097      0.263000
  H       2.798182     -4.303381      1.226612
  H       2.293913     -5.999710      1.277154
  H       3.677601     -0.972065     -3.716285
  H       2.380370     -4.857978     -4.997159
  H       1.577483      0.013916     -4.573968
  H       0.293928     -3.875985     -5.866771
  H      -0.121017     -1.434643     -5.672497
  F      -0.553511     -1.897956      0.468372
  F      -2.459169     -0.965721     -0.110437
  F       0.679861      0.120412     -1.269064
  F      -1.299291      1.088100     -1.225413
  F      -1.349471     -1.093174     -2.855393
  F       0.089456     -2.502657     -1.965447
  F      -1.186230      0.684687      1.655712
  F       0.933053      0.175438      1.344070
  F      -2.182218     -3.786746     -0.748790
  F      -3.428430     -2.531383     -2.065475
  F       0.558166      2.670925      2.134316
  F      -0.864996      3.088096      0.521773
  F      -3.039925     -4.958878     -3.072029
  F      -0.877187     -4.798492     -2.937978
  F      -1.991234     -3.457621     -4.251676
  O       1.136725      3.119772     -1.260832
  O       2.586594      2.630180      0.410072
  C      -1.170864     -1.151961     -0.475047
  C      -0.471311      0.251885     -0.563124
  C      -1.136123     -1.948389     -1.831156
  C      -0.118256      0.864084      0.832594
  C      -2.207352     -3.086379     -1.905827
  C       0.257764      2.377942      0.831274
  C      -2.009286     -4.101522     -3.078864
  C       1.457386      2.756549     -0.110234
80
Coordinates from ORCA-job R4N+PFOA-_altA_r2 E -2865.067095893357
  N       5.510142      0.569918      2.510958
  C       3.470594     -4.263965     -1.536329
  C       4.283776     -4.683777     -2.769712
  C       4.490556     -3.570914     -3.809953
  C       4.061980     -3.045094     -0.863936
  C       3.323684     -5.436008     -0.551251
  C       5.708084      0.489277      0.990955
  C       5.146622     -0.747582      0.358899
  C       3.184879     -2.980023     -4.301529
  C       5.369723     -3.048992     -0.365398
  C       3.314261     -1.873047     -0.744733
  C       5.327229     -4.095022     -4.984065
  C       6.300338     -0.495358      3.208200
  C       4.062386      0.437367      2.876352
  C       6.003100      1.917197      2.956083
  C       5.906286     -1.915898      0.235342
  C       3.847432     -0.736106     -0.151487
  C       2.394862     -5.118141      0.616618
  C       2.933115     -1.610282     -4.185567
  C       2.212463     -3.783484     -4.908818
  C       1.749538     -1.052360     -4.666919
  C       1.032788     -3.229704     -5.397437
  C       0.796262     -1.860716     -5.279845
  H       2.458107     -3.992911     -1.870283
  H       3.779811     -5.536794     -3.244228
  H       5.271544     -5.043049     -2.449495
  H       5.052715     -2.758712     -3.329034
  H       4.316394     -5.721260     -0.176847
  H       2.936125     -6.301565     -1.104783
  H       6.788038      0.568103      0.836520
  H       5.217986      1.380605      0.588628
  H       5.982211     -3.942534     -0.457696
  H       2.306452     -1.852072     -1.145864
  H       6.296011     -4.465262     -4.629902
  H       5.510966     -3.306263     -5.721434
  H       4.814158     -4.920288     -5.491221
  H       6.168204     -0.366216      4.284228
  H       7.352528     -0.384494      2.938341
  H       5.927201     -1.473957      2.903468
  H       3.967128      0.604307      3.951202
  H       3.722275     -0.569427      2.628946
  H       3.490379      1.181773      2.319579
  H       5.907833      1.978721      4.041621
  H       5.391986      2.685051      2.477070
  H       7.048923      2.021694      2.660508
  H       6.929465     -1.933909      0.602884
  H       3.253691      0.172165     -0.090570
  H       1.399433     -4.830221      0.255801
  H       2.781149     -4.289935      1.221796
  H       2.274754     -5.985494      1.274331
  H       3.675773     -0.972827     -3.710410
  H       2.381560     -4.853223     -5.009039
  H       1.575142      0.015520     -4.562454
  H       0.292980     -3.869815     -5.870628
  H      -0.124141     -1.429782     -5.664846
  F      -0.535758     -1.902944      0.467047
  F      -2.447641     -0.979244     -0.101614
  F       0.678503      0.124744     -1.278995
  F      -1.304352      1.081468     -1.219451
  F      -1.351013     -1.100181     -2.851967
  F       0.098640     -2.503718     -1.970342
  F      -1.171541      0.673947      1.659678
  F       0.946863      0.172783      1.334688
  F      -2.152826     -3.804129     -0.745656
  F      -3.419484     -2.553870     -2.046180
  F       0.564939      2.664701      2.133335
  F      -0.864584      3.081027      0.526467
  F      -3.022578     -4.969777     -3.072383
  F      -0.860449     -4.800645     -2.946289
  F      -1.985542     -3.458371     -4.248531
  O       1.131342      3.119098     -1.263621
  O       2.588693      2.637345      0.400543
  C      -1.160604     -1.159654     -0.473320
  C      -0.468198      0.247959     -0.564448
  C      -1.128793     -1.955278     -1.829867
  C      -0.109537      0.857650      0.830237
  C      -2.193008     -3.099364     -1.899864
  C       0.261259      2.373764      0.830702
  C      -1.995889     -4.108072     -3.078946
  C       1.456250      2.758278     -0.113812
80
Coordinates from ORCA-job R4N+PFOA-_altA_r2 E -2865.067151314629
  N       5.509132      0.570818      2.512543
  C       3.461758     -4.255258     -1.539604
  C       4.276781     -4.679916     -2.769880
  C       4.489022     -3.569775     -3.812495
  C       4.057370     -3.039186     -0.865662
  C       3.306675     -5.426710     -0.554440
  C       5.714106      0.487522      0.993496
  C       5.150313     -0.747446      0.360567
  C       3.184676     -2.977659     -4.306228
  C       5.363703     -3.049574     -0.363504
  C       3.314895     -1.863618     -0.747481
  C       5.326239     -4.098862     -4.983634
  C       6.291582     -0.496748      3.213854
  C       4.058996      0.444832      2.871846
  C       6.005300      1.916307      2.958278
  C       5.904359     -1.919551      0.239056
  C       3.852611     -0.729624     -0.152980
  C       2.375556     -5.104691      0.610108
  C       2.931255     -1.608711     -4.185778
  C       2.213525     -3.780235     -4.916677
  C       1.746513     -1.050995     -4.664495
  C       1.032621     -3.226664     -5.402135
  C       0.794051     -1.858524     -5.279279
  H       2.450837     -3.980074     -1.874253
  H       3.772253     -5.532615     -3.244262
  H       5.262536     -5.041041     -2.445811
  H       5.052237     -2.757917     -3.332297
  H       4.296896     -5.717254     -0.177694
  H       2.916520     -6.290040     -1.109641
  H       6.795103      0.564014      0.845762
  H       5.227586      1.379512      0.588376
  H       5.971886     -3.946189     -0.454007
  H       2.308262     -1.836361     -1.150988
  H       6.293044     -4.471504     -4.626677
  H       5.514260     -3.312312     -5.722254
  H       4.812037     -4.923520     -5.490513
  H       6.156490     -0.366868      4.289438
  H       7.345516     -0.391681      2.948549
  H       5.915513     -1.474178      2.908810
  H       3.961259      0.619471      3.945160
  H       3.717216     -0.561836      2.626828
  H       3.493436      1.188654      2.307661
  H       5.905525      1.979928      4.043288
  H       5.399325      2.686111      2.475824
  H       7.052836      2.017405      2.667685
  H       6.926301     -1.942222      0.609703
  H       3.263116      0.181493     -0.092902
  H       1.383129     -4.810708      0.245836
  H       2.763864     -4.279500      1.217999
  H       2.247620     -5.972052      1.266315
  H       3.672955     -0.972094     -3.708130
  H       2.384238     -4.849347     -5.020410
  H       1.570783      0.016264     -4.555956
  H       0.292854     -3.866800     -5.875276
  H      -0.128823     -1.428016     -5.658797
  F      -0.513739     -1.908711      0.464546
  F      -2.433453     -0.993907     -0.090857
  F       0.676610      0.131058     -1.291526
  F      -1.310591      1.074392     -1.211000
  F      -1.355634     -1.108725     -2.848387
  F       0.108173     -2.503991     -1.977501
  F      -1.153881      0.660826      1.664193
  F       0.963901      0.169550      1.324674
  F      -2.121006     -3.822161     -0.739658
  F      -3.410227     -2.578079     -2.022743
  F       0.576688      2.656455      2.133526
  F      -0.862323      3.073267      0.535413
  F      -3.006438     -4.982776     -3.067626
  F      -0.844605     -4.804383     -2.952749
  F      -1.983106     -3.461694     -4.242758
  O       1.122000      3.116553     -1.267081
  O       2.592147      2.647354      0.387876
  C      -1.147993     -1.167879     -0.471304
  C      -0.463800      0.244231     -0.565800
  C      -1.121316     -1.962571     -1.828286
  C      -0.097888      0.850600      0.828223
  C      -2.178297     -3.113594     -1.891143
  C       0.266980      2.368808      0.831612
  C      -1.983726     -4.116505     -3.075944
  C       1.455441      2.760156     -0.118513
80
Coordinates from ORCA-job R4N+PFOA-_altA_r2 E -2865.067276417028
  N       5.509303      0.575240      2.517041
  C       3.433870     -4.226363     -1.548888
  C       4.254343     -4.667938     -2.769048
  C       4.484262     -3.567121     -3.819100
  C       4.043086     -3.019927     -0.869972
  C       3.244531     -5.392593     -0.562946
  C       5.735284      0.482577      1.000955
  C       5.162968     -0.746393      0.365626
  C       3.184810     -2.971065     -4.321316
  C       5.344878     -3.051007     -0.356518
  C       3.317427     -1.833484     -0.755514
  C       5.324171     -4.111936     -4.980314
  C       6.267995     -0.498313      3.232177
  C       4.051951      0.468570      2.856532
  C       6.014362      1.915787      2.963507
  C       5.898990     -1.930497      0.251077
  C       3.869662     -0.708816     -0.157408
  C       2.294352     -5.048811      0.578955
  C       2.927662     -1.603943     -4.190281
  C       2.216979     -3.771248     -4.940255
  C       1.739942     -1.046728     -4.662408
  C       1.033205     -3.218112     -5.418460
  C       0.789247     -1.852187     -5.281792
  H       2.428394     -3.938326     -1.886210
  H       3.746855     -5.519363     -3.242417
  H       5.233546     -5.035354     -2.432783
  H       5.050320     -2.756111     -3.340900
  H       4.222416     -5.699177     -0.167426
  H       2.850085     -6.249984     -1.124370
  H       6.819111      0.549660      0.871414
  H       5.261416      1.377314      0.587289
  H       5.939080     -3.957454     -0.441473
  H       2.314631     -1.786366     -1.166468
  H       6.284731     -4.491475     -4.613868
  H       5.525486     -3.332322     -5.722795
  H       4.806717     -4.935144     -5.486083
  H       6.122635     -0.365138      4.306091
  H       7.327183     -0.410238      2.981852
  H       5.884252     -1.472748      2.926496
  H       3.944783      0.666869      3.924651
  H       3.705069     -0.537738      2.618998
  H       3.505295      1.209510      2.269890
  H       5.901365      1.986895      4.046815
  H       5.423807      2.691000      2.470343
  H       7.066830      2.006621      2.687620
  H       6.916966     -1.968357      0.631281
  H       3.294523      0.211418     -0.099627
  H       1.320146     -4.725043      0.189409
  H       2.688794     -4.236855      1.200427
  H       2.124285     -5.914461      1.227863
  H       3.666845     -0.969411     -3.706188
  H       2.391376     -4.838903     -5.052263
  H       1.560537      0.018867     -4.543596
  H       0.293635     -3.858227     -5.891902
  H      -0.140361     -1.422914     -5.645917
  F      -0.436342     -1.933456      0.457475
  F      -2.383255     -1.050335     -0.051703
  F       0.669175      0.147473     -1.327861
  F      -1.332301      1.044709     -1.175875
  F      -1.365655     -1.138249     -2.832806
  F       0.142615     -2.508733     -1.999303
  F      -1.093432      0.610527      1.683710
  F       1.022572      0.156162      1.293907
  F      -2.018244     -3.882505     -0.723212
  F      -3.374125     -2.655060     -1.950602
  F       0.618815      2.624292      2.138719
  F      -0.857973      3.041904      0.575820
  F      -2.953013     -5.026067     -3.052336
  F      -0.792232     -4.817841     -2.976423
  F      -1.974998     -3.473664     -4.224464
  O       1.079878      3.108686     -1.274619
  O       2.598087      2.682984      0.345907
  C      -1.103336     -1.200223     -0.461226
  C      -0.448996      0.227135     -0.564973
  C      -1.092749     -1.989483     -1.820756
  C      -0.058380      0.824006      0.826324
  C      -2.127403     -3.161542     -1.864045
  C       0.284858      2.348482      0.840203
  C      -1.943001     -4.145162     -3.067351
  C       1.446976      2.765951     -0.132286
80
Coordinates from ORCA-job R4N+PFOA-_altA_r2 E -2865.067358130919
  N       5.513172      0.576962      2.518379
  C       3.423273     -4.216276     -1.548295
  C       4.243667     -4.664738     -2.765863
  C       4.479164     -3.567433     -3.818367
  C       4.037953     -3.012091     -0.870405
  C       3.223424     -5.378890     -0.559390
  C       5.744900      0.482215      1.002985
  C       5.168024     -0.743858      0.366154
  C       3.182317     -2.969816     -4.325680
  C       5.338375     -3.050054     -0.353664
  C       3.318606     -1.821522     -0.758517
  C       5.321094     -4.117271     -4.975845
  C       6.261233     -0.501598      3.236852
  C       4.053318      0.478344      2.850743
  C       6.025803      1.913390      2.967912
  C       5.897655     -1.932257      0.254457
  C       3.875987     -0.699587     -0.159739
  C       2.274173     -5.023727      0.580461
  C       2.926794     -1.602059     -4.196998
  C       2.215101     -3.769324     -4.946527
  C       1.740672     -1.043856     -4.672257
  C       1.033123     -3.215185     -5.428230
  C       0.790102     -1.848837     -5.292857
  H       2.419744     -3.924070     -1.888265
  H       3.733514     -5.515437     -3.237729
  H       5.220884     -5.035018     -2.426814
  H       5.045670     -2.756377     -3.340689
  H       4.198030     -5.692387     -0.161102
  H       2.822445     -6.234227     -1.119344
  H       6.829542      0.542919      0.877009
  H       5.277393      1.379551      0.587326
  H       5.927332     -3.960217     -0.436018
  H       2.317167     -1.767558     -1.172017
  H       6.279740     -4.498168     -4.605673
  H       5.526305     -3.339864     -5.719625
  H       4.803024     -4.940600     -5.480877
  H       6.111672     -0.368216      4.310205
  H       7.322344     -0.420526      2.992228
  H       5.873238     -1.473719      2.928974
  H       3.941525      0.683961      3.917041
  H       3.703514     -0.527585      2.616392
  H       3.511350      1.217433      2.257013
  H       5.909661      1.984608      4.050934
  H       5.443582      2.694185      2.474065
  H       7.080021      1.997120      2.696278
  H       6.914313     -1.975838      0.637686
  H       3.306318      0.224232     -0.102439
  H       1.305814     -4.685614      0.188537
  H       2.677948     -4.218034      1.204068
  H       2.090472     -5.887611      1.228058
  H       3.665673     -0.967798     -3.711997
  H       2.388330     -4.837373     -5.057021
  H       1.561899      0.022037     -4.554974
  H       0.293955     -3.854838     -5.902942
  H      -0.138916     -1.418751     -5.657790
  F      -0.406314     -1.949770      0.450697
  F      -2.364774     -1.078745     -0.036625
  F       0.664424      0.150278     -1.337349
  F      -1.343163      1.029385     -1.158775
  F      -1.365107     -1.145859     -2.828498
  F       0.154358     -2.512218     -2.008360
  F      -1.071858      0.584464      1.693723
  F       1.044629      0.149500      1.282963
  F      -1.992831     -3.902128     -0.726814
  F      -3.361915     -2.674138     -1.939800
  F       0.634079      2.607960      2.143338
  F      -0.865621      3.023813      0.601724
  F      -2.939082     -5.037701     -3.055417
  F      -0.778348     -4.821661     -2.992896
  F      -1.974811     -3.475525     -4.226188
  O       1.045455      3.110082     -1.275412
  O       2.589436      2.704141      0.326898
  C      -1.087273     -1.216563     -0.458028
  C      -0.445592      0.216956     -0.561702
  C      -1.082442     -1.999433     -1.820974
  C      -0.045722      0.811159      0.828449
  C      -2.112578     -3.176007     -1.863335
  C       0.285762      2.337772      0.847306
  C      -1.932350     -4.152882     -3.072681
  C       1.431778      2.771101     -0.138024
80
Coordinates from ORCA-job R4N+PFOA-_altA_r2 E -2865.067531205629
  N       5.517020      0.578434      2.519976
  C       3.413773     -4.207782     -1.546259
  C       4.234084     -4.661674     -2.762184
  C       4.472906     -3.566463     -3.815203
  C       4.032563     -3.004380     -0.870342
  C       3.204049     -5.365285     -0.552552
  C       5.757998      0.481711      1.005380
  C       5.172630     -0.738972      0.364717
  C       3.179269     -2.968934     -4.331290
  C       5.331456     -3.048562     -0.349640
  C       3.320306     -1.809145     -0.763319
  C       5.321227     -4.116962     -4.968636
  C       6.245078     -0.512146      3.243238
  C       4.052811      0.493902      2.841336
  C       6.045988      1.905812      2.977339
  C       5.895805     -1.932229      0.257987
  C       3.882248     -0.688314     -0.164903
  C       2.265642     -4.995041      0.593834
  C       2.927203     -1.599017     -4.213854
  C       2.212872     -3.770020     -4.951618
  C       1.744352     -1.040690     -4.697861
  C       1.034503     -3.215821     -5.443412
  C       0.793492     -1.847978     -5.317207
  H       2.413575     -3.912181     -1.896394
  H       3.720724     -5.511637     -3.232386
  H       5.210421     -5.034284     -2.422270
  H       5.036723     -2.754186     -3.336080
  H       4.176532     -5.687089     -0.155103
  H       2.790425     -6.218081     -1.107126
  H       6.843927      0.524212      0.881463
  H       5.308399      1.386447      0.585081
  H       5.915004     -3.962806     -0.428113
  H       2.320705     -1.747949     -1.179272
  H       6.278964     -4.495998     -4.593697
  H       5.528003     -3.339516     -5.712140
  H       4.805422     -4.941899     -5.473858
  H       6.085769     -0.378461      4.315229
  H       7.309499     -0.442330      3.009328
  H       5.849151     -1.478956      2.928704
  H       3.930848      0.703809      3.905997
  H       3.695671     -0.510252      2.610024
  H       3.514285      1.231894      2.242590
  H       5.925238      1.974330      4.060182
  H       5.480887      2.699390      2.484639
  H       7.103154      1.972837      2.711957
  H       6.910733     -1.982815      0.645383
  H       3.319656      0.240474     -0.109488
  H       1.303741     -4.632631      0.208761
  H       2.691287     -4.201449      1.218704
  H       2.067538     -5.857288      1.239506
  H       3.665973     -0.962545     -3.731123
  H       2.383194     -4.839499     -5.054500
  H       1.565761      0.026167     -4.588437
  H       0.297277     -3.855730     -5.921121
  H      -0.133207     -1.417941     -5.688283
  F      -0.361294     -1.974502      0.437070
  F      -2.340739     -1.123492     -0.006916
  F       0.651652      0.150279     -1.344077
  F      -1.365896      1.007573     -1.127100
  F      -1.373847     -1.145965     -2.820079
  F       0.161747     -2.510622     -2.026111
  F      -1.046072      0.558163      1.709339
  F       1.071460      0.141981      1.270979
  F      -1.984709     -3.915089     -0.732579
  F      -3.354033     -2.680857     -1.943644
  F       0.664260      2.590455      2.145330
  F      -0.875370      3.002190      0.641988
  F      -2.933524     -5.050071     -3.052281
  F      -0.771963     -4.826193     -3.007795
  F      -1.984431     -3.482803     -4.230372
  O       0.989046      3.114149     -1.281733
  O       2.572655      2.737875      0.295697
  C      -1.068433     -1.238875     -0.450426
  C      -0.446348      0.203110     -0.551122
  C      -1.076189     -2.007206     -1.822047
  C      -0.030585      0.799757      0.834379
  C      -2.104731     -3.186674     -1.866814
  C       0.288834      2.326131      0.855325
  C      -1.929751     -4.161375     -3.077647
  C       1.407283      2.780313     -0.153021
80
Coordinates from ORCA-job R4N+PFOA-_altA_r2 E -2865.067637576215
  N       5.516014      0.579327      2.524633
  C       3.397098     -4.188844     -1.550715
  C       4.219538     -4.654164     -2.760870
  C       4.467665     -3.566110     -3.819285
  C       4.023282     -2.990477     -0.873687
  C       3.168460     -5.340857     -0.555531
  C       5.771728      0.478337      1.012663
  C       5.178925     -0.736459      0.367050
  C       3.177524     -2.966134     -4.341290
  C       5.318984     -3.047157     -0.346059
  C       3.321828     -1.788610     -0.771174
  C       5.317402     -4.127087     -4.966521
  C       6.224207     -0.518654      3.257209
  C       4.047878      0.510901      2.830876
  C       6.054586      1.901365      2.985698
  C       5.891009     -1.936592      0.264681
  C       3.892070     -0.673293     -0.170515
  C       2.224251     -4.956728      0.581366
  C       2.925491     -1.596422     -4.222019
  C       2.211956     -3.766026     -4.964652
  C       1.742474     -1.037525     -4.704776
  C       1.033527     -3.211096     -5.455648
  C       0.791745     -1.843847     -5.325600
  H       2.402247     -3.885413     -1.907348
  H       3.702596     -5.503416     -3.228500
  H       5.192606     -5.030650     -2.415890
  H       5.033545     -2.753754     -3.342696
  H       4.134291     -5.670783     -0.148642
  H       2.750884     -6.191251     -1.110776
  H       6.859253      0.508191      0.899760
  H       5.336837      1.387344      0.586690
  H       5.893825     -3.967190     -0.421036
  H       2.324464     -1.716292     -1.192109
  H       6.272404     -4.507572     -4.586140
  H       5.529686     -3.355086     -5.714125
  H       4.800041     -4.953219     -5.468184
  H       6.052854     -0.382554      4.327026
  H       7.292049     -0.459483      3.036396
  H       5.822268     -1.481358      2.937864
  H       3.915906      0.732205      3.892023
  H       3.685392     -0.492817      2.605977
  H       3.520565      1.246021      2.218752
  H       5.924163      1.972005      4.067282
  H       5.502635      2.700435      2.486714
  H       7.114832      1.956578      2.730146
  H       6.902929     -1.997564      0.658423
  H       3.339269      0.261060     -0.117787
  H       1.271476     -4.580042      0.186516
  H       2.655328     -4.169125      1.210120
  H       2.007531     -5.815705      1.225374
  H       3.663730     -0.960720     -3.737493
  H       2.382356     -4.835301     -5.069539
  H       1.562972      0.028859     -4.592328
  H       0.296605     -3.850203     -5.935057
  H      -0.136500     -1.413954     -5.692652
  F      -0.302816     -1.992277      0.427358
  F      -2.302831     -1.169627      0.026223
  F       0.640476      0.158212     -1.364642
  F      -1.384700      0.984204     -1.094861
  F      -1.386099     -1.158088     -2.805528
  F       0.181059     -2.508558     -2.049111
  F      -1.002459      0.527513      1.724901
  F       1.110781      0.133641      1.247701
  F      -1.922229     -3.947985     -0.724990
  F      -3.329118     -2.723946     -1.903262
  F       0.698781      2.570876      2.143894
  F      -0.872719      2.979029      0.673023
  F      -2.899859     -5.077334     -3.038821
  F      -0.740198     -4.832051     -3.023834
  F      -1.982735     -3.492270     -4.219323
  O       0.951755      3.113600     -1.288874
  O       2.568952      2.768305      0.261238
  C      -1.037544     -1.262106     -0.442023
  C      -0.439834      0.189622     -0.546055
  C      -1.059048     -2.021682     -1.818457
  C      -0.004388      0.783506      0.833903
  C      -2.072153     -3.214202     -1.852119
  C       0.301879      2.312614      0.859045
  C      -1.905448     -4.178510     -3.072305
  C       1.395387      2.787153     -0.167654
80
Coordinates from ORCA-job R4N+PFOA-_altA_r2 E -2865.067671705634
  N       5.505483      0.578554      2.536271
  C       3.364714     -4.148580     -1.566283
  C       4.194719     -4.635485     -2.763112
  C       4.461052     -3.561843     -3.832018
  C       4.003473     -2.962272     -0.883502
  C       3.094453     -5.290678     -0.573072
  C       5.795783      0.467641      1.031616
  C       5.187815     -0.733803      0.373216
  C       3.176457     -2.958787     -4.363598
  C       5.291103     -3.045126     -0.339467
  C       3.323853     -1.747985     -0.790775
  C       5.313234     -4.143071     -4.966973
  C       6.170769     -0.533595      3.290364
  C       4.030435      0.544447      2.808485
  C       6.061360      1.890789      3.004990
  C       5.876958     -1.947440      0.280225
  C       3.909940     -0.644616     -0.183921
  C       2.127081     -4.885115      0.535668
  C       2.920533     -1.590800     -4.237100
  C       2.213032     -3.758148     -4.991426
  C       1.733382     -1.034044     -4.710974
  C       1.030430     -3.204841     -5.474346
  C       0.783138     -1.840312     -5.331977
  H       2.383205     -3.828331     -1.939462
  H       3.672052     -5.483547     -3.226635
  H       5.161282     -5.018393     -2.407296
  H       5.030715     -2.748987     -3.360732
  H       4.044367     -5.632349     -0.139348
  H       2.678812     -6.137969     -1.134317
  H       6.886095      0.467840      0.945689
  H       5.397157      1.385718      0.591846
  H       5.848276     -3.976396     -0.407738
  H       2.330904     -1.654572     -1.222680
  H       6.263450     -4.524849     -4.576285
  H       5.534962     -3.382374     -5.723272
  H       4.793467     -4.972442     -5.460634
  H       5.970028     -0.390744      4.354089
  H       7.245265     -0.494692      3.099848
  H       5.758014     -1.487523      2.959228
  H       3.875907      0.785195      3.862300
  H       3.656047     -0.457635      2.595576
  H       3.528063      1.274843      2.170609
  H       5.907432      1.966983      4.083038
  H       5.536263      2.698128      2.489691
  H       7.127687      1.921884      2.772168
  H       6.881334     -2.030275      0.688972
  H       3.377565      0.300294     -0.138690
  H       1.192546     -4.490531      0.112943
  H       2.556141     -4.104156      1.173969
  H       1.876630     -5.737919      1.175487
  H       3.657252     -0.955315     -3.750155
  H       2.386654     -4.826162     -5.103183
  H       1.548657      0.030166     -4.588681
  H       0.294305     -3.843692     -5.955653
  H      -0.151651     -1.413959     -5.684906
  F      -0.174850     -2.016914      0.405787
  F      -2.215105     -1.259063      0.100490
  F       0.614678      0.177260     -1.409557
  F      -1.419008      0.940583     -1.025899
  F      -1.429667     -1.182724     -2.765731
  F       0.215261     -2.492984     -2.108354
  F      -0.907565      0.483924      1.753150
  F       1.190795      0.121780      1.197303
  F      -1.769987     -4.009207     -0.692457
  F      -3.269916     -2.826164     -1.795889
  F       0.778261      2.543003      2.130029
  F      -0.848677      2.943439      0.718817
  F      -2.813680     -5.146448     -2.982283
  F      -0.662261     -4.842395     -3.036857
  F      -1.977242     -3.525755     -4.176964
  O       0.901961      3.111688     -1.310078
  O       2.575457      2.823861      0.189670
  C      -0.969167     -1.302609     -0.422870
  C      -0.424112      0.167433     -0.536046
  C      -1.025678     -2.046742     -1.806968
  C       0.054020      0.759188      0.828485
  C      -1.995378     -3.273078     -1.805124
  C       0.342002      2.292449      0.856460
  C      -1.845795     -4.220802     -3.040000
  C       1.389148      2.799884     -0.203166
80
Coordinates from ORCA-job R4N+PFOA-_altA_r2 E -2865.067773457113
  N       5.499424      0.573512      2.534319
  C       3.394358     -4.172073     -1.570153
  C       4.229065     -4.644392     -2.770279
  C       4.477535     -3.562830     -3.834803
  C       4.019148     -2.977881     -0.884842
  C       3.143799     -5.320654     -0.583726
  C       5.781199      0.467772      1.029726
  C       5.178381     -0.736521      0.372707
  C       3.185308     -2.965930     -4.353965
  C       5.308808     -3.046246     -0.343987
  C       3.327619     -1.770194     -0.789388
  C       5.325456     -4.130537     -4.979807
  C       6.185090     -0.532077      3.283283
  C       4.028443      0.525076      2.822729
  C       6.040864      1.895229      2.997007
  C       5.881699     -1.941862      0.275504
  C       3.900247     -0.660354     -0.181865
  C       2.167866     -4.940158      0.524269
  C       2.927276     -1.598312     -4.229903
  C       2.219471     -3.769162     -4.972223
  C       1.738040     -1.044553     -4.700898
  C       1.035207     -3.218759     -5.453766
  C       0.787941     -1.853766     -5.317369
  H       2.412271     -3.860885     -1.948726
  H       3.714827     -5.497113     -3.234497
  H       5.202023     -5.016849     -2.421409
  H       5.044987     -2.748246     -3.363890
  H       4.100129     -5.643787     -0.149958
  H       2.748008     -6.175650     -1.147481
  H       6.871028      0.468201      0.938110
  H       5.384407      1.387305      0.590557
  H       5.877883     -3.969790     -0.415933
  H       2.331833     -1.691720     -1.215466
  H       6.282230     -4.505523     -4.599160
  H       5.533723     -3.364500     -5.734312
  H       4.808623     -4.961924     -5.472939
  H       5.987994     -0.389262      4.347510
  H       7.256928     -0.476938      3.082813
  H       5.779745     -1.489205      2.953167
  H       3.880995      0.740119      3.883086
  H       3.656599     -0.476726      2.601689
  H       3.514396      1.265255      2.207658
  H       5.892052      1.969492      4.075715
  H       5.497176      2.690404      2.481166
  H       7.104476      1.939501      2.754917
  H       6.888480     -2.013628      0.680101
  H       3.355115      0.277159     -0.135965
  H       1.219221     -4.581189      0.101634
  H       2.573071     -4.141400      1.156294
  H       1.948606     -5.797450      1.169325
  H       3.665520     -0.960348     -3.748730
  H       2.394238     -4.837042     -5.081967
  H       1.553136      0.019974     -4.582614
  H       0.300156     -3.859622     -5.933862
  H      -0.145479     -1.429950     -5.676530
  F      -0.241491     -1.987027      0.420320
  F      -2.265069     -1.204702      0.080456
  F       0.617451      0.174540     -1.383177
  F      -1.408859      0.980867     -1.051399
  F      -1.457605     -1.153305     -2.769781
  F       0.178545     -2.468098     -2.103349
  F      -0.954788      0.543842      1.745013
  F       1.143860      0.131032      1.224304
  F      -1.841155     -3.957738     -0.677663
  F      -3.310144     -2.777581     -1.822298
  F       0.747942      2.580141      2.122692
  F      -0.842109      2.981080      0.669792
  F      -2.856694     -5.122458     -2.960186
  F      -0.703250     -4.838310     -2.989863
  F      -1.989219     -3.531441     -4.171422
  O       0.963426      3.120289     -1.312362
  O       2.591221      2.794153      0.227588
  C      -1.012745     -1.267399     -0.424249
  C      -0.440934      0.191232     -0.533902
  C      -1.061506     -2.017925     -1.807914
  C       0.024217      0.787678      0.831424
  C      -2.039404     -3.236924     -1.804545
  C       0.337465      2.316050      0.843519
  C      -1.880603     -4.206383     -3.020693
  C       1.416381      2.797126     -0.195152
80
Coordinates from ORCA-job R4N+PFOA-_altA_r2 E -2865.067873519570
  N       5.512220      0.577674      2.532671
  C       3.387944     -4.171619     -1.561788
  C       4.219112     -4.644732     -2.763632
  C       4.469995     -3.562447     -3.827635
  C       4.017532     -2.977713     -0.879198
  C       3.138983     -5.320182     -0.570293
  C       5.787347      0.469190      1.026842
  C       5.183544     -0.736298      0.373978
  C       3.180356     -2.964908     -4.353594
  C       5.307348     -3.047971     -0.338819
  C       3.328400     -1.768121     -0.783882
  C       5.321140     -4.130193     -4.970194
  C       6.201752     -0.524539      3.279567
  C       4.042177      0.525142      2.823280
  C       6.055239      1.899174      2.994253
  C       5.883788     -1.943797      0.278548
  C       3.904266     -0.658643     -0.178009
  C       2.170780     -4.934725      0.544511
  C       2.926365     -1.595503     -4.237403
  C       2.215699     -3.767501     -4.974497
  C       1.742282     -1.039359     -4.719772
  C       1.035848     -3.215404     -5.464888
  C       0.792313     -1.848420     -5.337349
  H       2.402796     -3.858823     -1.935716
  H       3.703579     -5.496473     -3.228072
  H       5.190991     -5.019443     -2.414117
  H       5.035864     -2.747798     -3.354830
  H       4.096599     -5.647638     -0.142501
  H       2.735403     -6.173766     -1.130854
  H       6.876851      0.474491      0.930669
  H       5.382906      1.388113      0.592145
  H       5.873685     -3.973409     -0.408735
  H       2.333684     -1.687666     -1.208839
  H       6.276046     -4.507000     -4.586436
  H       5.533284     -3.363479     -5.723053
  H       4.805042     -4.960175     -5.466484
  H       6.011102     -0.382725      4.345204
  H       7.272869     -0.470280      3.074993
  H       5.796963     -1.483581      2.953407
  H       3.898711      0.746543      3.882971
  H       3.671489     -0.477164      2.603294
  H       3.524924      1.262373      2.205763
  H       5.912448      1.973952      4.073806
  H       5.510548      2.696050      2.483560
  H       7.117986      1.946011      2.748326
  H       6.890819     -2.016269      0.682470
  H       3.360029      0.281030     -0.130715
  H       1.220906     -4.575849      0.127617
  H       2.580926     -4.134653      1.171789
  H       1.953580     -5.789388      1.193946
  H       3.664212     -0.957894     -3.755055
  H       2.387344     -4.836626     -5.077416
  H       1.561466      0.027079     -4.609484
  H       0.300565     -3.856283     -5.944116
  H      -0.136939     -1.421801     -5.705616
  F      -0.245748     -2.001726      0.415174
  F      -2.266674     -1.208285      0.073454
  F       0.622472      0.169404     -1.378865
  F      -1.404318      0.971287     -1.056394
  F      -1.439597     -1.156132     -2.776985
  F       0.179059     -2.481801     -2.092879
  F      -0.953721      0.516409      1.747910
  F       1.148849      0.127465      1.225125
  F      -1.866400     -3.965742     -0.698193
  F      -3.317653     -2.772507     -1.851467
  F       0.741996      2.563558      2.134680
  F      -0.859587      2.965420      0.694727
  F      -2.868246     -5.114361     -2.992915
  F      -0.712932     -4.840423     -3.008472
  F      -1.989413     -3.522134     -4.191201
  O       0.928791      3.120314     -1.300718
  O       2.573180      2.804308      0.223916
  C      -1.013381     -1.276535     -0.428615
  C      -0.438605      0.182919     -0.534758
  C      -1.061108     -2.024405     -1.812367
  C       0.023059      0.774994      0.835359
  C      -2.049839     -3.237468     -1.823322
  C       0.324016      2.305913      0.856762
  C      -1.887201     -4.202648     -3.042989
  C       1.393469      2.798343     -0.187562
80
Coordinates from ORCA-job R4N+PFOA-_altA_r2 E -2865.067932184113
  N       5.513112      0.579015      2.534814
  C       3.380229     -4.162979     -1.564737
  C       4.213707     -4.640169     -2.763344
  C       4.469096     -3.560105     -3.828791
  C       4.013536     -2.972513     -0.880126
  C       3.120901     -5.310016     -0.573497
  C       5.794423      0.466355      1.030460
  C       5.186833     -0.736701      0.376367
  C       3.180879     -2.962714     -4.358413
  C       5.300792     -3.049372     -0.334519
  C       3.330283     -1.759535     -0.788021
  C       5.322264     -4.131140     -4.968090
  C       6.195555     -0.523994      3.286582
  C       4.041826      0.531742      2.819306
  C       6.059158      1.899279      2.996927
  C       5.880763     -1.948073      0.284664
  C       3.909892     -0.652827     -0.180649
  C       2.144159     -4.920808      0.532778
  C       2.926251     -1.593426     -4.242759
  C       2.217222     -3.765817     -4.980320
  C       1.742144     -1.037993     -4.725950
  C       1.037128     -3.214493     -5.470918
  C       0.792634     -1.847672     -5.343240
  H       2.398200     -3.844798     -1.942487
  H       3.697691     -5.491565     -3.227898
  H       5.183843     -5.016223     -2.410500
  H       5.034535     -2.745185     -3.355948
  H       4.074330     -5.639478     -0.138020
  H       2.719529     -6.163382     -1.136015
  H       6.884421      0.466306      0.939522
  H       5.396746      1.386640      0.592870
  H       5.862325     -3.977974     -0.401351
  H       2.336653     -1.674650     -1.215179
  H       6.275717     -4.508477     -4.581203
  H       5.537420     -3.366183     -5.721920
  H       4.806511     -4.961368     -5.464320
  H       5.999865     -0.381105      4.351173
  H       7.267931     -0.473224      3.087848
  H       5.789941     -1.482372      2.959233
  H       3.894792      0.758030      3.877530
  H       3.668826     -0.470094      2.601640
  H       3.528925      1.267670      2.196630
  H       5.913486      1.975615      4.075987
  H       5.518623      2.697515      2.484141
  H       7.122794      1.942899      2.754312
  H       6.885619     -2.025619      0.693072
  H       3.369594      0.289106     -0.135414
  H       1.195909     -4.568285      0.107061
  H       2.547099     -4.115412      1.157803
  H       1.925194     -5.772120      1.186057
  H       3.663417     -0.955471     -3.759816
  H       2.389473     -4.834912     -5.082732
  H       1.561021      0.028332     -4.615899
  H       0.301975     -3.855994     -5.949598
  H      -0.136963     -1.421732     -5.711209
  F      -0.220053     -2.009653      0.407529
  F      -2.249075     -1.225735      0.089243
  F       0.617939      0.172622     -1.387318
  F      -1.410071      0.961729     -1.042917
  F      -1.455664     -1.160738     -2.767761
  F       0.181049     -2.476220     -2.107757
  F      -0.932095      0.501813      1.755615
  F       1.167084      0.123561      1.213871
  F      -1.839262     -3.978042     -0.690718
  F      -3.309802     -2.795586     -1.829905
  F       0.760767      2.553625      2.133940
  F      -0.855700      2.955614      0.710745
  F      -2.853149     -5.129234     -2.982905
  F      -0.699302     -4.844117     -3.008120
  F      -1.988292     -3.530393     -4.182535
  O       0.911327      3.117980     -1.303026
  O       2.571924      2.816633      0.206296
  C      -1.000448     -1.285757     -0.425625
  C      -0.435093      0.177409     -0.532982
  C      -1.058890     -2.029172     -1.810626
  C       0.035617      0.766991      0.835311
  C      -2.038260     -3.250011     -1.813546
  C       0.331369      2.299304      0.859301
  C      -1.877003     -4.212401     -3.035907
  C       1.388430      2.799974     -0.194066
80
Coordinates from ORCA-job R4N+PFOA-_altA_r2 E -2865.068035284059
  N       5.516654      0.581413      2.537390
  C       3.368411     -4.149875     -1.570383
  C       4.207181     -4.633776     -2.762566
  C       4.470742     -3.556573     -3.829361
  C       4.008092     -2.965642     -0.881545
  C       3.089749     -5.293984     -0.580363
  C       5.806143      0.460876      1.035385
  C       5.192031     -0.738425      0.380427
  C       3.185173     -2.959260     -4.365414
  C       5.290053     -3.053491     -0.325386
  C       3.335426     -1.746561     -0.797024
  C       5.327859     -4.132108     -4.963194
  C       6.191320     -0.520374      3.297359
  C       4.044086      0.540138      2.814607
  C       6.065040      1.901720      2.997826
  C       5.875161     -1.956448      0.296466
  C       3.920027     -0.644173     -0.186706
  C       2.089860     -4.901161      0.504022
  C       2.930253     -1.589941     -4.251699
  C       2.222928     -3.763084     -4.988700
  C       1.746800     -1.035195     -4.737488
  C       1.043318     -3.212554     -5.480997
  C       0.798012     -1.845693     -5.354332
  H       2.393404     -3.820366     -1.956729
  H       3.691037     -5.484433     -3.228321
  H       5.174058     -5.012080     -2.403313
  H       5.035043     -2.741527     -3.355445
  H       4.034544     -5.622491     -0.125957
  H       2.698964     -6.149549     -1.147099
  H       6.896726      0.452475      0.951894
  H       5.419222      1.382924      0.592522
  H       5.843473     -3.987441     -0.385396
  H       2.343418     -1.656381     -1.227626
  H       6.278687     -4.510663     -4.570964
  H       5.548501     -3.369548     -5.717946
  H       4.812952     -4.962258     -5.460440
  H       5.987734     -0.375918      4.360280
  H       7.265415     -0.472334      3.107351
  H       5.786970     -1.479119      2.969073
  H       3.892683      0.772198      3.871034
  H       3.667644     -0.461073      2.600157
  H       3.536492      1.274606      2.186053
  H       5.917495      1.980677      4.076436
  H       5.527163      2.700047      2.482521
  H       7.129259      1.942963      2.757485
  H       6.875805     -2.042050      0.713565
  H       3.384472      0.300528     -0.145780
  H       1.140410     -4.580444      0.056693
  H       2.465944     -4.073521      1.116682
  H       1.878785     -5.742596      1.172626
  H       3.666404     -0.951654     -3.767617
  H       2.395718     -4.832261     -5.089540
  H       1.566401      0.031277     -4.628933
  H       0.308249     -3.854985     -5.958559
  H      -0.130505     -1.420394     -5.725368
  F      -0.181822     -2.021026      0.393369
  F      -2.223565     -1.250885      0.118305
  F       0.608696      0.177522     -1.397432
  F      -1.419361      0.950001     -1.018800
  F      -1.499635     -1.164696     -2.747677
  F       0.173977     -2.457894     -2.139643
  F      -0.896038      0.478300      1.771853
  F       1.195926      0.116418      1.195320
  F      -1.796521     -3.994709     -0.674208
  F      -3.302296     -2.837790     -1.791635
  F       0.793822      2.537255      2.133687
  F      -0.849591      2.939501      0.741493
  F      -2.826577     -5.156311     -2.962782
  F      -0.675619     -4.849359     -2.996741
  F      -1.982974     -3.547543     -4.164386
  O       0.877496      3.114559     -1.304671
  O       2.567305      2.835768      0.175006
  C      -0.983931     -1.298376     -0.419921
  C      -0.431946      0.170005     -0.527899
  C      -1.064416     -2.033150     -1.807129
  C       0.054968      0.753818      0.837664
  C      -2.023698     -3.270072     -1.794159
  C       0.343033      2.288374      0.865756
  C      -1.859799     -4.229704     -3.018802
  C       1.377250      2.802288     -0.204202
80
Coordinates from ORCA-job R4N+PFOA-_altA_r2 E -2865.068082372864
  N       5.521333      0.582302      2.537139
  C       3.363080     -4.145366     -1.572047
  C       4.204579     -4.632808     -2.760843
  C       4.473209     -3.556531     -3.827417
  C       4.006213     -2.963829     -0.881213
  C       3.074245     -5.287660     -0.582784
  C       5.811490      0.458895      1.035414
  C       5.194477     -0.738998      0.381248
  C       3.189871     -2.958179     -4.367777
  C       5.285466     -3.056205     -0.319799
  C       3.338939     -1.741329     -0.801871
  C       5.332927     -4.133737     -4.958374
  C       6.195824     -0.517957      3.299158
  C       4.048694      0.541182      2.814352
  C       6.069532      1.903362      2.995469
  C       5.872693     -1.960215      0.302007
  C       3.925176     -0.640237     -0.190818
  C       2.059213     -4.894267      0.487274
  C       2.936919     -1.588154     -4.257674
  C       2.227688     -3.761826     -4.991359
  C       1.755422     -1.032492     -4.747554
  C       1.050202     -3.210483     -5.487550
  C       0.806577     -1.842882     -5.364441
  H       2.392455     -3.808694     -1.963387
  H       3.688340     -5.482751     -3.227755
  H       5.169444     -5.012842     -2.397962
  H       5.036918     -2.741918     -3.352098
  H       4.014001     -5.613344     -0.116169
  H       2.691809     -6.145583     -1.151731
  H       6.902130      0.447878      0.953049
  H       5.427512      1.381594      0.590970
  H       5.835237     -3.992602     -0.375517
  H       2.347723     -1.650099     -1.233620
  H       6.281895     -4.513900     -4.563140
  H       5.557365     -3.371769     -5.712646
  H       4.818199     -4.963029     -5.457276
  H       5.990634     -0.373467      4.361790
  H       7.270260     -0.469403      3.111008
  H       5.793203     -1.477645      2.971345
  H       3.897633      0.774448      3.870566
  H       3.671439     -0.459907      2.600411
  H       3.541175      1.275531      2.185697
  H       5.924561      1.982712      4.074422
  H       5.529963      2.701240      2.481248
  H       7.133211      1.945373      2.752808
  H       6.871402     -2.048764      0.723133
  H       3.390665      0.305333     -0.152216
  H       1.107646     -4.599883      0.026768
  H       2.414924     -4.049195      1.088441
  H       1.857469     -5.727963      1.168435
  H       3.673007     -0.950092     -3.773182
  H       2.399131     -4.831480     -5.089445
  H       1.577148      0.034669     -4.642047
  H       0.314873     -3.852996     -5.964479
  H      -0.119210     -1.416691     -5.741328
  F      -0.168759     -2.025355      0.386942
  F      -2.216226     -1.261153      0.132979
  F       0.602500      0.179382     -1.397510
  F      -1.425017      0.947323     -1.005631
  F      -1.529088     -1.163899     -2.735438
  F       0.163803     -2.444570     -2.156683
  F      -0.881576      0.466382      1.782311
  F       1.207092      0.113726      1.188060
  F      -1.781833     -4.000014     -0.665332
  F      -3.303275     -2.858161     -1.776584
  F       0.808016      2.530103      2.136056
  F      -0.852344      2.930957      0.763538
  F      -2.813274     -5.169112     -2.954718
  F      -0.663654     -4.850967     -2.984268
  F      -1.975698     -3.556307     -4.155191
  O       0.848840      3.115964     -1.301851
  O       2.557659      2.846625      0.157560
  C      -0.980917     -1.302636     -0.416203
  C      -0.433686      0.167816     -0.522884
  C      -1.073144     -2.032472     -1.804633
  C       0.061016      0.748253      0.841799
  C      -2.021111     -3.278339     -1.784824
  C       0.343938      2.283952      0.872511
  C      -1.851119     -4.237585     -3.009041
  C       1.363498      2.805468     -0.207571
80
Coordinates from ORCA-job R4N+PFOA-_altA_r2 E -2865.068115522527
  N       5.524705      0.581892      2.534907
  C       3.364323     -4.149018     -1.571658
  C       4.206360     -4.636336     -2.760051
  C       4.476869     -3.559242     -3.825181
  C       4.007597     -2.966981     -0.880243
  C       3.074309     -5.291706     -0.583496
  C       5.809844      0.459896      1.031690
  C       5.193894     -0.739236      0.379530
  C       3.194732     -2.958979     -4.366524
  C       5.286820     -3.057774     -0.318691
  C       3.340132     -1.744023     -0.802503
  C       5.337120     -4.135845     -4.956084
  C       6.205238     -0.516673      3.293751
  C       4.052755      0.536331      2.818214
  C       6.070439      1.904300      2.991185
  C       5.873107     -1.960181      0.301413
  C       3.924875     -0.641673     -0.192441
  C       2.054203     -4.901226      0.482565
  C       2.944476     -1.588171     -4.259008
  C       2.231515     -3.761596     -4.989721
  C       1.764960     -1.030656     -4.751955
  C       1.056282     -3.208510     -5.489159
  C       0.815382     -1.840066     -5.369264
  H       2.395172     -3.809552     -1.964174
  H       3.690108     -5.485554     -3.228199
  H       5.170509     -5.017469     -2.396327
  H       5.040910     -2.745613     -3.348587
  H       4.013127     -5.615044     -0.113422
  H       2.695838     -6.150514     -1.153772
  H       6.900202      0.452234      0.945506
  H       5.421325      1.381414      0.588335
  H       5.837534     -3.993697     -0.373291
  H       2.348825     -1.655089     -1.233552
  H       6.285159     -4.517948     -4.560489
  H       5.563386     -3.373009     -5.708924
  H       4.821684     -4.963656     -5.456746
  H       6.004169     -0.373039      4.357296
  H       7.278813     -0.465359      3.101283
  H       5.804078     -1.477576      2.967833
  H       3.906013      0.766952      3.875568
  H       3.677216     -0.464914      2.602386
  H       3.541695      1.271935      2.194138
  H       5.930513      1.982614      4.070915
  H       5.526123      2.701037      2.480166
  H       7.132879      1.949705      2.743617
  H       6.872159     -2.046988      0.722064
  H       3.388159      0.302889     -0.154227
  H       1.100401     -4.619458      0.018770
  H       2.400723     -4.048713      1.078550
  H       1.859242     -5.732472      1.168711
  H       3.681238     -0.950842     -3.774581
  H       2.400834     -4.831757     -5.085807
  H       1.589076      0.037195     -4.648828
  H       0.320367     -3.850486     -5.965833
  H      -0.107702     -1.412269     -5.751191
  F      -0.179961     -2.021354      0.389940
  F      -2.226404     -1.254842      0.132833
  F       0.599876      0.179691     -1.390571
  F      -1.427270      0.953584     -1.005147
  F      -1.542419     -1.159234     -2.732137
  F       0.154151     -2.436174     -2.157904
  F      -0.888827      0.469771      1.785653
  F       1.200398      0.116380      1.192076
  F      -1.789868     -3.995149     -0.661440
  F      -3.310697     -2.859163     -1.779661
  F       0.803187      2.534193      2.139199
  F      -0.860471      2.933189      0.770165
  F      -2.811445     -5.168997     -2.955606
  F      -0.661750     -4.849557     -2.970670
  F      -1.966742     -3.557382     -4.152563
  O       0.835694      3.120826     -1.297746
  O       2.548925      2.846076      0.156058
  C      -0.990103     -1.297693     -0.414323
  C      -0.439379      0.171738     -0.519563
  C      -1.082732     -2.027389     -1.802716
  C       0.054438      0.751851      0.845990
  C      -2.027581     -3.275971     -1.782952
  C       0.336597      2.287430      0.876572
  C      -1.849538     -4.237008     -3.004584
  C       1.353782      2.808427     -0.205342
80
Coordinates from ORCA-job R4N+PFOA-_altA_r2 E -2865.068154112381
  N       5.528051      0.581186      2.532874
  C       3.362549     -4.150294     -1.571266
  C       4.204588     -4.640326     -2.758461
  C       4.479277     -3.564590     -3.823624
  C       4.007100     -2.968214     -0.880123
  C       3.068656     -5.291840     -0.583677
  C       5.808128      0.461445      1.028015
  C       5.193340     -0.738813      0.377032
  C       3.199541     -2.960200     -4.366382
  C       5.286501     -3.058333     -0.318964
  C       3.339969     -1.744720     -0.803580
  C       5.338888     -4.143844     -4.953731
  C       6.212793     -0.516981      3.288428
  C       4.056628      0.532898      2.821353
  C       6.072586      1.904026      2.987540
  C       5.872859     -1.959747      0.299570
  C       3.924473     -0.641566     -0.194793
  C       2.043946     -4.901312      0.477736
  C       2.953705     -1.588431     -4.260586
  C       2.234416     -3.760100     -4.990156
  C       1.776991     -1.027298     -4.756258
  C       1.062344     -3.203369     -5.493045
  C       0.825916     -1.833970     -5.375176
  H       2.395375     -3.807205     -1.965132
  H       3.686657     -5.488370     -3.226803
  H       5.167255     -5.023914     -2.393256
  H       5.045546     -2.752515     -3.346970
  H       4.005601     -5.614047     -0.109071
  H       2.692955     -6.151097     -1.155075
  H       6.898121      0.457507      0.937710
  H       5.413833      1.381476      0.586377
  H       5.837499     -3.994131     -0.373019
  H       2.348848     -1.656556     -1.234885
  H       6.285257     -4.529114     -4.557259
  H       5.568314     -3.381561     -5.706134
  H       4.821060     -4.969969     -5.454732
  H       6.016180     -0.373173      4.352798
  H       7.285526     -0.464645      3.091402
  H       5.811264     -1.478351      2.964661
  H       3.913921      0.762679      3.879347
  H       3.683011     -0.468755      2.604479
  H       3.542705      1.269088      2.200253
  H       5.936618      1.981770      4.067857
  H       5.525349      2.700386      2.478941
  H       7.134102      1.951229      2.736200
  H       6.872359     -2.045797      0.719264
  H       3.387354      0.302876     -0.156849
  H       1.091074     -4.622658      0.010034
  H       2.386478     -4.046432      1.072596
  H       1.848450     -5.731329      1.165186
  H       3.691781     -0.952952     -3.775741
  H       2.400162     -4.830899     -5.085143
  H       1.604369      0.041284     -4.654549
  H       0.325348     -3.843322     -5.970788
  H      -0.094037     -1.403006     -5.761283
  F      -0.182068     -2.018796      0.393484
  F      -2.230287     -1.257297      0.136959
  F       0.594302      0.181654     -1.385170
  F      -1.433674      0.955187     -0.999007
  F      -1.551361     -1.157281     -2.726393
  F       0.150897     -2.429354     -2.159373
  F      -0.892701      0.469715      1.791105
  F       1.196892      0.120588      1.194958
  F      -1.787056     -3.996208     -0.658164
  F      -3.310834     -2.866765     -1.779155
  F       0.799162      2.537931      2.142825
  F      -0.872174      2.932416      0.781751
  F      -2.800880     -5.171669     -2.958564
  F      -0.651680     -4.848795     -2.960786
  F      -1.951793     -3.557316     -4.148929
  O       0.813508      3.129304     -1.292816
  O       2.535773      2.849380      0.150070
  C      -0.993847     -1.296369     -0.410176
  C      -0.445039      0.173778     -0.514157
  C      -1.086229     -2.025095     -1.799233
  C       0.049334      0.754832      0.850989
  C      -2.025904     -3.278015     -1.779965
  C       0.327510      2.290638      0.881838
  C      -1.840423     -4.238137     -3.001034
  C       1.338566      2.814303     -0.204167
80
Coordinates from ORCA-job R4N+PFOA-_altA_r2 E -2865.068178341791
  N       5.532823      0.577548      2.523700
  C       3.359319     -4.155629     -1.575933
  C       4.205344     -4.652815     -2.757070
  C       4.494323     -3.580716     -3.821285
  C       4.004821     -2.974055     -0.882510
  C       3.049233     -5.294066     -0.593025
  C       5.797154      0.466127      1.013837
  C       5.188036     -0.739072      0.367244
  C       3.221472     -2.963383     -4.365935
  C       5.285004     -3.060714     -0.322991
  C       3.336452     -1.750328     -0.807901
  C       5.351470     -4.167603     -4.949402
  C       6.231601     -0.519887      3.267088
  C       4.062824      0.519855      2.829840
  C       6.072865      1.901605      2.974368
  C       5.870164     -1.958817      0.291202
  C       3.919181     -0.644405     -0.203294
  C       1.997129     -4.905715      0.440851
  C       2.986536     -1.589879     -4.259206
  C       2.250272     -3.754751     -4.991107
  C       1.815349     -1.018691     -4.756393
  C       1.084638     -3.187812     -5.497483
  C       0.859436     -1.816733     -5.379516
  H       2.398994     -3.801769     -1.974877
  H       3.684004     -5.497310     -3.227786
  H       5.162764     -5.043306     -2.385131
  H       5.067781     -2.774132     -3.343757
  H       3.976405     -5.608136     -0.094256
  H       2.692217     -6.156782     -1.171024
  H       6.885814      0.476573      0.910793
  H       5.382145      1.378903      0.576050
  H       5.838511     -3.995061     -0.376854
  H       2.345566     -1.665022     -1.239896
  H       6.292399     -4.563344     -4.550518
  H       5.591002     -3.406578     -5.699766
  H       4.826057     -4.987880     -5.452114
  H       6.050675     -0.375774      4.334222
  H       7.301206     -0.464459      3.054132
  H       5.828013     -1.482306      2.950127
  H       3.934211      0.744305      3.890455
  H       3.695992     -0.482938      2.607065
  H       3.540732      1.260001      2.220573
  H       5.947735      1.977550      4.056236
  H       5.516913      2.696506      2.472553
  H       7.131735      1.954876      2.712807
  H       6.871363     -2.041439      0.707345
  H       3.380153      0.298842     -0.166330
  H       1.053763     -4.635713     -0.051883
  H       2.319435     -4.044367      1.037881
  H       1.790825     -5.733193      1.128051
  H       3.728570     -0.960284     -3.772843
  H       2.406882     -4.826776     -5.086966
  H       1.650137      0.051038     -4.653452
  H       0.344087     -3.821644     -5.977781
  H      -0.054219     -1.377374     -5.770946
  F      -0.187199     -2.002976      0.409132
  F      -2.241766     -1.259382      0.155458
  F       0.574443      0.192423     -1.368672
  F      -1.456058      0.964684     -0.979122
  F      -1.586625     -1.152612     -2.703478
  F       0.139970     -2.401023     -2.161263
  F      -0.909090      0.484250      1.807447
  F       1.181201      0.139821      1.207704
  F      -1.775089     -3.991556     -0.630484
  F      -3.309189     -2.894777     -1.768824
  F       0.784700      2.560445      2.150757
  F      -0.902315      2.941888      0.805078
  F      -2.754418     -5.187579     -2.948737
  F      -0.608649     -4.846992     -2.902755
  F      -1.892892     -3.566265     -4.121436
  O       0.763706      3.155447     -1.281631
  O       2.504160      2.847309      0.135795
  C      -1.005538     -1.286270     -0.392857
  C      -0.464116      0.185987     -0.496057
  C      -1.098231     -2.014805     -1.782436
  C       0.031579      0.772690      0.866406
  C      -2.017395     -3.283908     -1.757731
  C       0.302338      2.308300      0.893552
  C      -1.801881     -4.246401     -2.971158
  C       1.302616      2.830961     -0.201847
80
Coordinates from ORCA-job R4N+PFOA-_altA_r2 E -2865.068235780168
  N       5.530744      0.578385      2.526201
  C       3.360323     -4.155121     -1.575394
  C       4.205253     -4.649710     -2.758436
  C       4.489815     -3.576692     -3.823255
  C       4.004551     -2.973075     -0.882758
  C       3.056103     -5.294794     -0.590284
  C       5.798310      0.464745      1.017892
  C       5.188359     -0.739955      0.370083
  C       3.214908     -2.962771     -4.366913
  C       5.285270     -3.059956     -0.324099
  C       3.335013     -1.750661     -0.805277
  C       5.346886     -4.162021     -4.952218
  C       6.226285     -0.519009      3.272720
  C       4.060786      0.523029      2.827605
  C       6.072465      1.902222      2.978342
  C       5.870655     -1.959296      0.292060
  C       3.918474     -0.645629     -0.199402
  C       2.014665     -4.905056      0.454419
  C       2.977203     -1.589787     -4.259773
  C       2.245111     -3.756111     -4.991867
  C       1.804467     -1.020994     -4.755933
  C       1.077222     -3.191721     -5.496143
  C       0.849327     -1.821048     -5.377558
  H       2.397013     -3.806123     -1.972732
  H       3.684663     -5.495232     -3.228288
  H       5.164304     -5.038180     -2.388808
  H       5.061716     -2.768566     -3.346477
  H       3.986926     -5.612015     -0.100359
  H       2.691972     -6.156232     -1.165785
  H       6.887314      0.472741      0.917259
  H       5.386831      1.378991      0.580162
  H       5.838714     -3.994234     -0.379595
  H       2.344122     -1.663967     -1.237253
  H       6.289513     -4.554721     -4.554251
  H       5.583226     -3.400896     -5.703543
  H       4.823299     -4.984103     -5.453862
  H       6.042913     -0.373829      4.339280
  H       7.296381     -0.465072      3.062165
  H       5.821870     -1.480988      2.955040
  H       3.928667      0.748204      3.887790
  H       3.692277     -0.479385      2.606318
  H       3.540305      1.262070      2.215424
  H       5.942708      1.979491      4.059509
  H       5.519882      2.697248      2.473303
  H       7.132448      1.953515      2.721135
  H       6.871822     -2.042857      0.708157
  H       3.380732      0.298263     -0.161340
  H       1.071078     -4.621061     -0.029183
  H       2.349727     -4.052742      1.057121
  H       1.805067     -5.736401      1.135965
  H       3.718440     -0.958814     -3.773920
  H       2.403898     -4.827854     -5.087774
  H       1.637279      0.048383     -4.653016
  H       0.337492     -3.826898     -5.976204
  H      -0.066788     -1.383681     -5.765539
  F      -0.186560     -2.007014      0.406702
  F      -2.238828     -1.258033      0.147962
  F       0.580707      0.191461     -1.372604
  F      -1.450076      0.961190     -0.986813
  F      -1.567615     -1.154198     -2.711790
  F       0.148032     -2.411415     -2.154635
  F      -0.908873      0.482231      1.801611
  F       1.182468      0.137458      1.207596
  F      -1.782348     -3.990003     -0.636899
  F      -3.307441     -2.882174     -1.776223
  F       0.782125      2.557382      2.148518
  F      -0.896281      2.941349      0.792839
  F      -2.766820     -5.181491     -2.952070
  F      -0.619675     -4.849230     -2.917024
  F      -1.904814     -3.563719     -4.128988
  O       0.782617      3.151522     -1.284320
  O       2.513324      2.844251      0.144040
  C      -1.001526     -1.288699     -0.397438
  C      -0.458786      0.183116     -0.501262
  C      -1.090791     -2.017890     -1.786575
  C       0.033838      0.769280      0.862109
  C      -2.018324     -3.280592     -1.764424
  C       0.306414      2.305073      0.889203
  C      -1.810684     -4.243866     -2.979075
  C       1.313485      2.826708     -0.201127
80
Coordinates from ORCA-job R4N+PFOA-_altA_r2 E -2865.068282646244
  N       5.530157      0.577880      2.526404
  C       3.358056     -4.154263     -1.576907
  C       4.203611     -4.649167     -2.759310
  C       4.487977     -3.576592     -3.824826
  C       4.001615     -2.972681     -0.884164
  C       3.053485     -5.293435     -0.589984
  C       5.797358      0.463320      1.018939
  C       5.187016     -0.741726      0.371026
  C       3.213141     -2.962771     -4.368645
  C       5.282461     -3.060481     -0.325597
  C       3.331609     -1.751126     -0.804646
  C       5.344540     -4.163103     -4.953553
  C       6.225087     -0.519435      3.273858
  C       4.060783      0.523571      2.826466
  C       6.073491      1.901633      2.979252
  C       5.868712     -1.961109      0.292036
  C       3.916395     -0.647174     -0.197931
  C       2.015679     -4.900412      0.457647
  C       2.975849     -1.589843     -4.260617
  C       2.243279     -3.755493     -4.994419
  C       1.803412     -1.020400     -4.756510
  C       1.075186     -3.190481     -5.497804
  C       0.848026     -1.819715     -5.378465
  H       2.394352     -3.807118     -1.975803
  H       3.682755     -5.494825     -3.228759
  H       5.162678     -5.037503     -2.389772
  H       5.060066     -2.768283     -3.348593
  H       3.984699     -5.612457     -0.101943
  H       2.686248     -6.154731     -1.163752
  H       6.886356      0.471548      0.917591
  H       5.385009      1.377606      0.582321
  H       5.835305     -3.995042     -0.382249
  H       2.341151     -1.662367     -1.237734
  H       6.287302     -4.555297     -4.555339
  H       5.580624     -3.402696     -5.705722
  H       4.820957     -4.985666     -5.454384
  H       6.043092     -0.372651      4.340415
  H       7.294910     -0.466982      3.061841
  H       5.818668     -1.481039      2.957275
  H       3.927672      0.747971      3.886808
  H       3.691115     -0.478506      2.605593
  H       3.540282      1.262264      2.213713
  H       5.940494      1.980178      4.059875
  H       5.523364      2.696627      2.471669
  H       7.134219      1.951257      2.725011
  H       6.869736     -2.046262      0.708206
  H       3.380965      0.297893     -0.159224
  H       1.075158     -4.603983     -0.023877
  H       2.359207     -4.055582      1.066038
  H       1.798709     -5.733925      1.134227
  H       3.717303     -0.959390     -3.774367
  H       2.401647     -4.827288     -5.090838
  H       1.636652      0.048933     -4.653510
  H       0.335467     -3.824687     -5.979203
  H      -0.068439     -1.381590     -5.764627
  F      -0.179913     -2.007822      0.406843
  F      -2.233407     -1.261221      0.148382
  F       0.581082      0.196256     -1.373661
  F      -1.451523      0.957413     -0.986605
  F      -1.557401     -1.156833     -2.712858
  F       0.156506     -2.413825     -2.149853
  F      -0.909023      0.480548      1.801602
  F       1.183189      0.141266      1.209096
  F      -1.780469     -3.989469     -0.634534
  F      -3.300887     -2.881655     -1.779440
  F       0.777214      2.559553      2.147813
  F      -0.899265      2.941497      0.789084
  F      -2.760825     -5.183402     -2.951200
  F      -0.613533     -4.853257     -2.914581
  F      -1.896045     -3.566726     -4.127781
  O       0.783702      3.158124     -1.283585
  O       2.511974      2.842218      0.145023
  C      -0.996211     -1.290612     -0.397067
  C      -0.457479      0.182515     -0.501355
  C      -1.083358     -2.019977     -1.786084
  C       0.033199      0.769199      0.861962
  C      -2.012147     -3.281894     -1.763935
  C       0.303525      2.305802      0.888278
  C      -1.803858     -4.246640     -2.977589
  C       1.311877      2.828274     -0.201065
80
Coordinates from ORCA-job R4N+PFOA-_altA_r2 E -2865.068340882708
  N       5.529466      0.575769      2.523926
  C       3.353180     -4.154656     -1.582308
  C       4.202017     -4.651660     -2.761453
  C       4.490225     -3.579939     -3.827025
  C       3.995637     -2.974228     -0.887694
  C       3.042801     -5.292399     -0.594409
  C       5.793090      0.460728      1.016770
  C       5.182552     -0.745517      0.370168
  C       3.217459     -2.963228     -4.372135
  C       5.276213     -3.063185     -0.328402
  C       3.325191     -1.753427     -0.806062
  C       5.346372     -4.169293     -4.954552
  C       6.226651     -0.521048      3.270556
  C       4.061400      0.521268      2.826445
  C       6.074420      1.899836      2.976632
  C       5.863423     -1.965114      0.290703
  C       3.911364     -0.650747     -0.198411
  C       2.004478     -4.894428      0.451293
  C       2.983539     -1.589953     -4.262407
  C       2.246210     -3.752833     -4.999812
  C       1.812824     -1.017051     -4.758079
  C       1.079328     -3.184348     -5.502295
  C       0.855759     -1.813177     -5.381200
  H       2.391691     -3.807246     -1.986971
  H       3.680594     -5.496596     -3.231725
  H       5.159560     -5.041491     -2.389787
  H       5.063657     -2.772872     -3.350339
  H       3.972017     -5.613646     -0.104010
  H       2.674108     -6.153648     -1.167336
  H       6.881800      0.471134      0.911926
  H       5.376975      1.374072      0.581974
  H       5.828414     -3.998054     -0.386146
  H       2.335614     -1.662131     -1.241055
  H       6.287691     -4.563544     -4.554900
  H       5.585246     -3.409900     -5.706904
  H       4.821446     -4.990759     -5.455735
  H       6.050116     -0.371909      4.337662
  H       7.295345     -0.470168      3.052906
  H       5.816960     -1.482426      2.957254
  H       3.929836      0.741667      3.887926
  H       3.690195     -0.479955      2.604410
  H       3.538979      1.261111      2.216680
  H       5.938910      1.979781      4.056769
  H       5.526063      2.694388      2.466625
  H       7.135649      1.947816      2.724456
  H       6.864267     -2.052171      0.706931
  H       3.378972      0.295850     -0.159535
  H       1.069508     -4.585413     -0.032569
  H       2.354418     -4.057068      1.066183
  H       1.776716     -5.729262      1.122692
  H       3.726238     -0.962004     -3.774799
  H       2.401933     -4.824934     -5.097458
  H       1.648654      0.052484     -4.654347
  H       0.338664     -3.815353     -5.986388
  H      -0.059920     -1.372084     -5.765627
  F      -0.170114     -2.003625      0.410888
  F      -2.227666     -1.265279      0.156367
  F       0.575809      0.208699     -1.370786
  F      -1.460301      0.955194     -0.979848
  F      -1.557998     -1.159888     -2.705875
  F       0.164082     -2.406234     -2.144731
  F      -0.912350      0.484189      1.807201
  F       1.180746      0.153383      1.214520
  F      -1.772816     -3.986500     -0.619558
  F      -3.290970     -2.891265     -1.778156
  F       0.767263      2.570776      2.147485
  F      -0.910612      2.945738      0.788514
  F      -2.737408     -5.193131     -2.941849
  F      -0.591017     -4.860139     -2.889103
  F      -1.864980     -3.577799     -4.115203
  O       0.773275      3.176753     -1.280089
  O       2.502483      2.837197      0.141244
  C      -0.991313     -1.289884     -0.391171
  C      -0.460831      0.186032     -0.496312
  C      -1.077572     -2.019741     -1.779697
  C       0.027943      0.774831      0.866246
  C      -2.000515     -3.286309     -1.753984
  C       0.293436      2.312772      0.889181
  C      -1.781704     -4.255188     -2.962748
  C       1.300788      2.835113     -0.201520
80
Coordinates from ORCA-job R4N+PFOA-_altA_r2 E -2865.068377580114
  N       5.527444      0.573210      2.521760
  C       3.350374     -4.155779     -1.587457
  C       4.202110     -4.654094     -2.763978
  C       4.493334     -3.582325     -3.828844
  C       3.991708     -2.975954     -0.890922
  C       3.035725     -5.292665     -0.600060
  C       5.789254      0.458369      1.014476
  C       5.178560     -0.748201      0.368715
  C       3.221844     -2.963301     -4.374123
  C       5.271863     -3.065436     -0.330824
  C       3.320997     -1.755274     -0.808286
  C       5.349370     -4.172728     -4.955837
  C       6.225822     -0.523883      3.267286
  C       4.060098      0.518928      2.826394
  C       6.073383      1.897152      2.974473
  C       5.859194     -1.967887      0.289031
  C       3.907339     -0.653276     -0.199752
  C       1.996491     -4.892261      0.443714
  C       2.989544     -1.589977     -4.261661
  C       2.249682     -3.750649     -5.003197
  C       1.819208     -1.014865     -4.755662
  C       1.083301     -3.179865     -5.504121
  C       0.861277     -1.808729     -5.380128
  H       2.391072     -3.807970     -1.996615
  H       3.680851     -5.498427     -3.235562
  H       5.158480     -5.044891     -2.390391
  H       5.067608     -2.776549     -3.351073
  H       3.963527     -5.615797     -0.108244
  H       2.666160     -6.153324     -1.173313
  H       6.877786      0.469776      0.907924
  H       5.371859      1.371388      0.580236
  H       5.823990     -4.000320     -0.389065
  H       2.331958     -1.662863     -1.244272
  H       6.289543     -4.569019     -4.555494
  H       5.590552     -3.413504     -5.707651
  H       4.823436     -4.992844     -5.458160
  H       6.052469     -0.374299      4.334822
  H       7.293919     -0.474046      3.046552
  H       5.814399     -1.485019      2.955475
  H       3.929540      0.735650      3.888761
  H       3.687149     -0.481393      2.602774
  H       3.536731      1.260364      2.219441
  H       5.936875      1.977201      4.054450
  H       5.526017      2.691919      2.463695
  H       7.134807      1.943762      2.722983
  H       6.859944     -2.055589      0.705338
  H       3.376135      0.293929     -0.161287
  H       1.063462     -4.580222     -0.042064
  H       2.347685     -4.056656      1.060281
  H       1.764959     -5.727003      1.113965
  H       3.733009     -0.963983     -3.772740
  H       2.404367     -4.822700     -5.103023
  H       1.656313      0.054635     -4.649772
  H       0.342003     -3.808666     -5.990037
  H      -0.054253     -1.365943     -5.762789
  F      -0.166023     -1.996368      0.415731
  F      -2.225784     -1.263472      0.161875
  F       0.572255      0.218698     -1.368856
  F      -1.466137      0.957057     -0.976483
  F      -1.562878     -1.162789     -2.700169
  F       0.167367     -2.398428     -2.141124
  F      -0.915799      0.491621      1.810043
  F       1.177842      0.163779      1.217819
  F      -1.765303     -3.983446     -0.605415
  F      -3.284529     -2.900996     -1.773867
  F       0.760253      2.582206      2.145956
  F      -0.917592      2.952078      0.785711
  F      -2.717053     -5.202856     -2.929621
  F      -0.571751     -4.863982     -2.863648
  F      -1.840581     -3.589111     -4.102625
  O       0.768774      3.191773     -1.278571
  O       2.497464      2.831397      0.138190
  C      -0.989723     -1.286158     -0.386779
  C      -0.463703      0.191312     -0.493571
  C      -1.075619     -2.018547     -1.773815
  C       0.023769      0.781977      0.868609
  C      -1.992300     -3.289775     -1.743785
  C       0.287000      2.320648      0.888360
  C      -1.763644     -4.262611     -2.947392
  C       1.294994      2.840621     -0.202689
80
Coordinates from ORCA-job R4N+PFOA-_altA_r2 E -2865.068414159881
  N       5.524604      0.569855      2.520424
  C       3.347595     -4.156370     -1.592952
  C       4.202125     -4.655983     -2.767018
  C       4.496170     -3.583899     -3.831056
  C       3.988325     -2.977115     -0.894564
  C       3.028770     -5.292432     -0.606588
  C       5.786614      0.455261      1.012887
  C       5.175104     -0.750412      0.367047
  C       3.225728     -2.962802     -4.376444
  C       5.267777     -3.067558     -0.333250
  C       3.318128     -1.755918     -0.811573
  C       5.352459     -4.174583     -4.957591
  C       6.221994     -0.528406      3.265297
  C       4.057533      0.517037      2.825778
  C       6.071929      1.892971      2.973565
  C       5.855162     -1.970515      0.287362
  C       3.904325     -0.654627     -0.201783
  C       1.988286     -4.890576      0.435078
  C       2.994157     -1.589540     -4.260982
  C       2.253133     -3.748359     -5.007016
  C       1.823553     -1.012897     -4.752786
  C       1.086913     -3.175975     -5.506226
  C       0.865135     -1.805078     -5.378640
  H       2.390617     -3.807846     -2.006432
  H       3.681477     -5.499882     -3.240023
  H       5.157422     -5.047413     -2.391363
  H       5.070969     -2.779394     -3.351845
  H       3.955291     -5.617677     -0.113748
  H       2.658430     -6.152122     -1.180822
  H       6.875169      0.465644      0.906671
  H       5.371179      1.369166      0.578378
  H       5.819602     -4.002625     -0.391507
  H       2.329575     -1.662639     -1.248193
  H       6.291496     -4.573032     -4.556730
  H       5.595996     -3.415186     -5.708496
  H       4.825677     -4.993178     -5.461526
  H       6.049594     -0.379398      4.333061
  H       7.290073     -0.480169      3.044025
  H       5.809371     -1.489045      2.953598
  H       3.926998      0.730642      3.888747
  H       3.681978     -0.482105      2.600388
  H       3.534210      1.260353      2.221101
  H       5.934896      1.972514      4.053522
  H       5.526062      2.688856      2.462847
  H       7.133536      1.937642      2.722488
  H       6.855682     -2.058656      0.704111
  H       3.373759      0.292990     -0.164450
  H       1.055089     -4.581544     -0.052580
  H       2.337609     -4.052952      1.050105
  H       1.757015     -5.724131      1.106948
  H       3.738085     -0.965215     -3.770697
  H       2.407690     -4.820185     -5.109323
  H       1.661207      0.056455     -4.643884
  H       0.345157     -3.803235     -5.993446
  H      -0.050681     -1.361300     -5.759542
  F      -0.162776     -1.987382      0.421235
  F      -2.224387     -1.259813      0.166459
  F       0.569665      0.228162     -1.368025
  F      -1.470515      0.960376     -0.974806
  F      -1.569167     -1.166991     -2.694326
  F       0.170155     -2.390486     -2.137687
  F      -0.917567      0.500471      1.811582
  F       1.176374      0.174404      1.218918
  F      -1.755052     -3.980648     -0.589359
  F      -3.277580     -2.912781     -1.766458
  F       0.755474      2.594521      2.143068
  F      -0.923069      2.959002      0.782453
  F      -2.694136     -5.215620     -2.912143
  F      -0.550409     -4.867080     -2.835113
  F      -1.817279     -3.604071     -4.088137
  O       0.764546      3.207620     -1.278184
  O       2.493672      2.826026      0.132863
  C      -0.988272     -1.281258     -0.382835
  C      -0.465745      0.197515     -0.492231
  C      -1.074058     -2.017586     -1.767253
  C       0.021122      0.790254      0.869621
  C      -1.983436     -3.294011     -1.731706
  C       0.282265      2.329493      0.886243
  C      -1.744482     -4.271544     -2.929136
  C       1.290480      2.846745     -0.205371
80
Coordinates from ORCA-job R4N+PFOA-_altA_r2 E -2865.068439694348
  N       5.521987      0.566578      2.519710
  C       3.345015     -4.156874     -1.597863
  C       4.201651     -4.657519     -2.770171
  C       4.498533     -3.585302     -3.833506
  C       3.985784     -2.978117     -0.898130
  C       3.023128     -5.292598     -0.612527
  C       5.785208      0.451913      1.011895
  C       5.172409     -0.752287      0.365417
  C       3.229384     -2.961968     -4.379424
  C       5.264587     -3.069537     -0.335634
  C       3.316424     -1.756292     -0.814984
  C       5.355105     -4.176322     -4.959520
  C       6.217326     -0.532974      3.264291
  C       4.054868      0.515541      2.825009
  C       6.070690      1.888733      2.973221
  C       5.851831     -1.972900      0.285825
  C       3.902214     -0.655493     -0.203919
  C       1.982398     -4.890511      0.428522
  C       2.998863     -1.588679     -4.261784
  C       2.256426     -3.745758     -5.011593
  C       1.828340     -1.010451     -4.752083
  C       1.090596     -3.171783     -5.509688
  C       0.869073     -1.801070     -5.378804
  H       2.389916     -3.807088     -2.014760
  H       3.681475     -5.501023     -3.244351
  H       5.155931     -5.049661     -2.392680
  H       5.073956     -2.782038     -3.352955
  H       3.948939     -5.620083     -0.119786
  H       2.651681     -6.151046     -1.187964
  H       6.873946      0.459750      0.907327
  H       5.373846      1.367489      0.576798
  H       5.816119     -4.004788     -0.393699
  H       2.328151     -1.662564     -1.251734
  H       6.292899     -4.577144     -4.558118
  H       5.601151     -3.416704     -5.709388
  H       4.827328     -4.993307     -5.465060
  H       6.044342     -0.384750      4.332085
  H       7.285710     -0.486298      3.044036
  H       5.803976     -1.493085      2.951949
  H       3.924289      0.726972      3.888401
  H       3.676861     -0.482413      2.597989
  H       3.531885      1.260782      2.222393
  H       5.934022      1.967810      4.053287
  H       5.525935      2.685818      2.463214
  H       7.132332      1.932001      2.721944
  H       6.852089     -2.061155      0.703166
  H       3.371701      0.292269     -0.168227
  H       1.047514     -4.587200     -0.059475
  H       2.328962     -4.049303      1.040287
  H       1.754232     -5.722662      1.103236
  H       3.743334     -0.965901     -3.770391
  H       2.410620     -4.817452     -5.115759
  H       1.666774      0.058809     -4.640610
  H       0.348264     -3.797770     -5.997725
  H      -0.046902     -1.356368     -5.758474
  F      -0.161963     -1.978752      0.427663
  F      -2.224915     -1.255450      0.170141
  F       0.567281      0.235239     -1.366552
  F      -1.473976      0.964057     -0.974075
  F      -1.575724     -1.170638     -2.688094
  F       0.171884     -2.382892     -2.133440
  F      -0.919044      0.509228      1.813192
  F       1.175031      0.184276      1.219580
  F      -1.746809     -3.977866     -0.573802
  F      -3.271841     -2.923715     -1.759563
  F       0.751527      2.606781      2.139890
  F      -0.928609      2.965157      0.779693
  F      -2.673265     -5.227972     -2.894181
  F      -0.531266     -4.869999     -2.807846
  F      -1.796895     -3.619388     -4.074430
  O       0.758700      3.222893     -1.278085
  O       2.489425      2.821245      0.125997
  C      -0.988240     -1.276208     -0.378592
  C      -0.467953      0.203361     -0.490813
  C      -1.073512     -2.016398     -1.760227
  C       0.018737      0.798507      0.870538
  C      -1.976038     -3.297743     -1.720059
  C       0.277728      2.338027      0.883932
  C      -1.727359     -4.280082     -2.911398
  C       1.285553      2.852833     -0.208662
80
Coordinates from ORCA-job R4N+PFOA-_altA_r2 E -2865.068456694861
  N       5.519728      0.563022      2.520180
  C       3.342910     -4.157159     -1.601812
  C       4.200276     -4.658391     -2.773419
  C       4.498910     -3.586358     -3.836488
  C       3.983954     -2.978845     -0.901337
  C       3.020123     -5.293009     -0.617062
  C       5.784567      0.448434      1.012237
  C       5.170532     -0.754166      0.364483
  C       3.230623     -2.961059     -4.382332
  C       5.262477     -3.071116     -0.338312
  C       3.315201     -1.756750     -0.817562
  C       5.354948     -4.178122     -4.962430
  C       6.212456     -0.537876      3.264760
  C       4.052412      0.513961      2.824406
  C       6.069818      1.884129      2.974309
  C       5.849548     -1.975057      0.284274
  C       3.900645     -0.656436     -0.205141
  C       1.981938     -4.890854      0.426282
  C       3.000991     -1.587761     -4.262916
  C       2.257163     -3.743352     -5.015636
  C       1.830782     -1.008108     -4.752386
  C       1.091864     -3.167921     -5.513284
  C       0.870906     -1.797248     -5.380190
  H       2.388612     -3.806699     -2.020199
  H       3.680088     -5.501588     -3.248143
  H       5.153971     -5.051063     -2.394991
  H       5.075313     -2.784075     -3.355438
  H       3.946270     -5.623088     -0.126639
  H       2.646117     -6.149886     -1.193243
  H       6.873543      0.453487      0.909853
  H       5.377369      1.365879      0.577120
  H       5.813878     -4.006420     -0.396741
  H       2.327158     -1.662609     -1.254491
  H       6.291893     -4.580917     -4.561010
  H       5.602672     -3.418494     -5.711729
  H       4.825948     -4.993886     -5.468682
  H       6.038073     -0.390359      4.332450
  H       7.281289     -0.492668      3.046300
  H       5.798491     -1.497359      2.951289
  H       3.921632      0.724523      3.887962
  H       3.672567     -0.483064      2.596233
  H       3.530127      1.260686      2.222933
  H       5.933564      1.962900      4.054476
  H       5.526024      2.682324      2.465027
  H       7.131497      1.926488      2.722934
  H       6.849654     -2.063373      0.701974
  H       3.370210      0.291458     -0.171098
  H       1.044967     -4.590419     -0.059395
  H       2.328540     -4.047818      1.035526
  H       1.756855     -5.722399      1.102789
  H       3.745976     -0.966176     -3.770789
  H       2.410854     -4.814989     -5.121145
  H       1.670110      0.061138     -4.639308
  H       0.349033     -3.792802     -6.001992
  H      -0.044716     -1.351410     -5.759537
  F      -0.163877     -1.970183      0.435255
  F      -2.226808     -1.249654      0.169629
  F       0.567022      0.240908     -1.365149
  F      -1.475304      0.967723     -0.976525
  F      -1.574261     -1.174584     -2.685308
  F       0.176934     -2.379181     -2.125810
  F      -0.921899      0.517009      1.812969
  F       1.172915      0.194128      1.220369
  F      -1.741342     -3.974100     -0.560653
  F      -3.265090     -2.930890     -1.757370
  F       0.745348      2.618948      2.136463
  F      -0.935426      2.970539      0.775211
  F      -2.653913     -5.239034     -2.877417
  F      -0.513475     -4.872970     -2.784126
  F      -1.778138     -3.634519     -4.063361
  O       0.753155      3.239227     -1.277902
  O       2.484564      2.816175      0.119445
  C      -0.988427     -1.271004     -0.375607
  C      -0.469182      0.208840     -0.490688
  C      -1.070071     -2.015815     -1.754357
  C       0.015831      0.806499      0.870420
  C      -1.968371     -3.300165     -1.711222
  C       0.272027      2.346208      0.880914
  C      -1.711208     -4.287905     -2.896186
  C       1.280223      2.859254     -0.211888
80
Coordinates from ORCA-job R4N+PFOA-_altA_r2 E -2865.068470984907
  N       5.518491      0.560582      2.522017
  C       3.340740     -4.155899     -1.603765
  C       4.197299     -4.657769     -2.775694
  C       4.496605     -3.586319     -3.839082
  C       3.983015     -2.978282     -0.903182
  C       3.017976     -5.291932     -0.619057
  C       5.786454      0.445339      1.014404
  C       5.170644     -0.755388      0.365004
  C       3.228799     -2.959873     -4.384843
  C       5.261046     -3.072167     -0.339182
  C       3.315648     -1.755559     -0.819392
  C       5.351928     -4.179080     -4.965029
  C       6.207109     -0.541818      3.267919
  C       4.050459      0.514313      2.823357
  C       6.070285      1.880509      2.976994
  C       5.848416     -1.977026      0.284701
  C       3.901348     -0.655981     -0.205689
  C       1.983800     -4.889031      0.427975
  C       2.999808     -1.586582     -4.264573
  C       2.255173     -3.741177     -5.019250
  C       1.830232     -1.005949     -4.754317
  C       1.090620     -3.164694     -5.517563
  C       0.870272     -1.793946     -5.383427
  H       2.386497     -3.804628     -2.021870
  H       3.676407     -5.500707     -3.250134
  H       5.150796     -5.050963     -2.397281
  H       5.073852     -2.784427     -3.358340
  H       3.944814     -5.624653     -0.131712
  H       2.640551     -6.147284     -1.195301
  H       6.875741      0.446353      0.915199
  H       5.384471      1.364866      0.578872
  H       5.811621     -4.007954     -0.397541
  H       2.328007     -1.660526     -1.256883
  H       6.288513     -4.582794     -4.563689
  H       5.600306     -3.419726     -5.714378
  H       4.822070     -4.994434     -5.471039
  H       6.029329     -0.394807      4.335138
  H       7.276759     -0.498052      3.053153
  H       5.792850     -1.500508      2.952361
  H       3.918428      0.726569      3.886452
  H       3.669462     -0.482324      2.595495
  H       3.529876      1.261282      2.220716
  H       5.934000      1.959175      4.057182
  H       5.527821      2.679833      2.468079
  H       7.132121      1.921811      2.726056
  H       6.847997     -2.066208      0.703490
  H       3.371535      0.292331     -0.173504
  H       1.044777     -4.589325     -0.054020
  H       2.332472     -4.045225      1.034965
  H       1.761383     -5.720087      1.105951
  H       3.744956     -0.965643     -3.771869
  H       2.408401     -4.812810     -5.125470
  H       1.670275      0.063312     -4.640812
  H       0.347657     -3.788831     -6.007116
  H      -0.044494     -1.346939     -5.763490
  F      -0.162805     -1.965569      0.439881
  F      -2.225981     -1.248054      0.168168
  F       0.567872      0.243479     -1.365698
  F      -1.475234      0.968277     -0.978844
  F      -1.568455     -1.179087     -2.685017
  F       0.183632     -2.379645     -2.119769
  F      -0.921296      0.519743      1.812193
  F       1.173845      0.200137      1.218905
  F      -1.735479     -3.973345     -0.553305
  F      -3.258170     -2.936111     -1.756605
  F       0.743624      2.625762      2.132708
  F      -0.940003      2.972170      0.773501
  F      -2.640946     -5.247811     -2.865334
  F      -0.501396     -4.876813     -2.772120
  F      -1.767602     -3.646632     -4.057403
  O       0.745752      3.251196     -1.278763
  O       2.480164      2.813946      0.110611
  C      -0.986403     -1.269159     -0.374329
  C      -0.468583      0.211076     -0.491510
  C      -1.064642     -2.017327     -1.751186
  C       0.015657      0.810634      0.869151
  C      -1.961004     -3.303098     -1.706480
  C       0.268802      2.350520      0.878015
  C      -1.700254     -4.294659     -2.887422
  C       1.275058      2.864149     -0.216309
80
Coordinates from ORCA-job R4N+PFOA-_altA_r2 E -2865.068489940441
  N       5.517298      0.558246      2.525083
  C       3.338767     -4.154266     -1.604494
  C       4.192743     -4.656016     -2.778252
  C       4.491642     -3.584871     -3.841882
  C       3.983022     -2.977608     -0.904150
  C       3.018107     -5.291187     -0.619818
  C       5.790408      0.441420      1.018326
  C       5.172174     -0.757027      0.366915
  C       3.223920     -2.957530     -4.386889
  C       5.260348     -3.073678     -0.338792
  C       3.317665     -1.753930     -0.820793
  C       5.345862     -4.178264     -4.968376
  C       6.199880     -0.545907      3.273818
  C       4.047862      0.515946      2.821545
  C       6.071062      1.876801      2.981096
  C       5.848118     -1.979732      0.286751
  C       3.903846     -0.655279     -0.205678
  C       1.991299     -4.887524      0.434218
  C       2.995317     -1.584377     -4.265361
  C       2.250358     -3.737744     -5.022938
  C       1.826640     -1.002757     -4.755831
  C       1.086766     -3.160141     -5.522463
  C       0.867052     -1.789371     -5.387107
  H       2.383505     -3.802241     -2.019798
  H       3.670379     -5.498412     -3.252085
  H       5.146453     -5.050000     -2.401136
  H       5.069792     -2.783179     -3.361831
  H       3.946631     -5.627367     -0.138086
  H       2.635223     -6.144347     -1.195699
  H       6.880107      0.436625      0.923885
  H       5.395449      1.363275      0.581564
  H       5.809715     -4.010186     -0.396903
  H       2.330629     -1.657658     -1.259297
  H       6.282575     -4.582182     -4.567558
  H       5.593869     -3.419023     -5.717939
  H       4.815404     -4.993672     -5.473632
  H       6.016010     -0.399375      4.340085
  H       7.270834     -0.503464      3.065356
  H       5.785905     -1.503581      2.954791
  H       3.913669      0.732782      3.883474
  H       3.666397     -0.480842      2.595478
  H       3.530472      1.262212      2.215300
  H       5.934583      1.955479      4.061276
  H       5.530069      2.677246      2.472376
  H       7.133119      1.917049      2.730889
  H       6.846858     -2.070290      0.707277
  H       3.374927      0.293614     -0.176383
  H       1.049669     -4.585316     -0.040922
  H       2.345439     -4.044844      1.039567
  H       1.771648     -5.718905      1.112659
  H       3.740330     -0.963969     -3.771788
  H       2.403138     -4.809337     -5.130221
  H       1.667252      0.066490     -4.642091
  H       0.344117     -3.783463     -6.013628
  H      -0.046359     -1.340817     -5.768530
  F      -0.162489     -1.962006      0.444441
  F      -2.225095     -1.246610      0.163721
  F       0.570470      0.243518     -1.367742
  F      -1.473109      0.967778     -0.983749
  F      -1.556105     -1.185247     -2.688062
  F       0.193171     -2.384595     -2.111280
  F      -0.919926      0.521768      1.809417
  F       1.175619      0.205116      1.216020
  F      -1.730586     -3.973094     -0.548281
  F      -3.250448     -2.939032     -1.758282
  F       0.744004      2.631512      2.126377
  F      -0.943527      2.972554      0.770378
  F      -2.631003     -5.256484     -2.853149
  F      -0.491917     -4.882302     -2.764857
  F      -1.761248     -3.659980     -4.053908
  O       0.737898      3.262290     -1.282011
  O       2.476367      2.809783      0.097360
  C      -0.983823     -1.268309     -0.374438
  C      -0.466616      0.211944     -0.493992
  C      -1.056667     -2.020625     -1.749417
  C       0.016628      0.813795      0.865956
  C      -1.953364     -3.306084     -1.703978
  C       0.266725      2.353611      0.872896
  C      -1.691634     -4.302044     -2.881005
  C       1.270282      2.867967     -0.223764
80
Coordinates from ORCA-job R4N+PFOA-_altA_r2 E -2865.068508806887
  N       5.517198      0.557511      2.527855
  C       3.337085     -4.152605     -1.603392
  C       4.187973     -4.653680     -2.779538
  C       4.485914     -3.582118     -3.842864
  C       3.983638     -2.977059     -0.903342
  C       3.018734     -5.290505     -0.618800
  C       5.795813      0.437942      1.022448
  C       5.175112     -0.758697      0.369720
  C       3.218101     -2.954318     -4.387126
  C       5.259839     -3.075739     -0.335884
  C       3.321038     -1.751822     -0.821717
  C       5.339507     -4.175173     -4.970107
  C       6.193836     -0.547626      3.280772
  C       4.046184      0.519175      2.818945
  C       6.072568      1.875215      2.984271
  C       5.848459     -1.982933      0.290866
  C       3.908232     -0.654161     -0.205741
  C       1.998568     -4.885976      0.441527
  C       2.989894     -1.581238     -4.264710
  C       2.244851     -3.733540     -5.024953
  C       1.822272     -0.998708     -4.756389
  C       1.082386     -3.154886     -5.526117
  C       0.863336     -1.784114     -5.390015
  H       2.380673     -3.799560     -2.015157
  H       3.663896     -5.495254     -3.252983
  H       5.142053     -5.048704     -2.404385
  H       5.064471     -2.780514     -3.363133
  H       3.948746     -5.629389     -0.141884
  H       2.631088     -6.141946     -1.193996
  H       6.885837      0.427494      0.932502
  H       5.407203      1.361345      0.583398
  H       5.807359     -4.013399     -0.392853
  H       2.334807     -1.653825     -1.261639
  H       6.276710     -4.578476     -4.569833
  H       5.586441     -3.415674     -5.719747
  H       4.809180     -4.990981     -5.474810
  H       6.003131     -0.400848      4.345803
  H       7.266131     -0.505986      3.079141
  H       5.780728     -1.504608      2.958568
  H       3.909266      0.742210      3.879246
  H       3.664838     -0.478310      2.596068
  H       3.532609      1.263632      2.207307
  H       5.935404      1.954373      4.064334
  H       5.532970      2.676225      2.474948
  H       7.134906      1.914278      2.735076
  H       6.846038     -2.075563      0.713724
  H       3.380701      0.295626     -0.179563
  H       1.055280     -4.579586     -0.027463
  H       2.358677     -4.045502      1.046426
  H       1.780237     -5.718010      1.119558
  H       3.734572     -0.961234     -3.770146
  H       2.397138     -4.805110     -5.133189
  H       1.663320      0.070571     -4.642814
  H       0.340540     -3.777335     -6.019543
  H      -0.048538     -1.334126     -5.773400
  F      -0.159985     -1.962841      0.445248
  F      -2.222486     -1.248829      0.160889
  F       0.572562      0.240540     -1.371246
  F      -1.470938      0.964626     -0.986950
  F      -1.545814     -1.191109     -2.691797
  F       0.200058     -2.391451     -2.106432
  F      -0.915518      0.520026      1.806890
  F       1.179717      0.205449      1.211412
  F      -1.727414     -3.975412     -0.547955
  F      -3.245651     -2.940656     -1.759943
  F       0.749961      2.631853      2.119185
  F      -0.943484      2.969897      0.769593
  F      -2.628576     -5.262381     -2.846779
  F      -0.489351     -4.887529     -2.766791
  F      -1.763054     -3.668812     -4.054388
  O       0.729570      3.266243     -1.287459
  O       2.474290      2.806059      0.081339
  C      -0.980759     -1.270670     -0.375597
  C      -0.464140      0.209576     -0.496666
  C      -1.050591     -2.025257     -1.749954
  C       0.019888      0.812833      0.862180
  C      -1.948874     -3.309415     -1.704445
  C       0.268002      2.352631      0.867660
  C      -1.689557     -4.307669     -2.880115
  C       1.266771      2.868264     -0.233122
80
Coordinates from ORCA-job R4N+PFOA-_altA_r2 E -2865.068531082279
  N       5.515603      0.557037      2.531631
  C       3.338650     -4.153062     -1.599888
  C       4.183994     -4.649594     -2.781701
  C       4.476794     -3.574888     -3.843100
  C       3.987013     -2.978590     -0.900039
  C       3.027782     -5.294136     -0.616568
  C       5.802929      0.433077      1.028803
  C       5.180107     -0.762040      0.374738
  C       3.206743     -2.947910     -4.383130
  C       5.261647     -3.079725     -0.329729
  C       3.327355     -1.751581     -0.821585
  C       5.328901     -4.163776     -4.973813
  C       6.183912     -0.548842      3.291501
  C       4.042099      0.524173      2.813963
  C       6.072305      1.874042      2.988523
  C       5.850651     -1.987894      0.298307
  C       3.915346     -0.654647     -0.205106
  C       2.018932     -4.891020      0.455218
  C       2.976705     -1.575523     -4.256725
  C       2.234532     -3.726375     -5.023501
  C       1.809057     -0.992914     -4.747993
  C       1.072289     -3.147367     -5.525107
  C       0.852335     -1.777173     -5.386086
  H       2.378962     -3.800614     -2.003744
  H       3.658190     -5.490020     -3.255326
  H       5.139986     -5.044949     -2.411681
  H       5.055185     -2.773222     -3.363306
  H       3.961383     -5.636027     -0.148972
  H       2.633363     -6.142937     -1.190968
  H       6.893358      0.416076      0.945411
  H       5.421763      1.357109      0.584981
  H       5.807274     -4.018605     -0.384904
  H       2.342318     -1.651777     -1.263963
  H       6.268410     -4.564574     -4.576492
  H       5.571265     -3.402263     -5.722879
  H       4.799809     -4.980578     -5.478138
  H       5.982465     -0.401452      4.354446
  H       7.258155     -0.507569      3.100411
  H       5.772960     -1.505163      2.964688
  H       3.900270      0.756904      3.871493
  H       3.661543     -0.474661      2.596252
  H       3.535407      1.265460      2.192839
  H       5.932841      1.954167      4.068211
  H       5.534885      2.675279      2.477183
  H       7.135268      1.911368      2.741779
  H       6.846622     -2.082821      0.724480
  H       3.389385      0.296172     -0.183926
  H       1.073767     -4.573886     -0.002897
  H       2.390240     -4.057623      1.063108
  H       1.801067     -5.726607      1.128956
  H       3.720221     -0.955641     -3.760311
  H       2.387826     -4.797464     -5.135065
  H       1.648857      0.075941     -4.632645
  H       0.332550     -3.768996     -6.022723
  H      -0.058223     -1.326072     -5.770891
  F      -0.162651     -1.963907      0.445702
  F      -2.222072     -1.246375      0.150771
  F       0.579283      0.232497     -1.378395
  F      -1.463308      0.961717     -0.998840
  F      -1.524785     -1.199301     -2.703194
  F       0.209313     -2.406794     -2.097184
  F      -0.912721      0.522570      1.797227
  F       1.182596      0.203610      1.204890
  F      -1.730325     -3.976465     -0.551611
  F      -3.242622     -2.934691     -1.765857
  F       0.759328      2.632500      2.104394
  F      -0.936836      2.969095      0.757705
  F      -2.635757     -5.266244     -2.840390
  F      -0.495546     -4.894156     -2.775508
  F      -1.775417     -3.678327     -4.058963
  O       0.732744      3.265249     -1.301061
  O       2.480104      2.792429      0.059752
  C      -0.978753     -1.272694     -0.380804
  C      -0.458904      0.205942     -0.504774
  C      -1.042335     -2.032178     -1.753797
  C       0.024455      0.811716      0.852768
  C      -1.947629     -3.310859     -1.708939
  C       0.274327      2.350865      0.854558
  C      -1.695589     -4.312884     -2.883009
  C       1.271619      2.863187     -0.249429
80
Coordinates from ORCA-job R4N+PFOA-_altA_r2 E -2865.068551648821
  N       5.516794      0.558167      2.531983
  C       3.337493     -4.152866     -1.598214
  C       4.182088     -4.647785     -2.781246
  C       4.474191     -3.571109     -3.840961
  C       3.987120     -2.979552     -0.897397
  C       3.025847     -5.294793     -0.616174
  C       5.807268      0.430685      1.030514
  C       5.183162     -0.764169      0.376958
  C       3.204199     -2.944022     -4.381176
  C       5.260089     -3.083186     -0.323947
  C       3.330658     -1.750490     -0.822351
  C       5.327194     -4.157628     -4.972293
  C       6.181781     -0.547067      3.296075
  C       4.042443      0.527860      2.810895
  C       6.074425      1.875345      2.987777
  C       5.850542     -1.991964      0.304010
  C       3.920251     -0.654275     -0.206297
  C       2.016332     -4.891985      0.455293
  C       2.974707     -1.571392     -4.255179
  C       2.232410     -3.721994     -5.022606
  C       1.807923     -0.988156     -4.747944
  C       1.071054     -3.142369     -5.525552
  C       0.851618     -1.772122     -5.387187
  H       2.378219     -3.798833     -2.001502
  H       3.655987     -5.487438     -3.255905
  H       5.138306     -5.043742     -2.412440
  H       5.051849     -2.769765     -3.359784
  H       3.958989     -5.637124     -0.148025
  H       2.631577     -6.143247     -1.191167
  H       6.897790      0.411286      0.948967
  H       5.428583      1.354496      0.583658
  H       5.803313     -4.023616     -0.376549
  H       2.346720     -1.648478     -1.266495
  H       6.267039     -4.557862     -4.575198
  H       5.568915     -3.394910     -5.720355
  H       4.799073     -4.974275     -5.477891
  H       5.976960     -0.397729      4.358093
  H       7.256647     -0.506854      3.108284
  H       5.771059     -1.503540      2.969420
  H       3.898259      0.764472      3.867225
  H       3.661297     -0.471301      2.595741
  H       3.538600      1.267484      2.185554
  H       5.933132      1.957089      4.067093
  H       5.538918      2.676414      2.474205
  H       7.137837      1.910628      2.742700
  H       6.845197     -2.089279      0.732713
  H       3.396524      0.297887     -0.187529
  H       1.072214     -4.572566     -0.003297
  H       2.388473     -4.060338      1.065109
  H       1.796734     -5.728312      1.127562
  H       3.717885     -0.951851     -3.757839
  H       2.385226     -4.793163     -5.134073
  H       1.647897      0.080818     -4.632791
  H       0.332095     -3.763257     -6.024943
  H      -0.058077     -1.320571     -5.773854
  F      -0.157149     -1.968295      0.442801
  F      -2.218052     -1.252094      0.154625
  F       0.578122      0.229608     -1.381215
  F      -1.464145      0.957146     -0.996429
  F      -1.527498     -1.202809     -2.702340
  F       0.208138     -2.409512     -2.099850
  F      -0.906180      0.519492      1.797762
  F       1.187814      0.200420      1.200812
  F      -1.729122     -3.980373     -0.551503
  F      -3.243107     -2.938203     -1.763332
  F       0.770200      2.629549      2.097602
  F      -0.933155      2.965689      0.759935
  F      -2.637549     -5.270014     -2.839126
  F      -0.497310     -4.897112     -2.778135
  F      -1.780263     -3.681447     -4.058924
  O       0.724753      3.261284     -1.307991
  O       2.479734      2.788885      0.043231
  C      -0.976382     -1.277191     -0.380754
  C      -0.457989      0.201881     -0.505222
  C      -1.042937     -2.035904     -1.754307
  C       0.028675      0.807977      0.850868
  C      -1.948018     -3.314650     -1.708317
  C       0.278570      2.347484      0.850643
  C      -1.697821     -4.316320     -2.883173
  C       1.269419      2.859586     -0.259301
80
Coordinates from ORCA-job R4N+PFOA-_altA_r2 E -2865.068598677259
  N       5.516760      0.559887      2.529595
  C       3.338778     -4.156936     -1.596582
  C       4.184556     -4.645488     -2.781705
  C       4.474791     -3.562927     -3.836256
  C       3.987691     -2.985277     -0.892167
  C       3.026236     -5.302397     -0.619818
  C       5.810791      0.426369      1.030440
  C       5.186746     -0.769994      0.379538
  C       3.204461     -2.935373     -4.375371
  C       5.257737     -3.091544     -0.313065
  C       3.335245     -1.753513     -0.823477
  C       5.329451     -4.142350     -4.970047
  C       6.178269     -0.543357      3.300104
  C       4.041436      0.533185      2.804322
  C       6.075257      1.878086      2.982524
  C       5.849811     -2.000468      0.313926
  C       3.926977     -0.657532     -0.209402
  C       2.011701     -4.904381      0.448635
  C       2.975972     -1.562337     -4.249278
  C       2.232528     -3.712493     -5.017154
  C       1.809543     -0.978047     -4.741967
  C       1.071478     -3.131947     -5.519630
  C       0.852668     -1.761775     -5.381247
  H       2.380336     -3.801334     -1.999839
  H       3.660060     -5.483862     -3.260346
  H       5.141558     -5.041466     -2.414963
  H       5.050754     -2.762969     -3.350856
  H       3.958313     -5.644335     -0.149319
  H       2.635632     -6.150100     -1.198404
  H       6.901416      0.406847      0.950263
  H       5.432204      1.347431      0.577408
  H       5.797788     -4.034082     -0.360873
  H       2.353204     -1.648311     -1.271036
  H       6.270019     -4.542468     -4.574551
  H       5.569932     -3.375886     -5.714702
  H       4.803015     -4.957460     -5.479915
  H       5.971397     -0.389268      4.361024
  H       7.253560     -0.505793      3.114184
  H       5.766530     -1.500480      2.976659
  H       3.893920      0.772696      3.859475
  H       3.658238     -0.465616      2.591334
  H       3.542478      1.271993      2.174007
  H       5.929070      1.963810      4.060843
  H       5.543874      2.678151      2.463163
  H       7.139744      1.909086      2.741615
  H       6.842386     -2.100778      0.746717
  H       3.407208      0.296906     -0.194777
  H       1.071252     -4.579250     -0.013646
  H       2.382837     -4.078509      1.066785
  H       1.786395     -5.744672      1.114081
  H       3.719388     -0.943770     -3.751115
  H       2.384673     -4.783724     -5.128914
  H       1.649598      0.090964     -4.625351
  H       0.333031     -3.751649     -6.021082
  H      -0.057187     -1.310413     -5.768148
  F      -0.154559     -1.972030      0.441641
  F      -2.216579     -1.255056      0.163111
  F       0.574617      0.225201     -1.383554
  F      -1.466882      0.952853     -0.994010
  F      -1.539754     -1.206644     -2.697252
  F       0.199825     -2.411332     -2.103124
  F      -0.902388      0.525691      1.797566
  F       1.189462      0.197498      1.198692
  F      -1.733477     -3.982870     -0.544806
  F      -3.249362     -2.942286     -1.754974
  F       0.785346      2.632010      2.081929
  F      -0.924561      2.966889      0.752709
  F      -2.643568     -5.274652     -2.832949
  F      -0.503404     -4.900877     -2.770296
  F      -1.786211     -3.685766     -4.052358
  O       0.722905      3.251959     -1.324539
  O       2.484261      2.771592      0.015532
  C      -0.977395     -1.280905     -0.378319
  C      -0.459276      0.197811     -0.505312
  C      -1.049905     -2.039487     -1.751784
  C       0.031485      0.806379      0.847889
  C      -1.954175     -3.318641     -1.701874
  C       0.286092      2.345892      0.839387
  C      -1.704157     -4.320841     -2.876343
  C       1.271730      2.849264     -0.278574
80
Coordinates from ORCA-job R4N+PFOA-_altA_r2 E -2865.068627284838
  N       5.515186      0.560040      2.529359
  C       3.339727     -4.158375     -1.597081
  C       4.187095     -4.642455     -2.783214
  C       4.475462     -3.556452     -3.834759
  C       3.987684     -2.987951     -0.889931
  C       3.026984     -5.306629     -0.624304
  C       5.813383      0.422656      1.031602
  C       5.189066     -0.773831      0.381216
  C       3.204327     -2.929529     -4.372721
  C       5.255625     -3.096607     -0.306688
  C       3.338045     -1.754536     -0.825245
  C       5.330992     -4.131210     -4.970287
  C       6.171077     -0.543300      3.304477
  C       4.039222      0.538025      2.798986
  C       6.075906      1.877716      2.981378
  C       5.848918     -2.006221      0.320322
  C       3.931428     -0.659045     -0.211782
  C       2.009895     -4.912464      0.443027
  C       2.975730     -1.556374     -4.247226
  C       2.231961     -3.707286     -5.012945
  C       1.808570     -0.972556     -4.738734
  C       1.070253     -3.127245     -5.514437
  C       0.851124     -1.756987     -5.376513
  H       2.381549     -3.802565     -2.000710
  H       3.664730     -5.480777     -3.264255
  H       5.144946     -5.037134     -2.417267
  H       5.050066     -2.757027     -3.346903
  H       3.958658     -5.649111     -0.153415
  H       2.638187     -6.153185     -1.205809
  H       6.904175      0.401923      0.954024
  H       5.437067      1.343006      0.575020
  H       5.793213     -4.040717     -0.351415
  H       2.357392     -1.647078     -1.275598
  H       6.272207     -4.531315     -4.576288
  H       5.570403     -3.362325     -5.712813
  H       4.805445     -4.945315     -5.482730
  H       5.962288     -0.385791      4.364530
  H       7.246928     -0.510234      3.120926
  H       5.756901     -1.500023      2.982923
  H       3.887850      0.778402      3.853392
  H       3.652975     -0.459685      2.586065
  H       3.544317      1.276953      2.165711
  H       5.924598      1.966593      4.058724
  H       5.550003      2.678289      2.457232
  H       7.141621      1.903916      2.745384
  H       6.839833     -2.108759      0.756368
  H       3.415022      0.297188     -0.199542
  H       1.070446     -4.586521     -0.020841
  H       2.379203     -4.088625      1.065034
  H       1.783380     -5.754986      1.105266
  H       3.719710     -0.937702     -3.750042
  H       2.384452     -4.778512     -5.124253
  H       1.648477      0.096396     -4.621725
  H       0.331552     -3.747277     -6.015281
  H      -0.059591     -1.306552     -5.762397
  F      -0.150831     -1.972386      0.441740
  F      -2.213750     -1.256112      0.168853
  F       0.573550      0.223395     -1.386416
  F      -1.467798      0.950420     -0.994272
  F      -1.547252     -1.210269     -2.692902
  F       0.195690     -2.413047     -2.105292
  F      -0.899846      0.531737      1.795831
  F       1.190626      0.197019      1.196682
  F      -1.732414     -3.984654     -0.537314
  F      -3.251567     -2.946452     -1.745138
  F       0.794919      2.635953      2.070350
  F      -0.917828      2.969810      0.744703
  F      -2.646103     -5.279061     -2.823721
  F      -0.505955     -4.904445     -2.761508
  F      -1.789327     -3.690997     -4.044730
  O       0.725234      3.248656     -1.336390
  O       2.488805      2.760181     -0.002383
  C      -0.976142     -1.282427     -0.376628
  C      -0.458876      0.196228     -0.506722
  C      -1.052950     -2.042098     -1.748787
  C       0.033731      0.807157      0.844723
  C      -1.956189     -3.321898     -1.694665
  C       0.291751      2.346654      0.830271
  C      -1.706935     -4.325127     -2.868117
  C       1.275368      2.843660     -0.291957
80
Coordinates from ORCA-job R4N+PFOA-_altA_r2 E -2865.068665476612
  N       5.512142      0.559310      2.530696
  C       3.341645     -4.159424     -1.598343
  C       4.190735     -4.636766     -2.786356
  C       4.475459     -3.546558     -3.834423
  C       3.988232     -2.990679     -0.887400
  C       3.030136     -5.312451     -0.631368
  C       5.817698      0.416967      1.034773
  C       5.192608     -0.778944      0.384259
  C       3.202627     -2.921147     -4.370137
  C       5.253178     -3.103030     -0.298193
  C       3.342514     -1.755115     -0.827827
  C       5.331520     -4.115228     -4.972634
  C       6.157209     -0.545814      3.311835
  C       4.035006      0.545731      2.791183
  C       6.077593      1.874915      2.982678
  C       5.847930     -2.013988      0.329582
  C       3.938049     -0.660491     -0.214550
  C       2.011460     -4.924601      0.436605
  C       2.973416     -1.547972     -4.246107
  C       2.229383     -3.700500     -5.007139
  C       1.804820     -0.965555     -4.735694
  C       1.066245     -3.121879     -5.506928
  C       0.846493     -1.751417     -5.370348
  H       2.383018     -3.804020     -2.001335
  H       3.671701     -5.475650     -3.269986
  H       5.150160     -5.028706     -2.421547
  H       5.048323     -2.747376     -3.344102
  H       3.961939     -5.656432     -0.161841
  H       2.642765     -6.156635     -1.217288
  H       6.908797      0.393091      0.962631
  H       5.446544      1.337311      0.573938
  H       5.787271     -4.049304     -0.338930
  H       2.364196     -1.644756     -1.282810
  H       6.273859     -4.515254     -4.581218
  H       5.568929     -3.343120     -5.712468
  H       4.806828     -4.928144     -5.487899
  H       5.945159     -0.383737      4.370585
  H       7.234037     -0.521114      3.132679
  H       5.738029     -1.500923      2.991869
  H       3.877198      0.786945      3.844486
  H       3.643844     -0.449847      2.576999
  H       3.546641      1.285741      2.154081
  H       5.918185      1.968449      4.058465
  H       5.561312      2.677237      2.451680
  H       7.145294      1.893309      2.755038
  H       6.836310     -2.119500      0.770636
  H       3.426734      0.298420     -0.205647
  H       1.071825     -4.599042     -0.027275
  H       2.378354     -4.102566      1.062421
  H       1.785777     -5.770194      1.095230
  H       3.718366     -0.928485     -3.751378
  H       2.382601     -4.771743     -5.117198
  H       1.644517      0.103380     -4.619129
  H       0.326674     -3.743171     -6.005069
  H      -0.065586     -1.302471     -5.754429
  F      -0.146442     -1.971354      0.443324
  F      -2.210000     -1.255774      0.174350
  F       0.574139      0.220543     -1.390577
  F      -1.467084      0.947815     -0.998172
  F      -1.553668     -1.216592     -2.688083
  F       0.192317     -2.417399     -2.105729
  F      -0.898010      0.543053      1.791337
  F       1.191161      0.198561      1.194454
  F      -1.730082     -3.985996     -0.524914
  F      -3.252894     -2.951923     -1.731438
  F       0.806307      2.644529      2.052615
  F      -0.909145      2.975437      0.729736
  F      -2.648932     -5.286187     -2.807402
  F      -0.508657     -4.911686     -2.746929
  F      -1.792487     -3.701262     -4.032668
  O       0.730504      3.247385     -1.353787
  O       2.495323      2.742568     -0.027785
  C      -0.973712     -1.283403     -0.374632
  C      -0.457219      0.195065     -0.509902
  C      -1.055001     -2.046108     -1.744039
  C       0.036351      0.810670      0.839155
  C      -1.957426     -3.326396     -1.683616
  C       0.298872      2.349635      0.815545
  C      -1.709606     -4.332580     -2.854556
  C       1.281265      2.837070     -0.311613
80
Coordinates from ORCA-job R4N+PFOA-_altA_r2 E -2865.068709953024
  N       5.508394      0.557682      2.534364
  C       3.343233     -4.159225     -1.599905
  C       4.192864     -4.628281     -2.791142
  C       4.472719     -3.533420     -3.835429
  C       3.989172     -2.992981     -0.884366
  C       3.034433     -5.318680     -0.639958
  C       5.825096      0.408564      1.040999
  C       5.197791     -0.785597      0.389743
  C       3.197715     -2.909664     -4.367931
  C       5.249867     -3.111142     -0.286944
  C       3.349511     -1.754125     -0.831375
  C       5.328705     -4.095412     -4.977060
  C       6.136869     -0.550738      3.323692
  C       4.029188      0.556791      2.781305
  C       6.081220      1.869642      2.987049
  C       5.846603     -2.024360      0.342600
  C       3.947850     -0.661252     -0.217292
  C       2.016491     -4.938620      0.431438
  C       2.968072     -1.536491     -4.245765
  C       2.223129     -3.690662     -5.001104
  C       1.798065     -0.955509     -4.733479
  C       1.058490     -3.113469     -5.499062
  C       0.838552     -1.742707     -5.364381
  H       2.383383     -3.804027     -2.000318
  H       3.677048     -5.467714     -3.277232
  H       5.154287     -5.017240     -2.428319
  H       5.043964     -2.734341     -3.342978
  H       3.966975     -5.665430     -0.173999
  H       2.647062     -6.159220     -1.231097
  H       6.916563      0.378039      0.977713
  H       5.463292      1.330034      0.574797
  H       5.778908     -4.060446     -0.322691
  H       2.375015     -1.639847     -1.293716
  H       6.272454     -4.495322     -4.588924
  H       5.563430     -3.319633     -5.713897
  H       4.804690     -4.907103     -5.494982
  H       5.919096     -0.382718      4.380397
  H       7.215125     -0.537721      3.151967
  H       5.710531     -1.502904      3.004365
  H       3.862265      0.800557      3.832670
  H       3.631768     -0.435964      2.565561
  H       3.551025      1.298447      2.138354
  H       5.911160      1.969402      4.060662
  H       5.578379      2.674655      2.447290
  H       7.151454      1.877330      2.770921
  H       6.831343     -2.134147      0.790694
  H       3.443662      0.301366     -0.213307
  H       1.075150     -4.614016     -0.029664
  H       2.381774     -4.118108      1.060147
  H       1.794011     -5.787692      1.086669
  H       3.714195     -0.915947     -3.754104
  H       2.376730     -4.762006     -5.109574
  H       1.637966      0.113543     -4.618304
  H       0.317531     -3.736193     -5.993347
  H      -0.074641     -1.294795     -5.746818
  F      -0.139279     -1.969723      0.446090
  F      -2.203866     -1.256116      0.179970
  F       0.576436      0.215673     -1.396594
  F      -1.464866      0.943117     -1.005346
  F      -1.556455     -1.227256     -2.683573
  F       0.191911     -2.425514     -2.103433
  F      -0.895352      0.557839      1.784177
  F       1.192620      0.202050      1.190964
  F      -1.724979     -3.988370     -0.508630
  F      -3.251390     -2.960730     -1.716047
  F       0.820730      2.657278      2.027061
  F      -0.899752      2.981809      0.708937
  F      -2.648858     -5.298185     -2.784456
  F      -0.508496     -4.923756     -2.728173
  F      -1.793807     -3.718570     -4.017330
  O       0.734196      3.249005     -1.377538
  O       2.501365      2.717601     -0.064739
  C      -0.968892     -1.285264     -0.372276
  C      -0.453953      0.192982     -0.514769
  C      -1.054132     -2.053011     -1.737966
  C       0.040204      0.815889      0.830733
  C      -1.955683     -3.333766     -1.669802
  C       0.306928      2.353886      0.794432
  C      -1.709491     -4.344896     -2.836728
  C       1.286811      2.829578     -0.339868
80
Coordinates from ORCA-job R4N+PFOA-_altA_r2 E -2865.068755638362
  N       5.504972      0.555048      2.540817
  C       3.343463     -4.156895     -1.601705
  C       4.192365     -4.616353     -2.797419
  C       4.466645     -3.516376     -3.837441
  C       3.989892     -2.994334     -0.880487
  C       3.038261     -5.324417     -0.650253
  C       5.836394      0.396724      1.050946
  C       5.204651     -0.794139      0.398695
  C       3.189285     -2.894140     -4.366105
  C       5.244311     -3.121392     -0.271488
  C       3.359531     -1.750354     -0.836398
  C       5.322114     -4.071278     -4.983026
  C       6.111069     -0.557992      3.340490
  C       4.022779      0.571771      2.769786
  C       6.088168      1.861684      2.994838
  C       5.843966     -2.038150      0.361013
  C       3.961612     -0.660658     -0.219837
  C       2.022818     -4.953752      0.426791
  C       2.960202     -1.520749     -4.247071
  C       2.212491     -3.676660     -4.994352
  C       1.789143     -0.940862     -4.733427
  C       1.046617     -3.100562     -5.490717
  C       0.827682     -1.729222     -5.359451
  H       2.381857     -3.801169     -1.997521
  H       3.679298     -5.456008     -3.286023
  H       5.155962     -5.002696     -2.437416
  H       5.036433     -2.717382     -3.343078
  H       3.971851     -5.675187     -0.189547
  H       2.649762     -6.160043     -1.247563
  H       6.928117      0.355248      0.999936
  H       5.488790      1.320565      0.578131
  H       5.765926     -4.075008     -0.300673
  H       2.391268     -1.630642     -1.310472
  H       6.267328     -4.471217     -4.598487
  H       5.553908     -3.291443     -5.716487
  H       4.798611     -4.881596     -5.503647
  H       5.885805     -0.382192      4.394396
  H       7.190930     -0.560209      3.178617
  H       5.674934     -1.505725      3.021196
  H       3.844174      0.819776      3.818291
  H       3.617229     -0.417135      2.551861
  H       3.560164      1.316440      2.118839
  H       5.904574      1.969608      4.065456
  H       5.603198      2.670193      2.444028
  H       7.161367      1.855032      2.793799
  H       6.823528     -2.154204      0.818786
  H       3.467475      0.307130     -0.222310
  H       1.078351     -4.631052     -0.029134
  H       2.386857     -4.134304      1.057543
  H       1.805961     -5.806659      1.078909
  H       3.707925     -0.898999     -3.759332
  H       2.365491     -4.748345     -5.100265
  H       1.630205      0.128613     -4.621400
  H       0.303434     -3.724735     -5.979694
  H      -0.086007     -1.281515     -5.740966
  F      -0.126923     -1.968606      0.449029
  F      -2.193895     -1.259909      0.187404
  F       0.579598      0.208282     -1.404932
  F      -1.462268      0.934427     -1.014983
  F      -1.556964     -1.243613     -2.678583
  F       0.194442     -2.437589     -2.099326
  F      -0.891322      0.575691      1.774428
  F       1.195434      0.207439      1.185854
  F      -1.715721     -3.992905     -0.487855
  F      -3.246406     -2.975236     -1.698352
  F       0.838476      2.674448      1.991370
  F      -0.890690      2.987661      0.681536
  F      -2.643991     -5.316799     -2.754591
  F      -0.503712     -4.941681     -2.704248
  F      -1.791491     -3.744204     -3.998015
  O       0.733870      3.253169     -1.409449
  O       2.504821      2.683157     -0.116739
  C      -0.960849     -1.289581     -0.369281
  C      -0.449464      0.188700     -0.521159
  C      -1.050271     -2.064017     -1.730518
  C       0.045388      0.822034      0.819055
  C      -1.950044     -3.345628     -1.652640
  C       0.315294      2.358739      0.765403
  C      -1.705003     -4.363556     -2.813996
  C       1.290125      2.820228     -0.379360
80
Coordinates from ORCA-job R4N+PFOA-_altA_r2 E -2865.068785828319
  N       5.504597      0.552930      2.546474
  C       3.342825     -4.153943     -1.602793
  C       4.190946     -4.607899     -2.801184
  C       4.462032     -3.505223     -3.838887
  C       3.990165     -2.993628     -0.878479
  C       3.040128     -5.326667     -0.656524
  C       5.844701      0.389247      1.058609
  C       5.209187     -0.798804      0.405025
  C       3.183390     -2.883711     -4.365258
  C       5.240218     -3.127021     -0.261616
  C       3.366525     -1.745856     -0.840589
  C       5.316847     -4.056495     -4.986802
  C       6.095595     -0.564149      3.351356
  C       4.020927      0.583024      2.763648
  C       6.096028      1.855007      3.002282
  C       5.842070     -2.046290      0.372855
  C       3.970794     -0.658718     -0.221430
  C       2.025903     -4.962599      0.423903
  C       2.955723     -1.509872     -4.249847
  C       2.204283     -3.667269     -4.988797
  C       1.784174     -0.930444     -4.735655
  C       1.037696     -3.091774     -5.484044
  C       0.820471     -1.719780     -5.356779
  H       2.379769     -3.797982     -1.994854
  H       3.679354     -5.447797     -3.290900
  H       5.155671     -4.992928     -2.442680
  H       5.031220     -2.706169     -3.343870
  H       3.974288     -5.679657     -0.198809
  H       2.651415     -6.159268     -1.257881
  H       6.936441      0.339756      1.015976
  H       5.507019      1.315111      0.582981
  H       5.756645     -4.083556     -0.286536
  H       2.403785     -1.622544     -1.324804
  H       6.262610     -4.456989     -4.604197
  H       5.547404     -3.274362     -5.718176
  H       4.793221     -4.865780     -5.508909
  H       5.867966     -0.382956      4.403851
  H       7.175974     -0.578028      3.193807
  H       5.650670     -1.507936      3.032558
  H       3.835572      0.831761      3.810831
  H       3.608631     -0.402051      2.541669
  H       3.570946      1.332898      2.109248
  H       5.902764      1.968608      4.070629
  H       5.624559      2.666370      2.443965
  H       7.171150      1.837472      2.812349
  H       6.818158     -2.166531      0.836926
  H       3.483956      0.313019     -0.227254
  H       1.078432     -4.644071     -0.028624
  H       2.387480     -4.141796      1.054250
  H       1.814875     -5.817343      1.075508
  H       3.704987     -0.887130     -3.765706
  H       2.355939     -4.739428     -5.091777
  H       1.626879      0.139704     -4.627434
  H       0.292007     -3.717220     -5.967368
  H      -0.093319     -1.271931     -5.737943
  F      -0.118438     -1.969200      0.450414
  F      -2.187495     -1.264847      0.192524
  F       0.580904      0.201816     -1.409750
  F      -1.461803      0.926533     -1.022259
  F      -1.558075     -1.255677     -2.675306
  F       0.196001     -2.446376     -2.097286
  F      -0.891413      0.588445      1.767345
  F       1.195059      0.211953      1.184128
  F      -1.709304     -3.997352     -0.474976
  F      -3.242887     -2.987541     -1.688381
  F       0.845966      2.687184      1.966724
  F      -0.887849      2.990539      0.660472
  F      -2.639406     -5.330130     -2.737491
  F      -0.499190     -4.955236     -2.688778
  F      -1.786990     -3.761583     -3.986098
  O       0.733115      3.256924     -1.431055
  O       2.504237      2.658506     -0.151829
  C      -0.955854     -1.293927     -0.367242
  C      -0.447713      0.184638     -0.525071
  C      -1.047901     -2.072547     -1.726117
  C       0.046838      0.826269      0.811171
  C      -1.945761     -3.355161     -1.642200
  C       0.317996      2.361734      0.744986
  C      -1.700384     -4.377139     -2.800139
  C       1.290229      2.813591     -0.406051
80
Coordinates from ORCA-job R4N+PFOA-_altA_r2 E -2865.068816109384
  N       5.506754      0.551493      2.551165
  C       3.339910     -4.149860     -1.603142
  C       4.186568     -4.603679     -2.802557
  C       4.457591     -3.500899     -3.840082
  C       3.989416     -2.990796     -0.878524
  C       3.037638     -5.323693     -0.657626
  C       5.850810      0.385782      1.064207
  C       5.211636     -0.799476      0.408302
  C       3.179155     -2.878755     -4.366191
  C       5.236961     -3.128246     -0.257435
  C       3.370372     -1.740358     -0.844284
  C       5.311835     -4.052401     -4.988420
  C       6.088246     -0.569581      3.357494
  C       4.022807      0.591227      2.762318
  C       6.104983      1.849556      3.009420
  C       5.840539     -2.049060      0.378135
  C       3.975510     -0.655290     -0.222712
  C       2.025709     -4.960449      0.425330
  C       2.953777     -1.504277     -4.253566
  C       2.198267     -3.662055     -4.987145
  C       1.782654     -0.924045     -4.739711
  C       1.032007     -3.085936     -5.482285
  C       0.816946     -1.713433     -5.357843
  H       2.376246     -3.793036     -1.992951
  H       3.674150     -5.443255     -3.291956
  H       5.151146     -4.989629     -2.444596
  H       5.027233     -2.701928     -3.345469
  H       3.971924     -5.678337     -0.201554
  H       2.647127     -6.154986     -1.259596
  H       6.942409      0.329672      1.026341
  H       5.520405      1.313865      0.588563
  H       5.750198     -4.086537     -0.280101
  H       2.411946     -1.614257     -1.336153
  H       6.257215     -4.453717     -4.605730
  H       5.542935     -3.269995     -5.719307
  H       4.787626     -4.861193     -5.510675
  H       5.860386     -0.386091      4.409527
  H       7.168690     -0.591210      3.201599
  H       5.636686     -1.510000      3.038105
  H       3.835460      0.839404      3.809286
  H       3.605293     -0.390635      2.536276
  H       3.581942      1.346535      2.107731
  H       5.906785      1.965324      4.076632
  H       5.642326      2.663916      2.448118
  H       7.181018      1.824295      2.825527
  H       6.814808     -2.172061      0.845302
  H       3.492780      0.318724     -0.230116
  H       1.076099     -4.644377     -0.024240
  H       2.387543     -4.137877      1.053274
  H       1.818475     -5.814823      1.078615
  H       3.704159     -0.881332     -3.771417
  H       2.347919     -4.734686     -5.088119
  H       1.627118      0.146748     -4.634383
  H       0.284396     -3.711519     -5.962272
  H      -0.096305     -1.264632     -5.739386
  F      -0.110785     -1.971756      0.449393
  F      -2.182432     -1.273056      0.195955
  F       0.579570      0.197745     -1.412739
  F      -1.464344      0.918823     -1.024560
  F      -1.558242     -1.264370     -2.674137
  F       0.199143     -2.451056     -2.097609
  F      -0.891623      0.591542      1.764148
  F       1.195159      0.214705      1.182643
  F      -1.702364     -4.003046     -0.470548
  F      -3.238111     -2.999015     -1.686025
  F       0.847323      2.692815      1.953772
  F      -0.890823      2.989032      0.651436
  F      -2.630547     -5.340895     -2.731753
  F      -0.490820     -4.963516     -2.683153
  F      -1.779601     -3.772850     -3.982177
  O       0.725693      3.261335     -1.441487
  O       2.498470      2.646804     -0.173560
  C      -0.952056     -1.299163     -0.366418
  C      -0.448108      0.180408     -0.526590
  C      -1.044902     -2.079207     -1.725183
  C       0.046728      0.826828      0.807039
  C      -1.939960     -3.363578     -1.638806
  C       0.316011      2.361866      0.734772
  C      -1.692642     -4.386856     -2.795399
  C       1.284612      2.811053     -0.420709
80
Coordinates from ORCA-job R4N+PFOA-_altA_r2 E -2865.068856792777
  N       5.510025      0.548789      2.555672
  C       3.335806     -4.144531     -1.603816
  C       4.180095     -4.601404     -2.803689
  C       4.453140     -3.499972     -3.842213
  C       3.988439     -2.986459     -0.880197
  C       3.032782     -5.317234     -0.656668
  C       5.856153      0.383483      1.069298
  C       5.212744     -0.797829      0.410096
  C       3.175929     -2.875478     -4.368584
  C       5.233537     -3.127252     -0.255501
  C       3.373795     -1.733308     -0.849279
  C       5.306041     -4.054260     -4.990343
  C       6.081304     -0.578928      3.360455
  C       4.025576      0.600409      2.763233
  C       6.117969      1.840709      3.018801
  C       5.838371     -2.049060      0.380834
  C       3.978496     -0.650306     -0.224546
  C       2.025483     -4.951192      0.429835
  C       2.954768     -1.499997     -4.258420
  C       2.192495     -3.656918     -4.987441
  C       1.784707     -0.917257     -4.744403
  C       1.027231     -3.078447     -5.482127
  C       0.815763     -1.705444     -5.359493
  H       2.372157     -3.786017     -1.991859
  H       3.664985     -5.439926     -3.292067
  H       5.143669     -4.990162     -2.446074
  H       5.024635     -2.701677     -3.348728
  H       3.967140     -5.674231     -0.202678
  H       2.638045     -6.147534     -1.257222
  H       6.947431      0.319405      1.034626
  H       5.533463      1.314859      0.594742
  H       5.744271     -4.086923     -0.276022
  H       2.420745     -1.603498     -1.350267
  H       6.250339     -4.457253     -4.606734
  H       5.539019     -3.272745     -5.721563
  H       4.780256     -4.862358     -5.512034
  H       5.854740     -0.395248      4.412710
  H       7.161542     -0.609484      3.205007
  H       5.621336     -1.514488      3.038842
  H       3.839054      0.845067      3.811179
  H       3.600005     -0.376027      2.529413
  H       3.597421      1.365961      2.112134
  H       5.916500      1.956084      4.085435
  H       5.665003      2.660382      2.457415
  H       7.194513      1.805975      2.839407
  H       6.811333     -2.174431      0.850108
  H       3.498216      0.325137     -0.233716
  H       1.074475     -4.633773     -0.015525
  H       2.391543     -4.128576      1.055299
  H       1.819817     -5.804665      1.084773
  H       3.706945     -0.877819     -3.778117
  H       2.338677     -4.730157     -5.087072
  H       1.631823      0.154182     -4.641285
  H       0.277182     -3.702770     -5.959799
  H      -0.096712     -1.254563     -5.740697
  F      -0.104086     -1.974133      0.448667
  F      -2.179114     -1.283561      0.199108
  F       0.575006      0.195235     -1.414537
  F      -1.470822      0.910425     -1.024868
  F      -1.559483     -1.273951     -2.673189
  F       0.204039     -2.451880     -2.097593
  F      -0.894593      0.592949      1.762284
  F       1.193206      0.220004      1.181902
  F      -1.693341     -4.009657     -0.466549
  F      -3.230804     -3.014320     -1.686636
  F       0.843713      2.699563      1.941523
  F      -0.900342      2.986565      0.644820
  F      -2.613027     -5.355001     -2.728066
  F      -0.474557     -4.971195     -2.674998
  F      -1.763465     -3.786232     -3.978822
  O       0.710708      3.268505     -1.449863
  O       2.486013      2.634980     -0.196060
  C      -0.949791     -1.304768     -0.365234
  C      -0.451579      0.176358     -0.526818
  C      -1.041411     -2.085759     -1.724678
  C       0.043453      0.827584      0.804052
  C      -1.931004     -3.373832     -1.636261
  C       0.308386      2.362495      0.725984
  C      -1.677837     -4.398261     -2.790846
  C       1.272089      2.809778     -0.434431
80
Coordinates from ORCA-job R4N+PFOA-_altA_r2 E -2865.068892433707
  N       5.513307      0.546985      2.559147
  C       3.332560     -4.138783     -1.604682
  C       4.175361     -4.601896     -2.803159
  C       4.451388     -3.503705     -3.844549
  C       3.987945     -2.980434     -0.884088
  C       3.027501     -5.307348     -0.652959
  C       5.859227      0.385898      1.072830
  C       5.213397     -0.792243      0.408395
  C       3.175726     -2.877252     -4.372329
  C       5.232373     -3.122049     -0.258616
  C       3.375247     -1.726049     -0.854679
  C       5.302955     -4.062971     -4.991285
  C       6.074721     -0.588611      3.360048
  C       4.029762      0.610194      2.765092
  C       6.131420      1.831746      3.029002
  C       5.837976     -2.043965      0.377725
  C       3.978917     -0.644182     -0.227895
  C       2.024394     -4.934551      0.435190
  C       2.958214     -1.500838     -4.264580
  C       2.190072     -3.657352     -4.988852
  C       1.788609     -0.916132     -4.749372
  C       1.025270     -3.077030     -5.482459
  C       0.816486     -1.703709     -5.360831
  H       2.369524     -3.779152     -1.993066
  H       3.657728     -5.440138     -3.289338
  H       5.137700     -4.992872     -2.444677
  H       5.024941     -2.705775     -3.352930
  H       3.961693     -5.665805     -0.199814
  H       2.628256     -6.138204     -1.249765
  H       6.950282      0.317501      1.038771
  H       5.540846      1.320040      0.601787
  H       5.742328     -4.082161     -0.278051
  H       2.425748     -1.592462     -1.361607
  H       6.246068     -4.467319     -4.606181
  H       5.538175     -3.283811     -5.724293
  H       4.775345     -4.870968     -5.511256
  H       5.850527     -0.406450      4.413060
  H       7.154561     -0.628565      3.204059
  H       5.605914     -1.518778      3.035697
  H       3.846156      0.847787      3.815139
  H       3.595030     -0.359627      2.520966
  H       3.612124      1.387491      2.121080
  H       5.927850      1.944437      4.095517
  H       5.687706      2.657936      2.469824
  H       7.208099      1.787604      2.852563
  H       6.810838     -2.170534      0.846883
  H       3.498027      0.331019     -0.237573
  H       1.073013     -4.615747     -0.008102
  H       2.395093     -4.111174      1.057048
  H       1.818443     -5.785465      1.093373
  H       3.712353     -0.879335     -3.786521
  H       2.333527     -4.731071     -5.087260
  H       1.637756      0.155854     -4.647394
  H       0.273027     -3.700341     -5.958070
  H      -0.096301     -1.252031     -5.740173
  F      -0.098880     -1.977593      0.445488
  F      -2.177107     -1.294159      0.202811
  F       0.568166      0.194704     -1.416236
  F      -1.478895      0.904020     -1.021056
  F      -1.566931     -1.278900     -2.671035
  F       0.204932     -2.448071     -2.102968
  F      -0.895283      0.586192      1.763506
  F       1.192934      0.221137      1.179300
  F      -1.683795     -4.017877     -0.468471
  F      -3.226263     -3.028195     -1.686354
  F       0.839274      2.697571      1.940215
  F      -0.909088      2.982037      0.648921
  F      -2.599304     -5.363554     -2.733552
  F      -0.462114     -4.972711     -2.676308
  F      -1.752855     -3.789993     -3.980445
  O       0.694955      3.272192     -1.449455
  O       2.474501      2.635985     -0.206442
  C      -0.949416     -1.310133     -0.364977
  C      -0.456273      0.172681     -0.526144
  C      -1.041600     -2.089501     -1.725937
  C       0.040519      0.824452      0.803531
  C      -1.924698     -3.382095     -1.637130
  C       0.301155      2.360178      0.726251
  C      -1.667150     -4.403719     -2.793178
  C       1.259579      2.810477     -0.437098
80
Coordinates from ORCA-job R4N+PFOA-_altA_r2 E -2865.068912510624
  N       5.511899      0.540767      2.564237
  C       3.331306     -4.131230     -1.608834
  C       4.171618     -4.598178     -2.807727
  C       4.449356     -3.502514     -3.851400
  C       3.988959     -2.974323     -0.888289
  C       3.025144     -5.297601     -0.655048
  C       5.864049      0.380959      1.079275
  C       5.214761     -0.790567      0.410208
  C       3.174521     -2.873730     -4.378338
  C       5.229000     -3.120499     -0.256761
  C       3.382006     -1.716597     -0.863280
  C       5.297926     -4.066037     -4.998325
  C       6.049022     -0.607391      3.364105
  C       4.025064      0.628693      2.761441
  C       6.148706      1.812645      3.044792
  C       5.834954     -2.044299      0.381774
  C       3.985169     -0.637039     -0.231449
  C       2.030770     -4.918884      0.439175
  C       2.962442     -1.496177     -4.274211
  C       2.184544     -3.652089     -4.989798
  C       1.792913     -0.908970     -4.755606
  C       1.019663     -3.069018     -5.480475
  C       0.815290     -1.695056     -5.360286
  H       2.369021     -3.769506     -1.996444
  H       3.651172     -5.435561     -3.292403
  H       5.133375     -4.991198     -2.449943
  H       5.025868     -2.705491     -3.361850
  H       3.960008     -5.660652     -0.206996
  H       2.617698     -6.126567     -1.248941
  H       6.954508      0.302127      1.048003
  H       5.556348      1.320082      0.607878
  H       5.735558     -4.082494     -0.272670
  H       2.439519     -1.576301     -1.381684
  H       6.240546     -4.471893     -4.613591
  H       5.534161     -3.288884     -5.733151
  H       4.767594     -4.873510     -5.516335
  H       5.822814     -0.424921      4.416612
  H       7.128775     -0.666245      3.213533
  H       5.565297     -1.527943      3.034433
  H       3.838022      0.859224      3.812432
  H       3.572621     -0.328975      2.502200
  H       3.635688      1.423822      2.122023
  H       5.938218      1.923879      4.110100
  H       5.724800      2.649372      2.486006
  H       7.225792      1.749487      2.876891
  H       6.805451     -2.174683      0.854790
  H       3.505596      0.338812     -0.244604
  H       1.080166     -4.590232      0.001744
  H       2.412445     -4.101146      1.061951
  H       1.821005     -5.770096      1.095800
  H       3.720449     -0.875729     -3.800993
  H       2.324009     -4.726511     -5.086265
  H       1.645267      0.163270     -4.655272
  H       0.264055     -3.690417     -5.953409
  H      -0.098351     -1.241592     -5.735588
  F      -0.090609     -1.976630      0.447896
  F      -2.172888     -1.303314      0.211474
  F       0.560267      0.195192     -1.419851
  F      -1.488281      0.896615     -1.017374
  F      -1.576788     -1.290860     -2.663858
  F       0.207852     -2.442552     -2.102800
  F      -0.893327      0.588768      1.763866
  F       1.194489      0.229812      1.174275
  F      -1.668527     -4.024340     -0.454013
  F      -3.217022     -3.049406     -1.675189
  F       0.841005      2.708558      1.919929
  F      -0.919862      2.980223      0.642921
  F      -2.573808     -5.383700     -2.717179
  F      -0.439013     -4.979807     -2.654225
  F      -1.732484     -3.809239     -3.966369
  O       0.670958      3.277911     -1.464386
  O       2.457648      2.619442     -0.239558
  C      -0.947209     -1.314369     -0.360605
  C      -0.460829      0.169735     -0.525981
  C      -1.039985     -2.095551     -1.720183
  C       0.038627      0.826593      0.799807
  C      -1.913070     -3.394790     -1.624868
  C       0.293016      2.362852      0.713114
  C      -1.647200     -4.418666     -2.776832
  C       1.242034      2.807860     -0.459419
80
Coordinates from ORCA-job R4N+PFOA-_altA_r2 E -2865.068956288695
  N       5.512750      0.542531      2.562475
  C       3.333218     -4.130800     -1.608075
  C       4.173781     -4.602997     -2.804552
  C       4.452637     -3.510470     -3.851444
  C       3.990927     -2.971759     -0.891464
  C       3.025484     -5.292081     -0.649016
  C       5.861904      0.389506      1.077563
  C       5.215341     -0.783941      0.405324
  C       3.178377     -2.881986     -4.380152
  C       5.233873     -3.113732     -0.264070
  C       3.380328     -1.716488     -0.863972
  C       5.300837     -4.077702     -4.996667
  C       6.048807     -0.609406      3.357304
  C       4.029130      0.630663      2.762709
  C       6.151483      1.811833      3.047562
  C       5.838850     -2.036068      0.373630
  C       3.982539     -0.635358     -0.234164
  C       2.033210     -4.905723      0.444381
  C       2.965429     -1.504462     -4.275793
  C       2.189329     -3.660867     -4.992371
  C       1.795718     -0.917710     -4.757174
  C       1.024420     -3.078219     -5.483610
  C       0.818994     -1.704395     -5.362787
  H       2.371685     -3.769643     -1.998208
  H       3.653022     -5.441534     -3.286912
  H       5.135400     -4.995119     -2.445449
  H       5.029733     -2.712956     -3.363369
  H       3.960487     -5.654867     -0.200943
  H       2.615443     -6.123036     -1.238357
  H       6.952692      0.316691      1.042923
  H       5.549333      1.327754      0.609723
  H       5.743282     -4.074209     -0.281573
  H       2.434497     -1.575063     -1.376350
  H       6.243613     -4.482652     -4.611364
  H       5.537055     -3.303098     -5.734226
  H       4.770060     -4.886457     -5.512270
  H       5.822746     -0.431275      4.410574
  H       7.128573     -0.669033      3.206559
  H       5.564508     -1.528453      3.024354
  H       3.847023      0.855577      3.815734
  H       3.576458     -0.325879      2.499342
  H       3.632616      1.427726      2.130795
  H       5.943722      1.917783      4.113927
  H       5.726870      2.651716      2.494056
  H       7.228043      1.748567      2.876468
  H       6.810990     -2.164856      0.843711
  H       3.496995      0.337130     -0.247114
  H       1.085310     -4.571140      0.005424
  H       2.419978     -4.090457      1.067366
  H       1.817364     -5.755118      1.101433
  H       3.723306     -0.884145     -3.802192
  H       2.329814     -4.735144     -5.088983
  H       1.647139      0.154488     -4.655345
  H       0.270147     -3.699601     -5.958853
  H      -0.095475     -1.252461     -5.737541
  F      -0.097815     -1.978077      0.444508
  F      -2.178872     -1.301600      0.207951
  F       0.555315      0.198934     -1.420410
  F      -1.491376      0.901627     -1.011377
  F      -1.583616     -1.284054     -2.665216
  F       0.202479     -2.436523     -2.108729
  F      -0.888903      0.572405      1.769267
  F       1.197508      0.222425      1.168627
  F      -1.671773     -4.025478     -0.464412
  F      -3.222387     -3.045034     -1.678286
  F       0.841742      2.692841      1.938094
  F      -0.920501      2.976050      0.666067
  F      -2.580226     -5.376269     -2.731115
  F      -0.445613     -4.970336     -2.669596
  F      -1.742516     -3.796425     -3.975683
  O       0.660595      3.274910     -1.448932
  O       2.455671      2.640490     -0.225370
  C      -0.952894     -1.313284     -0.363708
  C      -0.464072      0.170965     -0.525365
  C      -1.045802     -2.091428     -1.724232
  C       0.038548      0.819371      0.803607
  C      -1.918657     -3.391069     -1.632377
  C       0.292328      2.358009      0.729176
  C      -1.654613     -4.410187     -2.788522
  C       1.237227      2.812865     -0.442917
80
Coordinates from ORCA-job R4N+PFOA-_altA_r2 E -2865.068982238353
  N       5.509693      0.541883      2.563043
  C       3.338793     -4.131246     -1.609008
  C       4.179891     -4.601993     -2.805559
  C       4.455736     -3.509918     -3.853550
  C       3.994684     -2.971055     -0.892755
  C       3.032917     -5.293427     -0.650538
  C       5.860907      0.391254      1.078420
  C       5.217098     -0.782807      0.404835
  C       3.179773     -2.883343     -4.380333
  C       5.238041     -3.111967     -0.265409
  C       3.382938     -1.716731     -0.865207
  C       5.302511     -4.076914     -4.999811
  C       6.039152     -0.613639      3.356421
  C       4.026085      0.635700      2.759578
  C       6.152397      1.807554      3.052186
  C       5.841911     -2.034349      0.372869
  C       3.985062     -0.634763     -0.235620
  C       2.040595     -4.908879      0.443247
  C       2.964991     -1.506177     -4.276802
  C       2.190323     -3.664336     -4.989670
  C       1.793642     -0.921574     -4.756613
  C       1.023682     -3.083782     -5.479302
  C       0.817077     -1.709841     -5.359905
  H       2.376465     -3.772008     -1.998660
  H       3.661166     -5.442371     -3.286899
  H       5.142881     -4.990870     -2.446552
  H       5.032696     -2.711466     -3.366757
  H       3.968706     -5.655986     -0.203894
  H       2.623525     -6.124326     -1.240424
  H       6.951925      0.321560      1.044699
  H       5.546562      1.329221      0.611214
  H       5.748215     -4.072019     -0.283152
  H       2.436407     -1.574972     -1.376280
  H       6.246535     -4.480930     -4.616601
  H       5.536497     -3.302613     -5.738415
  H       4.771314     -4.886384     -5.513920
  H       5.812951     -0.435673      4.409699
  H       7.118753     -0.678687      3.206571
  H       5.550813     -1.530014      3.022174
  H       3.841222      0.855220      3.813285
  H       3.570169     -0.317578      2.490155
  H       3.632986      1.437407      2.130807
  H       5.941036      1.913468      4.117847
  H       5.733692      2.649921      2.497907
  H       7.229309      1.739794      2.885091
  H       6.813733     -2.162601      0.843726
  H       3.497854      0.336950     -0.248842
  H       1.093423     -4.572352      0.003898
  H       2.427324     -4.095550      1.068602
  H       1.823066     -5.759618      1.098003
  H       3.723323     -0.884802     -3.805253
  H       2.332326     -4.738513     -5.085084
  H       1.644340      0.150562     -4.655546
  H       0.269280     -3.706811     -5.952292
  H      -0.098872     -1.259738     -5.732876
  F      -0.103657     -1.974898      0.446771
  F      -2.183021     -1.294627      0.206368
  F       0.554806      0.199448     -1.421595
  F      -1.490420      0.906034     -1.013224
  F      -1.586549     -1.281765     -2.664317
  F       0.198197     -2.436440     -2.107677
  F      -0.887722      0.574628      1.768877
  F       1.197345      0.221740      1.165936
  F      -1.675447     -4.023080     -0.462117
  F      -3.227095     -3.040693     -1.673051
  F       0.843940      2.692731      1.938572
  F      -0.917814      2.978271      0.666549
  F      -2.589646     -5.372120     -2.728119
  F      -0.454531     -4.968997     -2.669111
  F      -1.751637     -3.792827     -3.973050
  O       0.663065      3.272791     -1.449474
  O       2.458498      2.642303     -0.224127
  C      -0.956242     -1.309787     -0.363849
  C      -0.464501      0.173448     -0.526838
  C      -1.049511     -2.089353     -1.722555
  C       0.038742      0.820702      0.802703
  C      -1.923922     -3.387972     -1.629836
  C       0.294318      2.359355      0.729167
  C      -1.662936     -4.407201     -2.786399
  C       1.239792      2.813169     -0.442324
80
Coordinates from ORCA-job R4N+PFOA-_altA_r2 E -2865.069014922360
  N       5.504890      0.540475      2.566647
  C       3.345511     -4.129109     -1.611518
  C       4.186088     -4.599326     -2.808445
  C       4.458029     -3.509139     -3.859229
  C       4.000256     -2.967985     -0.895807
  C       3.041639     -5.291785     -0.652938
  C       5.861755      0.391955      1.082663
  C       5.221018     -0.781548      0.405700
  C       3.179921     -2.885034     -4.383599
  C       5.243065     -3.109577     -0.266651
  C       3.389182     -1.713959     -0.869134
  C       5.302155     -4.077742     -5.006476
  C       6.017284     -0.622971      3.359038
  C       4.020952      0.649808      2.753866
  C       6.158117      1.797469      3.064106
  C       5.845828     -2.033282      0.373967
  C       3.992026     -0.631891     -0.238484
  C       2.051826     -4.907455      0.442988
  C       2.963221     -1.508220     -4.282301
  C       2.189522     -3.668920     -4.988371
  C       1.789796     -0.926479     -4.760431
  C       1.020722     -3.091173     -5.476096
  C       0.813105     -1.716820     -5.360008
  H       2.381970     -3.771784     -2.000148
  H       3.668970     -5.442102     -3.287310
  H       5.150812     -4.984387     -2.449903
  H       5.035354     -2.709041     -3.375459
  H       3.978490     -5.655508     -0.209424
  H       2.630785     -6.122122     -1.242598
  H       6.952976      0.324140      1.051917
  H       5.547231      1.330417      0.616402
  H       5.752789     -4.069849     -0.284359
  H       2.442623     -1.570484     -1.379880
  H       6.247848     -4.480253     -4.625852
  H       5.533048     -3.304937     -5.747629
  H       4.769954     -4.888787     -5.517112
  H       5.789419     -0.444066      4.411800
  H       7.096564     -0.700781      3.212783
  H       5.519447     -1.532951      3.021555
  H       3.828926      0.860795      3.808092
  H       3.556941     -0.296235      2.472944
  H       3.639499      1.461116      2.129584
  H       5.938298      1.904382      4.127940
  H       5.754386      2.645567      2.507429
  H       7.235647      1.717596      2.906745
  H       6.816088     -2.162430      0.847744
  H       3.503473      0.338862     -0.253116
  H       1.105636     -4.566365      0.004816
  H       2.441281     -4.097200      1.070566
  H       1.831520     -5.759295      1.095346
  H       3.722322     -0.885314     -3.813976
  H       2.333039     -4.743124     -5.081186
  H       1.640094      0.145700     -4.661704
  H       0.265976     -3.716329     -5.945574
  H      -0.104488     -1.268466     -5.731242
  F      -0.106622     -1.971218      0.450675
  F      -2.185126     -1.289348      0.207426
  F       0.551629      0.200796     -1.425463
  F      -1.491472      0.909286     -1.011542
  F      -1.587969     -1.281686     -2.661570
  F       0.195699     -2.437574     -2.103922
  F      -0.878530      0.573874      1.771395
  F       1.203315      0.222090      1.157057
  F      -1.676323     -4.021499     -0.456442
  F      -3.229745     -3.038482     -1.664862
  F       0.852094      2.692701      1.935743
  F      -0.916114      2.978253      0.672672
  F      -2.595151     -5.371490     -2.719218
  F      -0.460072     -4.967814     -2.667001
  F      -1.761609     -3.792225     -3.967127
  O       0.653466      3.272773     -1.452006
  O       2.456187      2.645721     -0.233067
  C      -0.957929     -1.307110     -0.362204
  C      -0.464916      0.175500     -0.527814
  C      -1.051370     -2.088848     -1.718358
  C       0.042329      0.821608      0.801213
  C      -1.926971     -3.386460     -1.624293
  C       0.296687      2.360626      0.728238
  C      -1.669013     -4.406299     -2.780814
  C       1.236275      2.815497     -0.447363
80
Coordinates from ORCA-job R4N+PFOA-_altA_r2 E -2865.069036068774
  N       5.498223      0.539930      2.571748
  C       3.351912     -4.124387     -1.614362
  C       4.191280     -4.594806     -2.811906
  C       4.458823     -3.506594     -3.865781
  C       4.006874     -2.962651     -0.899725
  C       3.049692     -5.287207     -0.655209
  C       5.865902      0.392228      1.089585
  C       5.226901     -0.778958      0.407174
  C       3.178297     -2.885735     -4.387880
  C       5.247502     -3.106614     -0.265990
  C       3.398934     -1.707460     -0.876263
  C       5.300715     -4.076622     -5.013850
  C       5.984265     -0.634647      3.364103
  C       4.013528      0.673743      2.743531
  C       6.166827      1.784004      3.080925
  C       5.849454     -2.032146      0.377784
  C       4.002707     -0.626243     -0.243780
  C       2.063659     -4.902142      0.443728
  C       2.959486     -1.509220     -4.289332
  C       2.187108     -3.672960     -4.987511
  C       1.783452     -0.930883     -4.765194
  C       1.015602     -3.098677     -5.472568
  C       0.806359     -1.724144     -5.359692
  H       2.386991     -3.768616     -2.001141
  H       3.675475     -5.440077     -3.287770
  H       5.157675     -4.976424     -2.454110
  H       5.036023     -2.704363     -3.385311
  H       3.987398     -5.652918     -0.215142
  H       2.636097     -6.116621     -1.244264
  H       6.957098      0.321649      1.066247
  H       5.556339      1.332852      0.623910
  H       5.755016     -4.068075     -0.281636
  H       2.453811     -1.561162     -1.389019
  H       6.248019     -4.477180     -4.635191
  H       5.528515     -3.305266     -5.757471
  H       4.768105     -4.889572     -5.521059
  H       5.752592     -0.454122      4.415751
  H       7.062981     -0.730996      3.224685
  H       5.472886     -1.534896      3.020900
  H       3.810574      0.874805      3.797703
  H       3.536369     -0.260673      2.446297
  H       3.655440      1.499500      2.123977
  H       5.933223      1.893527      4.141542
  H       5.786794      2.640053      2.519753
  H       7.244950      1.684975      2.939445
  H       6.816672     -2.163461      0.857141
  H       3.514428      0.344204     -0.260690
  H       1.117492     -4.557503      0.008168
  H       2.456508     -4.093866      1.071708
  H       1.842204     -5.754302      1.095256
  H       3.719130     -0.884190     -3.824703
  H       2.332392     -4.747152     -5.077706
  H       1.632721      0.141354     -4.669016
  H       0.260208     -3.726609     -5.937434
  H      -0.113431     -1.278125     -5.727957
  F      -0.102505     -1.971338      0.452100
  F      -2.181898     -1.290638      0.213921
  F       0.545700      0.199709     -1.432723
  F      -1.494423      0.908279     -1.004577
  F      -1.591944     -1.284751     -2.656719
  F       0.193071     -2.440797     -2.102415
  F      -0.860051      0.569813      1.775604
  F       1.216662      0.219757      1.142638
  F      -1.672203     -4.025262     -0.451632
  F      -3.231444     -3.040908     -1.651812
  F       0.873274      2.686449      1.929507
  F      -0.908036      2.975850      0.685123
  F      -2.602234     -5.373603     -2.709551
  F      -0.467180     -4.969033     -2.671112
  F      -1.777708     -3.792976     -3.961738
  O       0.639476      3.269155     -1.457434
  O       2.454215      2.648344     -0.252920
  C      -0.956312     -1.308580     -0.359298
  C      -0.464560      0.174221     -0.527995
  C      -1.052844     -2.091679     -1.714017
  C       0.051993      0.819405      0.798201
  C      -1.928626     -3.388895     -1.617826
  C       0.305261      2.358249      0.726428
  C      -1.677040     -4.407868     -2.776565
  C       1.232731      2.815269     -0.457560
80
Coordinates from ORCA-job R4N+PFOA-_altA_r2 E -2865.069052766632
  N       5.498397      0.542101      2.570586
  C       3.352200     -4.125790     -1.613749
  C       4.191574     -4.595931     -2.811339
  C       4.459236     -3.507366     -3.864965
  C       4.007222     -2.963920     -0.899233
  C       3.049971     -5.288885     -0.654624
  C       5.865174      0.392567      1.088132
  C       5.226669     -0.779631      0.407248
  C       3.178702     -2.886734     -4.387458
  C       5.248045     -3.107447     -0.265621
  C       3.398983     -1.708779     -0.875677
  C       5.301796     -4.077107     -5.012711
  C       5.985248     -0.631895      3.363565
  C       4.014921      0.676408      2.742649
  C       6.167153      1.786616      3.078102
  C       5.849659     -2.032707      0.378105
  C       4.002411     -0.627369     -0.243695
  C       2.062504     -4.904662      0.443346
  C       2.958731     -1.510439     -4.287718
  C       2.188673     -3.674001     -4.988806
  C       1.782668     -0.932476     -4.764436
  C       1.017254     -3.100244     -5.474425
  C       0.806798     -1.726002     -5.360813
  H       2.387152     -3.770217     -2.000307
  H       3.675660     -5.440997     -3.287463
  H       5.157722     -4.978079     -2.453461
  H       5.035977     -2.704903     -3.384363
  H       3.987355     -5.653876     -0.213291
  H       2.637722     -6.118594     -1.244204
  H       6.956431      0.323210      1.065175
  H       5.553267      1.331848      0.622035
  H       5.755847     -4.068755     -0.281496
  H       2.452763     -1.563833     -1.386335
  H       6.248870     -4.477443     -4.633224
  H       5.529936     -3.305561     -5.756018
  H       4.769862     -4.890269     -5.520253
  H       5.754864     -0.450409      4.415326
  H       7.063832     -0.727940      3.222998
  H       5.473547     -1.532409      3.021436
  H       3.812001      0.876583      3.797005
  H       3.538858     -0.258338      2.445075
  H       3.656290      1.502441      2.124343
  H       5.932368      1.898323      4.138239
  H       5.788178      2.641767      2.514845
  H       7.245408      1.686842      2.938308
  H       6.816882     -2.163322      0.857658
  H       3.513651      0.343191     -0.260416
  H       1.115915     -4.561793      0.007292
  H       2.453608     -4.095038      1.070651
  H       1.842143     -5.756567      1.095562
  H       3.717122     -0.885120     -3.821462
  H       2.334708     -4.748033     -5.079821
  H       1.631014      0.139648     -4.667614
  H       0.262820     -3.728505     -5.940168
  H      -0.112727     -1.279951     -5.730162
  F      -0.104831     -1.971935      0.453061
  F      -2.183651     -1.290267      0.213002
  F       0.543674      0.200728     -1.432097
  F      -1.495565      0.909456     -1.000700
  F      -1.586132     -1.282604     -2.658774
  F       0.194595     -2.442706     -2.098194
  F      -0.856717      0.565259      1.778818
  F       1.219045      0.217945      1.140428
  F      -1.676370     -4.023918     -0.455290
  F      -3.232561     -3.035867     -1.656702
  F       0.875744      2.682472      1.934075
  F      -0.907944      2.973522      0.692952
  F      -2.605281     -5.370007     -2.713243
  F      -0.470022     -4.966664     -2.677082
  F      -1.781141     -3.789163     -3.965611
  O       0.635777      3.269168     -1.452591
  O       2.453884      2.651464     -0.250745
  C      -0.957480     -1.308156     -0.358714
  C      -0.465434      0.174773     -0.525973
  C      -1.051848     -2.090766     -1.714546
  C       0.053415      0.817749      0.800134
  C      -1.930270     -3.386134     -1.621157
  C       0.305867      2.356437      0.731188
  C      -1.679620     -4.404676     -2.780811
  C       1.231404      2.816416     -0.453756
80
Coordinates from ORCA-job R4N+PFOA-_altA_r2 E -2865.069077426760
  N       5.499723      0.545378      2.569091
  C       3.350992     -4.126295     -1.613493
  C       4.191568     -4.597245     -2.810039
  C       4.460125     -3.508535     -3.863438
  C       4.006374     -2.964540     -0.899007
  C       3.047152     -5.289077     -0.654131
  C       5.865465      0.393090      1.086125
  C       5.225576     -0.779176      0.406804
  C       3.179743     -2.889178     -4.388012
  C       5.246755     -3.107838     -0.264697
  C       3.398646     -1.708668     -0.876572
  C       5.305107     -4.077829     -5.009769
  C       5.983898     -0.630073      3.362176
  C       4.017928      0.685546      2.740887
  C       6.173205      1.787679      3.075268
  C       5.848288     -2.032499      0.378560
  C       4.001071     -0.627470     -0.244693
  C       2.056153     -4.905663      0.441004
  C       2.958216     -1.512985     -4.288370
  C       2.191583     -3.677224     -4.990835
  C       1.781950     -0.936187     -4.766576
  C       1.020171     -3.104826     -5.477780
  C       0.807508     -1.731152     -5.364094
  H       2.386548     -3.770664     -2.001554
  H       3.675783     -5.442129     -3.286649
  H       5.156835     -4.980518     -2.451067
  H       5.035385     -2.705304     -3.382453
  H       3.983251     -5.652582     -0.208932
  H       2.637620     -6.119464     -1.244639
  H       6.956602      0.322066      1.064761
  H       5.552779      1.332150      0.619984
  H       5.754308     -4.069300     -0.279747
  H       2.451404     -1.565818     -1.385762
  H       6.251239     -4.477704     -4.627395
  H       5.534814     -3.305919     -5.752173
  H       4.775000     -4.891362     -5.518537
  H       5.757715     -0.446645      4.414504
  H       7.061685     -0.730084      3.218513
  H       5.467347     -1.528531      3.021853
  H       3.815070      0.880140      3.796345
  H       3.538128     -0.245235      2.437325
  H       3.666264      1.518351      2.127889
  H       5.934079      1.904109      4.133958
  H       5.801725      2.643218      2.507633
  H       7.251569      1.681448      2.941210
  H       6.815328     -2.162303      0.858714
  H       3.513009      0.343704     -0.260587
  H       1.108044     -4.569001      0.003596
  H       2.442778     -4.091576      1.065364
  H       1.839655     -5.756207      1.096273
  H       3.714626     -0.886236     -3.820884
  H       2.338618     -4.751109     -5.082096
  H       1.628466      0.135764     -4.669990
  H       0.266900     -3.734128     -5.943725
  H      -0.111717     -1.285583     -5.735227
  F      -0.103875     -1.974462      0.453623
  F      -2.183615     -1.295453      0.215817
  F       0.536887      0.203184     -1.431247
  F      -1.501341      0.908387     -0.989619
  F      -1.578364     -1.279984     -2.659904
  F       0.198075     -2.444291     -2.092650
  F      -0.849504      0.555515      1.785926
  F       1.224539      0.215674      1.136072
  F      -1.679595     -4.023783     -0.461082
  F      -3.232158     -3.030876     -1.663613
  F       0.879270      2.675945      1.941857
  F      -0.909578      2.968446      0.708336
  F      -2.606145     -5.365888     -2.719398
  F      -0.470732     -4.962955     -2.686432
  F      -1.783489     -3.783801     -3.971544
  O       0.623409      3.272358     -1.442202
  O       2.449094      2.658843     -0.250834
  C      -0.957722     -1.309735     -0.356012
  C      -0.468400      0.174405     -0.520713
  C      -1.049466     -2.090003     -1.714987
  C       0.056313      0.814296      0.803910
  C      -1.930218     -3.383609     -1.625843
  C       0.305496      2.352804      0.740173
  C      -1.680276     -4.400588     -2.787397
  C       1.224913      2.819521     -0.447126
80
Coordinates from ORCA-job R4N+PFOA-_altA_r2 E -2865.069087337386
  N       5.500383      0.547302      2.568100
  C       3.349794     -4.126333     -1.613653
  C       4.191681     -4.597379     -2.809433
  C       4.460493     -3.508479     -3.862526
  C       4.004955     -2.965027     -0.898317
  C       3.044538     -5.288940     -0.654704
  C       5.865873      0.392725      1.084971
  C       5.224595     -0.779493      0.406960
  C       3.179916     -2.890553     -4.388329
  C       5.244949     -3.108491     -0.263687
  C       3.397462     -1.708802     -0.876334
  C       5.307314     -4.076902     -5.008002
  C       5.982141     -0.628691      3.362048
  C       4.019108      0.690738      2.740198
  C       6.177008      1.788322      3.073152
  C       5.846745     -2.033003      0.379236
  C       3.999688     -0.627779     -0.244344
  C       2.051216     -4.905636      0.438412
  C       2.956754     -1.514629     -4.288222
  C       2.193309     -3.679427     -4.992383
  C       1.780160     -0.938999     -4.766833
  C       1.021594     -3.108101     -5.480036
  C       0.806963     -1.734912     -5.365324
  H       2.386147     -3.770352     -2.003590
  H       3.676420     -5.442244     -3.286633
  H       5.156667     -4.980652     -2.449750
  H       5.034512     -2.704707     -3.381005
  H       3.979804     -5.651603     -0.207110
  H       2.636526     -6.119700     -1.245726
  H       6.956873      0.320077      1.063844
  H       5.554149      1.331423      0.617608
  H       5.752180     -4.070136     -0.278189
  H       2.449447     -1.567205     -1.384698
  H       6.253254     -4.475887     -4.624213
  H       5.537331     -3.304658     -5.749945
  H       4.778667     -4.890873     -5.517556
  H       5.757400     -0.443694      4.414411
  H       7.059559     -0.731638      3.217652
  H       5.462861     -1.526024      3.022936
  H       3.816735      0.883593      3.796070
  H       3.536924     -0.238082      2.434389
  H       3.670221      1.526060      2.129361
  H       5.936203      1.907305      4.131197
  H       5.809645      2.644249      2.503450
  H       7.255257      1.678114      2.941436
  H       6.813808     -2.162844      0.859325
  H       3.512577      0.343791     -0.259986
  H       1.102670     -4.572234     -0.000443
  H       2.435400     -4.089428      1.061601
  H       1.836240     -5.755478      1.095102
  H       3.711889     -0.886888     -3.820027
  H       2.341580     -4.753072     -5.084346
  H       1.624991      0.132605     -4.669677
  H       0.269418     -3.737952     -5.947127
  H      -0.112272     -1.290079     -5.737170
  F      -0.102145     -1.975329      0.453905
  F      -2.182315     -1.298138      0.217285
  F       0.534309      0.205429     -1.431758
  F      -1.503648      0.907796     -0.984004
  F      -1.573974     -1.278886     -2.660260
  F       0.200883     -2.444336     -2.090380
  F      -0.844967      0.549989      1.789287
  F       1.228118      0.214337      1.133781
  F      -1.678586     -4.024441     -0.463761
  F      -3.230449     -3.029138     -1.665380
  F       0.882276      2.672203      1.945700
  F      -0.909504      2.965853      0.716851
  F      -2.605032     -5.364544     -2.721568
  F      -0.469626     -4.960916     -2.690653
  F      -1.784172     -3.781824     -3.973966
  O       0.617307      3.274863     -1.436680
  O       2.447325      2.663428     -0.250718
  C      -0.956689     -1.310568     -0.354918
  C      -0.468895      0.174232     -0.518700
  C      -1.047307     -2.089579     -1.715077
  C       0.058576      0.812225      0.805651
  C      -1.928619     -3.382862     -1.627654
  C       0.306201      2.351056      0.744827
  C      -1.679409     -4.398936     -2.790095
  C       1.222192      2.821521     -0.443828
80
Coordinates from ORCA-job R4N+PFOA-_altA_r2 E -2865.069099612536
  N       5.501872      0.549884      2.565550
  C       3.349700     -4.127621     -1.613857
  C       4.194487     -4.597795     -2.808202
  C       4.462977     -3.508344     -3.860721
  C       4.003425     -2.966599     -0.896851
  C       3.042317     -5.290454     -0.656296
  C       5.865267      0.392884      1.082033
  C       5.222747     -0.780092      0.406710
  C       3.181773     -2.893022     -4.388065
  C       5.243468     -3.109357     -0.262713
  C       3.394841     -1.710678     -0.874497
  C       5.312489     -4.074840     -5.005204
  C       5.981138     -0.626940      3.359707
  C       4.020884      0.697816      2.740079
  C       6.183224      1.789048      3.068736
  C       5.845190     -2.033241      0.379312
  C       3.996547     -0.629260     -0.242816
  C       2.043883     -4.908253      0.432602
  C       2.955688     -1.517591     -4.287522
  C       2.197431     -3.683700     -4.993246
  C       1.778275     -0.944228     -4.766358
  C       1.024765     -3.114478     -5.481445
  C       0.806954     -1.741967     -5.365567
  H       2.387532     -3.771290     -2.007211
  H       3.681075     -5.443211     -3.286388
  H       5.159470     -4.979769     -2.447175
  H       5.034920     -2.703655     -3.378268
  H       3.976276     -5.651252     -0.204514
  H       2.637862     -6.122027     -1.248590
  H       6.956165      0.319454      1.059431
  H       5.553687      1.330533      0.612360
  H       5.751218     -4.070737     -0.276949
  H       2.445559     -1.571450     -1.381290
  H       6.258576     -4.472205     -4.620098
  H       5.542225     -3.301901     -5.746503
  H       4.786002     -4.889502     -5.515883
  H       5.760269     -0.439548      4.412468
  H       7.057688     -0.734854      3.212462
  H       5.457016     -1.522561      3.023550
  H       3.820852      0.886840      3.797077
  H       3.534310     -0.227341      2.430247
  H       3.675659      1.537928      2.133657
  H       5.941321      1.911400      4.126167
  H       5.820827      2.645538      2.496727
  H       7.261129      1.673504      2.938843
  H       6.812860     -2.162534      0.858325
  H       3.510283      0.342742     -0.257691
  H       1.095645     -4.579285     -0.010187
  H       2.423330     -4.089645      1.055580
  H       1.829699     -5.757667      1.090142
  H       3.709171     -0.888219     -3.818850
  H       2.347890     -4.756969     -5.085878
  H       1.620438      0.126901     -4.668561
  H       0.274220     -3.745527     -5.949711
  H      -0.112772     -1.299034     -5.738163
  F      -0.104367     -1.975578      0.455351
  F      -2.183990     -1.298309      0.217557
  F       0.531751      0.208679     -1.430188
  F      -1.505847      0.909297     -0.978241
  F      -1.570793     -1.275410     -2.660366
  F       0.202160     -2.442377     -2.087734
  F      -0.842925      0.545200      1.793550
  F       1.229447      0.212751      1.134066
  F      -1.680342     -4.023445     -0.466974
  F      -3.230572     -3.025053     -1.668177
  F       0.883317      2.668133      1.952485
  F      -0.910658      2.963591      0.727530
  F      -2.605664     -5.360736     -2.725891
  F      -0.470190     -4.957013     -2.694091
  F      -1.784821     -3.777230     -3.976921
  O       0.611194      3.278272     -1.427844
  O       2.444776      2.669257     -0.246666
  C      -0.958003     -1.309964     -0.353694
  C      -0.470249      0.175181     -0.515825
  C      -1.046961     -2.087202     -1.715000
  C       0.059139      0.810483      0.809053
  C      -1.929031     -3.380170     -1.630115
  C       0.305583      2.349660      0.752023
  C      -1.679950     -4.395070     -2.793433
  C       1.218825      2.823955     -0.436921
80
Coordinates from ORCA-job R4N+PFOA-_altA_r2 E -2865.069108545548
  N       5.503988      0.552329      2.564346
  C       3.349803     -4.128420     -1.613561
  C       4.196624     -4.597240     -2.807163
  C       4.464110     -3.507193     -3.859213
  C       4.002450     -2.967831     -0.894822
  C       3.040898     -5.291832     -0.657580
  C       5.865772      0.392398      1.080957
  C       5.222165     -0.781444      0.407855
  C       3.182126     -2.894361     -4.387510
  C       5.242645     -3.110574     -0.261195
  C       3.392962     -1.712337     -0.871599
  C       5.315627     -4.071832     -5.003126
  C       5.980843     -0.624420      3.359899
  C       4.023116      0.703946      2.740735
  C       6.188851      1.790549      3.065184
  C       5.844573     -2.034409      0.380513
  C       3.994991     -0.630740     -0.240137
  C       2.038558     -4.910775      0.428218
  C       2.953138     -1.519463     -4.286573
  C       2.199849     -3.686872     -4.993677
  C       1.775082     -0.948301     -4.766040
  C       1.026367     -3.119712     -5.482622
  C       0.805799     -1.747662     -5.366229
  H       2.388765     -3.771398     -2.009219
  H       3.684836     -5.443274     -3.285983
  H       5.162010     -4.977563     -2.445488
  H       5.034206     -2.701597     -3.376062
  H       3.974004     -5.651396     -0.203053
  H       2.639132     -6.123941     -1.250920
  H       6.956614      0.318321      1.056776
  H       5.555093      1.328961      0.608464
  H       5.750668     -4.071805     -0.275654
  H       2.442716     -1.574973     -1.377450
  H       6.262418     -4.467187     -4.617704
  H       5.544067     -3.298403     -5.744329
  H       4.791026     -4.887479     -5.514196
  H       5.762044     -0.434280      4.412606
  H       7.056806     -0.736342      3.211325
  H       5.453381     -1.519114      3.026498
  H       3.825364      0.892471      3.798226
  H       3.533602     -0.219366      2.430103
  H       3.679256      1.545741      2.135768
  H       5.947291      1.915664      4.122367
  H       5.829000      2.646977      2.491455
  H       7.266375      1.671493      2.935314
  H       6.812641     -2.163910      0.858664
  H       3.509874      0.341711     -0.254748
  H       1.091076     -4.584277     -0.017991
  H       2.414605     -4.091125      1.051873
  H       1.824051     -5.760224      1.085634
  H       3.705160     -0.888799     -3.817267
  H       2.352461     -4.759798     -5.086656
  H       1.614986      0.122413     -4.667961
  H       0.277518     -3.751923     -5.952155
  H      -0.114232     -1.306598     -5.740139
  F      -0.106672     -1.976359      0.455889
  F      -2.185305     -1.297358      0.216180
  F       0.532440      0.209642     -1.429291
  F      -1.504949      0.910342     -0.976407
  F      -1.568689     -1.272877     -2.660961
  F       0.202464     -2.441735     -2.087041
  F      -0.841921      0.540850      1.795345
  F       1.230185      0.209821      1.134726
  F      -1.681944     -4.023278     -0.470359
  F      -3.231278     -3.021868     -1.670330
  F       0.885231      2.663668      1.956701
  F      -0.910898      2.960990      0.735548
  F      -2.607675     -5.357734     -2.729969
  F      -0.472109     -4.954108     -2.698442
  F      -1.787473     -3.773374     -3.979972
  O       0.606216      3.280291     -1.422141
  O       2.442803      2.673624     -0.244427
  C      -0.958848     -1.309935     -0.354040
  C      -0.469737      0.174925     -0.515070
  C      -1.047014     -2.085930     -1.715585
  C       0.059667      0.807886      0.810975
  C      -1.930097     -3.378327     -1.632792
  C       0.305650      2.347664      0.756643
  C      -1.681897     -4.392082     -2.797042
  C       1.216275      2.825210     -0.432869
80
Coordinates from ORCA-job R4N+PFOA-_altA_r2 E -2865.069115996289
  N       5.506269      0.554406      2.562967
  C       3.351070     -4.129510     -1.613014
  C       4.199175     -4.597031     -2.806223
  C       4.465569     -3.506457     -3.858009
  C       4.002714     -2.969057     -0.893012
  C       3.041238     -5.293529     -0.658288
  C       5.865903      0.392291      1.079990
  C       5.221888     -0.782671      0.409080
  C       3.182868     -2.895321     -4.386490
  C       5.243463     -3.111413     -0.260361
  C       3.391598     -1.714479     -0.867934
  C       5.318083     -4.069802     -5.001772
  C       5.980479     -0.622912      3.359027
  C       4.025457      0.710678      2.741228
  C       6.194944      1.791254      3.062151
  C       5.845099     -2.035119      0.381283
  C       3.993720     -0.632480     -0.236836
  C       2.036332     -4.913409      0.425539
  C       2.951315     -1.520945     -4.284550
  C       2.202172     -3.689187     -4.993571
  C       1.772517     -0.951502     -4.764149
  C       1.027807     -3.123750     -5.482436
  C       0.804918     -1.752081     -5.365232
  H       2.390750     -3.771919     -2.009833
  H       3.688631     -5.443656     -3.285316
  H       5.165036     -4.975872     -2.444276
  H       5.034455     -2.700213     -3.374472
  H       3.973875     -5.652519     -0.202312
  H       2.641186     -6.125892     -1.252412
  H       6.956746      0.318208      1.053795
  H       5.555437      1.327691      0.604867
  H       5.752394     -4.072137     -0.275794
  H       2.440967     -1.578740     -1.373406
  H       6.265703     -4.463496     -4.616721
  H       5.544987     -3.296138     -5.743221
  H       4.794683     -4.886346     -5.512671
  H       5.763966     -0.430680      4.411819
  H       7.055786     -0.738898      3.208811
  H       5.449522     -1.516353      3.027773
  H       3.830254      0.899060      3.799189
  H       3.532525     -0.210615      2.430112
  H       3.684151      1.554414      2.137255
  H       5.954511      1.918280      4.119346
  H       5.836991      2.647938      2.487594
  H       7.272009      1.669064      2.931411
  H       6.813700     -2.164422      0.858412
  H       3.508993      0.340242     -0.251242
  H       1.090131     -4.586660     -0.023277
  H       2.410745     -4.094338      1.050863
  H       1.820000     -5.763401      1.081653
  H       3.702227     -0.889562     -3.814406
  H       2.356690     -4.761785     -5.087181
  H       1.610596      0.118897     -4.665355
  H       0.280307     -3.756970     -5.952793
  H      -0.115735     -1.312801     -5.739671
  F      -0.111994     -1.977358      0.456612
  F      -2.189037     -1.294793      0.212975
  F       0.534250      0.208928     -1.426832
  F      -1.502999      0.911970     -0.977283
  F      -1.568488     -1.270376     -2.661946
  F       0.201105     -2.441064     -2.086788
  F      -0.844370      0.538754      1.796085
  F       1.228094      0.207056      1.137426
  F      -1.685602     -4.023053     -0.474109
  F      -3.233626     -3.018965     -1.673548
  F       0.884301      2.660624      1.960115
  F      -0.912710      2.958781      0.740518
  F      -2.611067     -5.354338     -2.735931
  F      -0.475367     -4.951721     -2.702834
  F      -1.789727     -3.768734     -3.983493
  O       0.603187      3.281566     -1.417675
  O       2.440415      2.675134     -0.241271
  C      -0.961529     -1.309551     -0.355011
  C      -0.469635      0.174593     -0.514642
  C      -1.048642     -2.084769     -1.716509
  C       0.058077      0.805932      0.812873
  C      -1.932816     -3.376515     -1.636065
  C       0.304027      2.345963      0.759992
  C      -1.684891     -4.389010     -2.801384
  C       1.213801      2.825320     -0.429181
80
Coordinates from ORCA-job R4N+PFOA-_altA_r2 E -2865.069121872942
  N       5.509025      0.556498      2.562742
  C       3.351382     -4.129594     -1.612254
  C       4.199643     -4.596587     -2.805449
  C       4.465528     -3.505721     -3.857119
  C       4.003027     -2.969489     -0.891476
  C       3.040802     -5.293974     -0.658164
  C       5.867418      0.391654      1.080437
  C       5.222471     -0.783902      0.410996
  C       3.182510     -2.895430     -4.385767
  C       5.244259     -3.112172     -0.259604
  C       3.391019     -1.715499     -0.864475
  C       5.318591     -4.068517     -5.000690
  C       5.980402     -0.621020      3.360123
  C       4.028624      0.717141      2.741692
  C       6.200888      1.792334      3.060219
  C       5.845993     -2.036199      0.382420
  C       3.993682     -0.633566     -0.233477
  C       2.035462     -4.914063      0.425374
  C       2.949078     -1.521471     -4.282726
  C       2.203097     -3.690051     -4.994102
  C       1.769897     -0.953085     -4.762844
  C       1.028352     -3.125752     -5.483174
  C       0.803834     -1.754317     -5.365336
  H       2.391392     -3.771123     -2.009101
  H       3.689402     -5.443397     -3.284543
  H       5.165741     -4.974917     -2.443608
  H       5.033675     -2.699094     -3.373316
  H       3.973278     -5.653529     -0.202257
  H       2.640762     -6.126064     -1.252684
  H       6.958223      0.316623      1.053197
  H       5.558211      1.326447      0.603278
  H       5.753573     -4.072664     -0.276280
  H       2.440456     -1.580547     -1.370303
  H       6.266784     -4.461047     -4.615894
  H       5.544410     -3.294905     -5.742539
  H       4.795970     -4.885820     -5.511184
  H       5.764444     -0.426995      4.412689
  H       7.055392     -0.739829      3.209819
  H       5.447396     -1.513663      3.029971
  H       3.835191      0.908233      3.799476
  H       3.533429     -0.203654      2.432774
  H       3.688734      1.560384      2.136212
  H       5.962077      1.920763      4.117591
  H       5.843782      2.649115      2.485249
  H       7.277532      1.667955      2.928098
  H       6.814866     -2.165714      0.858933
  H       3.509547      0.339459     -0.247916
  H       1.090243     -4.585577     -0.024268
  H       2.410139     -4.096180      1.052025
  H       1.817313     -5.764529      1.080252
  H       3.699016     -0.889869     -3.811309
  H       2.359062     -4.762392     -5.088323
  H       1.606760      0.117078     -4.663318
  H       0.281952     -3.759658     -5.954313
  H      -0.117168     -1.316190     -5.740384
  F      -0.115208     -1.979614      0.455827
  F      -2.191232     -1.294213      0.209869
  F       0.536807      0.206657     -1.425107
  F      -1.500525      0.911871     -0.979207
  F      -1.569021     -1.269446     -2.663220
  F       0.199677     -2.441760     -2.088322
  F      -0.846463      0.535488      1.795900
  F       1.226486      0.203562      1.139380
  F      -1.687980     -4.024486     -0.478432
  F      -3.235511     -3.018162     -1.676733
  F       0.883898      2.656979      1.961922
  F      -0.914485      2.955561      0.744366
  F      -2.613979     -5.352398     -2.742197
  F      -0.478162     -4.950673     -2.708946
  F      -1.792275     -3.765150     -3.987543
  O       0.599375      3.282314     -1.414888
  O       2.437642      2.675688     -0.240257
  C      -0.963021     -1.310649     -0.356695
  C      -0.468906      0.172875     -0.514979
  C      -1.049875     -2.085186     -1.718165
  C       0.056807      0.803024      0.813907
  C      -1.934937     -3.376310     -1.639710
  C       0.302507      2.343293      0.761893
  C      -1.687530     -4.387312     -2.806460
  C       1.210921      2.824859     -0.427547
80
Coordinates from ORCA-job R4N+PFOA-_altA_r2 E -2865.069127373618
  N       5.511468      0.558690      2.562033
  C       3.352035     -4.129811     -1.611415
  C       4.199882     -4.596634     -2.804794
  C       4.465614     -3.505496     -3.856363
  C       4.003811     -2.969964     -0.890237
  C       3.041236     -5.294460     -0.657544
  C       5.868785      0.391203      1.080342
  C       5.222904     -0.784815      0.412625
  C       3.182363     -2.895520     -4.384814
  C       5.245651     -3.112631     -0.259361
  C       3.390667     -1.716631     -0.861047
  C       5.318899     -4.068035     -4.999834
  C       5.979364     -0.619684      3.360270
  C       4.031741      0.724775      2.741089
  C       6.207274      1.792836      3.058308
  C       5.847202     -2.036798      0.382979
  C       3.993417     -0.634701     -0.230123
  C       2.036999     -4.914534      0.426970
  C       2.947021     -1.522059     -4.279592
  C       2.204221     -3.690418     -4.994957
  C       1.767221     -0.954439     -4.759499
  C       1.028992     -3.127015     -5.483547
  C       0.802658     -1.755982     -5.363879
  H       2.391977     -3.770813     -2.007490
  H       3.689468     -5.443339     -3.283893
  H       5.166007     -4.975159     -2.443240
  H       5.033365     -2.698711     -3.372345
  H       3.973834     -5.655158     -0.202747
  H       2.640180     -6.125875     -1.252343
  H       6.959525      0.315041      1.052547
  H       5.560417      1.325467      0.601576
  H       5.755582     -4.072761     -0.277556
  H       2.440402     -1.582343     -1.367419
  H       6.267373     -4.459913     -4.615080
  H       5.544144     -3.294490     -5.741929
  H       4.796808     -4.885862     -5.510022
  H       5.763737     -0.424531      4.412677
  H       7.054079     -0.741264      3.210159
  H       5.444249     -1.511122      3.030249
  H       3.839428      0.918858      3.798528
  H       3.533774     -0.195292      2.434480
  H       3.694720      1.567817      2.133794
  H       5.969744      1.922520      4.115802
  H       5.851901      2.650175      2.483077
  H       7.283471      1.665570      2.925374
  H       6.816481     -2.165902      0.858775
  H       3.509353      0.338477     -0.244385
  H       1.092548     -4.582703     -0.021901
  H       2.413526     -4.098684      1.055118
  H       1.816891     -5.765726      1.080208
  H       3.695894     -0.890474     -3.806467
  H       2.361728     -4.762409     -5.090656
  H       1.602724      0.115399     -4.658161
  H       0.283567     -3.761444     -5.955486
  H      -0.119083     -1.318767     -5.738285
  F      -0.119352     -1.982062      0.454958
  F      -2.194326     -1.293904      0.206085
  F       0.538828      0.204052     -1.422923
  F      -1.498671      0.911659     -0.981480
  F      -1.568733     -1.268592     -2.665422
  F       0.198330     -2.443075     -2.089256
  F      -0.849974      0.532643      1.795523
  F       1.223670      0.200224      1.141755
  F      -1.691372     -4.026004     -0.483754
  F      -3.237766     -3.016849     -1.681187
  F       0.881574      2.653781      1.964090
  F      -0.917020      2.952364      0.746624
  F      -2.617738     -5.349748     -2.750050
  F      -0.481673     -4.949853     -2.716278
  F      -1.794640     -3.760798     -3.992585
  O       0.597598      3.282937     -1.411753
  O       2.435408      2.674210     -0.237628
  C      -0.965194     -1.311722     -0.358527
  C      -0.468965      0.171229     -0.515134
  C      -1.051091     -2.085712     -1.720305
  C       0.054601      0.800413      0.815024
  C      -1.937501     -3.375905     -1.644210
  C       0.300187      2.340503      0.763694
  C      -1.690595     -4.385267     -2.812687
  C       1.208751      2.823750     -0.425118
80
Coordinates from ORCA-job R4N+PFOA-_altA_r2 E -2865.069132888620
  N       5.514918      0.561938      2.562214
  C       3.352313     -4.128964     -1.610056
  C       4.199076     -4.595923     -2.803929
  C       4.464197     -3.504596     -3.855594
  C       4.004874     -2.969741     -0.888542
  C       3.041488     -5.293825     -0.656186
  C       5.872708      0.390061      1.081349
  C       5.224505     -0.785631      0.415234
  C       3.180337     -2.895843     -4.384059
  C       5.247074     -3.113045     -0.258402
  C       3.391346     -1.716615     -0.857412
  C       5.318217     -4.066593     -4.998733
  C       5.975487     -0.618003      3.362629
  C       4.036295      0.737151      2.739234
  C       6.217230      1.792807      3.057442
  C       5.848870     -2.037688      0.384411
  C       3.994419     -0.635133     -0.226130
  C       2.039794     -4.913623      0.430482
  C       2.941809     -1.523143     -4.276166
  C       2.204450     -3.691609     -4.996774
  C       1.761093     -0.957157     -4.756195
  C       1.028611     -3.129901     -5.485490
  C       0.799227     -1.759524     -5.363677
  H       2.392006     -3.769278     -2.004814
  H       3.688232     -5.442484     -3.282834
  H       5.165297     -4.974821     -2.443022
  H       5.031026     -2.697221     -3.371477
  H       3.974406     -5.656266     -0.203408
  H       2.638399     -6.124151     -1.251163
  H       6.963236      0.310555      1.054565
  H       5.567312      1.324402      0.600816
  H       5.756961     -4.073174     -0.278009
  H       2.441449     -1.582808     -1.364640
  H       6.267049     -4.457160     -4.613528
  H       5.542682     -3.293120     -5.741130
  H       4.797374     -4.885412     -5.508577
  H       5.758381     -0.421157      4.414395
  H       7.050033     -0.744172      3.215022
  H       5.437395     -1.507287      3.031640
  H       3.843881      0.936146      3.795750
  H       3.533855     -0.181519      2.435705
  H       3.704725      1.579832      2.128586
  H       5.980049      1.924754      4.114733
  H       5.866548      2.651432      2.481225
  H       7.292798      1.659807      2.925164
  H       6.818391     -2.166641      0.859761
  H       3.510865      0.338308     -0.240193
  H       1.095523     -4.578087     -0.016055
  H       2.419253     -4.099928      1.059673
  H       1.818474     -5.765513      1.082362
  H       3.688728     -0.890969     -3.800768
  H       2.364506     -4.763062     -5.094312
  H       1.594192      0.112120     -4.652663
  H       0.284944     -3.765305     -5.958829
  H      -0.123307     -1.323522     -5.737660
  F      -0.122608     -1.986116      0.452696
  F      -2.196567     -1.295670      0.201023
  F       0.540881      0.200892     -1.421992
  F      -1.496702      0.910190     -0.983300
  F      -1.565148     -1.268304     -2.669803
  F       0.198420     -2.446687     -2.090388
  F      -0.851294      0.525415      1.795124
  F       1.222784      0.194874      1.141940
  F      -1.694774     -4.028698     -0.492155
  F      -3.239503     -3.014463     -1.687671
  F       0.881116      2.647042      1.967062
  F      -0.919401      2.946504      0.752369
  F      -2.622845     -5.346768     -2.759894
  F      -0.486399     -4.948910     -2.728735
  F      -1.800041     -3.755982     -4.000520
  O       0.592382      3.284405     -1.406666
  O       2.431962      2.673614     -0.236204
  C      -0.966518     -1.314252     -0.361572
  C      -0.468570      0.168269     -0.515916
  C      -1.050832     -2.087307     -1.724121
  C       0.053685      0.795426      0.815670
  C      -1.939840     -3.375676     -1.651185
  C       0.298316      2.335452      0.766674
  C      -1.694924     -4.382977     -2.822073
  C       1.204994      2.822758     -0.422298
80
Coordinates from ORCA-job R4N+PFOA-_altA_r2 E -2865.069138987027
  N       5.517436      0.563834      2.562271
  C       3.352006     -4.127557     -1.609534
  C       4.198370     -4.595817     -2.803091
  C       4.463903     -3.505170     -3.855453
  C       4.005378     -2.968705     -0.888175
  C       3.040181     -5.291878     -0.655143
  C       5.875865      0.389953      1.081487
  C       5.225819     -0.784912      0.415807
  C       3.179986     -2.897161     -4.384742
  C       5.247679     -3.112371     -0.258387
  C       3.392137     -1.715339     -0.856416
  C       5.318648     -4.067761     -4.997726
  C       5.971665     -0.618211      3.363297
  C       4.039685      0.746509      2.737414
  C       6.225361      1.791247      3.057950
  C       5.849885     -2.037192      0.384341
  C       3.995307     -0.634232     -0.224846
  C       2.039248     -4.910831      0.431811
  C       2.939864     -1.524808     -4.275878
  C       2.205435     -3.693470     -4.998849
  C       1.758696     -0.959775     -4.756072
  C       1.029334     -3.132689     -5.487901
  C       0.798212     -1.762729     -5.365036
  H       2.392001     -3.767146     -2.004302
  H       3.687106     -5.442353     -3.281593
  H       5.164326     -4.975228     -2.442020
  H       5.030299     -2.697339     -3.371597
  H       3.972867     -5.655127     -0.202532
  H       2.636257     -6.121810     -1.250125
  H       6.966201      0.307910      1.055783
  H       5.572400      1.324893      0.600933
  H       5.757222     -4.072683     -0.278362
  H       2.442446     -1.581122     -1.363924
  H       6.267224     -4.457885     -4.611423
  H       5.543566     -3.294757     -5.740462
  H       4.798450     -4.887109     -5.507360
  H       5.753624     -0.420780      4.414755
  H       7.045971     -0.748613      3.217576
  H       5.430576     -1.505180      3.031002
  H       3.846615      0.947418      3.793461
  H       3.532770     -0.169838      2.434328
  H       3.713586      1.590466      2.125570
  H       5.987532      1.924595      4.114934
  H       5.879853      2.651621      2.481218
  H       7.300411      1.652770      2.927205
  H       6.819609     -2.165965      0.859341
  H       3.511636      0.339155     -0.238289
  H       1.094908     -4.574541     -0.013968
  H       2.419569     -4.097356      1.060783
  H       1.817745     -5.762530      1.083881
  H       3.685659     -0.892065     -3.799486
  H       2.366813     -4.764657     -5.097109
  H       1.590416      0.109193     -4.651434
  H       0.286551     -3.768596     -5.961909
  H      -0.124879     -1.327333     -5.738407
  F      -0.123030     -1.988864      0.450931
  F      -2.197294     -1.299095      0.200048
  F       0.539257      0.200648     -1.421279
  F      -1.498427      0.908704     -0.981003
  F      -1.564807     -1.267796     -2.671199
  F       0.198160     -2.447277     -2.092130
  F      -0.850600      0.518877      1.797080
  F       1.223275      0.192339      1.141001
  F      -1.695491     -4.030872     -0.496928
  F      -3.240064     -3.014557     -1.690868
  F       0.880251      2.642210      1.970808
  F      -0.922639      2.942033      0.759631
  F      -2.623948     -5.345491     -2.766440
  F      -0.487448     -4.947939     -2.735433
  F      -1.801388     -3.752890     -4.004928
  O       0.584913      3.286596     -1.400880
  O       2.427265      2.674947     -0.235192
  C      -0.967199     -1.316295     -0.362479
  C      -0.469933      0.166621     -0.514958
  C      -1.051045     -2.087891     -1.726136
  C       0.053077      0.792074      0.817148
  C      -1.940479     -3.376094     -1.654899
  C       0.295807      2.332235      0.770780
  C      -1.695897     -4.381709     -2.827437
  C       1.199830      2.823270     -0.418811
80
Coordinates from ORCA-job R4N+PFOA-_altA_r2 E -2865.069152654370
  N       5.522265      0.565910      2.565248
  C       3.350675     -4.122495     -1.609145
  C       4.195893     -4.593199     -2.802386
  C       4.461223     -3.504144     -3.856455
  C       4.006476     -2.964953     -0.887814
  C       3.036651     -5.285712     -0.653955
  C       5.885087      0.387279      1.085769
  C       5.230375     -0.784338      0.418726
  C       3.176982     -2.898261     -4.387494
  C       5.247653     -3.111734     -0.256585
  C       3.396080     -1.710094     -0.856350
  C       5.317129     -4.067974     -4.997230
  C       5.958912     -0.620742      3.369359
  C       4.045446      0.766800      2.732944
  C       6.242497      1.785042      3.063567
  C       5.851429     -2.038215      0.387288
  C       4.000777     -0.630683     -0.223280
  C       2.037934     -4.902145      0.434061
  C       2.934755     -1.526168     -4.279895
  C       2.204271     -3.696421     -5.002151
  C       1.753420     -0.963174     -4.762236
  C       1.028169     -3.137641     -5.493396
  C       0.795064     -1.767854     -5.372294
  H       2.391459     -3.759871     -2.003802
  H       3.683874     -5.440095     -3.279461
  H       5.161795     -4.972799     -2.441349
  H       5.026599     -2.694988     -3.373613
  H       3.968928     -5.651214     -0.202302
  H       2.630131     -6.114757     -1.248427
  H       6.974869      0.297279      1.063894
  H       5.590068      1.324766      0.604676
  H       5.754812     -4.073324     -0.276162
  H       2.447607     -1.574047     -1.365995
  H       6.265891     -4.456290     -4.609537
  H       5.541659     -3.296190     -5.741355
  H       4.798242     -4.888952     -5.505574
  H       5.736946     -0.420652      4.419482
  H       7.032623     -0.762622      3.229957
  H       5.410411     -1.501998      3.034005
  H       3.849548      0.971772      3.787691
  H       3.528389     -0.143518      2.428794
  H       3.734531      1.614102      2.117485
  H       6.001438      1.921656      4.119409
  H       5.909990      2.649286      2.484965
  H       7.316391      1.633668      2.937859
  H       6.820211     -2.169140      0.863657
  H       3.518653      0.343385     -0.236897
  H       1.093714     -4.563949     -0.010398
  H       2.420794     -4.089299      1.062423
  H       1.815579     -5.753196      1.086705
  H       3.679011     -0.891983     -3.803007
  H       2.367317     -4.767465     -5.099262
  H       1.583535      0.105639     -4.658773
  H       0.286892     -3.774870     -5.967903
  H      -0.127948     -1.333655     -5.747428
  F      -0.119442     -1.994506      0.447931
  F      -2.195022     -1.307363      0.200709
  F       0.536598      0.199375     -1.422590
  F      -1.500952      0.903804     -0.975643
  F      -1.564849     -1.269994     -2.671633
  F       0.199015     -2.449475     -2.095598
  F      -0.842905      0.504612      1.800877
  F       1.229472      0.188097      1.134968
  F      -1.692513     -4.036768     -0.502014
  F      -3.238716     -3.018825     -1.692568
  F       0.885226      2.633073      1.972090
  F      -0.928546      2.931340      0.776767
  F      -2.622152     -5.348365     -2.771649
  F      -0.486039     -4.948100     -2.744914
  F      -1.804536     -3.752655     -4.009439
  O       0.559387      3.292058     -1.393835
  O       2.413096      2.679619     -0.246085
  C      -0.965626     -1.321956     -0.363422
  C      -0.470549      0.161776     -0.514022
  C      -1.049957     -2.091437     -1.728212
  C       0.055512      0.784592      0.817992
  C      -1.938969     -3.379950     -1.658489
  C       0.292145      2.325807      0.775580
  C      -1.695407     -4.383298     -2.833202
  C       1.184182      2.825510     -0.419624
80
Coordinates from ORCA-job R4N+PFOA-_altA_r2 E -2865.069131898383
  N       5.546938      0.574878      2.569916
  C       3.344214     -4.104597     -1.606956
  C       4.190174     -4.584157     -2.796086
  C       4.456896     -3.501430     -3.856182
  C       4.007498     -2.952611     -0.883174
  C       3.016516     -5.264585     -0.652371
  C       5.923056      0.376433      1.094671
  C       5.247133     -0.782118      0.427411
  C       3.171991     -2.906107     -4.397634
  C       5.245479     -3.110170     -0.249118
  C       3.406625     -1.692533     -0.850742
  C       5.321561     -4.068791     -4.988526
  C       5.917090     -0.628532      3.383101
  C       4.077178      0.843664      2.714617
  C       6.315251      1.761467      3.075629
  C       5.856373     -2.041936      0.396336
  C       4.018042     -0.618385     -0.214470
  C       2.016302     -4.874552      0.431377
  C       2.918592     -1.535687     -4.294576
  C       2.209942     -3.713036     -5.017669
  C       1.737022     -0.982778     -4.787654
  C       1.033660     -3.164118     -5.519690
  C       0.789625     -1.795825     -5.404019
  H       2.391304     -3.731541     -2.007276
  H       3.677514     -5.432853     -3.269280
  H       5.155112     -4.963465     -2.432197
  H       5.015961     -2.686319     -3.375892
  H       3.944468     -5.636275     -0.196784
  H       2.606937     -6.090907     -1.248578
  H       7.009887      0.253766      1.086810
  H       5.662656      1.322255      0.610912
  H       5.744269     -4.076182     -0.267657
  H       2.458545     -1.550937     -1.361972
  H       6.270324     -4.448958     -4.592736
  H       5.545991     -3.301376     -5.737201
  H       4.810214     -4.896519     -5.493596
  H       5.681503     -0.418534      4.428390
  H       6.986951     -0.815046      3.266475
  H       5.339749     -1.486878      3.036136
  H       3.876719      1.067918      3.764570
  H       3.522710     -0.045287      2.412784
  H       3.814282      1.697021      2.085084
  H       6.065464      1.911733      4.127660
  H       6.031570      2.639056      2.490598
  H       7.382923      1.560056      2.965880
  H       6.823231     -2.180145      0.874746
  H       3.538258      0.356760     -0.227334
  H       1.074434     -4.534659     -0.016211
  H       2.400200     -4.061935      1.059464
  H       1.789548     -5.723526      1.085352
  H       3.654303     -0.894444     -3.813768
  H       2.381861     -4.783017     -5.111041
  H       1.558205      0.084866     -4.688353
  H       0.300709     -3.807631     -5.999174
  H      -0.133079     -1.368425     -5.787297
  F      -0.106342     -2.011749      0.437355
  F      -2.189016     -1.340375      0.207215
  F       0.516925      0.203760     -1.423901
  F      -1.521320      0.887291     -0.947722
  F      -1.570407     -1.272072     -2.669376
  F       0.199757     -2.449916     -2.110305
  F      -0.821405      0.450398      1.820714
  F       1.244726      0.177737      1.116170
  F      -1.682730     -4.055955     -0.520448
  F      -3.234811     -3.034354     -1.700186
  F       0.886231      2.604533      1.989394
  F      -0.965427      2.890367      0.849941
  F      -2.612640     -5.355809     -2.795798
  F      -0.478189     -4.946159     -2.773910
  F      -1.807151     -3.747499     -4.025172
  O       0.453517      3.325612     -1.350109
  O       2.350231      2.711226     -0.271927
  C      -0.962819     -1.340492     -0.364148
  C      -0.480697      0.148128     -0.505480
  C      -1.049092     -2.099410     -1.734737
  C       0.056179      0.760245      0.827411
  C      -1.933863     -3.391801     -1.671589
  C       0.265759      2.307008      0.804532
  C      -1.690207     -4.386173     -2.853813
  C       1.114480      2.845125     -0.406788
80
Coordinates from ORCA-job R4N+PFOA-_altA_r2 E -2865.068780504176
  N       5.531372      0.569229      2.562859
  C       3.348877     -4.119741     -1.608081
  C       4.196335     -4.595715     -2.797841
  C       4.464943     -3.511257     -3.855431
  C       4.005400     -2.963444     -0.886049
  C       3.027401     -5.280035     -0.652661
  C       5.889134      0.387464      1.081406
  C       5.231285     -0.781984      0.417118
  C       3.181655     -2.909661     -4.392921
  C       5.248627     -3.108137     -0.261161
  C       3.393093     -1.710228     -0.848813
  C       5.325235     -4.078761     -4.990872
  C       5.969992     -0.608728      3.363656
  C       4.061763      0.768005      2.735584
  C       6.246972      1.785367      3.059055
  C       5.853409     -2.033977      0.380338
  C       3.998193     -0.630590     -0.216670
  C       2.021647     -4.892722      0.427260
  C       2.935779     -1.538199     -4.287730
  C       2.213658     -3.710962     -5.010668
  C       1.755147     -0.979054     -4.774727
  C       1.037796     -3.155661     -5.506698
  C       0.800588     -1.786767     -5.386679
  H       2.393423     -3.753743     -2.008113
  H       3.683908     -5.443131     -3.273517
  H       5.160708     -4.975707     -2.433625
  H       5.028050     -2.699541     -3.374283
  H       3.956449     -5.643968     -0.193416
  H       2.624085     -6.110457     -1.247620
  H       6.976025      0.295346      1.057157
  H       5.595746      1.324164      0.603812
  H       5.757028     -4.068307     -0.283946
  H       2.439347     -1.576556     -1.348489
  H       6.272797     -4.464320     -4.598079
  H       5.551782     -3.309733     -5.737051
  H       4.809153     -4.902245     -5.497923
  H       5.748377     -0.408028      4.413299
  H       7.038356     -0.746566      3.224730
  H       5.428043     -1.488933      3.027455
  H       3.871107      0.981201      3.788922
  H       3.546094     -0.141152      2.437818
  H       3.748124      1.605052      2.117357
  H       6.013479      1.923768      4.115225
  H       5.911159      2.642748      2.485427
  H       7.313170      1.637417      2.927009
  H       6.824805     -2.162800      0.850431
  H       3.509748      0.339529     -0.223894
  H       1.079477     -4.558429     -0.024080
  H       2.399672     -4.076678      1.054486
  H       1.796883     -5.741423      1.081787
  H       3.676378     -0.900940     -3.809355
  H       2.379658     -4.781537     -5.106563
  H       1.581820      0.089045     -4.673366
  H       0.299840     -3.794744     -5.984148
  H      -0.122137     -1.354951     -5.764321
  F      -0.116283     -1.996023      0.441246
  F      -2.193097     -1.314473      0.204113
  F       0.526768      0.208271     -1.417316
  F      -1.509152      0.903385     -0.960808
  F      -1.569286     -1.259121     -2.669271
  F       0.194867     -2.439458     -2.103098
  F      -0.843373      0.488604      1.808080
  F       1.225988      0.189761      1.136366
  F      -1.693494     -4.034341     -0.513362
  F      -3.239941     -3.012660     -1.698219
  F       0.866536      2.625644      1.994583
  F      -0.939563      2.920561      0.800231
  F      -2.625077     -5.334651     -2.791940
  F      -0.489238     -4.937693     -2.756485
  F      -1.801628     -3.734325     -4.017964
  O       0.546918      3.295920     -1.356645
  O       2.393708      2.702621     -0.208503
  C      -0.966265     -1.321981     -0.363125
  C      -0.476331      0.163327     -0.506918
  C      -1.053019     -2.083671     -1.731658
  C       0.050414      0.780749      0.826929
  C      -1.940673     -3.373349     -1.666388
  C       0.279583      2.322955      0.798006
  C      -1.696840     -4.371039     -2.845227
  C       1.169196      2.834896     -0.385999
80
Coordinates from ORCA-job R4N+PFOA-_altA_r2 E -2865.069031537237
  N       5.524532      0.564467      2.560788
  C       3.348331     -4.122923     -1.609065
  C       4.198128     -4.592951     -2.800048
  C       4.464633     -3.503310     -3.853643
  C       4.004462     -2.965080     -0.886699
  C       3.030835     -5.287621     -0.655961
  C       5.890835      0.387556      1.081381
  C       5.235559     -0.783662      0.414532
  C       3.180723     -2.899374     -4.387518
  C       5.247554     -3.113382     -0.257026
  C       3.396090     -1.707846     -0.854507
  C       5.323936     -4.066251     -4.992568
  C       5.966378     -0.618831      3.366806
  C       4.048846      0.757324      2.728473
  C       6.235831      1.787114      3.057451
  C       5.854905     -2.039437      0.384092
  C       4.004480     -0.627911     -0.225080
  C       2.023555     -4.906369      0.425924
  C       2.936951     -1.527197     -4.282083
  C       2.209846     -3.699499     -5.001853
  C       1.755898     -0.965991     -4.766422
  C       1.033224     -3.143077     -5.493945
  C       0.798477     -1.773234     -5.374899
  H       2.390730     -3.759686     -2.008479
  H       3.687909     -5.440472     -3.277862
  H       5.163812     -4.971545     -2.436968
  H       5.028051     -2.693338     -3.369991
  H       3.961415     -5.651529     -0.198054
  H       2.629852     -6.117318     -1.252811
  H       6.981997      0.297534      1.063983
  H       5.597479      1.324650      0.596908
  H       5.753907     -4.076321     -0.275685
  H       2.444890     -1.567010     -1.356234
  H       6.272593     -4.452977     -4.603199
  H       5.548595     -3.294281     -5.736535
  H       4.807284     -4.887973     -5.501692
  H       5.741256     -0.418503      4.417103
  H       7.040937     -0.756942      3.228461
  H       5.421440     -1.502023      3.032573
  H       3.851325      0.971573      3.782013
  H       3.538936     -0.158783      2.436210
  H       3.726415      1.592405      2.104400
  H       5.989788      1.924607      4.113558
  H       5.900134      2.647085      2.472740
  H       7.311688      1.640726      2.935322
  H       6.825234     -2.172606      0.859285
  H       3.520411      0.347245     -0.235519
  H       1.082037     -4.569818     -0.025880
  H       2.400295     -4.093681      1.057337
  H       1.798246     -5.758010      1.077284
  H       3.679986     -0.891335     -3.805650
  H       2.373942     -4.770537     -5.097607
  H       1.585133      0.103321     -4.665500
  H       0.293709     -3.782503     -5.968309
  H      -0.125565     -1.341765     -5.750709
  F      -0.109378     -1.996002      0.446689
  F      -2.193828     -1.315131      0.211784
  F       0.529766      0.211277     -1.425974
  F      -1.515966      0.905186     -0.969468
  F      -1.572127     -1.264705     -2.670277
  F       0.199413     -2.445232     -2.100343
  F      -0.844287      0.506913      1.806131
  F       1.229964      0.193160      1.136015
  F      -1.689125     -4.038606     -0.496780
  F      -3.244290     -3.020969     -1.685094
  F       0.872494      2.637860      1.981224
  F      -0.937850      2.929885      0.773450
  F      -2.626135     -5.346702     -2.771190
  F      -0.487204     -4.948896     -2.742076
  F      -1.804481     -3.747695     -4.006951
  O       0.570150      3.295880     -1.387157
  O       2.417814      2.699198     -0.226964
  C      -0.964121     -1.322586     -0.360059
  C      -0.475871      0.166201     -0.511397
  C      -1.052381     -2.088682     -1.728364
  C       0.053481      0.788212      0.820762
  C      -1.940413     -3.380206     -1.654988
  C       0.287193      2.329718      0.780282
  C      -1.697274     -4.382035     -2.830838
  C       1.188161      2.833984     -0.407014
80
Coordinates from ORCA-job R4N+PFOA-_altA_r2 E -2865.067853680117
  N       5.525662      0.563637      2.560502
  C       3.347220     -4.115691     -1.604739
  C       4.193859     -4.580711     -2.798885
  C       4.458052     -3.488701     -3.848487
  C       4.002404     -2.964170     -0.880519
  C       3.032839     -5.281641     -0.658391
  C       5.902849      0.373321      1.086715
  C       5.238577     -0.792294      0.419666
  C       3.173035     -2.887868     -4.381681
  C       5.239846     -3.119012     -0.247109
  C       3.398981     -1.707130     -0.855370
  C       5.318256     -4.044857     -4.988742
  C       5.918401     -0.640571      3.375153
  C       4.047225      0.799939      2.706264
  C       6.279220      1.767838      3.063622
  C       5.849221     -2.049813      0.394856
  C       4.011932     -0.629862     -0.226225
  C       2.033227     -4.903333      0.428182
  C       2.926973     -1.516434     -4.278592
  C       2.203291     -3.690630     -4.995497
  C       1.745860     -0.958163     -4.766585
  C       1.026615     -3.136078     -5.491192
  C       0.791141     -1.766663     -5.376112
  H       2.391127     -3.750509     -1.997093
  H       3.684582     -5.427020     -3.279590
  H       5.159907     -4.957876     -2.437037
  H       5.018655     -2.678382     -3.362072
  H       3.962634     -5.647854     -0.207951
  H       2.628368     -6.107598     -1.258293
  H       6.992138      0.266624      1.078930
  H       5.628650      1.312377      0.596244
  H       5.739833     -4.083650     -0.263959
  H       2.451519     -1.564108     -1.367866
  H       6.268354     -4.429096     -4.601481
  H       5.539717     -3.270055     -5.729886
  H       4.803593     -4.866578     -5.500193
  H       5.686307     -0.432700      4.421057
  H       6.995810     -0.819127      3.251974
  H       5.344529     -1.511025      3.037056
  H       3.842637      1.028593      3.753299
  H       3.513400     -0.107389      2.414423
  H       3.753928      1.639640      2.068743
  H       6.023111      1.914643      4.115736
  H       5.984482      2.649751      2.471971
  H       7.360076      1.579718      2.958001
  H       6.814502     -2.186533      0.873754
  H       3.538368      0.348021     -0.246438
  H       1.093015     -4.565378     -0.016857
  H       2.411723     -4.093911      1.061378
  H       1.809949     -5.754807      1.074032
  H       3.668389     -0.879378     -3.801394
  H       2.369261     -4.761437     -5.088835
  H       1.572941      0.110270     -4.667860
  H       0.287639     -3.775473     -5.965935
  H      -0.130083     -1.335305     -5.757006
  F      -0.114227     -1.988825      0.442581
  F      -2.174387     -1.306626      0.194184
  F       0.528985      0.196674     -1.426276
  F      -1.492542      0.889060     -0.969815
  F      -1.554632     -1.290914     -2.662804
  F       0.197561     -2.464903     -2.095340
  F      -0.832774      0.490414      1.799415
  F       1.233673      0.196391      1.122957
  F      -1.684685     -4.030116     -0.495381
  F      -3.215881     -3.026062     -1.687732
  F       0.893017      2.630392      1.965834
  F      -0.949743      2.918834      0.802395
  F      -2.606287     -5.362716     -2.755922
  F      -0.478039     -4.956805     -2.721640
  F      -1.790177     -3.772540     -3.990371
  O       0.497878      3.314361     -1.396951
  O       2.387625      2.679243     -0.299845
  C      -0.953830     -1.325086     -0.366542
  C      -0.465934      0.155217     -0.515441
  C      -1.041481     -2.102269     -1.722468
  C       0.056638      0.780526      0.814464
  C      -1.926636     -3.386766     -1.649525
  C       0.279387      2.324144      0.775761
  C      -1.683458     -4.396752     -2.816085
  C       1.147776      2.832297     -0.439115
80
Coordinates from ORCA-job R4N+PFOA-_altA_r2 E -2865.069178201554
  N       5.529748      0.564912      2.566060
  C       3.348804     -4.116795     -1.608380
  C       4.195337     -4.587326     -2.801096
  C       4.460045     -3.498845     -3.855528
  C       4.006838     -2.961840     -0.884747
  C       3.031290     -5.281986     -0.657048
  C       5.903319      0.379752      1.089288
  C       5.240275     -0.785593      0.420526
  C       3.174884     -2.898051     -4.390067
  C       5.246441     -3.113715     -0.252618
  C       3.402808     -1.703658     -0.855125
  C       5.320390     -4.061438     -4.993650
  C       5.937484     -0.630429      3.373042
  C       4.053684      0.792421      2.719127
  C       6.267995      1.771618      3.070345
  C       5.854433     -2.042568      0.390760
  C       4.012211     -0.626098     -0.222746
  C       2.030633     -4.900269      0.429618
  C       2.928176     -1.526692     -4.284982
  C       2.206086     -3.700148     -5.005640
  C       1.746664     -0.968150     -4.771296
  C       1.029452     -3.145649     -5.500756
  C       0.792191     -1.776553     -5.382445
  H       2.391866     -3.750263     -2.005030
  H       3.684103     -5.434679     -3.278115
  H       5.161373     -4.965952     -2.439410
  H       5.022067     -2.687406     -3.372601
  H       3.962161     -5.649891     -0.204140
  H       2.624887     -6.109051     -1.254537
  H       6.991775      0.275445      1.077910
  H       5.625669      1.320180      0.604658
  H       5.749160     -4.077358     -0.270896
  H       2.453724     -1.562374     -1.362781
  H       6.269851     -4.445554     -4.603316
  H       5.543626     -3.290090     -5.738649
  H       4.805568     -4.885133     -5.501726
  H       5.707117     -0.428275      4.420571
  H       7.010140     -0.790732      3.245920
  H       5.376987     -1.501839      3.030183
  H       3.850677      1.012374      3.769464
  H       3.522728     -0.112821      2.421070
  H       3.762306      1.637120      2.088702
  H       6.024103      1.912438      4.123659
  H       5.954203      2.640696      2.491466
  H       7.338373      1.602654      2.951043
  H       6.821915     -2.177574      0.867957
  H       3.531482      0.348336     -0.236323
  H       1.087048     -4.560856     -0.017050
  H       2.412943     -4.088676      1.061339
  H       1.806333     -5.753729      1.079759
  H       3.669157     -0.889252     -3.807327
  H       2.372460     -4.770731     -5.101040
  H       1.573153      0.100025     -4.670030
  H       0.291561     -3.785630     -5.977124
  H      -0.130454     -1.345468     -5.761562
  F      -0.111374     -1.993481      0.447556
  F      -2.190936     -1.316118      0.207327
  F       0.526357      0.205542     -1.426110
  F      -1.512057      0.898524     -0.968114
  F      -1.565989     -1.273826     -2.668169
  F       0.200217     -2.450431     -2.095838
  F      -0.836429      0.493806      1.806127
  F       1.233955      0.194986      1.125681
  F      -1.687632     -4.039844     -0.496851
  F      -3.235768     -3.026065     -1.689111
  F       0.877220      2.636143      1.971457
  F      -0.946795      2.922479      0.791635
  F      -2.613730     -5.355454     -2.767800
  F      -0.478238     -4.952064     -2.737582
  F      -1.797100     -3.758865     -4.005020
  O       0.519643      3.312362     -1.383643
  O       2.387211      2.689898     -0.260941
  C      -0.963383     -1.325034     -0.361102
  C      -0.475958      0.160929     -0.512468
  C      -1.048747     -2.094180     -1.726143
  C       0.053644      0.783749      0.818144
  C      -1.934926     -3.384880     -1.654540
  C       0.277609      2.327295      0.779378
  C      -1.688419     -4.388948     -2.828161
  C       1.155947      2.837377     -0.420373
80
Coordinates from ORCA-job R4N+PFOA-_altA_r2 E -2865.069169633952
  N       5.531649      0.568641      2.564230
  C       3.348569     -4.117917     -1.607482
  C       4.196164     -4.589057     -2.799237
  C       4.461246     -3.500992     -3.854049
  C       4.006426     -2.963072     -0.883688
  C       3.029254     -5.281731     -0.655230
  C       5.903126      0.380879      1.086539
  C       5.240619     -0.786296      0.420317
  C       3.176319     -2.901192     -4.390210
  C       5.247287     -3.114557     -0.252697
  C       3.400596     -1.705836     -0.851205
  C       5.322520     -4.063479     -4.991422
  C       5.950879     -0.618095      3.375412
  C       4.057152      0.783985      2.722182
  C       6.260700      1.781026      3.062267
  C       5.855879     -2.043112      0.390065
  C       4.010552     -0.627946     -0.219907
  C       2.023468     -4.899952      0.426707
  C       2.928738     -1.529609     -4.286812
  C       2.208718     -3.704539     -5.006197
  C       1.747254     -0.972234     -4.774966
  C       1.032152     -3.151329     -5.503004
  C       0.793813     -1.782088     -5.386378
  H       2.392461     -3.751404     -2.006196
  H       3.685433     -5.436740     -3.276241
  H       5.161861     -4.967386     -2.436539
  H       5.022403     -2.688913     -3.371101
  H       3.958767     -5.646067     -0.197742
  H       2.627368     -6.110592     -1.252490
  H       6.992466      0.278896      1.072883
  H       5.621952      1.320643      0.600680
  H       5.750566     -4.078480     -0.271288
  H       2.449473     -1.565226     -1.354688
  H       6.271678     -4.447227     -4.600400
  H       5.546051     -3.292075     -5.736116
  H       4.808190     -4.887359     -5.499789
  H       5.720165     -0.413114      4.423415
  H       7.023721     -0.769064      3.246547
  H       5.399650     -1.495000      3.038009
  H       3.856895      1.007321      3.772352
  H       3.535117     -0.126238      2.430522
  H       3.754051      1.620417      2.091604
  H       6.009927      1.925608      4.116611
  H       5.944868      2.647730      2.473901
  H       7.336061      1.614747      2.947932
  H       6.824508     -2.178021      0.866650
  H       3.529077      0.346770     -0.230527
  H       1.081833     -4.566805     -0.023153
  H       2.399361     -4.085902      1.055247
  H       1.800905     -5.749266      1.079641
  H       3.668928     -0.891028     -3.809216
  H       2.375785     -4.775272     -5.100311
  H       1.572939      0.096308     -4.675505
  H       0.295107     -3.792454     -5.979177
  H      -0.129204     -1.352142     -5.766245
  F      -0.109591     -1.999417      0.441541
  F      -2.189528     -1.319503      0.207136
  F       0.527066      0.206236     -1.424736
  F      -1.511593      0.898906     -0.962871
  F      -1.568975     -1.266169     -2.670281
  F       0.197680     -2.448024     -2.103862
  F      -0.835656      0.486091      1.808170
  F       1.234831      0.189194      1.128680
  F      -1.693191     -4.037882     -0.506042
  F      -3.239817     -3.018170     -1.694138
  F       0.878943      2.624833      1.984040
  F      -0.947011      2.917413      0.803517
  F      -2.625756     -5.345421     -2.778431
  F      -0.489440     -4.946757     -2.749546
  F      -1.806628     -3.747390     -4.011782
  O       0.528320      3.302879     -1.375260
  O       2.390852      2.702326     -0.241374
  C      -0.962426     -1.326679     -0.363025
  C      -0.474625      0.159879     -0.510340
  C      -1.050964     -2.090597     -1.730793
  C       0.055360      0.778871      0.822092
  C      -1.940201     -3.379730     -1.661342
  C       0.279575      2.321976      0.789083
  C      -1.698103     -4.381044     -2.837254
  C       1.161008      2.836747     -0.407665
80
Coordinates from ORCA-job R4N+PFOA-_altA_r2 E -2865.069195215010
  N       5.536907      0.569192      2.562830
  C       3.346517     -4.115914     -1.606358
  C       4.193985     -4.590491     -2.796846
  C       4.461699     -3.504187     -3.852946
  C       4.005849     -2.961159     -0.883736
  C       3.024633     -5.278207     -0.652845
  C       5.906064      0.381579      1.085475
  C       5.241448     -0.784697      0.419731
  C       3.177793     -2.903445     -4.390607
  C       5.246807     -3.113110     -0.253527
  C       3.400757     -1.703452     -0.851285
  C       5.323365     -4.069388     -4.988782
  C       5.949785     -0.621613      3.371073
  C       4.063065      0.792940      2.720709
  C       6.272185      1.777688      3.062875
  C       5.856076     -2.041753      0.388539
  C       4.011029     -0.625980     -0.219614
  C       2.020101     -4.893001      0.429068
  C       2.930334     -1.532100     -4.285919
  C       2.210786     -3.705806     -5.008663
  C       1.749761     -0.973846     -4.775191
  C       1.035186     -3.151619     -5.506727
  C       0.797154     -1.782531     -5.389031
  H       2.391225     -3.747794     -2.005445
  H       3.681981     -5.437844     -3.273103
  H       5.158818     -4.970248     -2.433161
  H       5.023502     -2.692322     -3.370449
  H       3.953756     -5.644884     -0.195749
  H       2.620074     -6.106738     -1.249281
  H       6.994470      0.277802      1.070725
  H       5.626289      1.321704      0.601082
  H       5.749732     -4.077129     -0.272403
  H       2.450042     -1.562097     -1.355648
  H       6.271853     -4.453583     -4.596309
  H       5.548427     -3.299443     -5.734713
  H       4.808737     -4.893542     -5.496335
  H       5.720896     -0.417219      4.419020
  H       7.022060     -0.778977      3.241805
  H       5.392398     -1.495262      3.031754
  H       3.864234      1.016126      3.771115
  H       3.534782     -0.113823      2.426803
  H       3.767253      1.633729      2.090772
  H       6.027776      1.920775      4.117102
  H       5.956529      2.644935      2.480978
  H       7.343399      1.609658      2.943190
  H       6.824898     -2.176808      0.864007
  H       3.529204      0.348266     -0.229912
  H       1.078509     -4.556465     -0.021262
  H       2.399181     -4.079467      1.058272
  H       1.794531     -5.742912      1.081782
  H       3.670033     -0.894429     -3.806556
  H       2.377771     -4.776390     -5.103672
  H       1.575721      0.094513     -4.674761
  H       0.298643     -3.791819     -5.984857
  H      -0.124782     -1.351821     -5.770503
  F      -0.113858     -2.000752      0.442070
  F      -2.192984     -1.322211      0.204378
  F       0.523336      0.207829     -1.422743
  F      -1.515535      0.898480     -0.958976
  F      -1.567426     -1.266689     -2.670393
  F       0.198145     -2.447004     -2.103427
  F      -0.836016      0.476066      1.813784
  F       1.234848      0.188048      1.127540
  F      -1.691390     -4.040882     -0.510516
  F      -3.237921     -3.021421     -1.698385
  F       0.872367      2.621058      1.989969
  F      -0.958662      2.911392      0.816279
  F      -2.619115     -5.346272     -2.787057
  F      -0.483548     -4.945657     -2.753567
  F      -1.799546     -3.745545     -4.016265
  O       0.505462      3.311927     -1.366984
  O       2.377932      2.706459     -0.245237
  C      -0.965235     -1.328304     -0.363462
  C      -0.478356      0.158775     -0.508147
  C      -1.050619     -2.091346     -1.731680
  C       0.051785      0.774860      0.825596
  C      -1.937961     -3.381451     -1.665166
  C       0.270171      2.319603      0.796200
  C      -1.692590     -4.380892     -2.842520
  C       1.145059      2.841067     -0.403775
80
Coordinates from ORCA-job R4N+PFOA-_altA_r2 E -2865.069096194873
  N       5.537637      0.567960      2.568846
  C       3.349667     -4.113453     -1.607996
  C       4.195124     -4.584779     -2.800785
  C       4.458173     -3.497306     -3.856853
  C       4.009388     -2.960548     -0.882713
  C       3.029248     -5.278428     -0.657173
  C       5.912858      0.376877      1.093001
  C       5.245227     -0.786707      0.424997
  C       3.171782     -2.901237     -4.393637
  C       5.249969     -3.113822     -0.252558
  C       3.405032     -1.702717     -0.848713
  C       5.320947     -4.059427     -4.992958
  C       5.926892     -0.635477      3.379453
  C       4.062971      0.815906      2.717677
  C       6.292447      1.766662      3.073658
  C       5.858934     -2.043985      0.392183
  C       4.015349     -0.626247     -0.215728
  C       2.034852     -4.891786      0.433735
  C       2.918407     -1.531017     -4.287084
  C       2.208122     -3.707067     -5.012627
  C       1.735035     -0.977406     -4.775108
  C       1.029468     -3.157869     -5.508354
  C       0.785216     -1.790045     -5.388442
  H       2.393704     -3.744784     -2.004393
  H       3.683908     -5.432715     -3.276761
  H       5.161397     -4.962835     -2.439457
  H       5.017296     -2.683417     -3.374635
  H       3.960434     -5.652318     -0.208250
  H       2.615415     -6.102835     -1.254645
  H       7.001637      0.265812      1.085065
  H       5.641750      1.318397      0.605731
  H       5.752682     -4.077275     -0.273845
  H       2.455264     -1.560968     -1.354632
  H       6.271085     -4.439602     -4.600790
  H       5.542444     -3.289096     -5.739169
  H       4.809491     -4.885814     -5.500032
  H       5.694684     -0.429633      4.426124
  H       7.001034     -0.812233      3.256741
  H       5.353268     -1.501348      3.035678
  H       3.862164      1.042210      3.767275
  H       3.522058     -0.085095      2.421414
  H       3.783119      1.663525      2.084293
  H       6.046677      1.911009      4.126350
  H       5.991977      2.641588      2.492314
  H       7.363168      1.582482      2.958238
  H       6.827140     -2.179484      0.867838
  H       3.534260      0.348598     -0.227950
  H       1.091627     -4.541657     -0.008778
  H       2.426878     -4.085005      1.067984
  H       1.804836     -5.746817      1.080875
  H       3.655443     -0.890616     -3.807186
  H       2.379874     -4.776764     -5.109277
  H       1.556234      0.090057     -4.672785
  H       0.295197     -3.801076     -5.985907
  H      -0.139710     -1.363227     -5.766958
  F      -0.115373     -1.996607      0.445213
  F      -2.194945     -1.319823      0.201690
  F       0.523439      0.206274     -1.425543
  F      -1.514961      0.896447     -0.968728
  F      -1.564925     -1.273867     -2.672559
  F       0.200204     -2.451565     -2.096376
  F      -0.838918      0.484148      1.804984
  F       1.230716      0.195828      1.123097
  F      -1.687860     -4.045285     -0.506012
  F      -3.237716     -3.028610     -1.695445
  F       0.862246      2.635057      1.975530
  F      -0.956479      2.912908      0.795976
  F      -2.614969     -5.355363     -2.779749
  F      -0.479407     -4.950045     -2.751626
  F      -1.800861     -3.754254     -4.014202
  O       0.503799      3.318978     -1.369614
  O       2.372783      2.701179     -0.253753
  C      -0.966491     -1.327634     -0.364366
  C      -0.479267      0.159189     -0.513303
  C      -1.049660     -2.095713     -1.730223
  C       0.049055      0.780483      0.818363
  C      -1.936288     -3.386850     -1.662148
  C       0.267132      2.324933      0.784722
  C      -1.690330     -4.387685     -2.838971
  C       1.141473      2.843461     -0.410220
80
Coordinates from ORCA-job R4N+PFOA-_altA_r2 E -2865.069208388053
  N       5.536357      0.568030      2.564316
  C       3.348089     -4.115840     -1.606797
  C       4.194932     -4.589207     -2.798121
  C       4.460977     -3.502492     -3.854163
  C       4.007352     -2.961412     -0.883716
  C       3.027346     -5.278879     -0.654002
  C       5.907985      0.379989      1.087484
  C       5.243160     -0.785769      0.420822
  C       3.176291     -2.902911     -4.391179
  C       5.248449     -3.113619     -0.253892
  C       3.402403     -1.703759     -0.850703
  C       5.322629     -4.066752     -4.990374
  C       5.944774     -0.624890      3.373651
  C       4.061938      0.796309      2.719063
  C       6.274742      1.774798      3.065662
  C       5.857713     -2.042751      0.388945
  C       4.012975     -0.626535     -0.218878
  C       2.025169     -4.894142      0.430211
  C       2.927362     -1.531868     -4.285898
  C       2.209982     -3.706078     -5.009288
  C       1.745989     -0.974750     -4.774501
  C       1.033480     -3.153108     -5.506405
  C       0.793929     -1.784360     -5.387969
  H       2.392432     -3.748091     -2.005131
  H       3.683168     -5.436806     -3.274181
  H       5.160331     -4.968277     -2.435303
  H       5.022193     -2.690100     -3.371876
  H       3.957019     -5.646528     -0.198920
  H       2.621357     -6.106556     -1.250620
  H       6.996683      0.274761      1.074906
  H       5.630317      1.320334      0.601826
  H       5.751380     -4.077420     -0.273649
  H       2.451650     -1.561864     -1.354783
  H       6.271722     -4.449847     -4.598398
  H       5.546384     -3.296607     -5.736390
  H       4.808667     -4.891482     -5.497620
  H       5.714105     -0.420627      4.421181
  H       7.017354     -0.784596      3.246704
  H       5.385756     -1.497198      3.032837
  H       3.861620      1.020247      3.769048
  H       3.531496     -0.109483      2.424706
  H       3.769686      1.638312      2.087720
  H       6.028367      1.918224      4.119397
  H       5.962687      2.643651      2.482660
  H       7.346537      1.603491      2.948379
  H       6.826405     -2.178042      0.864344
  H       3.531404      0.347923     -0.229277
  H       1.083583     -4.554358     -0.018073
  H       2.406965     -4.082751      1.060887
  H       1.798680     -5.745264      1.081189
  H       3.666497     -0.893578     -3.806526
  H       2.378129     -4.776419     -5.104870
  H       1.570760      0.093343     -4.673525
  H       0.297477     -3.793989     -5.984377
  H      -0.128923     -1.354689     -5.768326
  F      -0.113781     -1.998453      0.443080
  F      -2.193593     -1.320728      0.204326
  F       0.522886      0.208136     -1.423788
  F      -1.516020      0.898478     -0.962206
  F      -1.566932     -1.267836     -2.670940
  F       0.198419     -2.447893     -2.101391
  F      -0.837930      0.480528      1.810596
  F       1.232488      0.191519      1.126646
  F      -1.691328     -4.040705     -0.508613
  F      -3.238320     -3.021878     -1.697305
  F       0.868864      2.626412      1.986041
  F      -0.958440      2.913083      0.809062
  F      -2.619441     -5.347587     -2.784107
  F      -0.483643     -4.946652     -2.751821
  F      -1.800273     -3.747340     -4.014944
  O       0.507295      3.313431     -1.368663
  O       2.377228      2.705266     -0.245738
  C      -0.965672     -1.327163     -0.363499
  C      -0.479003      0.159865     -0.509772
  C      -1.050623     -2.091726     -1.731048
  C       0.050334      0.777938      0.823270
  C      -1.938118     -3.381845     -1.663835
  C       0.269082      2.322239      0.792522
  C      -1.692952     -4.382020     -2.840686
  C       1.145136      2.841937     -0.405368
80
Coordinates from ORCA-job R4N+PFOA-_altA_r2 E -2865.069211945158
  N       5.537166      0.568167      2.563714
  C       3.347489     -4.115529     -1.606799
  C       4.194565     -4.589711     -2.797690
  C       4.461454     -3.503438     -3.853971
  C       4.007100     -2.961196     -0.883851
  C       3.025737     -5.278190     -0.653788
  C       5.908425      0.380135      1.086791
  C       5.243597     -0.785710      0.420367
  C       3.177095     -2.903742     -4.391612
  C       5.248374     -3.113563     -0.254344
  C       3.402296     -1.703483     -0.850529
  C       5.323386     -4.068336     -4.989657
  C       5.946696     -0.624391      3.372953
  C       4.062916      0.794855      2.718861
  C       6.274592      1.775648      3.064686
  C       5.858010     -2.042768      0.388318
  C       4.013177     -0.626414     -0.218804
  C       2.023119     -4.892550      0.429780
  C       2.928250     -1.532673     -4.286498
  C       2.210881     -3.706908     -5.009872
  C       1.746994     -0.975538     -4.775330
  C       1.034500     -3.153912     -5.507241
  C       0.794938     -1.785158     -5.388826
  H       2.392162     -3.747474     -2.005762
  H       3.682518     -5.437180     -3.273677
  H       5.159654     -4.969168     -2.434455
  H       5.022715     -2.691051     -3.371734
  H       3.955128     -5.646203     -0.198077
  H       2.619476     -6.105928     -1.250339
  H       6.997030      0.275225      1.073892
  H       5.630334      1.320276      0.601239
  H       5.751182     -4.077466     -0.274155
  H       2.451128     -1.561328     -1.353733
  H       6.272205     -4.451579     -4.597174
  H       5.547666     -3.298500     -5.735824
  H       4.809382     -4.893070     -5.496841
  H       5.716271     -0.419953      4.420533
  H       7.019566     -0.783794      3.245571
  H       5.387713     -1.497287      3.032658
  H       3.862638      1.018938      3.768834
  H       3.533541     -0.111545      2.424957
  H       3.769359      1.635903      2.087494
  H       6.028406      1.919019      4.118457
  H       5.961629      2.644156      2.481723
  H       7.346483      1.605267      2.947124
  H       6.826859     -2.178232      0.863455
  H       3.531511      0.347958     -0.228306
  H       1.081416     -4.553485     -0.019141
  H       2.404587     -4.080303      1.059771
  H       1.796619     -5.743220      1.081479
  H       3.667340     -0.894352     -3.807065
  H       2.378964     -4.777276     -5.105346
  H       1.571835      0.092584     -4.674498
  H       0.298475     -3.794803     -5.985216
  H      -0.127832     -1.355509     -5.769446
  F      -0.113672     -1.998444      0.442538
  F      -2.193443     -1.321384      0.204545
  F       0.521628      0.209491     -1.423500
  F      -1.517403      0.898548     -0.960559
  F      -1.568004     -1.266815     -2.670582
  F       0.198229     -2.446408     -2.102566
  F      -0.837721      0.478415      1.812073
  F       1.232841      0.192104      1.126519
  F      -1.690362     -4.040658     -0.509305
  F      -3.238084     -3.022350     -1.697482
  F       0.866489      2.625685      1.988711
  F      -0.961230      2.912169      0.811608
  F      -2.618389     -5.346876     -2.785746
  F      -0.482659     -4.945851     -2.752143
  F      -1.798631     -3.746070     -4.015410
  O       0.505738      3.313731     -1.366489
  O       2.375313      2.708676     -0.242161
  C      -0.965728     -1.327073     -0.363447
  C      -0.479810      0.160227     -0.508992
  C      -1.050847     -2.090931     -1.731346
  C       0.049768      0.777635      0.824326
  C      -1.937659     -3.381584     -1.664287
  C       0.267096      2.322186      0.794726
  C      -1.691927     -4.381246     -2.841406
  C       1.143321      2.843336     -0.402654
80
Coordinates from ORCA-job R4N+PFOA-_altA_r2 E -2865.069223505152
  N       5.540322      0.567426      2.562328
  C       3.345819     -4.114800     -1.606677
  C       4.193015     -4.590786     -2.796926
  C       4.461856     -3.505324     -3.853494
  C       4.007055     -2.961290     -0.883932
  C       3.021756     -5.276621     -0.653527
  C       5.913362      0.377741      1.086037
  C       5.247509     -0.787775      0.419935
  C       3.178307     -2.905187     -4.392476
  C       5.248598     -3.115489     -0.254967
  C       3.403815     -1.702867     -0.849769
  C       5.324507     -4.071458     -4.988036
  C       5.951700     -0.622945      3.373674
  C       4.065816      0.790923      2.715799
  C       6.274432      1.777248      3.061766
  C       5.860206     -2.045719      0.387672
  C       4.016807     -0.626861     -0.218310
  C       2.018086     -4.889498      0.428663
  C       2.929415     -1.534174     -4.286901
  C       2.212712     -3.708019     -5.012130
  C       1.748639     -0.976784     -4.776476
  C       1.036879     -3.154693     -5.510436
  C       0.797084     -1.786040     -5.391188
  H       2.391508     -3.745466     -2.006971
  H       3.679933     -5.437688     -3.272792
  H       5.157404     -4.971420     -2.433075
  H       5.023222     -2.693047     -3.371200
  H       3.950322     -5.645257     -0.196453
  H       2.615336     -6.104343     -1.250061
  H       7.001936      0.271579      1.074325
  H       5.637058      1.317581      0.598725
  H       5.750064     -4.080219     -0.274870
  H       2.451393     -1.558683     -1.350174
  H       6.272833     -4.454848     -4.594555
  H       5.549748     -3.302240     -5.734557
  H       4.810516     -4.896304     -5.495041
  H       5.718888     -0.417747      4.420736
  H       7.025303     -0.779806      3.248039
  H       5.395428     -1.497725      3.033883
  H       3.863895      1.018282      3.764784
  H       3.539118     -0.117562      2.424812
  H       3.770666      1.628336      2.081175
  H       6.027992      1.921204      4.115424
  H       5.959005      2.644073      2.477973
  H       7.346571      1.609543      2.943997
  H       6.829116     -2.182917      0.862577
  H       3.535876      0.347821     -0.225405
  H       1.076159     -4.553051     -0.021617
  H       2.398046     -4.075128      1.056696
  H       1.792302     -5.738794      1.082290
  H       3.668120     -0.896091     -3.806517
  H       2.380859     -4.778333     -5.108156
  H       1.573484      0.091329     -4.675417
  H       0.301284     -3.795242     -5.989597
  H      -0.125197     -1.356357     -5.772896
  F      -0.110750     -1.997114      0.440978
  F      -2.192414     -1.324563      0.206559
  F       0.517014      0.214285     -1.423267
  F      -1.522973      0.898119     -0.957126
  F      -1.570502     -1.264849     -2.669352
  F       0.198278     -2.442536     -2.105152
  F      -0.838687      0.474482      1.814764
  F       1.231981      0.196723      1.125553
  F      -1.687493     -4.040081     -0.510044
  F      -3.236437     -3.023973     -1.697969
  F       0.856036      2.627452      1.994221
  F      -0.971880      2.909875      0.816015
  F      -2.614652     -5.345704     -2.788817
  F      -0.479077     -4.944976     -2.750651
  F      -1.792169     -3.744345     -4.015726
  O       0.496598      3.317843     -1.361312
  O       2.366616      2.717823     -0.235033
  C      -0.965371     -1.326769     -0.363100
  C      -0.483126      0.161802     -0.507528
  C      -1.050899     -2.089184     -1.731678
  C       0.046355      0.778632      0.826247
  C      -1.935637     -3.381246     -1.664800
  C       0.258520      2.323878      0.799246
  C      -1.688032     -4.380199     -2.841981
  C       1.134388      2.848866     -0.396731
80
Coordinates from ORCA-job R4N+PFOA-_altA_r2 E -2865.069231478555
  N       5.543639      0.565575      2.560535
  C       3.345725     -4.114425     -1.606200
  C       4.192544     -4.592321     -2.796221
  C       4.462958     -3.507854     -3.853497
  C       4.008457     -2.961212     -0.884453
  C       3.020900     -5.275394     -0.652438
  C       5.919502      0.375248      1.085432
  C       5.252839     -0.789549      0.418753
  C       3.179902     -2.907315     -4.393220
  C       5.250811     -3.116379     -0.257905
  C       3.406509     -1.702377     -0.848763
  C       5.326013     -4.075602     -4.987079
  C       5.954725     -0.624384      3.372336
  C       4.068686      0.788339      2.710392
  C       6.276567      1.776175      3.061149
  C       5.864401     -2.047569      0.384411
  C       4.021536     -0.627447     -0.217612
  C       2.017262     -4.887409      0.429400
  C       2.930295     -1.536600     -4.285836
  C       2.215032     -3.709721     -5.014453
  C       1.749236     -0.979169     -4.774532
  C       1.038963     -3.156305     -5.512104
  C       0.798108     -1.788075     -5.390246
  H       2.391755     -3.744706     -2.006880
  H       3.678225     -5.438785     -3.271555
  H       5.156419     -4.974104     -2.432152
  H       5.024671     -2.695624     -3.371530
  H       3.949044     -5.644161     -0.195019
  H       2.614290     -6.103169     -1.248428
  H       7.007554      0.267619      1.075864
  H       5.645841      1.314261      0.596042
  H       5.751392     -4.081263     -0.279235
  H       2.452977     -1.555802     -1.346268
  H       6.274047     -4.458962     -4.592729
  H       5.551905     -3.307210     -5.734394
  H       4.811976     -4.900837     -5.493390
  H       5.719419     -0.419829      4.418667
  H       7.028542     -0.779111      3.249164
  H       5.400434     -1.499826      3.030708
  H       3.864381      1.017307      3.758485
  H       3.542667     -0.121249      2.419518
  H       3.774990      1.624790      2.073041
  H       6.028010      1.919857      4.114330
  H       5.961621      2.643216      2.476420
  H       7.349509      1.608893      2.945609
  H       6.833665     -2.185902      0.857454
  H       3.541031      0.347206     -0.221212
  H       1.075020     -4.552179     -0.021290
  H       2.396925     -4.071905      1.056116
  H       1.791995     -5.736159      1.084245
  H       3.668557     -0.898814     -3.804419
  H       2.383784     -4.779784     -5.112184
  H       1.573345      0.088603     -4.671642
  H       0.303815     -3.796588     -5.992375
  H      -0.124650     -1.358793     -5.771162
  F      -0.111810     -1.993195      0.440510
  F      -2.194907     -1.325602      0.206521
  F       0.510621      0.220277     -1.422498
  F      -1.530981      0.899288     -0.955951
  F      -1.571935     -1.262470     -2.669611
  F       0.197946     -2.438143     -2.105475
  F      -0.844900      0.473615      1.816424
  F       1.226497      0.204157      1.125659
  F      -1.686397     -4.038313     -0.510876
  F      -3.236068     -3.024119     -1.700116
  F       0.838720      2.632507      2.000131
  F      -0.986813      2.910617      0.816982
  F      -2.611356     -5.343140     -2.793236
  F      -0.475465     -4.943760     -2.748292
  F      -1.783966     -3.741675     -4.017161
  O       0.488919      3.323183     -1.356448
  O       2.355497      2.724660     -0.224128
  C      -0.967920     -1.324518     -0.363166
  C      -0.489320      0.165191     -0.506623
  C      -1.051714     -2.086424     -1.732258
  C       0.038562      0.782225      0.827852
  C      -1.934569     -3.379702     -1.666034
  C       0.245404      2.328072      0.803075
  C      -1.684044     -4.378154     -2.843169
  C       1.123805      2.854929     -0.389736
80
Coordinates from ORCA-job R4N+PFOA-_altA_r2 E -2865.069233655789
  N       5.544235      0.564660      2.560712
  C       3.345392     -4.115393     -1.605773
  C       4.191084     -4.590742     -2.797585
  C       4.460575     -3.504233     -3.852936
  C       4.009016     -2.963529     -0.882654
  C       3.021779     -5.278235     -0.653938
  C       5.924980      0.370263      1.087185
  C       5.256629     -0.793871      0.420774
  C       3.177158     -2.903774     -4.391907
  C       5.250730     -3.121072     -0.254787
  C       3.408974     -1.703602     -0.847412
  C       5.324157     -4.069245     -4.987393
  C       5.955302     -0.622583      3.377793
  C       4.067996      0.785637      2.706760
  C       6.273261      1.778167      3.058872
  C       5.865804     -2.053343      0.388025
  C       4.025823     -0.629525     -0.216541
  C       2.021841     -4.891179      0.431779
  C       2.926495     -1.533350     -4.282637
  C       2.213225     -3.705934     -5.014885
  C       1.745244     -0.976028     -4.771098
  C       1.036980     -3.152667     -5.512235
  C       0.795047     -1.784772     -5.388461
  H       2.390941     -3.745007     -2.004671
  H       3.676528     -5.436302     -3.274154
  H       5.155303     -4.972997     -2.434950
  H       5.021625     -2.692414     -3.369544
  H       3.950874     -5.649410     -0.199865
  H       2.612227     -6.104191     -1.250866
  H       7.013440      0.258814      1.081560
  H       5.656356      1.309407      0.593554
  H       5.749582     -4.087088     -0.275379
  H       2.455515     -1.555184     -1.344776
  H       6.272661     -4.452085     -4.593712
  H       5.549092     -3.299484     -5.733476
  H       4.811002     -4.894256     -5.494936
  H       5.714138     -0.416743      4.422909
  H       7.030435     -0.774355      3.259666
  H       5.405362     -1.500132      3.035837
  H       3.861013      1.020905      3.753008
  H       3.544675     -0.126741      2.421104
  H       3.773678      1.617503      2.063314
  H       6.025304      1.922713      4.112077
  H       5.954536      2.642563      2.473476
  H       7.345983      1.614652      2.942046
  H       6.834383     -2.193712      0.862626
  H       3.546976      0.346277     -0.220982
  H       1.078896     -4.552249     -0.015339
  H       2.405328     -4.078323      1.060047
  H       1.796552     -5.741466      1.084685
  H       3.664088     -0.895751     -3.799991
  H       2.382874     -4.775712     -5.114243
  H       1.568435      0.091500     -4.666706
  H       0.302765     -3.792825     -5.994011
  H      -0.127945     -1.355698     -5.768942
  F      -0.110449     -1.991817      0.439727
  F      -2.193947     -1.325161      0.205699
  F       0.511739      0.219453     -1.424007
  F      -1.530130      0.898366     -0.960479
  F      -1.570615     -1.264361     -2.671504
  F       0.198949     -2.439975     -2.105103
  F      -0.847291      0.478523      1.812321
  F       1.224289      0.207236      1.125481
  F      -1.687274     -4.037344     -0.509525
  F      -3.235599     -3.024214     -1.700925
  F       0.836329      2.637559      1.994893
  F      -0.986943      2.912502      0.807906
  F      -2.612000     -5.345747     -2.788585
  F      -0.475890     -4.946401     -2.744916
  F      -1.784571     -3.746965     -4.016062
  O       0.492146      3.322210     -1.362637
  O       2.356814      2.720175     -0.228060
  C      -0.967161     -1.324245     -0.364350
  C      -0.488910      0.165285     -0.509147
  C      -1.050894     -2.087534     -1.732883
  C       0.037424      0.784697      0.824871
  C      -1.934478     -3.380309     -1.665533
  C       0.244857      2.330211      0.797448
  C      -1.684437     -4.380929     -2.840736
  C       1.125272      2.853655     -0.394888
80
Coordinates from ORCA-job R4N+PFOA-_altA_r2 E -2865.069236202206
  N       5.544990      0.565615      2.560984
  C       3.345779     -4.114613     -1.605427
  C       4.191275     -4.590592     -2.797043
  C       4.460650     -3.504676     -3.853060
  C       4.009311     -2.962402     -0.882794
  C       3.022518     -5.276824     -0.652733
  C       5.925186      0.371096      1.087496
  C       5.256373     -0.792514      0.420751
  C       3.177159     -2.904436     -4.392106
  C       5.250960     -3.119577     -0.255148
  C       3.408918     -1.702711     -0.847330
  C       5.323984     -4.070319     -4.987381
  C       5.952407     -0.623439      3.376940
  C       4.069304      0.790666      2.706758
  C       6.277813      1.776625      3.060635
  C       5.865748     -2.051735      0.387609
  C       4.025395     -0.628514     -0.216276
  C       2.022029     -4.889856      0.432316
  C       2.926277     -1.534048     -4.282955
  C       2.213310     -3.706827     -5.014995
  C       1.744852     -0.976981     -4.771406
  C       1.036957     -3.153786     -5.512420
  C       0.794815     -1.785906     -5.388831
  H       2.391166     -3.744421     -2.003986
  H       3.676763     -5.436487     -3.273138
  H       5.155515     -4.972630     -2.434244
  H       5.021821     -2.692638     -3.370128
  H       3.951512     -5.646810     -0.198186
  H       2.614017     -6.103385     -1.249107
  H       7.013171      0.258968      1.081682
  H       5.657112      1.310475      0.594779
  H       5.749931     -4.085444     -0.275879
  H       2.455883     -1.554928     -1.345579
  H       6.272495     -4.453058     -4.593625
  H       5.548895     -3.300930     -5.733877
  H       4.810709     -4.895588     -5.494449
  H       5.712020     -0.417471      4.422016
  H       7.027029     -0.778366      3.258874
  H       5.399864     -1.499333      3.034086
  H       3.863031      1.024714      3.753331
  H       3.543283     -0.119859      2.419044
  H       3.777628      1.624667      2.064868
  H       6.029558      1.921212      4.113697
  H       5.962574      2.642929      2.475611
  H       7.350403      1.609528      2.944807
  H       6.834321     -2.191726      0.862066
  H       3.546388      0.347094     -0.220850
  H       1.079353     -4.552296     -0.015111
  H       2.404399     -4.076473      1.059826
  H       1.797454     -5.739347      1.085987
  H       3.663801     -0.896287     -3.800383
  H       2.383176     -4.776585     -5.114187
  H       1.567789      0.090488     -4.666946
  H       0.302807     -3.794124     -5.994071
  H      -0.128397     -1.356922     -5.768975
  F      -0.110048     -1.993892      0.439262
  F      -2.194356     -1.327481      0.206260
  F       0.511559      0.218217     -1.423350
  F      -1.530511      0.897456     -0.959306
  F      -1.570056     -1.264106     -2.671514
  F       0.198668     -2.440719     -2.105218
  F      -0.846970      0.475781      1.813461
  F       1.224708      0.204854      1.125498
  F      -1.688849     -4.038620     -0.511949
  F      -3.236183     -3.023259     -1.702526
  F       0.836811      2.635345      1.995176
  F      -0.986808      2.910767      0.810057
  F      -2.613570     -5.344652     -2.791828
  F      -0.477517     -4.945716     -2.748811
  F      -1.786695     -3.745099     -4.018247
  O       0.488598      3.321850     -1.361411
  O       2.355059      2.719410     -0.229458
  C      -0.967496     -1.325843     -0.364201
  C      -0.489246      0.163840     -0.508530
  C      -1.051090     -2.088132     -1.733251
  C       0.037415      0.782624      0.825647
  C      -1.935421     -3.380341     -1.667312
  C       0.244632      2.328407      0.798413
  C      -1.685968     -4.379992     -2.843530
  C       1.123428      2.852819     -0.394843
80
Coordinates from ORCA-job R4N+PFOA-_altA_r2 E -2865.069237034290
  N       5.544209      0.565694      2.561282
  C       3.346063     -4.114697     -1.605525
  C       4.191483     -4.590295     -2.797304
  C       4.460609     -3.504290     -3.853342
  C       4.009445     -2.962431     -0.882732
  C       3.022992     -5.277285     -0.653026
  C       5.924604      0.371362      1.087834
  C       5.256141     -0.792197      0.420729
  C       3.177008     -2.904091     -4.392168
  C       5.251009     -3.119322     -0.255042
  C       3.408990     -1.702751     -0.847581
  C       5.323729     -4.069882     -4.987835
  C       5.951518     -0.623204      3.376926
  C       4.068610      0.790935      2.707065
  C       6.277121      1.776417      3.061470
  C       5.865577     -2.051315      0.387678
  C       4.025280     -0.628396     -0.216639
  C       2.022787     -4.890377      0.432307
  C       2.926222     -1.533675     -4.283131
  C       2.212951     -3.706532     -5.014686
  C       1.744651     -0.976617     -4.771249
  C       1.036393     -3.153516     -5.511674
  C       0.794339     -1.785608     -5.388159
  H       2.391167     -3.744621     -2.003609
  H       3.677169     -5.436307     -3.273448
  H       5.155827     -4.972156     -2.434593
  H       5.021836     -2.692261     -3.370442
  H       3.952144     -5.647662     -0.198877
  H       2.614083     -6.103672     -1.249548
  H       7.012464      0.259541      1.082471
  H       5.656375      1.310661      0.595420
  H       5.750096     -4.085030     -0.275778
  H       2.456159     -1.555303     -1.346291
  H       6.272254     -4.452743     -4.594238
  H       5.548626     -3.300451     -5.734304
  H       4.810366     -4.895060     -5.494965
  H       5.711384     -0.417236      4.421982
  H       7.025764     -0.778052      3.258744
  H       5.399168     -1.498952      3.033886
  H       3.862526      1.023403      3.754011
  H       3.542246     -0.118957      2.417649
  H       3.777337      1.626318      2.066573
  H       6.027775      1.921047      4.114420
  H       5.962866      2.643066      2.475853
  H       7.350070      1.608661      2.946756
  H       6.834078     -2.190999      0.862079
  H       3.546256      0.347169     -0.221765
  H       1.080037     -4.551707     -0.015008
  H       2.405992     -4.077523      1.060597
  H       1.797558     -5.740556      1.085369
  H       3.663938     -0.895895     -3.800896
  H       2.382782     -4.776310     -5.113773
  H       1.567654      0.090871     -4.666786
  H       0.302028     -3.793930     -5.992886
  H      -0.129140     -1.356628     -5.767698
  F      -0.111322     -1.993885      0.439717
  F      -2.194630     -1.326369      0.205646
  F       0.512333      0.217420     -1.423244
  F      -1.529380      0.897668     -0.959869
  F      -1.570083     -1.264511     -2.671489
  F       0.198443     -2.441053     -2.104610
  F      -0.846689      0.476773      1.813194
  F       1.225010      0.204154      1.125561
  F      -1.688100     -4.039268     -0.511371
  F      -3.236706     -3.023848     -1.701155
  F       0.838842      2.634974      1.994169
  F      -0.984670      2.911938      0.809011
  F      -2.613772     -5.345321     -2.790902
  F      -0.477685     -4.945683     -2.749293
  F      -1.788149     -3.745541     -4.018067
  O       0.490699      3.320039     -1.363118
  O       2.357012      2.717711     -0.230861
  C      -0.967801     -1.325715     -0.364213
  C      -0.488703      0.163630     -0.508727
  C      -1.051322     -2.088362     -1.733035
  C       0.038017      0.782525      0.825293
  C      -1.935596     -3.380727     -1.666771
  C       0.246335      2.328326      0.797476
  C      -1.686475     -4.380317     -2.843263
  C       1.125346      2.851518     -0.396160
80
Coordinates from ORCA-job R4N+PFOA-_altA_r2 E -2865.069237995641
  N       5.543869      0.565397      2.561230
  C       3.346240     -4.114629     -1.605416
  C       4.191449     -4.589964     -2.797411
  C       4.460410     -3.503861     -3.853376
  C       4.009693     -2.962405     -0.882672
  C       3.023604     -5.277305     -0.652913
  C       5.925221      0.370960      1.088054
  C       5.256775     -0.792312      0.420546
  C       3.176736     -2.903737     -4.392091
  C       5.251254     -3.119423     -0.255100
  C       3.409421     -1.702619     -0.847593
  C       5.323502     -4.069292     -4.987944
  C       5.950874     -0.623563      3.377194
  C       4.068084      0.790253      2.706266
  C       6.276216      1.776363      3.061830
  C       5.865964     -2.051501      0.387602
  C       4.025987     -0.628285     -0.216910
  C       2.023483     -4.890699      0.432571
  C       2.925813     -1.533334     -4.282996
  C       2.212697     -3.706286     -5.014513
  C       1.744067     -0.976407     -4.770868
  C       1.035959     -3.153410     -5.511226
  C       0.793723     -1.785532     -5.387583
  H       2.391147     -3.744692     -2.003098
  H       3.677147     -5.435960     -3.273595
  H       5.155855     -4.971792     -2.434836
  H       5.021596     -2.691835     -3.370421
  H       3.952849     -5.647417     -0.198922
  H       2.614884     -6.103724     -1.249400
  H       7.013072      0.258566      1.083731
  H       5.657901      1.310350      0.595222
  H       5.750175     -4.085187     -0.275837
  H       2.456532     -1.555096     -1.346084
  H       6.272072     -4.452119     -4.594431
  H       5.548306     -3.299784     -5.734343
  H       4.810181     -4.894454     -5.495138
  H       5.709821     -0.417774      4.422027
  H       7.025383     -0.778309      3.259999
  H       5.398899     -1.499520      3.033585
  H       3.861532      1.022556      3.753159
  H       3.542080     -0.119760      2.416473
  H       3.776636      1.625675      2.065846
  H       6.027052      1.920551      4.114745
  H       5.961396      2.642893      2.476713
  H       7.349047      1.609409      2.946952
  H       6.834385     -2.191291      0.862077
  H       3.547203      0.347442     -0.222176
  H       1.080644     -4.552512     -0.014562
  H       2.406438     -4.077729      1.060646
  H       1.798740     -5.740745      1.085814
  H       3.663531     -0.895478     -3.800868
  H       2.382672     -4.776044     -5.113664
  H       1.566898      0.091057     -4.666269
  H       0.301609     -3.793934     -5.992297
  H      -0.130038     -1.356698     -5.766619
  F      -0.110530     -1.993691      0.439501
  F      -2.194131     -1.326685      0.206164
  F       0.512286      0.217382     -1.423476
  F      -1.529625      0.897438     -0.960177
  F      -1.570192     -1.264569     -2.671426
  F       0.198457     -2.441095     -2.104750
  F      -0.846880      0.477990      1.812729
  F       1.224793      0.204646      1.125468
  F      -1.687940     -4.039213     -0.511274
  F      -3.236642     -3.023744     -1.700831
  F       0.839099      2.635539      1.993485
  F      -0.984216      2.912871      0.807585
  F      -2.613909     -5.345740     -2.789909
  F      -0.477846     -4.945426     -2.749485
  F      -1.789321     -3.745999     -4.017905
  O       0.492379      3.318510     -1.364783
  O       2.357916      2.717936     -0.230767
  C      -0.967514     -1.325735     -0.364146
  C      -0.488720      0.163714     -0.508952
  C      -1.051286     -2.088406     -1.732996
  C       0.037986      0.783110      0.824856
  C      -1.935612     -3.380723     -1.666629
  C       0.246765      2.328819      0.796579
  C      -1.686858     -4.380452     -2.843006
  C       1.126427      2.851196     -0.396937
80
Coordinates from ORCA-job R4N+PFOA-_altA_r2 E -2865.069239181472
  N       5.544206      0.565295      2.561010
  C       3.345927     -4.114386     -1.605197
  C       4.190648     -4.589306     -2.797647
  C       4.459616     -3.502905     -3.853283
  C       4.009966     -2.962666     -0.882148
  C       3.023353     -5.277408     -0.653044
  C       5.927684      0.369259      1.088636
  C       5.258627     -0.793431      0.420852
  C       3.175920     -2.902788     -4.391908
  C       5.251299     -3.120686     -0.254263
  C       3.410497     -1.702414     -0.847141
  C       5.322812     -4.067971     -4.987905
  C       5.949886     -0.623036      3.378641
  C       4.068206      0.790256      2.704331
  C       6.275810      1.776721      3.061442
  C       5.866665     -2.053218      0.388596
  C       4.028052     -0.628405     -0.216883
  C       2.023662     -4.890835      0.432883
  C       2.924633     -1.532508     -4.282210
  C       2.212152     -3.705318     -5.014803
  C       1.742742     -0.975698     -4.769867
  C       1.035267     -3.152555     -5.511263
  C       0.792639     -1.784814     -5.386973
  H       2.390683     -3.744056     -2.002178
  H       3.676091     -5.435006     -3.274068
  H       5.155067     -4.971436     -2.435408
  H       5.020708     -2.690992     -3.370037
  H       3.952686     -5.647926     -0.199480
  H       2.614210     -6.103533     -1.249705
  H       7.015332      0.255057      1.086383
  H       5.662783      1.308684      0.594526
  H       5.749413     -4.086957     -0.274671
  H       2.457483     -1.554518     -1.345305
  H       6.271425     -4.450744     -4.594457
  H       5.547533     -3.298284     -5.734114
  H       4.809637     -4.893070     -5.495335
  H       5.706383     -0.416679      4.422837
  H       7.024795     -0.777723      3.263975
  H       5.399014     -1.499472      3.034350
  H       3.860533      1.023312      3.750892
  H       3.542625     -0.119850      2.414598
  H       3.777267      1.625291      2.063313
  H       6.026294      1.921208      4.114217
  H       5.960751      2.642832      2.476064
  H       7.348645      1.610298      2.946823
  H       6.834775     -2.193834      0.863754
  H       3.550234      0.347859     -0.222544
  H       1.080687     -4.552734     -0.013899
  H       2.406815     -4.077878      1.060835
  H       1.799259     -5.740807      1.086228
  H       3.662172     -0.894686     -3.799764
  H       2.382475     -4.774961     -5.114460
  H       1.565217      0.091646     -4.664700
  H       0.301141     -3.793070     -5.992684
  H      -0.131428     -1.356112     -5.765387
  F      -0.108329     -1.994053      0.438845
  F      -2.192729     -1.328579      0.207435
  F       0.512050      0.217371     -1.423587
  F      -1.530470      0.896160     -0.960167
  F      -1.570191     -1.264957     -2.671067
  F       0.198979     -2.441087     -2.105337
  F      -0.846984      0.478739      1.812614
  F       1.224739      0.205441      1.125240
  F      -1.686886     -4.039872     -0.511633
  F      -3.235742     -3.024419     -1.700602
  F       0.838007      2.636816      1.992024
  F      -0.984751      2.913102      0.805048
  F      -2.612807     -5.346887     -2.789204
  F      -0.477023     -4.945110     -2.750551
  F      -1.790389     -3.746806     -4.018009
  O       0.492500      3.316392     -1.367309
  O       2.357812      2.718519     -0.231437
  C      -0.966599     -1.326564     -0.363953
  C      -0.488888      0.163246     -0.509024
  C      -1.050749     -2.088911     -1.733003
  C       0.037685      0.783446      0.824454
  C      -1.934845     -3.381332     -1.666759
  C       0.246288      2.329208      0.795137
  C      -1.686441     -4.380976     -2.843177
  C       1.126362      2.850800     -0.398401
80
Coordinates from ORCA-job R4N+PFOA-_altA_r2 E -2865.069239951859
  N       5.544178      0.565157      2.561140
  C       3.345756     -4.114039     -1.605117
  C       4.190158     -4.588893     -2.797776
  C       4.459020     -3.502483     -3.853428
  C       4.010147     -2.962543     -0.882029
  C       3.023183     -5.277127     -0.652984
  C       5.928794      0.368573      1.089120
  C       5.259458     -0.793712      0.420936
  C       3.175279     -2.902386     -4.391959
  C       5.251388     -3.120989     -0.254085
  C       3.411077     -1.702062     -0.847124
  C       5.322122     -4.067592     -4.988088
  C       5.948671     -0.623154      3.379322
  C       4.068218      0.790587      2.703590
  C       6.275849      1.776405      3.061963
  C       5.866977     -2.053730      0.388923
  C       4.029098     -0.628185     -0.217123
  C       2.023317     -4.890602      0.432808
  C       2.923989     -1.532091     -4.282282
  C       2.211484     -3.704949     -5.014784
  C       1.742048     -0.975311     -4.769846
  C       1.034559     -3.152209     -5.511166
  C       0.791926     -1.784461     -5.386907
  H       2.390446     -3.743486     -2.001756
  H       3.675434     -5.434516     -3.274158
  H       5.154608     -4.971139     -2.435743
  H       5.020144     -2.690562     -3.370228
  H       3.952465     -5.647565     -0.199315
  H       2.614188     -6.103266     -1.249668
  H       7.016326      0.253323      1.088093
  H       5.665232      1.308174      0.594651
  H       5.749179     -4.087420     -0.274452
  H       2.457992     -1.554167     -1.345183
  H       6.270757     -4.450338     -4.594686
  H       5.546786     -3.297943     -5.734346
  H       4.808937     -4.892712     -5.495480
  H       5.703907     -0.416653      4.423193
  H       7.023692     -0.778159      3.266074
  H       5.398107     -1.499577      3.034352
  H       3.860002      1.022956      3.750213
  H       3.542479     -0.119036      2.412832
  H       3.777970      1.626303      2.063277
  H       6.025951      1.920881      4.114635
  H       5.961206      2.642614      2.476549
  H       7.348697      1.609823      2.947762
  H       6.834914     -2.194631      0.864340
  H       3.551958      0.348399     -0.223314
  H       1.080362     -4.552924     -0.014161
  H       2.406137     -4.077425      1.060563
  H       1.799105     -5.740404      1.086386
  H       3.661559     -0.894235     -3.799913
  H       2.381826     -4.774603     -5.114423
  H       1.564492      0.092047     -4.664655
  H       0.300408     -3.792727     -5.992564
  H      -0.132298     -1.355776     -5.764991
  F      -0.107139     -1.994142      0.438568
  F      -2.191715     -1.329399      0.207995
  F       0.512241      0.217405     -1.423457
  F      -1.530585      0.895365     -0.960334
  F      -1.570450     -1.265427     -2.670803
  F       0.199574     -2.440700     -2.105764
  F      -0.847027      0.479384      1.812442
  F       1.224727      0.205901      1.125195
  F      -1.684809     -4.040693     -0.511347
  F      -3.234892     -3.025831     -1.699529
  F       0.837864      2.637474      1.991077
  F      -0.984814      2.913499      0.803800
  F      -2.611032     -5.348213     -2.788239
  F      -0.475560     -4.944753     -2.751466
  F      -1.791032     -3.747467     -4.017738
  O       0.492512      3.314700     -1.369149
  O       2.357873      2.719307     -0.231974
  C      -0.965890     -1.326947     -0.363853
  C      -0.488756      0.163002     -0.509032
  C      -1.050226     -2.089230     -1.732964
  C       0.037611      0.783728      0.824196
  C      -1.933715     -3.382139     -1.666387
  C       0.246248      2.329460      0.794285
  C      -1.685491     -4.381559     -2.843024
  C       1.126393      2.850545     -0.399459
80
Coordinates from ORCA-job R4N+PFOA-_altA_r2 E -2865.069240971287
  N       5.543606      0.564531      2.561364
  C       3.345468     -4.113794     -1.605103
  C       4.189455     -4.588553     -2.798085
  C       4.458231     -3.502059     -3.853689
  C       4.010212     -2.962433     -0.882085
  C       3.023071     -5.277059     -0.653047
  C       5.929207      0.368129      1.089567
  C       5.259927     -0.793831      0.420755
  C       3.174468     -2.901751     -4.391924
  C       5.251398     -3.121182     -0.254100
  C       3.411535     -1.701704     -0.847510
  C       5.321012     -4.067261     -4.988554
  C       5.946994     -0.623990      3.379543
  C       4.067743      0.790413      2.703070
  C       6.275338      1.775397      3.063002
  C       5.867058     -2.054053      0.389063
  C       4.029974     -0.627832     -0.217897
  C       2.023430     -4.890438      0.432972
  C       2.923605     -1.531352     -4.282537
  C       2.210271     -3.704194     -5.014248
  C       1.741698     -0.974365     -4.769896
  C       1.033354     -3.151267     -5.510396
  C       0.791175     -1.783413     -5.386478
  H       2.389993     -3.743122     -2.001252
  H       3.674437     -5.434009     -3.274433
  H       5.153955     -4.971021     -2.436394
  H       5.019572     -2.690248     -3.370574
  H       3.952448     -5.647744     -0.199622
  H       2.613745     -6.103102     -1.249744
  H       7.016604      0.252334      1.089481
  H       5.666434      1.307927      0.595230
  H       5.749006     -4.087713     -0.274400
  H       2.458372     -1.553900     -1.345428
  H       6.269681     -4.450149     -4.595371
  H       5.545612     -3.297643     -5.734870
  H       4.807596     -4.892274     -5.495874
  H       5.701092     -0.417722      4.423172
  H       7.022046     -0.779206      3.267553
  H       5.396804     -1.500273      3.033659
  H       3.858794      1.020869      3.749992
  H       3.541693     -0.118335      2.410227
  H       3.778424      1.627672      2.064402
  H       6.024740      1.919631      4.115587
  H       5.961332      2.641931      2.477555
  H       7.348314      1.608553      2.949452
  H       6.834787     -2.195175      0.864824
  H       3.553684      0.349174     -0.225074
  H       1.080479     -4.552410     -0.014006
  H       2.406512     -4.077349      1.060868
  H       1.798995     -5.740368      1.086418
  H       3.661488     -0.893585     -3.800532
  H       2.380264     -4.773933     -5.113617
  H       1.564491      0.093070     -4.664889
  H       0.298856     -3.791682     -5.991422
  H      -0.133141     -1.354584     -5.764163
  F      -0.105272     -1.993762      0.438608
  F      -2.190357     -1.330213      0.208911
  F       0.512682      0.217711     -1.423376
  F      -1.530866      0.894483     -0.961126
  F      -1.570484     -1.266520     -2.670186
  F       0.200667     -2.440090     -2.105854
  F      -0.847461      0.481188      1.812072
  F       1.224461      0.207082      1.125401
  F      -1.681978     -4.041291     -0.510222
  F      -3.233055     -3.027891     -1.698124
  F       0.837173      2.639434      1.989194
  F      -0.984837      2.914631      0.800640
  F      -2.607123     -5.350605     -2.786017
  F      -0.472277     -4.944047     -2.751488
  F      -1.790879     -3.748776     -4.016519
  O       0.493909      3.312061     -1.372459
  O       2.358572      2.720242     -0.232399
  C      -0.964780     -1.327145     -0.363531
  C      -0.488583      0.163058     -0.509224
  C      -1.049195     -2.089694     -1.732491
  C       0.037333      0.784718      0.823682
  C      -1.931630     -3.383240     -1.665336
  C       0.246176      2.330345      0.792472
  C      -1.683086     -4.382613     -2.841912
  C       1.127127      2.850117     -0.401234
80
Coordinates from ORCA-job R4N+PFOA-_altA_r2 E -2865.069241991542
  N       5.543818      0.564111      2.561751
  C       3.345081     -4.113466     -1.604824
  C       4.188676     -4.588484     -2.798007
  C       4.457279     -3.502068     -3.853756
  C       4.010175     -2.962144     -0.882095
  C       3.022789     -5.276574     -0.652556
  C       5.929499      0.368107      1.089844
  C       5.260032     -0.793655      0.420734
  C       3.173495     -2.901639     -4.391866
  C       5.251401     -3.121045     -0.254149
  C       3.411697     -1.701312     -0.847699
  C       5.319808     -4.067470     -4.988748
  C       5.945834     -0.625149      3.379482
  C       4.068211      0.791483      2.703204
  C       6.276737      1.774000      3.064070
  C       5.867056     -2.053992      0.389130
  C       4.030312     -0.627427     -0.218261
  C       2.023273     -4.889798      0.433538
  C       2.922989     -1.531144     -4.282788
  C       2.209099     -3.703932     -5.014044
  C       1.741311     -0.973920     -4.770442
  C       1.032419     -3.150786     -5.510506
  C       0.790671     -1.782822     -5.387058
  H       2.389628     -3.742620     -2.000824
  H       3.673325     -5.433862     -3.274124
  H       5.153217     -4.971128     -2.436623
  H       5.018786     -2.690233     -3.370875
  H       3.952176     -5.647194     -0.199176
  H       2.613380     -6.102674     -1.249063
  H       7.016876      0.252021      1.089698
  H       5.666900      1.308207      0.595984
  H       5.748997     -4.087623     -0.274457
  H       2.458365     -1.553657     -1.345379
  H       6.268559     -4.450288     -4.595680
  H       5.544237     -3.297991     -5.735273
  H       4.806262     -4.892579     -5.495794
  H       5.699475     -0.419255      4.423082
  H       7.020799     -0.781026      3.268021
  H       5.395250     -1.500833      3.032831
  H       3.858932      1.020700      3.750345
  H       3.541296     -0.116291      2.409037
  H       3.780244      1.630017      2.065655
  H       6.026113      1.917991      4.116704
  H       5.963679      2.641137      2.478947
  H       7.349617      1.606133      2.950615
  H       6.834687     -2.195253      0.865130
  H       3.554658      0.349856     -0.226343
  H       1.080411     -4.551663     -0.013428
  H       2.406398     -4.076702      1.061301
  H       1.798737     -5.739601      1.087047
  H       3.660982     -0.893463     -3.800825
  H       2.378749     -4.773743     -5.113142
  H       1.564433      0.093587     -4.665685
  H       0.297766     -3.791060     -5.991501
  H      -0.133392     -1.353776     -5.765137
  F      -0.104999     -1.993414      0.438660
  F      -2.189948     -1.330216      0.208084
  F       0.513414      0.217949     -1.423221
  F      -1.530602      0.893965     -0.962411
  F      -1.570309     -1.267632     -2.670513
  F       0.201994     -2.439412     -2.106103
  F      -0.848245      0.481464      1.811521
  F       1.223973      0.207964      1.125622
  F      -1.678904     -4.042236     -0.509758
  F      -3.231347     -3.030312     -1.697356
  F       0.835556      2.640529      1.988592
  F      -0.986100      2.914652      0.799496
  F      -2.603211     -5.352702     -2.785151
  F      -0.468937     -4.943562     -2.752366
  F      -1.790072     -3.749618     -4.016087
  O       0.493106      3.311008     -1.373759
  O       2.357690      2.722063     -0.231942
  C      -0.964213     -1.327130     -0.363899
  C      -0.488392      0.163090     -0.509634
  C      -1.048130     -2.090107     -1.732654
  C       0.036741      0.785175      0.823372
  C      -1.929449     -3.384480     -1.664927
  C       0.245059      2.330775      0.791884
  C      -1.680473     -4.383580     -2.841698
  C       1.126166      2.850488     -0.401744
80
Coordinates from ORCA-job R4N+PFOA-_altA_r2 E -2865.069243033916
  N       5.543782      0.563332      2.561921
  C       3.344567     -4.113596     -1.604482
  C       4.187984     -4.588663     -2.797839
  C       4.456565     -3.502155     -3.853487
  C       4.009710     -2.962068     -0.882130
  C       3.022620     -5.276710     -0.652132
  C       5.928665      0.368605      1.089537
  C       5.259360     -0.793213      0.420278
  C       3.172885     -2.901360     -4.391501
  C       5.251076     -3.120674     -0.254414
  C       3.411277     -1.701250     -0.848142
  C       5.318862     -4.067564     -4.988716
  C       5.945615     -0.626796      3.378434
  C       4.068419      0.791374      2.703805
  C       6.277498      1.772398      3.064969
  C       5.866616     -2.053464      0.388657
  C       4.029793     -0.627158     -0.218915
  C       2.023684     -4.889926      0.434495
  C       2.923142     -1.530679     -4.283020
  C       2.208021     -3.703349     -5.013291
  C       1.741844     -0.972967     -4.771037
  C       1.031718     -3.149735     -5.510148
  C       0.790799     -1.781565     -5.387424
  H       2.389028     -3.742932     -2.000402
  H       3.672449     -5.433947     -3.273908
  H       5.152536     -4.971464     -2.436636
  H       5.018291     -2.690455     -3.370651
  H       3.952179     -5.647533     -0.199219
  H       2.612742     -6.102693     -1.248519
  H       7.016133      0.253233      1.088393
  H       5.665075      1.308982      0.596715
  H       5.748911     -4.087082     -0.274807
  H       2.457808     -1.553768     -1.345552
  H       6.267622     -4.450578     -4.595821
  H       5.543281     -3.298034     -5.735214
  H       4.805057     -4.892540     -5.495711
  H       5.699944     -0.421506      4.422310
  H       7.020447     -0.783046      3.266122
  H       5.394317     -1.501951      3.031557
  H       3.859200      1.019071      3.751248
  H       3.540949     -0.115719      2.408366
  H       3.781027      1.631015      2.067462
  H       6.027091      1.915773      4.117785
  H       5.964841      2.640144      2.480422
  H       7.350315      1.603976      2.951274
  H       6.834260     -2.194520      0.864483
  H       3.554631      0.350365     -0.227953
  H       1.080835     -4.550872     -0.011983
  H       2.407543     -4.077333      1.062539
  H       1.798751     -5.740008      1.087593
  H       3.661454     -0.893211     -3.801269
  H       2.376977     -4.773318     -5.111861
  H       1.565653      0.094701     -4.666812
  H       0.296683     -3.789799     -5.990825
  H      -0.132799     -1.352098     -5.766176
  F      -0.104820     -1.992515      0.439035
  F      -2.189986     -1.329677      0.207166
  F       0.514408      0.218144     -1.423133
  F      -1.530115      0.893957     -0.964581
  F      -1.569952     -1.268901     -2.670917
  F       0.203316     -2.438767     -2.105892
  F      -0.850170      0.482828      1.810291
  F       1.222621      0.209437      1.126546
  F      -1.676549     -4.042431     -0.508706
  F      -3.229566     -3.032342     -1.696930
  F       0.832997      2.642428      1.988040
  F      -0.987512      2.915410      0.797088
  F      -2.599261     -5.354766     -2.783620
  F      -0.465519     -4.943435     -2.751537
  F      -1.788230     -3.751032     -4.015049
  O       0.493765      3.310110     -1.375331
  O       2.357316      2.723299     -0.230571
  C      -0.963823     -1.326657     -0.364237
  C      -0.488225      0.163550     -0.510360
  C      -1.047099     -2.090374     -1.732587
  C       0.035651      0.786301      0.822897
  C      -1.927374     -3.385436     -1.664156
  C       0.243695      2.331822      0.790951
  C      -1.677597     -4.384735     -2.840617
  C       1.125868      2.850845     -0.402128
80
Coordinates from ORCA-job R4N+PFOA-_altA_r2 E -2865.069243820300
  N       5.544288      0.562959      2.561943
  C       3.344085     -4.113772     -1.603828
  C       4.187360     -4.588668     -2.797428
  C       4.455870     -3.501989     -3.852916
  C       4.009174     -2.962051     -0.881748
  C       3.022783     -5.276950     -0.651482
  C       5.928270      0.369061      1.089130
  C       5.258935     -0.792811      0.420002
  C       3.172291     -2.900981     -4.390969
  C       5.250554     -3.120506     -0.253979
  C       3.410864     -1.701205     -0.848222
  C       5.318121     -4.067192     -4.988333
  C       5.946026     -0.627877      3.377645
  C       4.069021      0.791902      2.704170
  C       6.278880      1.771339      3.065266
  C       5.866176     -2.053146      0.388726
  C       4.029330     -0.626940     -0.219200
  C       2.024549     -4.890435      0.435852
  C       2.922967     -1.530201     -4.282774
  C       2.207300     -3.702738     -5.012855
  C       1.742014     -0.972154     -4.771266
  C       1.031360     -3.148782     -5.510231
  C       0.790877     -1.780518     -5.387815
  H       2.388400     -3.743403     -1.999552
  H       3.671794     -5.433916     -3.273543
  H       5.151951     -4.971518     -2.436380
  H       5.017653     -2.690376     -3.369993
  H       3.952616     -5.647754     -0.199214
  H       2.612615     -6.102854     -1.247742
  H       7.015869      0.254386      1.086896
  H       5.663671      1.309580      0.597050
  H       5.748365     -4.086976     -0.274038
  H       2.457242     -1.553816     -1.345325
  H       6.266923     -4.450259     -4.595577
  H       5.542463     -3.297512     -5.734713
  H       4.804258     -4.892107     -5.495379
  H       5.701219     -0.422987      4.421814
  H       7.020697     -0.784481      3.264310
  H       5.393964     -1.502503      3.030872
  H       3.859902      1.019438      3.751670
  H       3.541003     -0.114893      2.408627
  H       3.782179      1.631794      2.067718
  H       6.028985      1.914331      4.118249
  H       5.966475      2.639507      2.481248
  H       7.351518      1.602315      2.951063
  H       6.833809     -2.194213      0.864670
  H       3.554443      0.350735     -0.228960
  H       1.081427     -4.551198     -0.009807
  H       2.408842     -4.078053      1.063866
  H       1.800025     -5.740663      1.088811
  H       3.661356     -0.892899     -3.800926
  H       2.375880     -4.772781     -5.111211
  H       1.566210      0.095597     -4.667277
  H       0.296227     -3.788711     -5.990920
  H      -0.132230     -1.350749     -5.767411
  F      -0.105900     -1.992211      0.439248
  F      -2.190711     -1.328932      0.205422
  F       0.515367      0.217551     -1.423326
  F      -1.529365      0.894065     -0.966538
  F      -1.569450     -1.269907     -2.671802
  F       0.203989     -2.438905     -2.105817
  F      -0.851608      0.482870      1.809233
  F       1.221821      0.209956      1.127030
  F      -1.675523     -4.042873     -0.508905
  F      -3.228789     -3.033353     -1.697185
  F       0.830635      2.643091      1.987964
  F      -0.988820      2.915316      0.795401
  F      -2.597731     -5.355897     -2.783424
  F      -0.464155     -4.943552     -2.751952
  F      -1.787693     -3.751862     -4.015254
  O       0.494382      3.309438     -1.376051
  O       2.356942      2.724170     -0.229017
  C      -0.964057     -1.326484     -0.364967
  C      -0.488013      0.163513     -0.511240
  C      -1.046641     -2.090795     -1.732992
  C       0.034904      0.786499      0.822412
  C      -1.926515     -3.386081     -1.664356
  C       0.242526      2.332130      0.790367
  C      -1.676510     -4.385447     -2.840757
  C       1.125641      2.851020     -0.402055
80
Coordinates from ORCA-job R4N+PFOA-_altA_r2 E -2865.069244444592
  N       5.545077      0.563114      2.561345
  C       3.343388     -4.114210     -1.603233
  C       4.186895     -4.588687     -2.796863
  C       4.455707     -3.501679     -3.851881
  C       4.008279     -2.962399     -0.881094
  C       3.022294     -5.277650     -0.651165
  C       5.928085      0.369223      1.088231
  C       5.258496     -0.792784      0.419691
  C       3.172370     -2.900450     -4.390265
  C       5.249641     -3.120713     -0.253355
  C       3.410134     -1.701514     -0.847929
  C       5.318332     -4.066429     -4.987257
  C       5.947158     -0.627879      3.376743
  C       4.069918      0.792330      2.704146
  C       6.280183      1.771303      3.064313
  C       5.865531     -2.053192      0.388791
  C       4.028668     -0.627125     -0.219201
  C       2.024493     -4.891468      0.436655
  C       2.923208     -1.529653     -4.282013
  C       2.207531     -3.701984     -5.012685
  C       1.742577     -0.971352     -4.771010
  C       1.031932     -3.147749     -5.510608
  C       0.791582     -1.779474     -5.388085
  H       2.387620     -3.744089     -1.999009
  H       3.671507     -5.433827     -3.273366
  H       5.151398     -4.971620     -2.435658
  H       5.017341     -2.690250     -3.368481
  H       3.952254     -5.648682     -0.199321
  H       2.611874     -6.103320     -1.247589
  H       7.015751      0.254960      1.085080
  H       5.662811      1.309735      0.596426
  H       5.747297     -4.087219     -0.273144
  H       2.456381     -1.554170     -1.344735
  H       6.267001     -4.449710     -4.594367
  H       5.542950     -3.296405     -5.733194
  H       4.804588     -4.891110     -5.494800
  H       5.703634     -0.422724      4.421161
  H       7.021674     -0.784946      3.262028
  H       5.394184     -1.502293      3.030788
  H       3.861348      1.020434      3.751592
  H       3.541707     -0.114570      2.409166
  H       3.782926      1.631755      2.067194
  H       6.030804      1.914360      4.117402
  H       5.967795      2.639573      2.480476
  H       7.352684      1.601922      2.949628
  H       6.833220     -2.194185      0.864512
  H       3.554087      0.350727     -0.229430
  H       1.081207     -4.551788     -0.008374
  H       2.409287     -4.079518      1.064939
  H       1.800043     -5.742020      1.089280
  H       3.661497     -0.892524     -3.799787
  H       2.375984     -4.772030     -5.111122
  H       1.566911      0.096417     -4.667032
  H       0.296924     -3.787548     -5.991624
  H      -0.131115     -1.349455     -5.768405
  F      -0.106443     -1.992409      0.439146
  F      -2.191354     -1.329019      0.204591
  F       0.515781      0.216802     -1.423269
  F      -1.528952      0.894010     -0.967602
  F      -1.569477     -1.270255     -2.672373
  F       0.204088     -2.439013     -2.105994
  F      -0.853141      0.482776      1.808410
  F       1.220761      0.210053      1.127840
  F      -1.675507     -4.043246     -0.509525
  F      -3.228748     -3.033739     -1.697778
  F       0.828817      2.642960      1.988671
  F      -0.989802      2.915164      0.794747
  F      -2.597856     -5.356194     -2.783894
  F      -0.464235     -4.944068     -2.752184
  F      -1.787426     -3.752526     -4.015843
  O       0.494600      3.308960     -1.375921
  O       2.356573      2.724388     -0.227332
  C      -0.964420     -1.326679     -0.365404
  C      -0.488046      0.163236     -0.511664
  C      -1.046722     -2.091053     -1.733396
  C       0.034090      0.786385      0.822308
  C      -1.926519     -3.386420     -1.664879
  C       0.241574      2.332088      0.790484
  C      -1.676495     -4.385875     -2.841202
  C       1.125385      2.850949     -0.401413
80
Coordinates from ORCA-job R4N+PFOA-_altA_r2 E -2865.069244971552
  N       5.545817      0.563529      2.560617
  C       3.342733     -4.114584     -1.602680
  C       4.186446     -4.588530     -2.796392
  C       4.455634     -3.501183     -3.850950
  C       4.007446     -2.962771     -0.880346
  C       3.021964     -5.278369     -0.650978
  C       5.928347      0.369128      1.087449
  C       5.258456     -0.792965      0.419473
  C       3.172554     -2.899681     -4.389584
  C       5.248696     -3.121184     -0.252468
  C       3.409618     -1.701731     -0.847537
  C       5.318579     -4.065567     -4.986257
  C       5.948060     -0.627229      3.376388
  C       4.070666      0.792934      2.703634
  C       6.281062      1.771818      3.062999
  C       5.864985     -2.053585      0.389178
  C       4.028448     -0.627292     -0.219207
  C       2.024238     -4.892741      0.437081
  C       2.923455     -1.528899     -4.280982
  C       2.207913     -3.700958     -5.012667
  C       1.743038     -0.970361     -4.770202
  C       1.032560     -3.146445     -5.510871
  C       0.792197     -1.778219     -5.387846
  H       2.386816     -3.744738     -1.998341
  H       3.671210     -5.433532     -3.273330
  H       5.150860     -4.971582     -2.435062
  H       5.017173     -2.689976     -3.367063
  H       3.952028     -5.649353     -0.199367
  H       2.611714     -6.103932     -1.247631
  H       7.016035      0.254968      1.083973
  H       5.662817      1.309487      0.595488
  H       5.745962     -4.087881     -0.271809
  H       2.455768     -1.554328     -1.344114
  H       6.267082     -4.449113     -4.593252
  H       5.543523     -3.295226     -5.731767
  H       4.804933     -4.889987     -5.494324
  H       5.705505     -0.421417      4.420930
  H       7.022449     -0.784850      3.260781
  H       5.394358     -1.501555      3.031399
  H       3.862413      1.021840      3.750974
  H       3.542335     -0.114118      2.409289
  H       3.783626      1.631819      2.065930
  H       6.031730      1.915329      4.116046
  H       5.968769      2.639861      2.478841
  H       7.353471      1.602213      2.948277
  H       6.832670     -2.194699      0.864879
  H       3.554205      0.350749     -0.229870
  H       1.080695     -4.553459     -0.007601
  H       2.408859     -4.080781      1.065403
  H       1.800377     -5.743455      1.089655
  H       3.661644     -0.891977     -3.798338
  H       2.376375     -4.770975     -5.111457
  H       1.567394      0.097394     -4.665947
  H       0.297723     -3.786059     -5.992375
  H      -0.130268     -1.348000     -5.768477
  F      -0.106935     -1.993070      0.438919
  F      -2.191737     -1.329527      0.204261
  F       0.515865      0.215809     -1.423273
  F      -1.528830      0.893646     -0.967886
  F      -1.569805     -1.270491     -2.672574
  F       0.203713     -2.439403     -2.106332
  F      -0.853949      0.482340      1.808096
  F       1.220329      0.209535      1.128256
  F      -1.675661     -4.043900     -0.510386
  F      -3.229123     -3.033919     -1.697962
  F       0.827580      2.642384      1.989007
  F      -0.990103      2.914778      0.793690
  F      -2.598906     -5.356245     -2.784538
  F      -0.465106     -4.944561     -2.752950
  F      -1.788084     -3.752920     -4.016683
  O       0.495668      3.307844     -1.376096
  O       2.356943      2.723978     -0.226021
  C      -0.964809     -1.327266     -0.365651
  C      -0.488114      0.162586     -0.511834
  C      -1.047118     -2.091470     -1.733739
  C       0.033704      0.785791      0.822238
  C      -1.926973     -3.386761     -1.665491
  C       0.241249      2.331595      0.790332
  C      -1.677282     -4.386123     -2.841945
  C       1.125899      2.850315     -0.401006
80
Coordinates from ORCA-job R4N+PFOA-_altA_r2 E -2865.069245437887
  N       5.546965      0.564489      2.559685
  C       3.341879     -4.114716     -1.602183
  C       4.185898     -4.588300     -2.795802
  C       4.455699     -3.500709     -3.849937
  C       4.006514     -2.963071     -0.879476
  C       3.020959     -5.278812     -0.650876
  C       5.929195      0.368796      1.086641
  C       5.258563     -0.793281      0.419459
  C       3.172925     -2.899039     -4.389061
  C       5.247611     -3.121801     -0.251394
  C       3.409082     -1.701809     -0.846861
  C       5.319215     -4.064850     -4.984893
  C       5.948265     -0.626084      3.376192
  C       4.071978      0.795209      2.702710
  C       6.283318      1.772478      3.061317
  C       5.864369     -2.054228      0.389859
  C       4.028378     -0.627405     -0.218966
  C       2.023134     -4.893474      0.437190
  C       2.923576     -1.528339     -4.279891
  C       2.208774     -3.700154     -5.013147
  C       1.743336     -0.969730     -4.769444
  C       1.033635     -3.145538     -5.511725
  C       0.792947     -1.777419     -5.388018
  H       2.385964     -3.744906     -1.997955
  H       3.670741     -5.433088     -3.273215
  H       5.150127     -4.971590     -2.434226
  H       5.017025     -2.689675     -3.365507
  H       3.950977     -5.649988     -0.199261
  H       2.610785     -6.104203     -1.247857
  H       7.016825      0.253926      1.083209
  H       5.664181      1.309059      0.594179
  H       5.744365     -4.088770     -0.270300
  H       2.455133     -1.554307     -1.343221
  H       6.267461     -4.448590     -4.591482
  H       5.544647     -3.294295     -5.730018
  H       4.805830     -4.889078     -5.493537
  H       5.706620     -0.419243      4.420726
  H       7.022370     -0.785052      3.260145
  H       5.393380     -1.499989      3.032091
  H       3.864141      1.025122      3.749915
  H       3.542834     -0.111556      2.408936
  H       3.785647      1.633821      2.064358
  H       6.033888      1.917031      4.114157
  H       5.972089      2.640456      2.476512
  H       7.355570      1.601672      2.946946
  H       6.832021     -2.195579      0.865649
  H       3.554522      0.350832     -0.230097
  H       1.079508     -4.554314     -0.007456
  H       2.407666     -4.081571      1.065680
  H       1.799443     -5.744352      1.089659
  H       3.661445     -0.891548     -3.796583
  H       2.377519     -4.770086     -5.112453
  H       1.567435      0.097946     -4.664738
  H       0.299214     -3.784998     -5.994072
  H      -0.129386     -1.347129     -5.768880
  F      -0.106927     -1.994399      0.438206
  F      -2.191889     -1.331135      0.204473
  F       0.515230      0.214966     -1.423122
  F      -1.529375      0.892776     -0.967088
  F      -1.570646     -1.270448     -2.672602
  F       0.203077     -2.439589     -2.107239
  F      -0.854133      0.480642      1.808449
  F       1.220158      0.208249      1.128266
  F      -1.675893     -4.044934     -0.511877
  F      -3.229671     -3.034371     -1.698547
  F       0.827122      2.640499      1.990100
  F      -0.990597      2.913561      0.794768
  F      -2.599942     -5.356333     -2.785938
  F      -0.466014     -4.944826     -2.754591
  F      -1.789106     -3.753045     -4.018065
  O       0.495036      3.306884     -1.375130
  O       2.356485      2.724000     -0.224812
  C      -0.965198     -1.328418     -0.365827
  C      -0.488542      0.161538     -0.511559
  C      -1.047734     -2.091944     -1.734307
  C       0.033400      0.784431      0.822557
  C      -1.927572     -3.387259     -1.666603
  C       0.240836      2.330308      0.791178
  C      -1.678193     -4.386268     -2.843377
  C       1.125457      2.849677     -0.399969
80
Coordinates from ORCA-job R4N+PFOA-_altA_r2 E -2865.069245866633
  N       5.547646      0.565365      2.558614
  C       3.341042     -4.115025     -1.601842
  C       4.185317     -4.588366     -2.795380
  C       4.455906     -3.500546     -3.849101
  C       4.005591     -2.963479     -0.878895
  C       3.020081     -5.279373     -0.650829
  C       5.929527      0.368604      1.085679
  C       5.258460     -0.793677      0.419258
  C       3.173531     -2.898272     -4.388444
  C       5.246636     -3.122402     -0.250783
  C       3.408458     -1.702049     -0.846427
  C       5.319666     -4.064708     -4.983829
  C       5.948494     -0.624794      3.375905
  C       4.072803      0.796715      2.701844
  C       6.284481      1.773406      3.059376
  C       5.863744     -2.054823      0.390149
  C       4.028225     -0.627628     -0.219040
  C       2.021627     -4.894474      0.436830
  C       2.924347     -1.527612     -4.278442
  C       2.209534     -3.698822     -5.013492
  C       1.744363     -0.968509     -4.767991
  C       1.034676     -3.143693     -5.512115
  C       0.794096     -1.775642     -5.387462
  H       2.385093     -3.745333     -1.997679
  H       3.670034     -5.432822     -3.273253
  H       5.149312     -4.972069     -2.433613
  H       5.017346     -2.689867     -3.364211
  H       3.949979     -5.650336     -0.198851
  H       2.610487     -6.104810     -1.248090
  H       7.017075      0.253454      1.082195
  H       5.664597      1.308546      0.592673
  H       5.743066     -4.089517     -0.269469
  H       2.454467     -1.554352     -1.342651
  H       6.267591     -4.448919     -4.590142
  H       5.545712     -3.294020     -5.728631
  H       4.806226     -4.888587     -5.492975
  H       5.707893     -0.416770      4.420470
  H       7.022386     -0.784999      3.259293
  H       5.392490     -1.498474      3.032990
  H       3.865347      1.027239      3.749001
  H       3.543222     -0.109879      2.408496
  H       3.786726      1.635134      2.063187
  H       6.034635      1.919134      4.111974
  H       5.974018      2.640982      2.473581
  H       7.356677      1.601884      2.945612
  H       6.831401     -2.196299      0.865859
  H       3.554704      0.350772     -0.230714
  H       1.078056     -4.555929     -0.008287
  H       2.405423     -4.082329      1.065379
  H       1.798168     -5.745364      1.089329
  H       3.662153     -0.891260     -3.794472
  H       2.378234     -4.768690     -5.113536
  H       1.568537      0.099108     -4.662602
  H       0.300421     -3.782651     -5.995378
  H      -0.128100     -1.345001     -5.768219
  F      -0.106834     -1.995502      0.437722
  F      -2.191887     -1.332614      0.205013
  F       0.514380      0.214522     -1.422914
  F      -1.530257      0.891879     -0.966140
  F      -1.571700     -1.270632     -2.672261
  F       0.202475     -2.439608     -2.107955
  F      -0.854412      0.479700      1.808941
  F       1.219833      0.207116      1.128458
  F      -1.675640     -4.045928     -0.512518
  F      -3.230016     -3.035363     -1.698500
  F       0.826597      2.639288      1.990753
  F      -0.990516      2.912763      0.794622
  F      -2.600172     -5.356665     -2.786890
  F      -0.466191     -4.945268     -2.755242
  F      -1.789133     -3.753282     -4.018700
  O       0.495845      3.305669     -1.374615
  O       2.356926      2.722969     -0.223517
  C      -0.965507     -1.329416     -0.365735
  C      -0.489114      0.160700     -0.511110
  C      -1.048285     -2.092418     -1.734523
  C       0.033042      0.783415      0.822920
  C      -1.927803     -3.387952     -1.667052
  C       0.240757      2.329220      0.791622
  C      -1.678384     -4.386613     -2.844090
  C       1.125938      2.848576     -0.399109
80
Coordinates from ORCA-job R4N+PFOA-_altA_r2 E -2865.069246336275
  N       5.548785      0.566541      2.557775
  C       3.340195     -4.114943     -1.601464
  C       4.184627     -4.588423     -2.794840
  C       4.455983     -3.500605     -3.848395
  C       4.004845     -2.963561     -0.878333
  C       3.018911     -5.279379     -0.650599
  C       5.930390      0.368425      1.084966
  C       5.258457     -0.793861      0.419325
  C       3.173964     -2.897934     -4.388142
  C       5.245864     -3.122767     -0.250189
  C       3.408021     -1.701958     -0.845893
  C       5.320049     -4.065026     -4.982733
  C       5.947725     -0.623704      3.375795
  C       4.074281      0.800266      2.700920
  C       6.287492      1.773781      3.057854
  C       5.863258     -2.055254      0.390579
  C       4.028244     -0.627548     -0.218898
  C       2.020004     -4.894552      0.436689
  C       2.924803     -1.527293     -4.277584
  C       2.210253     -3.698125     -5.014100
  C       1.745092     -0.967876     -4.767431
  C       1.035704     -3.142682     -5.513078
  C       0.795140     -1.774652     -5.387879
  H       2.384356     -3.745134     -1.997512
  H       3.669065     -5.432554     -3.272979
  H       5.148364     -4.972591     -2.432891
  H       5.017477     -2.690123     -3.363238
  H       3.948657     -5.650392     -0.198290
  H       2.609536     -6.104801     -1.248071
  H       7.017873      0.252270      1.081552
  H       5.666208      1.308321      0.591395
  H       5.742051     -4.090016     -0.268786
  H       2.454027     -1.554010     -1.342045
  H       6.267683     -4.449483     -4.588598
  H       5.546642     -3.294431     -5.727460
  H       4.806650     -4.888774     -5.492137
  H       5.708034     -0.414477      4.420331
  H       7.021225     -0.786040      3.259067
  H       5.389987     -1.496540      3.033672
  H       3.867229      1.031358      3.748034
  H       3.543168     -0.105492      2.407705
  H       3.789654      1.639119      2.062179
  H       6.037175      1.921050      4.110119
  H       5.979014      2.641332      2.470954
  H       7.359480      1.600245      2.945047
  H       6.830903     -2.196899      0.866303
  H       3.554934      0.350934     -0.231114
  H       1.076572     -4.556151     -0.008906
  H       2.403447     -4.082289      1.065340
  H       1.796370     -5.745454      1.089160
  H       3.662415     -0.891209     -3.792955
  H       2.378988     -4.767967     -5.114597
  H       1.569248      0.099710     -4.661592
  H       0.301736     -3.781277     -5.997291
  H      -0.126882     -1.343782     -5.768806
  F      -0.106759     -1.996972      0.436838
  F      -2.192046     -1.334616      0.205282
  F       0.513069      0.214385     -1.422703
  F      -1.531563      0.890798     -0.964686
  F      -1.572771     -1.270741     -2.672267
  F       0.201855     -2.439546     -2.109095
  F      -0.854195      0.477042      1.809882
  F       1.219721      0.205253      1.128051
  F      -1.675775     -4.046918     -0.513710
  F      -3.230334     -3.036464     -1.699488
  F       0.826340      2.636754      1.992302
  F      -0.991310      2.910831      0.797048
  F      -2.599811     -5.357222     -2.788510
  F      -0.465905     -4.945320     -2.756537
  F      -1.789079     -3.753309     -4.019825
  O       0.494369      3.305301     -1.372549
  O       2.355901      2.722768     -0.222187
  C      -0.965931     -1.330669     -0.365913
  C      -0.490015      0.159670     -0.510545
  C      -1.048849     -2.092903     -1.735152
  C       0.032647      0.781615      0.823565
  C      -1.928029     -3.388677     -1.668099
  C       0.240095      2.327394      0.793219
  C      -1.678260     -4.386910     -2.845394
  C       1.124834      2.847862     -0.397435
80
Coordinates from ORCA-job R4N+PFOA-_altA_r2 E -2865.069246816264
  N       5.549628      0.567608      2.556832
  C       3.339390     -4.115068     -1.600982
  C       4.183837     -4.588772     -2.794287
  C       4.455981     -3.500935     -3.847643
  C       4.004148     -2.963748     -0.877883
  C       3.017985     -5.279501     -0.650126
  C       5.930667      0.368543      1.084031
  C       5.258154     -0.793951      0.419228
  C       3.174381     -2.897550     -4.387616
  C       5.245222     -3.123047     -0.249750
  C       3.407492     -1.702070     -0.845560
  C       5.320091     -4.065695     -4.981774
  C       5.947311     -0.622761      3.375176
  C       4.075437      0.803087      2.700228
  C       6.289904      1.774235      3.056222
  C       5.862760     -2.055499      0.390808
  C       4.028040     -0.627551     -0.219002
  C       2.018518     -4.894788      0.436708
  C       2.925690     -1.526865     -4.276498
  C       2.210641     -3.697053     -5.014392
  C       1.746431     -0.966739     -4.766620
  C       1.036555     -3.140917     -5.513692
  C       0.796508     -1.772829     -5.388015
  H       2.383632     -3.745164     -1.997133
  H       3.667825     -5.432483     -3.272665
  H       5.147299     -4.973534     -2.432246
  H       5.017757     -2.690780     -3.362275
  H       3.947617     -5.650301     -0.197421
  H       2.608971     -6.105044     -1.247675
  H       7.018078      0.251928      1.080303
  H       5.666695      1.308209      0.589960
  H       5.741404     -4.090339     -0.268284
  H       2.453547     -1.553815     -1.341717
  H       6.267450     -4.450543     -4.587352
  H       5.547215     -3.295217     -5.726459
  H       4.806494     -4.889218     -5.491339
  H       5.708692     -0.412617      4.419750
  H       7.020449     -0.786790      3.258022
  H       5.388019     -1.494899      3.033840
  H       3.868871      1.034586      3.747343
  H       3.543179     -0.102060      2.407299
  H       3.791629      1.642228      2.061540
  H       6.039373      1.922867      4.108213
  H       5.982985      2.641688      2.468349
  H       7.361724      1.599058      2.944163
  H       6.830407     -2.197219      0.866570
  H       3.554787      0.350945     -0.231767
  H       1.075239     -4.556725     -0.009463
  H       2.401416     -4.082246      1.065336
  H       1.794780     -5.745606      1.089236
  H       3.663318     -0.891299     -3.791221
  H       2.379014     -4.766908     -5.115335
  H       1.570960      0.100857     -4.660323
  H       0.302637     -3.778899     -5.998805
  H      -0.125163     -1.341431     -5.769189
  F      -0.107037     -1.998167      0.436097
  F      -2.192478     -1.336192      0.205105
  F       0.511758      0.214533     -1.422614
  F      -1.532922      0.889881     -0.963625
  F      -1.573592     -1.271102     -2.672504
  F       0.201419     -2.439577     -2.110022
  F      -0.854307      0.474808      1.810615
  F       1.219264      0.203502      1.127776
  F      -1.676078     -4.047720     -0.514448
  F      -3.230526     -3.037779     -1.700775
  F       0.825958      2.634606      1.993783
  F      -0.991876      2.909129      0.798921
  F      -2.598739     -5.357998     -2.790143
  F      -0.464980     -4.945598     -2.756960
  F      -1.787808     -3.753473     -4.020549
  O       0.493699      3.305097     -1.370480
  O       2.355258      2.721749     -0.220618
  C      -0.966441     -1.331657     -0.366210
  C      -0.491023      0.158887     -0.510152
  C      -1.049285     -2.093383     -1.735742
  C       0.032080      0.780078      0.824147
  C      -1.928059     -3.389484     -1.668928
  C       0.239511      2.325754      0.794703
  C      -1.677435     -4.387436     -2.846290
  C       1.124145      2.846912     -0.395704
80
Coordinates from ORCA-job R4N+PFOA-_altA_r2 E -2865.069247195534
  N       5.550450      0.568531      2.556253
  C       3.338866     -4.115136     -1.600366
  C       4.183121     -4.589101     -2.793739
  C       4.455714     -3.501306     -3.847022
  C       4.003846     -2.963825     -0.877456
  C       3.017462     -5.279503     -0.649426
  C       5.931182      0.368668      1.083435
  C       5.258130     -0.793880      0.419200
  C       3.174412     -2.897406     -4.387180
  C       5.245026     -3.123082     -0.249515
  C       3.407356     -1.702112     -0.845292
  C       5.319755     -4.066341     -4.981095
  C       5.946798     -0.622065      3.374926
  C       4.076520      0.805793      2.699687
  C       6.292104      1.774466      3.055148
  C       5.862689     -2.055484      0.390808
  C       4.028113     -0.627473     -0.219049
  C       2.017704     -4.894833      0.437160
  C       2.926270     -1.526619     -4.276007
  C       2.210543     -3.696408     -5.014389
  C       1.747475     -0.965899     -4.766587
  C       1.036936     -3.139684     -5.514206
  C       0.797510     -1.771474     -5.388590
  H       2.383151     -3.745070     -1.996436
  H       3.666702     -5.432524     -3.272180
  H       5.146412     -4.974311     -2.431726
  H       5.017735     -2.691353     -3.361603
  H       3.947081     -5.650104     -0.196535
  H       2.608623     -6.105167     -1.246933
  H       7.018572      0.251554      1.079522
  H       5.667630      1.308266      0.588939
  H       5.741313     -4.090299     -0.268159
  H       2.453494     -1.553593     -1.341512
  H       6.266979     -4.451418     -4.586552
  H       5.547149     -3.295986     -5.725831
  H       4.805953     -4.889757     -5.490628
  H       5.708667     -0.411195      4.419503
  H       7.019719     -0.787528      3.257645
  H       5.386281     -1.493577      3.034111
  H       3.870293      1.037696      3.746776
  H       3.543131     -0.098797      2.407027
  H       3.793591      1.645231      2.060958
  H       6.041367      1.924201      4.106965
  H       5.986586      2.641848      2.466471
  H       7.363727      1.597792      2.943735
  H       6.830367     -2.197165      0.866368
  H       3.554842      0.350999     -0.232139
  H       1.074420     -4.557121     -0.009291
  H       2.400255     -4.081989      1.065624
  H       1.794024     -5.745551      1.089837
  H       3.663969     -0.891421     -3.790355
  H       2.378450     -4.766337     -5.115353
  H       1.572475      0.101773     -4.660258
  H       0.302977     -3.777249     -5.999813
  H      -0.123720     -1.339595     -5.770300
  F      -0.107626     -1.999254      0.435442
  F      -2.193113     -1.337302      0.204366
  F       0.510855      0.214561     -1.422653
  F      -1.533797      0.889248     -0.962918
  F      -1.573754     -1.271383     -2.673152
  F       0.201172     -2.439936     -2.110768
  F      -0.854291      0.472275      1.811168
  F       1.219024      0.201751      1.127372
  F      -1.676990     -4.048204     -0.515375
  F      -3.230763     -3.038398     -1.702623
  F       0.825577      2.632345      1.995358
  F      -0.992679      2.907262      0.801258
  F      -2.598097     -5.358416     -2.791992
  F      -0.464455     -4.945859     -2.757493
  F      -1.786638     -3.753423     -4.021463
  O       0.492481      3.305350     -1.368185
  O       2.354255      2.720984     -0.219280
  C      -0.966933     -1.332467     -0.366734
  C      -0.491764      0.158175     -0.510003
  C      -1.049552     -2.093797     -1.736477
  C       0.031682      0.778473      0.824640
  C      -1.928270     -3.389982     -1.669997
  C       0.238835      2.324173      0.796289
  C      -1.676872     -4.387780     -2.847342
  C       1.123089      2.846257     -0.393984
80
Coordinates from ORCA-job R4N+PFOA-_altA_r2 E -2865.069247518366
  N       5.551046      0.569256      2.555548
  C       3.338408     -4.115362     -1.599586
  C       4.182414     -4.589354     -2.793145
  C       4.455305     -3.501475     -3.846225
  C       4.003554     -2.964016     -0.876901
  C       3.017244     -5.279711     -0.648586
  C       5.931427      0.368916      1.082704
  C       5.258115     -0.793759      0.419008
  C       3.174288     -2.897057     -4.386511
  C       5.244752     -3.123231     -0.248886
  C       3.407222     -1.702259     -0.845114
  C       5.319237     -4.066560     -4.980392
  C       5.947101     -0.621443      3.374192
  C       4.077250      0.807136      2.699236
  C       6.293381      1.774922      3.054084
  C       5.862577     -2.055501      0.391044
  C       4.028134     -0.627452     -0.219264
  C       2.017351     -4.895193      0.437910
  C       2.926906     -1.526111     -4.275595
  C       2.210121     -3.695578     -5.013874
  C       1.748639     -0.964741     -4.766705
  C       1.037050     -3.138196     -5.514277
  C       0.798450     -1.769811     -5.389020
  H       2.382650     -3.745201     -1.995403
  H       3.665703     -5.432531     -3.271703
  H       5.145591     -4.974930     -2.431216
  H       5.017546     -2.691758     -3.360675
  H       3.946949     -5.650007     -0.195645
  H       2.608588     -6.105525     -1.246007
  H       7.018800      0.251684      1.078584
  H       5.668014      1.308342      0.587818
  H       5.741040     -4.090513     -0.267213
  H       2.453435     -1.553553     -1.341411
  H       6.266380     -4.451890     -4.585887
  H       5.546800     -3.296180     -5.725043
  H       4.805208     -4.889799     -5.489979
  H       5.709363     -0.410349      4.418778
  H       7.019886     -0.787351      3.256565
  H       5.386045     -1.492740      3.033651
  H       3.871389      1.039273      3.746329
  H       3.543419     -0.097314      2.406907
  H       3.794326      1.646559      2.060488
  H       6.042784      1.925190      4.105830
  H       5.988444      2.642260      2.465064
  H       7.364891      1.597528      2.942860
  H       6.830240     -2.197234      0.866741
  H       3.554893      0.351035     -0.232576
  H       1.073899     -4.558021     -0.008592
  H       2.399573     -4.081986      1.066119
  H       1.794033     -5.745824      1.090813
  H       3.664810     -0.891272     -3.789789
  H       2.377378     -4.765629     -5.114619
  H       1.574291      0.103062     -4.660613
  H       0.302900     -3.775405     -6.000064
  H      -0.122248     -1.337377     -5.771395
  F      -0.108375     -2.000156      0.434887
  F      -2.193806     -1.337987      0.203324
  F       0.510368      0.214368     -1.422834
  F      -1.534233      0.888793     -0.962726
  F      -1.573599     -1.271676     -2.673989
  F       0.201028     -2.440534     -2.111349
  F      -0.854588      0.470403      1.811225
  F       1.218658      0.200321      1.127171
  F      -1.678178     -4.048520     -0.516248
  F      -3.231078     -3.038667     -1.704595
  F       0.825069      2.630512      1.996650
  F      -0.993143      2.905861      0.802604
  F      -2.597878     -5.358720     -2.793736
  F      -0.464251     -4.946368     -2.757675
  F      -1.785357     -3.753526     -4.022334
  O       0.492195      3.305323     -1.366490
  O       2.353827      2.719999     -0.217886
  C      -0.967375     -1.333112     -0.367381
  C      -0.492222      0.157560     -0.510136
  C      -1.049757     -2.094205     -1.737227
  C       0.031324      0.777185      0.824869
  C      -1.928618     -3.390364     -1.671065
  C       0.238407      2.322930      0.797406
  C      -1.676512     -4.388187     -2.848253
  C       1.122673      2.845531     -0.392549
80
Coordinates from ORCA-job R4N+PFOA-_altA_r2 E -2865.069247802192
  N       5.551601      0.570044      2.554912
  C       3.338014     -4.115573     -1.598713
  C       4.181697     -4.589528     -2.792518
  C       4.454767     -3.501553     -3.845408
  C       4.003403     -2.964219     -0.876251
  C       3.017067     -5.279903     -0.647663
  C       5.932001      0.369000      1.082144
  C       5.258439     -0.793709      0.418841
  C       3.173986     -2.896739     -4.385826
  C       5.244643     -3.123365     -0.248382
  C       3.407298     -1.702387     -0.844820
  C       5.318621     -4.066594     -4.979688
  C       5.947254     -0.620595      3.373944
  C       4.077871      0.808518      2.698608
  C       6.294351      1.775546      3.053059
  C       5.862728     -2.055529      0.391104
  C       4.028424     -0.627463     -0.219369
  C       2.017146     -4.895464      0.438821
  C       2.927269     -1.525655     -4.275266
  C       2.209582     -3.694890     -5.013298
  C       1.749494     -0.963768     -4.766958
  C       1.037014     -3.136970     -5.514321
  C       0.799123     -1.768443     -5.389484
  H       2.382185     -3.745253     -1.994158
  H       3.664771     -5.432534     -3.271152
  H       5.144818     -4.975388     -2.430719
  H       5.017156     -2.692022     -3.359722
  H       3.946877     -5.649952     -0.194732
  H       2.608541     -6.105864     -1.244978
  H       7.019338      0.251520      1.078126
  H       5.668979      1.308272      0.586758
  H       5.740846     -4.090652     -0.266550
  H       2.453534     -1.553617     -1.341142
  H       6.265732     -4.452117     -4.585283
  H       5.546268     -3.296125     -5.724225
  H       4.804422     -4.889681     -5.489345
  H       5.709249     -0.409208      4.418439
  H       7.020058     -0.786735      3.256435
  H       5.386097     -1.491859      3.033553
  H       3.872160      1.041035      3.745655
  H       3.543697     -0.095846      2.406671
  H       3.795092      1.647824      2.059629
  H       6.043790      1.926268      4.104762
  H       5.989838      2.642791      2.463739
  H       7.365749      1.597595      2.941934
  H       6.830422     -2.197233      0.866602
  H       3.555325      0.351093     -0.232808
  H       1.073419     -4.558960     -0.007607
  H       2.399070     -4.081829      1.066677
  H       1.794379     -5.745969      1.092061
  H       3.665345     -0.891093     -3.789364
  H       2.376279     -4.765040     -5.113770
  H       1.575726      0.104150     -4.661197
  H       0.302699     -3.773933     -6.000162
  H      -0.121058     -1.335524     -5.772552
  F      -0.109015     -2.001321      0.434350
  F      -2.194325     -1.338744      0.202313
  F       0.510201      0.213775     -1.423035
  F      -1.534250      0.888280     -0.962413
  F      -1.573176     -1.271773     -2.674769
  F       0.200931     -2.441333     -2.111963
  F      -0.854407      0.468237      1.811379
  F       1.218819      0.198777      1.126871
  F      -1.679351     -4.049072     -0.517633
  F      -3.231458     -3.038530     -1.706453
  F       0.824982      2.628386      1.997969
  F      -0.993378      2.904290      0.804224
  F      -2.598479     -5.358523     -2.795967
  F      -0.464783     -4.946884     -2.758708
  F      -1.784778     -3.753214     -4.023647
  O       0.491706      3.304974     -1.364877
  O       2.353489      2.719348     -0.216680
  C      -0.967650     -1.333948     -0.368016
  C      -0.492311      0.156719     -0.510255
  C      -1.049880     -2.094674     -1.738019
  C       0.031373      0.775663      0.825083
  C      -1.929117     -3.390641     -1.672416
  C       0.238264      2.321538      0.798542
  C      -1.676763     -4.388311     -2.849689
  C       1.122329      2.844838     -0.391207
80
Coordinates from ORCA-job R4N+PFOA-_altA_r2 E -2865.069248026534
  N       5.551944      0.570627      2.554269
  C       3.337679     -4.115730     -1.598023
  C       4.181148     -4.589610     -2.791994
  C       4.454358     -3.501555     -3.844721
  C       4.003228     -2.964344     -0.875736
  C       3.016919     -5.280034     -0.646914
  C       5.932419      0.369135      1.081602
  C       5.258769     -0.793624      0.418553
  C       3.173783     -2.896424     -4.385255
  C       5.244445     -3.123512     -0.247834
  C       3.407318     -1.702409     -0.844636
  C       5.318149     -4.066545     -4.979091
  C       5.947713     -0.619850      3.373535
  C       4.078239      0.809046      2.698043
  C       6.294655      1.776194      3.052242
  C       5.862800     -2.055574      0.391238
  C       4.028647     -0.627417     -0.219552
  C       2.016976     -4.895668      0.439553
  C       2.927724     -1.525177     -4.275282
  C       2.209079     -3.694360     -5.012544
  C       1.750347     -0.962901     -4.767462
  C       1.036921     -3.136031     -5.514079
  C       0.799697     -1.767343     -5.389858
  H       2.381767     -3.745350     -1.993184
  H       3.664133     -5.432535     -3.270684
  H       5.144237     -4.975640     -2.430280
  H       5.016856     -2.692181     -3.358904
  H       3.946805     -5.649858     -0.193958
  H       2.608565     -6.106141     -1.244136
  H       7.019743      0.251508      1.077809
  H       5.669677      1.308294      0.585837
  H       5.740417     -4.090937     -0.265609
  H       2.453548     -1.553684     -1.340967
  H       6.265211     -4.452286     -4.584788
  H       5.545897     -3.295957     -5.723473
  H       4.803799     -4.889456     -5.488880
  H       5.709404     -0.408399      4.417938
  H       7.020582     -0.785750      3.256101
  H       5.386823     -1.491317      3.033118
  H       3.872659      1.041454      3.745138
  H       3.544015     -0.095312      2.406093
  H       3.795336      1.648387      2.059169
  H       6.044090      1.926988      4.103944
  H       5.990151      2.643394      2.462865
  H       7.366020      1.598192      2.941076
  H       6.830506     -2.197337      0.866778
  H       3.555774      0.351249     -0.233025
  H       1.073019     -4.559715     -0.006814
  H       2.398664     -4.081719      1.067140
  H       1.794684     -5.746095      1.093081
  H       3.666044     -0.890785     -3.789531
  H       2.375246     -4.764636     -5.112562
  H       1.577127      0.105159     -4.662232
  H       0.302368     -3.772868     -5.999717
  H      -0.120076     -1.334033     -5.773476
  F      -0.109432     -2.002302      0.433930
  F      -2.194602     -1.339336      0.201604
  F       0.510240      0.213172     -1.423154
  F      -1.534073      0.887884     -0.962088
  F      -1.572982     -1.271729     -2.675263
  F       0.200795     -2.441889     -2.112566
  F      -0.854272      0.466593      1.811388
  F       1.219037      0.197623      1.126755
  F      -1.680198     -4.049478     -0.518777
  F      -3.231795     -3.038323     -1.707796
  F       0.824764      2.626670      1.999081
  F      -0.993442      2.903106      0.805247
  F      -2.599313     -5.358215     -2.797717
  F      -0.465444     -4.947418     -2.759435
  F      -1.784365     -3.752992     -4.024750
  O       0.491682      3.304463     -1.363702
  O       2.353505      2.719021     -0.215430
  C      -0.967781     -1.334650     -0.368489
  C      -0.492180      0.156003     -0.510321
  C      -1.050011     -2.095024     -1.738651
  C       0.031517      0.774459      0.825223
  C      -1.929567     -3.390811     -1.673507
  C       0.238250      2.320434      0.799395
  C      -1.677157     -4.388376     -2.850837
  C       1.122349      2.844316     -0.390035
80
Coordinates from ORCA-job R4N+PFOA-_altA_r2 E -2865.069248181273
  N       5.552049      0.571086      2.553762
  C       3.337385     -4.115792     -1.597624
  C       4.180738     -4.589733     -2.791630
  C       4.454160     -3.501680     -3.844294
  C       4.003051     -2.964392     -0.875454
  C       3.016627     -5.280010     -0.646419
  C       5.932633      0.369239      1.081208
  C       5.258967     -0.793603      0.418321
  C       3.173761     -2.896262     -4.384901
  C       5.244293     -3.123578     -0.247657
  C       3.407228     -1.702387     -0.844467
  C       5.317899     -4.066753     -4.978659
  C       5.947897     -0.619196      3.373331
  C       4.078345      0.809462      2.697567
  C       6.294706      1.776771      3.051573
  C       5.862826     -2.055593      0.391179
  C       4.028725     -0.627384     -0.219635
  C       2.016684     -4.895528      0.440005
  C       2.928119     -1.524928     -4.275187
  C       2.208864     -3.694005     -5.012144
  C       1.750987     -0.962378     -4.767617
  C       1.036957     -3.135396     -5.513916
  C       0.800144     -1.766626     -5.389963
  H       2.381444     -3.745366     -1.992679
  H       3.663622     -5.432589     -3.270334
  H       5.143781     -4.975922     -2.429948
  H       5.016785     -2.692441     -3.358398
  H       3.946518     -5.649775     -0.193398
  H       2.608332     -6.106221     -1.243555
  H       7.019925      0.251521      1.077601
  H       5.670015      1.308263      0.585155
  H       5.740089     -4.091069     -0.265306
  H       2.453388     -1.553796     -1.340728
  H       6.264881     -4.452708     -4.584379
  H       5.545803     -3.296125     -5.722956
  H       4.803418     -4.889518     -5.488551
  H       5.709158     -0.407725      4.417626
  H       7.020851     -0.784778      3.256193
  H       5.387436     -1.490889      3.032785
  H       3.872737      1.041760      3.744696
  H       3.544143     -0.094863      2.405583
  H       3.795463      1.648848      2.058770
  H       6.044185      1.927570      4.103272
  H       5.990085      2.643959      2.462238
  H       7.366067      1.598824      2.940233
  H       6.830581     -2.197345      0.866601
  H       3.556037      0.351372     -0.233158
  H       1.072642     -4.559837     -0.006384
  H       2.398280     -4.081394      1.067419
  H       1.794604     -5.745853      1.093737
  H       3.666608     -0.890694     -3.789488
  H       2.374721     -4.764340     -5.111971
  H       1.578103      0.105750     -4.662639
  H       0.302245     -3.772085     -5.999492
  H      -0.119397     -1.333044     -5.773820
  F      -0.109495     -2.003130      0.433609
  F      -2.194595     -1.339924      0.201367
  F       0.510278      0.212693     -1.423187
  F      -1.533881      0.887529     -0.961604
  F      -1.573052     -1.271581     -2.675357
  F       0.200660     -2.442094     -2.113145
  F      -0.853785      0.465242      1.811609
  F       1.219510      0.196739      1.126595
  F      -1.680360     -4.049996     -0.519755
  F      -3.231961     -3.038349     -1.708379
  F       0.824957      2.625285      1.999980
  F      -0.993261      2.902150      0.806236
  F      -2.599971     -5.357839     -2.799165
  F      -0.465958     -4.947749     -2.760310
  F      -1.784204     -3.752619     -4.025649
  O       0.491683      3.303904     -1.362778
  O       2.353676      2.719038     -0.214432
  C      -0.967767     -1.335251     -0.368716
  C      -0.491964      0.155412     -0.510227
  C      -1.050092     -2.095267     -1.739054
  C       0.031859      0.773504      0.825400
  C      -1.929772     -3.390983     -1.674293
  C       0.238457      2.319518      0.800129
  C      -1.677484     -4.388288     -2.851852
  C       1.122502      2.843961     -0.389098
80
Coordinates from ORCA-job R4N+PFOA-_altA_r2 E -2865.069248280049
  N       5.552062      0.571333      2.553451
  C       3.337191     -4.115755     -1.597527
  C       4.180535     -4.589905     -2.791447
  C       4.454180     -3.501955     -3.844170
  C       4.002911     -2.964309     -0.875467
  C       3.016347     -5.279841     -0.646171
  C       5.932653      0.369394      1.080936
  C       5.258987     -0.793519      0.418104
  C       3.173919     -2.896291     -4.384816
  C       5.244195     -3.123513     -0.247761
  C       3.407073     -1.702278     -0.844446
  C       5.317825     -4.067257     -4.978482
  C       5.948010     -0.618830      3.373148
  C       4.078380      0.809666      2.697318
  C       6.294650      1.777101      3.051212
  C       5.862796     -2.055510      0.391001
  C       4.028643     -0.627288     -0.219710
  C       2.016385     -4.895189      0.440179
  C       2.928614     -1.524879     -4.275323
  C       2.208824     -3.693901     -5.011919
  C       1.751619     -0.962127     -4.767848
  C       1.037052     -3.135100     -5.513759
  C       0.800568     -1.766251     -5.390047
  H       2.381261     -3.745360     -1.992657
  H       3.663321     -5.432729     -3.270098
  H       5.143518     -4.976208     -2.429731
  H       5.016962     -2.692813     -3.358297
  H       3.946191     -5.649615     -0.193057
  H       2.608064     -6.106115     -1.243225
  H       7.019946      0.251628      1.077393
  H       5.670024      1.308379      0.584796
  H       5.739898     -4.091054     -0.265383
  H       2.453177     -1.553817     -1.340648
  H       6.264698     -4.453433     -4.584166
  H       5.545931     -3.296685     -5.722779
  H       4.803186     -4.889904     -5.488409
  H       5.709061     -0.407342      4.417386
  H       7.021023     -0.784207      3.256195
  H       5.387809     -1.490682      3.032514
  H       3.872771      1.041604      3.744527
  H       3.544144     -0.094555      2.405033
  H       3.795608      1.649313      2.058820
  H       6.044132      1.927833      4.102934
  H       5.989863      2.644288      2.461937
  H       7.366029      1.599301      2.939728
  H       6.830599     -2.197248      0.866376
  H       3.556055      0.351516     -0.233245
  H       1.072415     -4.559420     -0.006304
  H       2.398033     -4.081067      1.067564
  H       1.794193     -5.745456      1.093970
  H       3.667274     -0.890759     -3.789734
  H       2.374440     -4.764291     -5.111568
  H       1.578989      0.106063     -4.663083
  H       0.302169     -3.771667     -5.999233
  H      -0.118867     -1.332484     -5.773962
  F      -0.109520     -2.003597      0.433411
  F      -2.194578     -1.340264      0.201312
  F       0.510239      0.212549     -1.423118
  F      -1.533835      0.887395     -0.961153
  F      -1.573392     -1.271421     -2.675284
  F       0.200486     -2.441946     -2.113626
  F      -0.853451      0.464284      1.811844
  F       1.219802      0.196186      1.126543
  F      -1.680303     -4.050210     -0.520222
  F      -3.232023     -3.038513     -1.708629
  F       0.824943      2.624369      2.000769
  F      -0.993250      2.901471      0.807099
  F      -2.600206     -5.357610     -2.799947
  F      -0.466077     -4.947951     -2.760545
  F      -1.783823     -3.752448     -4.026106
  O       0.491621      3.303778     -1.361886
  O       2.353723      2.719200     -0.213517
  C      -0.967787     -1.335553     -0.368802
  C      -0.491866      0.155124     -0.510057
  C      -1.050200     -2.095320     -1.739282
  C       0.032059      0.772910      0.825619
  C      -1.929824     -3.391067     -1.674677
  C       0.238493      2.318912      0.800803
  C      -1.677513     -4.388222     -2.852342
  C       1.122524      2.843865     -0.388232
80
Coordinates from ORCA-job R4N+PFOA-_altA_r2 E -2865.069248343209
  N       5.552024      0.571490      2.553259
  C       3.337045     -4.115717     -1.597522
  C       4.180390     -4.590117     -2.791340
  C       4.454271     -3.502291     -3.844150
  C       4.002796     -2.964230     -0.875555
  C       3.016093     -5.279672     -0.646022
  C       5.932530      0.369541      1.080735
  C       5.258871     -0.793452      0.417969
  C       3.174131     -2.896373     -4.384801
  C       5.244144     -3.123419     -0.247965
  C       3.406887     -1.702215     -0.844448
  C       5.317798     -4.067869     -4.978405
  C       5.948097     -0.618591      3.373001
  C       4.078340      0.809773      2.697196
  C       6.294581      1.777360      3.050917
  C       5.862732     -2.055407      0.390801
  C       4.028469     -0.627227     -0.219740
  C       2.016166     -4.894809      0.440297
  C       2.929073     -1.524917     -4.275304
  C       2.208886     -3.693805     -5.011898
  C       1.752171     -0.961957     -4.767819
  C       1.037203     -3.134808     -5.513706
  C       0.800967     -1.765912     -5.390010
  H       2.381145     -3.745354     -1.992772
  H       3.663038     -5.432884     -3.269939
  H       5.143302     -4.976553     -2.429578
  H       5.017237     -2.693243     -3.358330
  H       3.945889     -5.649522     -0.192868
  H       2.607715     -6.105959     -1.243001
  H       7.019821      0.251812      1.077107
  H       5.669759      1.308465      0.584567
  H       5.739862     -4.090947     -0.265688
  H       2.452926     -1.553862     -1.340567
  H       6.264561     -4.454258     -4.584029
  H       5.546117     -3.297401     -5.722748
  H       4.802987     -4.890420     -5.488318
  H       5.709028     -0.407132      4.417207
  H       7.021149     -0.783759      3.256212
  H       5.388114     -1.490559      3.032297
  H       3.872700      1.041559      3.744436
  H       3.544145     -0.094412      2.404798
  H       3.795626      1.649528      2.058825
  H       6.044246      1.928015      4.102682
  H       5.989513      2.644535      2.461751
  H       7.365981      1.599754      2.939175
  H       6.830577     -2.197094      0.866094
  H       3.555887      0.351584     -0.233323
  H       1.072311     -4.558819     -0.006256
  H       2.397959     -4.080760      1.067691
  H       1.793756     -5.745016      1.094084
  H       3.667856     -0.890940     -3.789715
  H       2.374327     -4.764223     -5.111539
  H       1.579724      0.106262     -4.663069
  H       0.302195     -3.771202     -5.999214
  H      -0.118404     -1.331980     -5.773897
  F      -0.109541     -2.003867      0.433236
  F      -2.194600     -1.340471      0.201288
  F       0.510156      0.212544     -1.423062
  F      -1.533840      0.887360     -0.960857
  F      -1.573731     -1.271316     -2.675227
  F       0.200332     -2.441737     -2.113993
  F      -0.853157      0.463558      1.812082
  F       1.220000      0.195757      1.126452
  F      -1.680187     -4.050336     -0.520484
  F      -3.232044     -3.038748     -1.708765
  F       0.825024      2.623723      2.001382
  F      -0.993239      2.900954      0.807875
  F      -2.600173     -5.357503     -2.800445
  F      -0.465992     -4.948059     -2.760594
  F      -1.783398     -3.752370     -4.026363
  O       0.491525      3.303867     -1.361097
  O       2.353718      2.719301     -0.212852
  C      -0.967846     -1.335697     -0.368865
  C      -0.491863      0.154985     -0.509925
  C      -1.050300     -2.095307     -1.739440
  C       0.032195      0.772506      0.825813
  C      -1.929806     -3.391131     -1.674889
  C       0.238524      2.318481      0.801367
  C      -1.677388     -4.388184     -2.852621
  C       1.122493      2.843830     -0.387558
80
Coordinates from ORCA-job R4N+PFOA-_altA_r2 E -2865.069248386857
  N       5.552030      0.571570      2.553158
  C       3.336958     -4.115695     -1.597555
  C       4.180310     -4.590314     -2.791287
  C       4.454385     -3.502601     -3.844177
  C       4.002728     -2.964172     -0.875669
  C       3.015921     -5.279553     -0.645943
  C       5.932430      0.369641      1.080591
  C       5.258743     -0.793391      0.417873
  C       3.174343     -2.896461     -4.384823
  C       5.244123     -3.123335     -0.248153
  C       3.406756     -1.702183     -0.844496
  C       5.317787     -4.068427     -4.978402
  C       5.948238     -0.618442      3.372903
  C       4.078336      0.809778      2.697138
  C       6.294509      1.777549      3.050696
  C       5.862678     -2.055317      0.390633
  C       4.028315     -0.627186     -0.219775
  C       2.016046     -4.894530      0.440372
  C       2.929507     -1.524968     -4.275292
  C       2.208958     -3.693722     -5.011919
  C       1.752680     -0.961807     -4.767770
  C       1.037343     -3.134534     -5.513676
  C       0.801333     -1.765598     -5.389961
  H       2.381084     -3.745373     -1.992916
  H       3.662837     -5.433028     -3.269846
  H       5.143153     -4.976862     -2.429469
  H       5.017522     -2.693635     -3.358421
  H       3.945682     -5.649480     -0.192793
  H       2.607429     -6.105817     -1.242870
  H       7.019729      0.251943      1.076848
  H       5.669537      1.308546      0.584441
  H       5.739891     -4.090844     -0.265964
  H       2.452755     -1.553893     -1.340552
  H       6.264450     -4.455015     -4.583977
  H       5.546301     -3.298059     -5.722788
  H       4.802802     -4.890886     -5.488287
  H       5.709145     -0.406965      4.417100
  H       7.021323     -0.783474      3.256188
  H       5.388365     -1.490496      3.032220
  H       3.872687      1.041487      3.744389
  H       3.544185     -0.094416      2.404653
  H       3.795644      1.649602      2.058836
  H       6.044391      1.928129      4.102529
  H       5.989106      2.644679      2.461617
  H       7.365933      1.600187      2.938702
  H       6.830545     -2.196969      0.865897
  H       3.555720      0.351623     -0.233400
  H       1.072306     -4.558274     -0.006210
  H       2.398011     -4.080599      1.067806
  H       1.793389     -5.744706      1.094112
  H       3.668399     -0.891123     -3.789695
  H       2.374235     -4.764164     -5.111577
  H       1.580397      0.106436     -4.663001
  H       0.302218     -3.770769     -5.999212
  H      -0.117990     -1.331519     -5.773803
  F      -0.109662     -2.003987      0.433097
  F      -2.194715     -1.340534      0.201197
  F       0.510060      0.212616     -1.423010
  F      -1.533904      0.887417     -0.960711
  F      -1.574017     -1.271269     -2.675258
  F       0.200181     -2.441563     -2.114243
  F      -0.853056      0.463061      1.812246
  F       1.220021      0.195441      1.126411
  F      -1.680256     -4.050295     -0.520550
  F      -3.232095     -3.038904     -1.708976
  F       0.825009      2.623293      2.001852
  F      -0.993335      2.900590      0.808514
  F      -2.600044     -5.357507     -2.800657
  F      -0.465841     -4.948151     -2.760355
  F      -1.782941     -3.752458     -4.026461
  O       0.491335      3.304188     -1.360400
  O       2.353587      2.719289     -0.212418
  C      -0.967969     -1.335718     -0.368940
  C      -0.491950      0.154957     -0.509849
  C      -1.050422     -2.095253     -1.739566
  C       0.032200      0.772250      0.825978
  C      -1.929832     -3.391145     -1.674993
  C       0.238453      2.318209      0.801820
  C      -1.677212     -4.388216     -2.852677
  C       1.122342      2.843848     -0.387045
80
Coordinates from ORCA-job R4N+PFOA-_altA_r2 E -2865.069248422730
  N       5.552052      0.571630      2.553061
  C       3.336891     -4.115729     -1.597543
  C       4.180232     -4.590475     -2.791240
  C       4.454472     -3.502824     -3.844155
  C       4.002676     -2.964192     -0.875706
  C       3.015809     -5.279541     -0.645882
  C       5.932366      0.369677      1.080456
  C       5.258648     -0.793378      0.417807
  C       3.174519     -2.896473     -4.384784
  C       5.244099     -3.123326     -0.248234
  C       3.406675     -1.702226     -0.844525
  C       5.317763     -4.068823     -4.978380
  C       5.948471     -0.618275      3.372830
  C       4.078317      0.809651      2.697059
  C       6.294373      1.777786      3.050427
  C       5.862634     -2.055293      0.390546
  C       4.028215     -0.627202     -0.219818
  C       2.016009     -4.894413      0.440465
  C       2.929880     -1.524951     -4.275151
  C       2.209017     -3.693549     -5.011937
  C       1.753124     -0.961583     -4.767568
  C       1.037472     -3.134154     -5.513642
  C       0.801659     -1.765191     -5.389817
  H       2.381028     -3.745431     -1.992954
  H       3.662655     -5.433123     -3.269802
  H       5.143015     -4.977133     -2.429380
  H       5.017757     -2.693944     -3.358426
  H       3.945558     -5.649540     -0.192778
  H       2.607197     -6.105759     -1.242784
  H       7.019669      0.252022      1.076618
  H       5.669373      1.308547      0.584298
  H       5.739920     -4.090811     -0.266094
  H       2.452627     -1.553980     -1.340502
  H       6.264342     -4.455594     -4.583930
  H       5.546444     -3.298519     -5.722778
  H       4.802618     -4.891189     -5.488254
  H       5.709344     -0.406795      4.417016
  H       7.021589     -0.783110      3.256170
  H       5.388744     -1.490442      3.032191
  H       3.872643      1.041455      3.744281
  H       3.544312     -0.094648      2.404639
  H       3.795533      1.649381      2.058667
  H       6.044568      1.928259      4.102349
  H       5.988518      2.644843      2.461464
  H       7.365827      1.600753      2.938112
  H       6.830506     -2.196918      0.865791
  H       3.555622      0.351611     -0.233510
  H       1.072340     -4.557951     -0.006096
  H       2.398125     -4.080582      1.067936
  H       1.793181     -5.744572      1.094157
  H       3.668861     -0.891243     -3.789511
  H       2.374142     -4.764009     -5.111670
  H       1.580990      0.106677     -4.662719
  H       0.302250     -3.770229     -5.999241
  H      -0.117616     -1.330962     -5.773607
  F      -0.109808     -2.004063      0.432958
  F      -2.194856     -1.340548      0.201067
  F       0.510012      0.212634     -1.422983
  F      -1.533926      0.887478     -0.960706
  F      -1.574169     -1.271265     -2.675374
  F       0.200056     -2.441518     -2.114399
  F      -0.853054      0.462731      1.812330
  F       1.219969      0.195162      1.126372
  F      -1.680464     -4.050220     -0.520584
  F      -3.232188     -3.038953     -1.709243
  F       0.825035      2.622976      2.002136
  F      -0.993400      2.900342      0.808960
  F      -2.599977     -5.357555     -2.800756
  F      -0.465771     -4.948245     -2.760112
  F      -1.782621     -3.752617     -4.026529
  O       0.491164      3.304522     -1.359891
  O       2.353464      2.719171     -0.212234
  C      -0.968099     -1.335719     -0.369042
  C      -0.492043      0.154938     -0.509842
  C      -1.050540     -2.095218     -1.739690
  C       0.032161      0.772057      0.826075
  C      -1.929919     -3.391140     -1.675089
  C       0.238406      2.318019      0.802108
  C      -1.677115     -4.388284     -2.852685
  C       1.122207      2.843835     -0.386742
