80
-162.6268052540 converged=true
N  5.43614848355058999374 0.58130239288227492089 2.42724144697586385888
C  3.50171477513075890542 -4.31217136809519008267 -1.56565685133842968924
C  4.35564686909557519101 -4.71033983571928160927 -2.77813854278379723795
C  4.55296977872478514371 -3.55201618826918519289 -3.76656825800658534575
C  4.06554187005956002565 -3.09573313035601360710 -0.88003146708009827304
C  3.36742283543037768112 -5.48466425959726411321 -0.58309077900252159754
C  5.61468141487482874652 0.48853584404488370474 0.94740575474881993934
C  5.08542469982473832601 -0.78168512905215281616 0.33659337271485689769
C  3.23501381826956357912 -2.96983352208624307167 -4.21398763468448844804
C  5.36096230817373786692 -3.06742275672372599615 -0.37541838689219475533
C  3.29024013101383872026 -1.94913953500547387776 -0.76184209522971668704
C  5.37189303368268333827 -4.01462398284788513081 -4.97485266910643986193
C  6.22377945514285357831 -0.45649531110206686968 3.10920287206477841124
C  4.01770697044315294733 0.43225711539958866503 2.78311159289486997892
C  5.89792410551635093441 1.90959318259593824330 2.86011479890420439176
C  5.86687272099667200820 -1.92643180919146095320 0.22095094632445166916
C  3.79131086136267025921 -0.80684560225502599540 -0.16909796857917458457
C  2.35868995424395233584 -5.18344310124033658127 0.51913931010798042287
C  2.94849278447473928111 -1.62874786337656773938 -3.99072666408007936667
C  2.28442907667610262124 -3.74826565976118253332 -4.86456010173765918125
C  1.74515069763286811977 -1.07831216779680527651 -4.39650801243883648795
C  1.08470805251891100340 -3.20067646106116310278 -5.28035611216754041664
C  0.80871232579537255525 -1.86342421427181070825 -5.04690032721444747921
H  2.49838979379640058198 -4.05821240448018727420 -1.92822798443334542107
H  3.86823168641571690785 -5.54362828880137215037 -3.28605197052470643371
H  5.33583795846075936709 -5.05309033176555644218 -2.44381365627753321945
H  5.11128011760582889877 -2.75903286670759406718 -3.25803181662414331754
H  4.33905981018130315618 -5.70370301974546389800 -0.13830076832139137633
H  3.04285611039601056049 -6.36880868578412684400 -1.13463255506701843345
H  6.68005986592744172015 0.58589511948224815008 0.73336074712217724780
H  5.07596423576999455918 1.32800783903173313938 0.50208814671355539438
H  5.98838283698968165680 -3.94082853096486562805 -0.46109919436239565904
H  2.28776276858146987436 -1.94235621463968000100 -1.16068751608290798849
H  6.34493577756253479549 -4.37615922268336099421 -4.65269864810231936758
H  5.51866391943266965114 -3.18875010506092237961 -5.66677271238873636605
H  4.86205272600973437136 -4.81609458528189549043 -5.50268011144115209987
H  6.09348243120271693130 -0.36683033386702112999 4.18467927886661428261
H  7.27753228955877418116 -0.34074933630960568820 2.86824245522659193597
H  5.88806465953004831704 -1.44098632051377428809 2.79399559976239952874
H  3.88570343723859190632 0.58361481718380736616 3.85084969724690928672
H  3.65979105817434602343 -0.55786776046030261966 2.51281491150534108669
H  3.42015890427560265152 1.16542733161472233938 2.24375299647512616019
H  5.80476353932100330724 1.99936254196084006729 3.93953368832329875460
H  5.28866576688655953831 2.67917102134533458013 2.39037121341782299311
H  6.93736944883666861728 2.05658217037269874794 2.57735741132500084660
H  6.88612917703675275760 -1.92716023201338249038 0.57541851028360113673
H  3.17576802400791757819 0.07886396238875859055 -0.12210564119861710974
H  1.37524396180282293400 -4.99119982836899911405 0.09300086619909686547
H  2.65730868265360031799 -4.30270871684824918191 1.08270579548340051268
H  2.27830372003296499628 -6.02431814196801873607 1.20295480193718762330
H  3.67033835139981157170 -1.00242865451594820314 -3.48610764633713188232
H  2.47839992686526322530 -4.79346801770091435202 -5.05128182447078799555
H  1.53666774946721496065 -0.03593800144364234228 -4.19684490393109399520
H  0.35754577719977609362 -3.81600592419531636779 -5.78993701132025773148
H  -0.13158248731843835699 -1.43678059468785801478 -5.36544158010152205662
F  -0.58473233725942996841 -1.85525778092211601766 0.45789021586216471782
F  -2.43929695765831411336 -0.88198588945528255678 -0.07634924734550729841
F  0.68312823311019554851 0.14150444435820097588 -1.29153091157794941424
F  -1.24462501399228386845 1.13246719636715575952 -1.25286515163085354629
F  -1.41320843663541273472 -1.04877079655124738622 -2.85240778305747166854
F  0.06229296170869069726 -2.38808036304011217510 -2.00678198452621714409
F  -1.13640126137093000480 0.65905912756462137203 1.66214553422735700217
F  0.92674336448760996632 0.12989515270785578771 1.33014983680466181148
F  -2.19270696418389299254 -3.69260083965056296051 -0.67549247061156370009
F  -3.44313866075430574654 -2.50207021441981947163 -1.98228666994402669133
F  0.59307819612134182741 2.70469448710329807284 2.09078111153275347789
F  -0.72639692641174224974 3.10099021603553914872 0.41252388627014302536
F  -2.95798793134052484533 -4.92620870761963391971 -3.02640207101388192257
F  -0.83437451513429472527 -4.70207071389910868930 -2.82315784426017568620
F  -1.93045048698132948317 -3.43020396315402287257 -4.17255274459635039364
O  1.37297792656185135840 2.90407647195011442420 -1.29256097742892239744
O  2.70141926478062011086 2.38410169984469622051 0.43860368856565212781
C  -1.17238469447751159080 -1.08525957071295153789 -0.47284032858969693436
C  -0.44445899873145222614 0.29387995376397735292 -0.57540059844057789284
C  -1.16226904412047993276 -1.87017885350511647857 -1.82327766473283769955
C  -0.08663260685047102783 0.86346164670995384505 0.82508073502328160842
C  -2.21356651326470554864 -3.02192395781275102706 -1.83945652442500362511
C  0.33272629988250868038 2.34132892006762727277 0.80024813456674914747
C  -1.96985638555637088132 -4.03920584169593599455 -2.99607977726915475358
C  1.65312596760536267837 2.58985318085643623220 -0.15038850279486803974
