80
Coordinates from ORCA-job R4N+PFOA-_altA_r2 E -2865.069248422730
  N           5.55205203872368      0.57162992090149      2.55306088744872
  C           3.33689055001602     -4.11572892637422     -1.59754312970368
  C           4.18023240547700     -4.59047484144302     -2.79123992631289
  C           4.45447156529248     -3.50282352838630     -3.84415457076732
  C           4.00267585029995     -2.96419167841997     -0.87570626408805
  C           3.01580861222730     -5.27954106203874     -0.64588200374407
  C           5.93236566715194      0.36967709856274      1.08045606765683
  C           5.25864811823744     -0.79337829453923      0.41780690980670
  C           3.17451851310073     -2.89647299991219     -4.38478377003935
  C           5.24409933434375     -3.12332578644982     -0.24823357092592
  C           3.40667473560980     -1.70222572338554     -0.84452543657033
  C           5.31776283926838     -4.06882274330289     -4.97838010276816
  C           5.94847060337161     -0.61827525113541      3.37283018904627
  C           4.07831748397663      0.80965091649455      2.69705876556314
  C           6.29437330121216      1.77778591947803      3.05042732569903
  C           5.86263392153628     -2.05529311482499      0.39054555528736
  C           4.02821521687350     -0.62720233031981     -0.21981759606749
  C           2.01600898768912     -4.89441302048533      0.44046513015389
  C           2.92987957698327     -1.52495092768689     -4.27515083401429
  C           2.20901702696306     -3.69354891652438     -5.01193679496783
  C           1.75312398768395     -0.96158308221320     -4.76756838400903
  C           1.03747169692531     -3.13415363266039     -5.51364242636690
  C           0.80165859289204     -1.76519105936925     -5.38981656086301
  H           2.38102793742698     -3.74543077571827     -1.99295398527417
  H           3.66265537206461     -5.43312263866242     -3.26980212946828
  H           5.14301511363893     -4.97713337246788     -2.42938042058715
  H           5.01775725896697     -2.69394400062604     -3.35842586846131
  H           3.94555751386936     -5.64954030201699     -0.19277787247346
  H           2.60719674616439     -6.10575948607737     -1.24278441649764
  H           7.01966911528451      0.25202237635645      1.07661773653382
  H           5.66937317745137      1.30854697921460      0.58429824328585
  H           5.73992036306570     -4.09081051522006     -0.26609403761314
  H           2.45262686001683     -1.55397953755870     -1.34050151384752
  H           6.26434210471144     -4.45559435334325     -4.58392989076090
  H           5.54644424109905     -3.29851913161950     -5.72277762577553
  H           4.80261771858018     -4.89118886342201     -5.48825394108905
  H           5.70934394774408     -0.40679503054782      4.41701601551378
  H           7.02158868050313     -0.78311045481150      3.25617023012511
  H           5.38874448733504     -1.49044249336309      3.03219069787852
  H           3.87264252517570      1.04145468830950      3.74428110902683
  H           3.54431159913612     -0.09464765064355      2.40463933919316
  H           3.79553318012936      1.64938067345799      2.05866726892766
  H           6.04456800667802      1.92825936459042      4.10234896006711
  H           5.98851815077752      2.64484281716619      2.46146363916573
  H           7.36582699422437      1.60075270161777      2.93811183391988
  H           6.83050594690080     -2.19691819147869      0.86579057380059
  H           3.55562152553771      0.35161139176396     -0.23350993203489
  H           1.07233967513675     -4.55795103625646     -0.00609612278383
  H           2.39812509853150     -4.08058164589482      1.06793567940623
  H           1.79318119966383     -5.74457195146537      1.09415748996127
  H           3.66886088695085     -0.89124255268203     -3.78951061989248
  H           2.37414224086507     -4.76400916982063     -5.11167032028001
  H           1.58098962952611      0.10667666547308     -4.66271859845224
  H           0.30224962820945     -3.77022904027940     -5.99924148755480
  H          -0.11761601968139     -1.33096216634051     -5.77360707252724
  F          -0.10980832047790     -2.00406279649654      0.43295835051984
  F          -2.19485563115563     -1.34054838777901      0.20106699438468
  F           0.51001172810222      0.21263398058502     -1.42298263227355
  F          -1.53392644082988      0.88747842946163     -0.96070590680029
  F          -1.57416932136346     -1.27126515619257     -2.67537444146375
  F           0.20005559755365     -2.44151750710217     -2.11439906369606
  F          -0.85305373474186      0.46273079514031      1.81232978868062
  F           1.21996926066507      0.19516224680873      1.12637247310499
  F          -1.68046436637807     -4.05022003113369     -0.52058439966491
  F          -3.23218827626349     -3.03895252150275     -1.70924270959285
  F           0.82503482372193      2.62297568941132      2.00213613733198
  F          -0.99340009733750      2.90034173080632      0.80896022815532
  F          -2.59997685585634     -5.35755481927920     -2.80075618631379
  F          -0.46577087496008     -4.94824517462623     -2.76011165162379
  F          -1.78262095321292     -3.75261673919807     -4.02652945514792
  O           0.49116367311866      3.30452240490829     -1.35989110571155
  O           2.35346377549188      2.71917050242433     -0.21223426005271
  C          -0.96809863648183     -1.33571889125342     -0.36904235675499
  C          -0.49204344922998      0.15493836738889     -0.50984223790388
  C          -1.05053996580195     -2.09521825978066     -1.73969004248051
  C           0.03216088697563      0.77205669610520      0.82607463942441
  C          -1.92991861856619     -3.39114000933055     -1.67508911972114
  C           0.23840621672548      2.31801853123197      0.80210831868039
  C          -1.67711496941737     -4.38828446764520     -2.85268487411074
  C           1.12220654565015      2.84383548002665     -0.38674221395040
