29
Coordinates from ORCA-job PFOS_r2 E -2626.089709904006
  S           2.62919277493284      1.80932375326611      0.20556121923829
  F           0.15314242562273      0.05209360485338     -1.06902697059728
  F           0.13210996160496     -2.01698510742740     -1.80091114836272
  F           1.17465134884261     -2.96489946070142      0.39638551400204
  F           0.94610544117125     -1.07931027628084      1.48924533101639
  F          -1.38165722923982     -2.43799117460268      0.82488039719192
  F          -2.23597178043281     -1.92757557934687     -1.12061546909448
  F           3.45193224345988     -2.24016622930055      0.03440922800434
  F           2.61104079038752     -1.01249676192806     -1.56852046061225
  F          -3.09069717446999     -0.71788799365270      1.39108637123724
  F          -1.28464825993039      0.50067650035069      1.22107178778227
  F           4.57343640604042      0.07372579360385     -0.11943012191560
  F           3.46330574324808     -0.18940517069515      1.75555598182347
  F          -4.16030585094805      0.14594888078200     -0.72761961778601
  F          -2.28168872623005      0.77126615426352     -1.66782544323486
  F          -4.02090657255470      2.77289541269854     -0.77718566423586
  F          -2.00531289346687      2.81888491263388      0.03421781185241
  F          -3.66372797031045      2.11929780847669      1.27086115817911
  O           1.36344913721379      1.82338730624734      0.97822430310207
  O           2.47922642221252      1.96039696881437     -1.26334535339427
  O           3.72210665334954      2.61921988779989      0.80441714942566
  C           0.01442099451379     -1.23997980093388     -0.70269013061915
  C           1.18078888652634     -1.61925142495798      0.27330849876869
  C          -1.44605576008562     -1.47483164717944     -0.12050991669754
  C           2.62906184327886     -1.19042180893479     -0.22701874821284
  C          -2.17562614292468     -0.23487193962447      0.52197378845089
  C           3.32632504873600      0.05049110469744      0.42875826242022
  C          -2.94528185208523      0.68592563822616     -0.49482864489933
  C          -3.15851690846258      2.14234164885231      0.02966988716716
