29
Coordinates from ORCA-job PFOS_r2 E -2626.036155927008
  S       1.342638      1.587991     -0.029707
  F       0.289982     -0.719803     -1.813234
  F       0.117977     -2.801635     -1.487544
  F       1.500443     -2.997021      0.388385
  F       0.759293     -1.326891      1.465112
  F      -1.489078     -2.617111      0.547222
  F      -2.188367     -1.810145     -1.321343
  F       3.549441     -1.760508      0.335844
  F       2.713973     -0.853438     -1.413828
  F      -3.279943     -0.835016      0.777853
  F      -1.496092     -0.159074      1.688956
  F       3.895322      0.943112      0.223802
  F       2.660495      0.351556      1.890788
  F      -3.590855      1.018416     -0.599214
  F      -1.715176      0.833429     -1.577089
  F      -2.940888      3.086042      0.344202
  F      -1.006416      2.961987     -0.533209
  F      -1.359780      2.273799      1.493283
  O       0.178626      0.712412      0.131628
  O       1.670942      1.876382     -1.398687
  O       1.390939      2.693874      0.886225
  C       0.080346     -1.605769     -0.838486
  C       1.204972     -1.682236      0.250984
  C      -1.376400     -1.551160     -0.274796
  C       2.543193     -0.950968     -0.084183
  C      -2.038889     -0.358135      0.488768
  C       2.690019      0.431563      0.547456
  C      -2.260462      0.940124     -0.357306
  C      -1.846357      2.318024      0.268218
29
Coordinates from ORCA-job PFOS_r2 E -2626.047397100665
  S       2.156265      1.766380      0.028670
  F       0.273980     -0.653512     -1.805780
  F       0.079260     -2.733903     -1.434366
  F       1.448464     -2.951744      0.394356
  F       0.819990     -1.232255      1.487170
  F      -1.480717     -2.543966      0.567989
  F      -2.186318     -1.772098     -1.331142
  F       3.531290     -2.014675      0.346306
  F       2.823401     -1.015661     -1.425707
  F      -3.433200     -1.003751      0.699889
  F      -1.793058     -0.098159      1.700455
  F       4.430301      0.454607      0.108660
  F       3.193655      0.185164      1.864399
  F      -3.999734      0.738407     -0.651750
  F      -2.091174      0.895508     -1.589393
  F      -3.816622      2.877297      0.269132
  F      -1.859479      3.152814     -0.538962
  F      -2.140821      2.416349      1.491208
  O       0.805402      1.248863      0.279986
  O       2.465698      1.977037     -1.372977
  O       2.587891      2.802285      0.946676
  C       0.064487     -1.519537     -0.809898
  C       1.229236     -1.617650      0.265835
  C      -1.416857     -1.471661     -0.258325
  C       2.667073     -1.058466     -0.087936
  C      -2.254577     -0.353698      0.474196
  C       3.154688      0.270385      0.518396
  C      -2.679483      0.904649     -0.381185
  C      -2.579144      2.350792      0.244198
29
Coordinates from ORCA-job PFOS_r2 E -2626.062022552896
  S       2.109096      1.842892     -0.037315
  F       0.222594     -0.625175     -1.774690
  F       0.070038     -2.756705     -1.501249
  F       1.419845     -2.976349      0.430848
  F       0.722490     -1.223937      1.477288
  F      -1.505186     -2.632314      0.538170
  F      -2.229957     -1.821021     -1.377297
  F       3.531148     -1.924744      0.450032
  F       2.806798     -1.019412     -1.391860
  F      -3.479917     -1.067747      0.702150
  F      -1.774194     -0.188353      1.684123
  F       4.373328      0.497909      0.126049
  F       3.077004      0.280739      1.872958
  F      -3.970794      0.810884     -0.682879
  F      -1.992084      0.857183     -1.551905
  F      -3.625005      2.970797      0.335652
  F      -1.619787      3.051594     -0.471822
  F      -1.964085      2.290456      1.536155
  O       0.723881      1.378664      0.201442
  O       2.461343      2.014496     -1.452881
  O       2.561211      2.906891      0.866851
  C       0.029537     -1.559532     -0.833291
  C       1.182403     -1.640399      0.278742
  C      -1.461192     -1.548037     -0.286077
  C       2.627167     -1.033863     -0.050343
  C      -2.289595     -0.428355      0.471241
  C       3.080741      0.337788      0.519391
  C      -2.647414      0.884107     -0.372708
  C      -2.439516      2.321344      0.293322
29
Coordinates from ORCA-job PFOS_r2 E -2626.067030804845
  S       1.964803      1.814907      0.018584
  F       0.238090     -0.598978     -1.747119
  F       0.087648     -2.749220     -1.545309
  F       1.414512     -3.010173      0.417979
  F       0.721218     -1.236568      1.458828
  F      -1.488152     -2.645123      0.545255
  F      -2.234754     -1.828885     -1.368013
  F       3.539558     -1.910403      0.426938
  F       2.764649     -1.007914     -1.409745
  F      -3.410197     -1.019643      0.778339
  F      -1.632784     -0.148799      1.656241
  F       4.295781      0.558855      0.129569
  F       3.012241      0.245672      1.882948
  F      -3.927151      0.809422     -0.630949
  F      -1.967065      0.820515     -1.568496
  F      -3.528797      3.000808      0.321080
  F      -1.559367      3.048037     -0.579247
  F      -1.807928      2.338464      1.458720
  O       0.594853      1.293334      0.271419
  O       2.296021      2.034431     -1.406746
  O       2.399625      2.884104      0.943226
  C       0.039862     -1.572255     -0.848474
  C       1.181965     -1.673749      0.268606
  C      -1.445295     -1.565760     -0.287177
  C       2.608302     -1.042517     -0.063776
  C      -2.220850     -0.414011      0.482209
  C       3.010921      0.340134      0.530289
  C      -2.596326      0.887324     -0.376561
  C      -2.351482      2.347788      0.241483
29
Coordinates from ORCA-job PFOS_r2 E -2626.067308618835
  S       1.881251      1.749061     -0.125046
  F       0.294214     -0.521069     -1.657589
  F       0.148824     -2.680257     -1.582208
  F       1.384867     -3.028438      0.466325
  F       0.736907     -1.221959      1.481398
  F      -1.497444     -2.657472      0.496764
  F      -2.185838     -1.795225     -1.410002
  F       3.540550     -1.919114      0.511122
  F       2.786044     -1.101401     -1.374237
  F      -3.395595     -0.999787      0.737915
  F      -1.619506     -0.172464      1.659184
  F       4.250833      0.577502      0.136730
  F       2.907811      0.312483      1.857188
  F      -3.824025      0.838363     -0.709516
  F      -1.794596      0.915393     -1.490184
  F      -3.546987      2.975495      0.345520
  F      -1.509169      3.110112     -0.366496
  F      -1.932771      2.299257      1.606853
  O       0.514104      1.209649      0.119262
  O       2.256149      1.896963     -1.555783
  O       2.266650      2.889686      0.746431
  C       0.073903     -1.546660     -0.829019
  C       1.187924     -1.692404      0.303806
  C      -1.423228     -1.560708     -0.306091
  C       2.612003     -1.083030     -0.030952
  C      -2.194786     -0.412472      0.475933
  C       2.959822      0.339766      0.503635
  C      -2.522154      0.921087     -0.355127
  C      -2.355857      2.357444      0.344280
29
Coordinates from ORCA-job PFOS_r2 E -2626.069269836278
  S       1.798815      1.735114      0.104738
  F       0.276352     -0.521592     -1.628841
  F       0.138349     -2.676319     -1.594749
  F       1.395213     -3.049818      0.462473
  F       0.802200     -1.226294      1.470775
  F      -1.482088     -2.621225      0.575944
  F      -2.194716     -1.850880     -1.352035
  F       3.559203     -1.952382      0.356043
  F       2.708304     -1.057144     -1.444256
  F      -3.335407     -0.931188      0.832643
  F      -1.512222     -0.043678      1.590316
  F       4.197303      0.596545     -0.016127
  F       3.095475      0.188986      1.830984
  F      -3.776902      0.795800     -0.825988
  F      -1.726413      0.894120     -1.540444
  F      -3.579515      2.957798      0.172405
  F      -1.525001      3.131231     -0.473876
  F      -2.006333      2.361625      1.504800
  O       0.494220      1.224477      0.606429
  O       1.894393      1.908647     -1.371044
  O       2.369603      2.859064      0.898439
  C       0.071004     -1.562008     -0.820482
  C       1.204217     -1.719500      0.288384
  C      -1.414792     -1.566531     -0.276307
  C       2.602672     -1.099731     -0.096133
  C      -2.153088     -0.370782      0.465593
  C       2.968765      0.302533      0.488911
  C      -2.492642      0.916762     -0.433768
  C      -2.377067      2.376170      0.225273
29
Coordinates from ORCA-job PFOS_r2 E -2626.071667410357
  S       2.140728      1.870906     -0.007142
  F       0.241132     -0.457026     -1.652694
  F       0.175244     -2.617380     -1.640492
  F       1.261929     -2.973944      0.520214
  F       0.682444     -1.107394      1.448335
  F      -1.499053     -2.659289      0.463948
  F      -2.220258     -1.820929     -1.440862
  F       3.448478     -1.984557      0.531475
  F       2.790492     -1.152226     -1.367798
  F      -3.385353     -1.042727      0.825138
  F      -1.566568     -0.143384      1.576532
  F       4.338563      0.409618      0.067214
  F       3.104365      0.248909      1.855674
  F      -3.917388      0.679030     -0.785355
  F      -1.892103      0.897960     -1.519728
  F      -3.756042      2.855691      0.312807
  F      -1.728700      3.080392     -0.405771
  F      -2.105480      2.254159      1.561988
  O       0.768403      1.638681      0.499283
  O       2.276091      1.916012     -1.479495
  O       2.880018      2.930578      0.714392
  C       0.041619     -1.510276     -0.856893
  C       1.129168     -1.641870      0.297172
  C      -1.455126     -1.569639     -0.346217
  C       2.584308     -1.099139     -0.031456
  C      -2.223706     -0.438325      0.450978
  C       3.056784      0.295444      0.504495
  C      -2.631957      0.851353     -0.397973
  C      -2.538132      2.289176      0.302328
29
Coordinates from ORCA-job PFOS_r2 E -2626.074181721494
  S       2.146031      1.818685      0.004613
  F       0.291183     -0.371152     -1.544111
  F       0.183968     -2.533378     -1.655311
  F       1.284165     -3.020242      0.479299
  F       0.778711     -1.167901      1.489618
  F      -1.494227     -2.631882      0.484616
  F      -2.183331     -1.765615     -1.420236
  F       3.504740     -2.035352      0.479765
  F       2.788328     -1.168488     -1.392141
  F      -3.380058     -1.012477      0.845318
  F      -1.580195     -0.068800      1.594181
  F       4.367064      0.393096      0.033313
  F       3.147684      0.193016      1.842204
  F      -3.918881      0.630395     -0.833929
  F      -1.878925      0.927964     -1.505272
  F      -3.891365      2.828639      0.234426
  F      -1.848469      3.127340     -0.423821
  F      -2.248876      2.319868      1.544976
  O       0.786396      1.581385      0.544756
  O       2.245781      1.860124     -1.471626
  O       2.903873      2.879776      0.706770
  C       0.069623     -1.468779     -0.812786
  C       1.174385     -1.677842      0.309313
  C      -1.434702     -1.530868     -0.310828
  C       2.623843     -1.142472     -0.048245
  C      -2.224907     -0.397612      0.469987
  C       3.092586      0.251896      0.490509
  C      -2.655489      0.864346     -0.407947
  C      -2.649038      2.316131      0.272686
29
Coordinates from ORCA-job PFOS_r2 E -2626.075183436541
  S       2.085799      1.800799     -0.028995
  F       0.321221     -0.374898     -1.524389
  F       0.203245     -2.541735     -1.655675
  F       1.281612     -3.029024      0.502929
  F       0.779424     -1.154333      1.483598
  F      -1.497481     -2.637154      0.471880
  F      -2.175667     -1.766383     -1.431933
  F       3.501914     -2.034857      0.500057
  F       2.785121     -1.196684     -1.389878
  F      -3.350589     -0.985033      0.851390
  F      -1.523225     -0.066424      1.577388
  F       4.333011      0.419905      0.042521
  F       3.080434      0.203580      1.835762
  F      -3.864770      0.653459     -0.852565
  F      -1.811092      0.969250     -1.486226
  F      -3.880215      2.815786      0.236090
  F      -1.821689      3.156744     -0.356391
  F      -2.272634      2.302955      1.585536
  O       0.718382      1.554903      0.495869
  O       2.208957      1.831073     -1.508912
  O       2.832615      2.875044      0.676696
  C       0.082364     -1.482325     -0.812362
  C       1.174347     -1.691113      0.314756
  C      -1.425761     -1.537310     -0.322378
  C       2.617782     -1.156850     -0.046229
  C      -2.192147     -0.389753      0.464406
  C       3.054232      0.253187      0.481961
  C      -2.610703      0.883529     -0.405673
  C      -2.634588      2.323466      0.300864
29
Coordinates from ORCA-job PFOS_r2 E -2626.076363312071
  S       2.159110      1.805863     -0.021500
  F       0.315400     -0.331886     -1.493185
  F       0.197950     -2.498299     -1.677353
  F       1.254634     -3.024912      0.499180
  F       0.789487     -1.138098      1.478097
  F      -1.485108     -2.619149      0.486750
  F      -2.182982     -1.761507     -1.415694
  F       3.491161     -2.066991      0.494258
  F       2.792776     -1.220933     -1.398582
  F      -3.322573     -0.965934      0.907758
  F      -1.478825     -0.013487      1.553276
  F       4.366078      0.368395      0.043251
  F       3.105084      0.166048      1.830968
  F      -3.872778      0.589752     -0.882110
  F      -1.822409      0.987156     -1.482764
  F      -3.987951      2.758175      0.206419
  F      -1.933539      3.173593     -0.353703
  F      -2.381756      2.301793      1.579245
  O       0.784330      1.608298      0.503511
  O       2.281204      1.844042     -1.500388
  O       2.946815      2.844779      0.691253
  C       0.078479     -1.458890     -0.810218
  C       1.170542     -1.686305      0.309014
  C      -1.425357     -1.523830     -0.313913
  C       2.622754     -1.175972     -0.055626
  C      -2.182084     -0.371076      0.471342
  C       3.083094      0.224663      0.476972
  C      -2.636588      0.873606     -0.415552
  C      -2.727053      2.310905      0.289392
29
Coordinates from ORCA-job PFOS_r2 E -2626.078024052955
  S       2.242444      1.820211     -0.021153
  F       0.316440     -0.298616     -1.448819
  F       0.195153     -2.461327     -1.685398
  F       1.228992     -3.024844      0.510736
  F       0.802280     -1.120697      1.482517
  F      -1.494599     -2.603593      0.502873
  F      -2.189504     -1.754410     -1.403554
  F       3.481599     -2.095693      0.486004
  F       2.780830     -1.253808     -1.407602
  F      -3.310399     -0.924221      0.949324
  F      -1.444615      0.040094      1.524064
  F       4.392519      0.309076      0.005827
  F       3.159469      0.138316      1.812692
  F      -3.834173      0.524470     -0.970762
  F      -1.774080      1.037471     -1.447356
  F      -4.109761      2.688605      0.131068
  F      -2.036824      3.191689     -0.270238
  F      -2.588747      2.254074      1.603656
  O       0.875553      1.706675      0.546722
  O       2.320160      1.847460     -1.503044
  O       3.109409      2.815784      0.661116
  C       0.072652     -1.443240     -0.795794
  C       1.164749     -1.686916      0.314951
  C      -1.432116     -1.513428     -0.303624
  C       2.622112     -1.196803     -0.064367
  C      -2.177148     -0.348865      0.472304
  C       3.113723      0.198186      0.458360
  C      -2.643074      0.869204     -0.432565
  C      -2.843145      2.284946      0.292164
29
Coordinates from ORCA-job PFOS_r2 E -2626.080024686580
  S       2.342116      1.806919     -0.040304
  F       0.358098     -0.250008     -1.392448
  F       0.202329     -2.403634     -1.704039
  F       1.195509     -3.034323      0.520919
  F       0.824908     -1.113659      1.490099
  F      -1.500392     -2.556334      0.511120
  F      -2.180696     -1.716037     -1.402417
  F       3.478207     -2.149426      0.497202
  F       2.793849     -1.310204     -1.402745
  F      -3.240486     -0.850251      1.036251
  F      -1.347852      0.156544      1.445577
  F       4.434292      0.226477     -0.009313
  F       3.205469      0.101067      1.803774
  F      -3.810728      0.441103     -1.041686
  F      -1.784390      1.145673     -1.421774
  F      -4.295041      2.585484      0.059113
  F      -2.231297      3.226995     -0.157714
  F      -2.868736      2.173491      1.628052
  O       0.981906      1.781913      0.552635
  O       2.391587      1.810529     -1.522896
  O       3.275417      2.760919      0.612341
  C       0.085397     -1.414584     -0.783420
  C       1.167487     -1.696754      0.322913
  C      -1.424291     -1.474353     -0.303535
  C       2.635937     -1.239244     -0.061128
  C      -2.144385     -0.290731      0.464719
  C       3.155080      0.151115      0.447988
  C      -2.676579      0.880530     -0.450662
  C      -3.022814      2.250584      0.301477
29
Coordinates from ORCA-job PFOS_r2 E -2626.082765967773
  S       2.502791      1.792817     -0.045960
  F       0.362750     -0.165210     -1.300369
  F       0.191599     -2.305186     -1.713858
  F       1.155597     -3.023292      0.533921
  F       0.876627     -1.087483      1.508465
  F      -1.499159     -2.482034      0.579413
  F      -2.179947     -1.707696     -1.358144
  F       3.464438     -2.228308      0.453678
  F       2.774022     -1.347870     -1.424672
  F      -3.166244     -0.713935      1.155910
  F      -1.250445      0.338843      1.325588
  F       4.503002      0.105454     -0.051149
  F       3.293986      0.028015      1.781060
  F      -3.751740      0.335973     -1.158687
  F      -1.793511      1.283931     -1.375858
  F      -4.501139      2.454506     -0.118476
  F      -2.474141      3.224489      0.034501
  F      -3.304101      1.977033      1.614263
  O       1.161239      1.871366      0.582166
  O       2.509882      1.794388     -1.528170
  O       3.520682      2.672123      0.582887
  C       0.082223     -1.360532     -0.749179
  C       1.170827     -1.687814      0.333894
  C      -1.426409     -1.427733     -0.269017
  C       2.646992     -1.281772     -0.080881
  C      -2.119743     -0.205144      0.459292
  C       3.228109      0.084893      0.424944
  C      -2.717445      0.888245     -0.484615
  C      -3.260845      2.171734      0.289152
29
Coordinates from ORCA-job PFOS_r2 E -2626.083792970161
  S       2.606335      1.775553     -0.052912
  F       0.332548     -0.074838     -1.210962
  F       0.220501     -2.198646     -1.727182
  F       1.124584     -2.994060      0.547610
  F       0.896280     -1.060199      1.534870
  F      -1.488966     -2.444968      0.622101
  F      -2.153927     -1.754160     -1.345072
  F       3.445546     -2.274075      0.428824
  F       2.754327     -1.344442     -1.423112
  F      -3.131274     -0.667103      1.203260
  F      -1.239106      0.451894      1.215089
  F       4.555071      0.025843     -0.069766
  F       3.367244     -0.002279      1.778709
  F      -3.796246      0.300058     -1.200598
  F      -1.869950      1.329746     -1.392801
  F      -4.562349      2.452381     -0.198571
  F      -2.544846      3.167911      0.168836
  F      -3.516643      1.826150      1.586441
  O       1.291238      1.904505      0.618830
  O       2.560109      1.751935     -1.533521
  O       3.670275      2.631458      0.528325
  C       0.081173     -1.304429     -0.720362
  C       1.169758     -1.659234      0.353986
  C      -1.428750     -1.416052     -0.256404
  C       2.651627     -1.292739     -0.077305
  C      -2.133411     -0.174941      0.429363
  C       3.286214      0.050019      0.424179
  C      -2.783420      0.876954     -0.517948
  C      -3.364046      2.117560      0.286193
29
Coordinates from ORCA-job PFOS_r2 E -2626.085392516792
  S       2.616441      1.774413     -0.020343
  F       0.262870     -0.037842     -1.181923
  F       0.227813     -2.152360     -1.748465
  F       1.137130     -2.981740      0.511862
  F       0.899032     -1.068525      1.532158
  F      -1.467564     -2.464029      0.654183
  F      -2.155421     -1.815150     -1.316670
  F       3.444516     -2.270816      0.362792
  F       2.736014     -1.267886     -1.445058
  F      -3.104891     -0.721023      1.245910
  F      -1.248199      0.461717      1.188036
  F       4.576985      0.026066     -0.046494
  F       3.372283     -0.021386      1.791169
  F      -3.894746      0.273362     -1.123587
  F      -1.950291      1.228221     -1.444879
  F      -4.473084      2.567814     -0.285695
  F      -2.417095      3.109449      0.137779
  F      -3.546708      1.908087      1.556341
  O       1.302217      1.860739      0.659018
  O       2.565677      1.762133     -1.501499
  O       3.662339      2.649398      0.565438
  C       0.068187     -1.287257     -0.718828
  C       1.173702     -1.642379      0.340983
  C      -1.432622     -1.445856     -0.238028
  C       2.651102     -1.266136     -0.095927
  C      -2.147963     -0.206592      0.437471
  C       3.303824      0.053242      0.439496
  C      -2.834365      0.834460     -0.509417
  C      -3.327285      2.139678      0.254277
29
Coordinates from ORCA-job PFOS_r2 E -2626.087278292050
  S       2.674861      1.781709      0.026140
  F       0.227678     -0.015821     -1.173673
  F       0.212502     -2.123079     -1.775535
  F       1.141938     -2.980081      0.460447
  F       0.896440     -1.075406      1.507391
  F      -1.452311     -2.445929      0.696497
  F      -2.186688     -1.829987     -1.268803
  F       3.447706     -2.266996      0.294013
  F       2.726912     -1.195126     -1.474416
  F      -3.029953     -0.700476      1.331296
  F      -1.216130      0.534553      1.120893
  F       4.608428     -0.001338     -0.007006
  F       3.371886     -0.065773      1.805177
  F      -4.004821      0.185490     -0.990632
  F      -2.101863      1.122437     -1.531311
  F      -4.409499      2.640767     -0.416121
  F      -2.349656      3.025183      0.152500
  F      -3.666680      1.945072      1.501668
  O       1.354598      1.857504      0.695610
  O       2.640935      1.802379     -1.456533
  O       3.720591      2.639382      0.639209
  C       0.057164     -1.275271     -0.731007
  C       1.175369     -1.635696      0.311805
  C      -1.435091     -1.446254     -0.215474
  C       2.653299     -1.245038     -0.123792
  C      -2.137256     -0.196751      0.449710
  C       3.327089      0.044544      0.456564
  C      -2.905362      0.784865     -0.499673
  C      -3.342190      2.134937      0.215153
29
Coordinates from ORCA-job PFOS_r2 E -2626.088695015580
  S       2.716890      1.790073      0.100107
  F       0.199170      0.027320     -1.168182
  F       0.194354     -2.064691     -1.812235
  F       1.136533     -2.961545      0.410327
  F       0.890396     -1.062436      1.478542
  F      -1.427610     -2.446014      0.698270
  F      -2.215444     -1.809493     -1.241086
  F       3.442956     -2.260076      0.213227
  F       2.708394     -1.111215     -1.504216
  F      -2.977608     -0.700911      1.414379
  F      -1.221609      0.582514      1.102394
  F       4.629944     -0.014898      0.015314
  F       3.389926     -0.120820      1.817580
  F      -4.150875      0.098399     -0.752527
  F      -2.315259      0.916202     -1.627023
  F      -4.263558      2.702355     -0.594062
  F      -2.209009      2.894772      0.107572
  F      -3.728763      2.041554      1.410059
  O       1.407864      1.851260      0.794458
  O       2.660914      1.852141     -1.382574
  O       3.778079      2.631390      0.712672
  C       0.047573     -1.241781     -0.748423
  C       1.172620     -1.613318      0.280358
  C      -1.434284     -1.439545     -0.202531
  C       2.651346     -1.216371     -0.154413
  C      -2.139775     -0.201925      0.481340
  C       3.347999      0.039632      0.474949
  C      -2.988382      0.709216     -0.468287
  C      -3.302883      2.128011      0.144109
29
Coordinates from ORCA-job PFOS_r2 E -2626.089163292771
  S       2.692606      1.791326      0.113187
  F       0.206095      0.018673     -1.170894
  F       0.176958     -2.079201     -1.799694
  F       1.141873     -2.959768      0.428694
  F       0.901169     -1.050786      1.479522
  F      -1.424165     -2.448963      0.704855
  F      -2.218619     -1.807974     -1.229911
  F       3.443493     -2.263533      0.191430
  F       2.690750     -1.115217     -1.515857
  F      -3.004841     -0.691048      1.405566
  F      -1.220451      0.554581      1.147718
  F       4.616144      0.004376     -0.018157
  F       3.401327     -0.133201      1.802405
  F      -4.116665      0.106142     -0.771576
  F      -2.267787      0.924169     -1.622589
  F      -4.251727      2.692930     -0.613347
  F      -2.206906      2.915573      0.102793
  F      -3.722972      2.031061      1.392454
  O       1.389612      1.845806      0.820779
  O       2.621796      1.871908     -1.368271
  O       3.760795      2.625846      0.724035
  C       0.045145     -1.247440     -0.741579
  C       1.173724     -1.614154      0.283736
  C      -1.433424     -1.439495     -0.191604
  C       2.647308     -1.219948     -0.166317
  C      -2.136727     -0.201055      0.495365
  C       3.340733      0.040067      0.460591
  C      -2.956024      0.718433     -0.473637
  C      -3.289320      2.130694      0.130400
29
Coordinates from ORCA-job PFOS_r2 E -2626.089411719455
  S       2.704095      1.791990      0.146729
  F       0.183113      0.053655     -1.104726
  F       0.160070     -2.030430     -1.788141
  F       1.149033     -2.946712      0.441338
  F       0.932932     -1.042281      1.498076
  F      -1.413493     -2.441005      0.750099
  F      -2.210356     -1.851832     -1.194375
  F       3.435509     -2.276327      0.110755
  F       2.643588     -1.080967     -1.538151
  F      -3.027233     -0.672357      1.417549
  F      -1.236930      0.555780      1.148387
  F       4.612994      0.004220     -0.079823
  F       3.452275     -0.173903      1.776334
  F      -4.119357      0.094240     -0.788894
  F      -2.256800      0.901228     -1.631081
  F      -4.185814      2.709530     -0.707535
  F      -2.194491      2.883433      0.142713
  F      -3.811814      2.010380      1.318848
  O       1.426251      1.854364      0.897702
  O       2.583148      1.900789     -1.329292
  O       3.804939      2.598865      0.736081
  C       0.033139     -1.227339     -0.709096
  C       1.177282     -1.604162      0.294022
  C      -1.438240     -1.445320     -0.159427
  C       2.639450     -1.216713     -0.192596
  C      -2.152051     -0.201271      0.504350
  C       3.353688      0.028384      0.439445
  C      -2.955126      0.705945     -0.490157
  C      -3.289903      2.117617      0.090967
29
Coordinates from ORCA-job PFOS_r2 E -2626.089543696256
  S       2.680127      1.792488      0.158138
  F       0.188746      0.036052     -1.124157
  F       0.153174     -2.054820     -1.786373
  F       1.160175     -2.954812      0.432977
  F       0.932394     -1.052079      1.490892
  F      -1.408147     -2.434081      0.766248
  F      -2.219399     -1.860589     -1.178891
  F       3.448657     -2.266304      0.100143
  F       2.647684     -1.069493     -1.544338
  F      -3.038489     -0.675419      1.410412
  F      -1.244329      0.547759      1.168979
  F       4.605781      0.024333     -0.086794
  F       3.455826     -0.176072      1.772912
  F      -4.126245      0.107847     -0.773738
  F      -2.259540      0.883872     -1.636093
  F      -4.157856      2.727268     -0.717049
  F      -2.161179      2.880488      0.126865
  F      -3.785417      2.032904      1.313458
  O       1.398427      1.833155      0.903752
  O       2.563294      1.912596     -1.317185
  O       3.768857      2.606329      0.759935
  C       0.032847     -1.240004     -0.714547
  C       1.181677     -1.611623      0.286717
  C      -1.438534     -1.446623     -0.152983
  C       2.643323     -1.212771     -0.199136
  C      -2.152779     -0.201516      0.508191
  C       3.348694      0.033840      0.437805
  C      -2.951357      0.708746     -0.488819
  C      -3.266512      2.128330      0.082779
29
Coordinates from ORCA-job PFOS_r2 E -2626.089612229907
  S       2.671619      1.793343      0.171255
  F       0.185222      0.038820     -1.114559
  F       0.153366     -2.049009     -1.787756
  F       1.161491     -2.955370      0.430163
  F       0.938819     -1.052292      1.489448
  F      -1.399784     -2.429049      0.783996
  F      -2.223714     -1.872321     -1.162249
  F       3.449724     -2.263509      0.079734
  F       2.638605     -1.055191     -1.552346
  F      -3.051052     -0.684491      1.404540
  F      -1.255676      0.541268      1.182889
  F       4.601071      0.032444     -0.099047
  F       3.465075     -0.184664      1.766349
  F      -4.132255      0.112240     -0.767902
  F      -2.262479      0.860535     -1.642422
  F      -4.131953      2.737530     -0.737404
  F      -2.137341      2.870395      0.115882
  F      -3.777019      2.049081      1.299701
  O       1.395645      1.828005      0.926238
  O       2.542899      1.921590     -1.302152
  O       3.763098      2.605259      0.770393
  C       0.031093     -1.239563     -0.712051
  C       1.183100     -1.611986      0.284635
  C      -1.438867     -1.449075     -0.143913
  C       2.641690     -1.209214     -0.207822
  C      -2.157659     -0.205737      0.511628
  C       3.347528      0.033969      0.433795
  C      -2.950804      0.704661     -0.491104
  C      -3.251543      2.132133      0.070181
29
Coordinates from ORCA-job PFOS_r2 E -2626.089634576929
  S       2.631330      1.801788      0.209168
  F       0.165250      0.034644     -1.090913
  F       0.134344     -2.045755     -1.789351
  F       1.180522     -2.965890      0.408970
  F       0.957053     -1.071130      1.484542
  F      -1.379819     -2.419976      0.840810
  F      -2.238873     -1.920261     -1.108258
  F       3.456781     -2.245140      0.015668
  F       2.610537     -1.006289     -1.576270
  F      -3.085149     -0.700635      1.391680
  F      -1.280035      0.519178      1.215524
  F       4.578868      0.070145     -0.123605
  F       3.471159     -0.202101      1.750099
  F      -4.147733      0.138239     -0.745442
  F      -2.266982      0.790657     -1.661885
  F      -4.036261      2.771191     -0.788057
  F      -2.040043      2.835218      0.070191
  F      -3.716185      2.103047      1.263634
  O       1.359837      1.810238      0.971595
  O       2.490795      1.960878     -1.260085
  O       3.718966      2.609677      0.821253
  C       0.019322     -1.249373     -0.703922
  C       1.187737     -1.621385      0.273333
  C      -1.443128     -1.465292     -0.114021
  C       2.634166     -1.193780     -0.235404
  C      -2.169181     -0.219882      0.520901
  C       3.332338      0.042939      0.424591
  C      -2.941756      0.694287     -0.497963
  C      -3.183959      2.144565      0.033317
29
Coordinates from ORCA-job PFOS_r2 E -2626.089683377899
  S       2.645980      1.800775      0.194304
  F       0.167703      0.043132     -1.088593
  F       0.142678     -2.035519     -1.792089
  F       1.170213     -2.960693      0.417503
  F       0.948368     -1.063203      1.488831
  F      -1.387052     -2.428515      0.816874
  F      -2.231335     -1.907212     -1.131506
  F       3.451851     -2.252104      0.043539
  F       2.619624     -1.026397     -1.565149
  F      -3.078253     -0.703023      1.391809
  F      -1.275697      0.520295      1.206550
  F       4.585165      0.056670     -0.118051
  F       3.472082     -0.192444      1.756211
  F      -4.144566      0.131781     -0.754697
  F      -2.265484      0.812048     -1.656679
  F      -4.066473      2.760764     -0.766248
  F      -2.066613      2.844057      0.080957
  F      -3.727154      2.085860      1.278659
  O       1.377542      1.823461      0.961778
  O       2.501295      1.944190     -1.276112
  O       3.739637      2.610470      0.792724
  C       0.022369     -1.242232     -0.705054
  C       1.183733     -1.616440      0.279585
  C      -1.442379     -1.462939     -0.126790
  C       2.635198     -1.199233     -0.222620
  C      -2.168314     -0.220331      0.516404
  C       3.337337      0.040995      0.428068
  C      -2.945307      0.695971     -0.496474
  C      -3.202250      2.139617      0.046367
29
Coordinates from ORCA-job PFOS_r2 E -2626.089692507193
  S       2.647710      1.802835      0.195912
  F       0.164618      0.046361     -1.083929
  F       0.139153     -2.030163     -1.794007
  F       1.170868     -2.961007      0.412715
  F       0.947536     -1.066109      1.489081
  F      -1.386474     -2.430724      0.817330
  F      -2.231996     -1.910158     -1.129953
  F       3.450730     -2.250876      0.041367
  F       2.617629     -1.023363     -1.565408
  F      -3.078590     -0.703792      1.394171
  F      -1.275870      0.518746      1.207012
  F       4.584742      0.056671     -0.116126
  F       3.469125     -0.192868      1.757163
  F      -4.147555      0.131289     -0.749595
  F      -2.269750      0.805873     -1.658919
  F      -4.064599      2.759076     -0.767513
  F      -2.061093      2.841218      0.070502
  F      -3.717922      2.089898      1.277611
  O       1.378748      1.826504      0.962689
  O       2.504518      1.947811     -1.274443
  O       3.741988      2.610433      0.795807
  C       0.020518     -1.240673     -0.704349
  C       1.182719     -1.616456      0.278274
  C      -1.443012     -1.464763     -0.125721
  C       2.633759     -1.197628     -0.223255
  C      -2.169257     -0.222282      0.517634
  C       3.336328      0.041866      0.429003
  C      -2.946481      0.693315     -0.496117
  C      -3.198190      2.138768      0.043164
29
Coordinates from ORCA-job PFOS_r2 E -2626.089702068674
  S       2.641782      1.805024      0.199342
  F       0.159820      0.049910     -1.076826
  F       0.136096     -2.023332     -1.796794
  F       1.171625     -2.961558      0.407729
  F       0.946608     -1.069260      1.489166
  F      -1.384572     -2.433872      0.819890
  F      -2.233158     -1.917157     -1.126552
  F       3.450719     -2.247660      0.039434
  F       2.615254     -1.020324     -1.566291
  F      -3.084024     -0.709389      1.392362
  F      -1.279994      0.511860      1.212949
  F       4.580990      0.062458     -0.118791
  F       3.468854     -0.191935      1.756197
  F      -4.151631      0.135986     -0.743136
  F      -2.272973      0.794039     -1.662260
  F      -4.050970      2.763038     -0.769853
  F      -2.042075      2.834115      0.055585
  F      -3.697134      2.099852      1.275763
  O       1.373914      1.825076      0.968279
  O       2.496296      1.952363     -1.270490
  O       3.735508      2.613265      0.799170
  C       0.018060     -1.239575     -0.703283
  C       1.181686     -1.616711      0.276801
  C      -1.444063     -1.468718     -0.123839
  C       2.632076     -1.195284     -0.224351
  C      -2.172010     -0.227273      0.519120
  C       3.333465      0.044677      0.428654
  C      -2.945911      0.690394     -0.496065
  C      -3.184337      2.139792      0.038189
29
Coordinates from ORCA-job PFOS_r2 E -2626.089178759994
  S       2.576600      1.831962      0.245281
  F       0.101793      0.090012     -0.990873
  F       0.096157     -1.940883     -1.826238
  F       1.180750     -2.966748      0.344001
  F       0.938609     -1.109329      1.489463
  F      -1.363978     -2.465867      0.853774
  F      -2.248393     -1.994749     -1.082879
  F       3.448673     -2.207046      0.004248
  F       2.581318     -0.972685     -1.579526
  F      -3.143226     -0.769445      1.377459
  F      -1.327670      0.437260      1.278028
  F       4.536449      0.128865     -0.145733
  F       3.462526     -0.184926      1.744912
  F      -4.200289      0.196406     -0.656546
  F      -2.328824      0.648705     -1.699371
  F      -3.877033      2.804983     -0.810936
  F      -1.819429      2.726077     -0.122236
  F      -3.448989      2.208795      1.238969
  O       1.323260      1.812565      1.040078
  O       2.402592      2.009474     -1.217432
  O       3.667023      2.643901      0.843993
  C      -0.012837     -1.225366     -0.689570
  C       1.169336     -1.618977      0.257664
  C      -1.457619     -1.511745     -0.098650
  C       2.609962     -1.163957     -0.241159
  C      -2.204181     -0.282089      0.538494
  C       3.299098      0.077458      0.425791
  C      -2.943467      0.654844     -0.493310
  C      -3.018313      2.142304     -0.027596
29
Coordinates from ORCA-job PFOS_r2 E -2626.089701031732
  S       2.624765      1.810112      0.210880
  F       0.148457      0.057068     -1.058883
  F       0.127120     -2.007915     -1.802864
  F       1.175252     -2.964418      0.393846
  F       0.947609     -1.079271      1.488938
  F      -1.375590     -2.436728      0.834748
  F      -2.235951     -1.940015     -1.111031
  F       3.451807     -2.239015      0.028319
  F       2.607236     -1.009685     -1.571342
  F      -3.101967     -0.724129      1.384819
  F      -1.294232      0.494232      1.231685
  F       4.570292      0.078818     -0.129240
  F       3.470533     -0.192236      1.751096
  F      -4.160549      0.151085     -0.730595
  F      -2.277640      0.763451     -1.670019
  F      -4.008895      2.776430     -0.783739
  F      -1.992901      2.815158      0.025554
  F      -3.653366      2.125799      1.265147
  O       1.361906      1.820231      0.988581
  O       2.469021      1.965233     -1.256950
  O       3.718683      2.619449      0.808508
  C       0.011938     -1.237883     -0.699951
  C       1.180514     -1.618788      0.272170
  C      -1.446076     -1.478252     -0.115235
  C       2.627980     -1.189119     -0.230197
  C      -2.180326     -0.239170      0.523540
  C       3.326051      0.051349      0.425839
  C      -2.942958      0.684459     -0.497148
  C      -3.148814      2.143554      0.023623
29
Coordinates from ORCA-job PFOS_r2 E -2626.089707986863
  S       2.632889      1.808462      0.204434
  F       0.155447      0.052919     -1.068806
  F       0.131861     -2.015450     -1.801753
  F       1.174490     -2.965016      0.396059
  F       0.945847     -1.078968      1.488680
  F      -1.382387     -2.436612      0.823911
  F      -2.235590     -1.924709     -1.121470
  F       3.451999     -2.241963      0.036704
  F       2.613046     -1.015209     -1.567856
  F      -3.087643     -0.715428      1.392567
  F      -1.282860      0.504818      1.218268
  F       4.575616      0.070730     -0.117657
  F       3.463263     -0.190416      1.756354
  F      -4.159974      0.142741     -0.727392
  F      -2.283399      0.774242     -1.667894
  F      -4.031767      2.768337     -0.774074
  F      -2.014504      2.823386      0.032380
  F      -3.666681      2.116747      1.273011
  O       1.364860      1.823161      0.973531
  O       2.487538      1.959849     -1.264954
  O       3.724559      2.617603      0.806619
  C       0.015322     -1.239246     -0.703059
  C       1.181103     -1.619461      0.272981
  C      -1.445281     -1.473107     -0.121238
  C       2.630028     -1.191808     -0.226248
  C      -2.174407     -0.232735      0.521443
  C       3.327900      0.049021      0.429401
  C      -2.946754      0.686172     -0.494577
  C      -3.164622      2.141738      0.030735
29
Coordinates from ORCA-job PFOS_r2 E -2626.089709298316
  S       2.632370      1.808434      0.204810
  F       0.154237      0.053154     -1.068708
  F       0.132047     -2.015622     -1.801008
  F       1.173906     -2.964045      0.397638
  F       0.946151     -1.077317      1.488977
  F      -1.381760     -2.436927      0.824696
  F      -2.235375     -1.926389     -1.120921
  F       3.451767     -2.241705      0.035493
  F       2.612125     -1.014314     -1.568219
  F      -3.090343     -0.716902      1.390985
  F      -1.285096      0.502786      1.220637
  F       4.575197      0.071343     -0.119887
  F       3.465125     -0.190480      1.755446
  F      -4.159304      0.143740     -0.730020
  F      -2.280733      0.774565     -1.667099
  F      -4.027515      2.770208     -0.776148
  F      -2.012430      2.821878      0.035751
  F      -3.668792      2.116268      1.271490
  O       1.366236      1.823372      0.976906
  O       2.483375      1.959206     -1.264223
  O       3.725437      2.617759      0.804101
  C       0.014905     -1.239025     -0.702566
  C       1.180944     -1.618573      0.273534
  C      -1.445591     -1.473709     -0.120707
  C       2.629778     -1.191383     -0.226656
  C      -2.175586     -0.233708      0.521663
  C       3.328153      0.049194      0.428663
  C      -2.945926      0.686292     -0.495042
  C      -3.163402      2.141701      0.030516
29
Coordinates from ORCA-job PFOS_r2 E -2626.089709589105
  S       2.631204      1.808649      0.205139
  F       0.153706      0.052698     -1.068813
  F       0.131934     -2.016297     -1.800868
  F       1.174200     -2.964388      0.397189
  F       0.946206     -1.078082      1.489060
  F      -1.381465     -2.437116      0.825200
  F      -2.235564     -1.927164     -1.120429
  F       3.451823     -2.241247      0.034893
  F       2.611692     -1.013643     -1.568438
  F      -3.090571     -0.717008      1.391014
  F      -1.284898      0.502128      1.220806
  F       4.574567      0.072205     -0.120004
  F       3.464757     -0.190252      1.755342
  F      -4.159147      0.144430     -0.730074
  F      -2.280180      0.773924     -1.667104
  F      -4.025494      2.771181     -0.776596
  F      -2.010471      2.821281      0.035571
  F      -3.667619      2.117148      1.271183
  O       1.365260      1.823175      0.977519
  O       2.481743      1.959599     -1.263829
  O       3.724208      2.618196      0.804267
  C       0.014688     -1.239463     -0.702550
  C       1.180932     -1.618861      0.273420
  C      -1.445723     -1.474138     -0.120410
  C       2.629545     -1.191084     -0.226905
  C      -2.175571     -0.234009      0.521793
  C       3.327570      0.049577      0.428590
  C      -2.945431      0.686333     -0.495107
  C      -3.162002      2.142027      0.030238
29
Coordinates from ORCA-job PFOS_r2 E -2626.089709823349
  S       2.629939      1.808971      0.205369
  F       0.153381      0.052145     -1.069218
  F       0.132156     -2.017107     -1.800683
  F       1.174433     -2.964643      0.397057
  F       0.946187     -1.078596      1.489217
  F      -1.381624     -2.437631      0.824955
  F      -2.235762     -1.927355     -1.120618
  F       3.451822     -2.240687      0.034559
  F       2.611181     -1.013033     -1.568501
  F      -3.090566     -0.717340      1.391117
  F      -1.284562      0.501297      1.220861
  F       4.573864      0.073099     -0.119899
  F       3.464127     -0.189778      1.755359
  F      -4.159449      0.145223     -0.729199
  F      -2.280473      0.772824     -1.667323
  F      -4.022837      2.772306     -0.776970
  F      -2.007767      2.820054      0.035434
  F      -3.665994      2.118146      1.270964
  O       1.364208      1.823185      0.978061
  O       2.479970      1.959992     -1.263540
  O       3.722923      2.618790      0.804187
  C       0.014560     -1.239889     -0.702614
  C       1.180856     -1.619057      0.273470
  C      -1.445931     -1.474524     -0.120484
  C       2.629235     -1.190732     -0.226983
  C      -2.175513     -0.234423      0.521894
  C       3.326863      0.050086      0.428593
  C      -2.945139      0.686232     -0.495006
  C      -3.160189      2.142246      0.030041
29
Coordinates from ORCA-job PFOS_r2 E -2626.089709891365
  S       2.629293      1.809251      0.205503
  F       0.153204      0.051985     -1.069210
  F       0.132115     -2.017210     -1.800818
  F       1.174617     -2.964889      0.396549
  F       0.946096     -1.079211      1.489243
  F      -1.381660     -2.437925      0.824870
  F      -2.235929     -1.927522     -1.120637
  F       3.451914     -2.240262      0.034448
  F       2.611056     -1.012597     -1.568501
  F      -3.090567     -0.717659      1.391160
  F      -1.284483      0.500841      1.220919
  F       4.573491      0.073603     -0.119490
  F       3.463418     -0.189459      1.755535
  F      -4.159988      0.145766     -0.728099
  F      -2.281256      0.771754     -1.667661
  F      -4.021415      2.772786     -0.777037
  F      -2.005921      2.819229      0.034546
  F      -3.664242      2.119003      1.270945
  O       1.363549      1.823358      0.978164
  O       2.479327      1.960288     -1.263405
  O       3.722214      2.619151      0.804336
  C       0.014452     -1.240049     -0.702702
  C       1.180796     -1.619253      0.273346
  C      -1.446032     -1.474773     -0.120519
  C       2.629081     -1.190488     -0.226999
  C      -2.175531     -0.234732      0.521948
  C       3.326391      0.050419      0.428738
  C      -2.945175      0.686044     -0.494877
  C      -3.158917      2.142349      0.029805
29
Coordinates from ORCA-job PFOS_r2 E -2626.089709904006
  S       2.629193      1.809324      0.205561
  F       0.153142      0.052094     -1.069027
  F       0.132110     -2.016985     -1.800911
  F       1.174651     -2.964899      0.396386
  F       0.946105     -1.079310      1.489245
  F      -1.381657     -2.437991      0.824880
  F      -2.235972     -1.927576     -1.120615
  F       3.451932     -2.240166      0.034409
  F       2.611041     -1.012497     -1.568520
  F      -3.090697     -0.717888      1.391086
  F      -1.284648      0.500677      1.221072
  F       4.573436      0.073726     -0.119430
  F       3.463306     -0.189405      1.755556
  F      -4.160306      0.145949     -0.727620
  F      -2.281689      0.771266     -1.667825
  F      -4.020907      2.772895     -0.777186
  F      -2.005313      2.818885      0.034218
  F      -3.663728      2.119298      1.270861
  O       1.363449      1.823387      0.978224
  O       2.479226      1.960397     -1.263345
  O       3.722107      2.619220      0.804417
  C       0.014421     -1.239980     -0.702690
  C       1.180789     -1.619251      0.273308
  C      -1.446056     -1.474832     -0.120510
  C       2.629062     -1.190422     -0.227019
  C      -2.175626     -0.234872      0.521974
  C       3.326325      0.050491      0.428758
  C      -2.945282      0.685926     -0.494829
  C      -3.158517      2.142342      0.029670
