29
-113.3372271156
S  1.34263836647109124911 1.58799124245153477908 -0.02970699591005788662
F  0.28998170546302348694 -0.71980304520678972668 -1.81323382712170744213
F  0.11797678532713980204 -2.80163540324194970665 -1.48754442671181852376
F  1.50044347514259679421 -2.99702118630729419380 0.38838543015396376212
F  0.75929309525419552696 -1.32689113825303417471 1.46511165745731797294
F  -1.48907812829380792330 -2.61711081600422579285 0.54722218069471773028
F  -2.18836678248366611754 -1.81014520892243924166 -1.32134340541285610904
F  3.54944067560303411213 -1.76050756914666473030 0.33584405697749014630
F  2.71397342806105834612 -0.85343828847987424080 -1.41382830501151213198
F  -3.27994316126390472732 -0.83501601812283410275 0.77785281559659580353
F  -1.49609238755540951971 -0.15907397304503173574 1.68895648842283474522
F  3.89532215457668895553 0.94311209082914304602 0.22380178105777301378
F  2.66049482703742468104 0.35155612888793946746 1.89078781635465853483
F  -3.59085471557424540379 1.01841555105909997714 -0.59921443108214889062
F  -1.71517577196300652354 0.83342898232682882664 -1.57708883364860930065
F  -2.94088782291020889303 3.08604192457745751810 0.34420243784048698554
F  -1.00641581639086696853 2.96198658375189394221 -0.53320934936150843342
F  -1.35977976189889360192 2.27379943133403061850 1.49328344301552617956
O  0.17862589388044683436 0.71241211774134394208 0.13162796803475440566
O  1.67094193703531290751 1.87638246131278685347 -1.39868725503336022165
O  1.39093913455612194774 2.69387441998199417270 0.88622466318982651146
C  0.08034623814234767569 -1.60576858426395663315 -0.83848637194769592984
C  1.20497210319757819263 -1.68223628809945080498 0.25098383309260796636
C  -1.37639954619622906229 -1.55116047651538524477 -0.27479589883554111918
C  2.54319345852539946407 -0.95096807581958298083 -0.08418269484487118925
C  -2.03888932117495569329 -0.35813460017550835524 0.48876827384003390664
C  2.69001872204459280269 0.43156312011800734840 0.54745617060638962492
C  -2.26046248648686320948 0.94012398954278486585 -0.35730574464088454834
C  -1.84635729812607785050 2.31802362768911818236 0.26821752322758951603
