56
# 5964
N     -4.9333810754   -1.0735289797    0.2603846719
C     -4.2514484845   -0.4521320781   -0.9625444312
C     -5.0778682427   -0.0300152798    1.3685358154
C     -6.3403866813   -1.5028685945   -0.1656724652
C     -4.2002848097   -2.2746627928    0.7982967876
C     -2.8198230991   -0.0061678303   -0.7799879846
C     -2.5296823453    1.2935187094   -0.3364124265
C     -1.7547868118   -0.8801609365   -1.0515979819
C     -1.2080114188    1.7024178111   -0.1530127566
C     -0.4338165491   -0.4677548980   -0.8678715084
C     -0.1615865903    0.8214817338   -0.4159676638
H     -4.8678353733    0.3961676561   -1.2884416474
H     -4.2984877645   -1.2008713165   -1.7643821360
H     -5.4323745754    0.8986054007    0.9229840517
H     -5.7673192628   -0.4169684055    2.1236463032
H     -4.0962959554    0.1308617461    1.8239806622
H     -6.2376403617   -2.3070203217   -0.9016514965
H     -6.8732863871   -1.8762136487    0.7123626972
H     -6.8444214126   -0.6539825126   -0.6264024442
H     -4.0653318224   -2.9949086967   -0.0141252018
H     -3.2322009045   -1.9604531466    1.1975519125
H     -4.7986906663   -2.7189381578    1.6000781972
H     -3.3306955706    2.0043380710   -0.1341122201
H     -1.9408757547   -1.8881179915   -1.4160727126
H     -0.9947096529    2.7121554903    0.1911020406
H      0.3864316355   -1.1489801441   -1.0823823813
H      0.8674311834    1.1440992448   -0.2757394791
S     -8.2888418967    1.3316612509    1.1339961386
F    -12.2156361850   -1.2093370207   -0.2410994002
F    -11.2942274523   -0.3487118633    1.5121096854
F    -11.7995217294    1.0390672237   -1.6894904355
F    -10.0237719247    0.1014969739   -0.9395863532
F    -13.1174556176    1.6722914451    1.5639843343
F    -13.9280236436   -0.3214482668    1.6598012233
F     -9.9868731484    2.8557850858   -1.0180045066
F    -11.7866696646    2.9544092421    0.1556459748
F    -15.4540021774    1.4058268026    0.3041387691
F    -13.8403216153    1.9367416198   -1.0315852552
F    -10.6347517022    1.7987361989    2.3048495821
F     -9.6260812563    3.5849042845    1.5850216685
F    -13.6994753393   -0.6431138260   -1.9778962100
F    -15.6357260818    0.3145034593   -2.1507278460
F    -16.4672542189   -0.9900481646    0.2354761944
F    -14.5680601128   -2.0544582422    0.2640480424
F    -15.9066122498   -2.2821918283   -1.4237106869
O     -7.4521408378    1.7377725394    2.2641926176
O     -7.6944984293    1.6821715144   -0.1555440972
O     -8.6565257976   -0.0829312950    1.2032896655
C    -11.9759721246   -0.0126729335    0.3834262142
C    -11.0926975967    0.8381161085   -0.5267578668
C    -13.3266229188    0.5593702243    0.8007778850
C    -10.6450469975    2.1998632342   -0.0122771120
C    -14.3298390002    0.8952859393   -0.2944693430
C     -9.8542671556    2.2632230403    1.2769184233
C    -14.7579272775   -0.2136332105   -1.2371973212
C    -15.4260276063   -1.3801054262   -0.5317742465
