19
Coordinates from ORCA-job PFHxA_wb E -1477.788555578651
  F           0.90110201561838     -0.17122370360677     -2.11455998239075
  F          -0.41730787624586     -1.57670572838690     -1.10185534490385
  F          -0.01089807578209      1.86063005592185     -0.58011669063932
  F          -1.44394831424619      0.81287793251101     -1.83215817279485
  F           2.14713938316613     -1.74647074069044     -0.48236979929610
  F           0.87249327137666     -1.25747246597287      1.20862156958574
  F          -0.97620639765207      0.74389952406766      1.62536017771200
  F          -2.49736878177732      1.70796484640765      0.41001131346263
  F           1.83260426050182      1.23218696722026      1.30597189190994
  F           3.43901326685939     -0.18865643948870      1.12278298494685
  F           2.86170316062426      1.00286988472560     -0.58164758133647
  O          -3.49441799133460     -0.70316588639415     -0.32881381631826
  O          -2.30858821004587     -1.51331124688847      1.39902557888334
  C           0.28966679048339     -0.44315678091160     -0.94868797801766
  C          -0.72027975724676      0.72033880220732     -0.70251958025409
  C           1.41678828390233     -0.77223667203765      0.08747862466589
  C          -1.70380025641524      0.61046817100272      0.49579351863434
  C           2.40912961848561      0.36227584039612      0.48915367462301
  C          -2.59712439047197     -0.68121236018265      0.52852961152762
