19
Coordinates from ORCA-job PFHxA_wb E -1477.786859799072
  F       0.901055     -0.181516     -2.127927
  F      -0.441030     -1.579484     -1.091043
  F       0.005292      1.875712     -0.577140
  F      -1.447116      0.831157     -1.844220
  F       2.148285     -1.758823     -0.484720
  F       0.861325     -1.261487      1.218952
  F      -0.969140      0.757827      1.631936
  F      -2.517116      1.712155      0.406760
  F       1.836853      1.226911      1.332817
  F       3.460602     -0.196225      1.110491
  F       2.847578      1.018903     -0.588843
  O      -3.472932     -0.728599     -0.355729
  O      -2.310097     -1.513152      1.421521
  C       0.284415     -0.441811     -0.949424
  C      -0.719263      0.730389     -0.704471
  C       1.413790     -0.774368      0.089512
  C      -1.704526      0.611948      0.493067
  C       2.410272      0.360966      0.491940
  C      -2.588548     -0.690604      0.526521
19
Coordinates from ORCA-job PFHxA_wb E -1477.788458012331
  F       0.896238     -0.179166     -2.111272
  F      -0.417852     -1.580437     -1.083840
  F      -0.007032      1.858228     -0.561397
  F      -1.434349      0.821145     -1.829890
  F       2.150664     -1.746776     -0.481257
  F       0.886249     -1.251426      1.217205
  F      -0.989433      0.733228      1.631201
  F      -2.502876      1.705066      0.410502
  F       1.855602      1.233036      1.309938
  F       3.462849     -0.184159      1.097281
  F       2.856148      1.010829     -0.595884
  O      -3.490965     -0.703287     -0.360512
  O      -2.355784     -1.506704      1.407357
  C       0.290549     -0.443675     -0.938948
  C      -0.719312      0.717911     -0.693485
  C       1.423891     -0.767932      0.089964
  C      -1.711577      0.601905      0.494283
  C       2.419818      0.364892      0.480564
  C      -2.613127     -0.682780      0.518190
19
Coordinates from ORCA-job PFHxA_wb E -1477.788007462248
  F       0.906764     -0.162735     -2.124477
  F      -0.428667     -1.564701     -1.133539
  F      -0.010564      1.867941     -0.612138
  F      -1.456708      0.818193     -1.843801
  F       2.128795     -1.748045     -0.487174
  F       0.828710     -1.272996      1.186141
  F      -0.941091      0.791175      1.602491
  F      -2.498677      1.709479      0.400985
  F       1.793340      1.206460      1.331547
  F       3.400903     -0.209540      1.148508
  F       2.845897      1.004749     -0.544174
  O      -3.443076     -0.748664     -0.300166
  O      -2.213396     -1.503813      1.419399
  C       0.282488     -0.436190     -0.967147
  C      -0.722722      0.728915     -0.721751
  C       1.392869     -0.777666      0.080028
  C      -1.687075      0.625813      0.489622
  C       2.379590      0.349007      0.510252
  C      -2.557681     -0.677482      0.565394
19
Coordinates from ORCA-job PFHxA_wb E -1477.788213785735
  F       0.916583     -0.152938     -2.127173
  F      -0.416859     -1.563935     -1.145974
  F      -0.011610      1.867850     -0.607493
  F      -1.451936      0.818096     -1.846864
  F       2.136171     -1.745952     -0.489293
  F       0.831952     -1.271622      1.181462
  F      -0.943533      0.776243      1.601430
  F      -2.500564      1.695932      0.398999
  F       1.793949      1.211041      1.324927
  F       3.401187     -0.207561      1.154209
  F       2.856424      1.003333     -0.544645
  O      -3.473822     -0.734363     -0.276643
  O      -2.255780     -1.487027      1.451819
  C       0.290177     -0.434459     -0.973297
  C      -0.719328      0.727424     -0.724608
  C       1.398697     -0.776733      0.076886
  C      -1.685480      0.615554      0.485980
  C       2.384543      0.351369      0.509357
  C      -2.551072     -0.692350      0.550921
19
Coordinates from ORCA-job PFHxA_wb E -1477.787749792374
  F       0.872760     -0.194616     -2.081355
  F      -0.411591     -1.591828     -1.008036
  F      -0.011703      1.850841     -0.482202
  F      -1.412010      0.829160     -1.795861
  F       2.154321     -1.756698     -0.448686
  F       0.951144     -1.192020      1.274551
  F      -1.069138      0.657307      1.678050
  F      -2.516638      1.701451      0.434334
  F       1.952273      1.295261      1.235675
  F       3.530977     -0.159926      1.040769
  F       2.895650      0.973535     -0.686902
  O      -3.523981     -0.655657     -0.460130
  O      -2.482154     -1.546657      1.324258
  C       0.293117     -0.449052     -0.893055
  C      -0.721188      0.712261     -0.645590
  C       1.455533     -0.752398      0.114231
  C      -1.751669      0.579808      0.512431
  C       2.480036      0.382380      0.429545
  C      -2.686041     -0.683251      0.457974
19
Coordinates from ORCA-job PFHxA_wb E -1477.788522000546
  F       0.896674     -0.177056     -2.111416
  F      -0.414612     -1.579893     -1.086251
  F      -0.012924      1.858753     -0.566509
  F      -1.439369      0.815449     -1.828618
  F       2.148751     -1.746810     -0.477753
  F       0.883087     -1.245796      1.216613
  F      -0.988548      0.729637      1.631266
  F      -2.499225      1.706404      0.413626
  F       1.856107      1.236235      1.305393
  F       3.457532     -0.186602      1.103169
  F       2.862355      1.006222     -0.594240
  O      -3.494838     -0.700094     -0.353858
  O      -2.345825     -1.512541      1.397307
  C       0.290892     -0.443981     -0.941598
  C      -0.721036      0.718376     -0.695986
  C       1.423204     -0.767882      0.090513
  C      -1.710626      0.604661      0.497125
  C       2.421213      0.365696      0.481438
  C      -2.613111     -0.680879      0.519778
19
Coordinates from ORCA-job PFHxA_wb E -1477.788529408492
  F       0.903251     -0.166151     -2.118705
  F      -0.422644     -1.570511     -1.114203
  F      -0.006536      1.863579     -0.581943
  F      -1.443253      0.822988     -1.836040
  F       2.138282     -1.749499     -0.482217
  F       0.854499     -1.258896      1.201649
  F      -0.967690      0.759138      1.618830
  F      -2.502578      1.703373      0.405205
  F       1.819449      1.229052      1.305623
  F       3.423928     -0.195489      1.134605
  F       2.861902      0.996970     -0.573828
  O      -3.477506     -0.723570     -0.317762
  O      -2.280502     -1.508315      1.413731
  C       0.287362     -0.439574     -0.956032
  C      -0.719011      0.725702     -0.707731
  C       1.407785     -0.774074      0.084768
  C      -1.698552      0.613687      0.493153
  C       2.400156      0.357747      0.493616
  C      -2.578643     -0.686257      0.537281
19
Coordinates from ORCA-job PFHxA_wb E -1477.788554985343
  F       0.900652     -0.170907     -2.115428
  F      -0.418433     -1.575435     -1.102375
  F      -0.010303      1.861600     -0.578037
  F      -1.442886      0.816606     -1.832661
  F       2.144921     -1.747364     -0.481628
  F       0.869332     -1.255715      1.208056
  F      -0.976758      0.746836      1.624679
  F      -2.500401      1.705720      0.408310
  F       1.834953      1.230655      1.307986
  F       3.439767     -0.191286      1.120511
  F       2.860938      1.003022     -0.581506
  O      -3.487734     -0.710183     -0.332271
  O      -2.309786     -1.510222      1.405650
  C       0.289245     -0.442065     -0.949562
  C      -0.720137      0.721749     -0.702838
  C       1.415546     -0.771839      0.087215
  C      -1.703840      0.610234      0.495159
  C       2.409429      0.361341      0.489132
  C      -2.594804     -0.682847      0.529610
19
Coordinates from ORCA-job PFHxA_wb E -1477.788555958685
  F       0.900408     -0.172400     -2.115241
  F      -0.417886     -1.576886     -1.100988
  F      -0.009603      1.860209     -0.578052
  F      -1.442754      0.815048     -1.832020
  F       2.147067     -1.746624     -0.482038
  F       0.871897     -1.256674      1.208437
  F      -0.975764      0.743215      1.625355
  F      -2.497451      1.707073      0.410447
  F       1.832779      1.231913      1.306324
  F       3.439630     -0.188138      1.121097
  F       2.860301      1.003890     -0.582303
  O      -3.491190     -0.705080     -0.332271
  O      -2.312725     -1.511518      1.402312
  C       0.289587     -0.443362     -0.948984
  C      -0.719726      0.720523     -0.702299
  C       1.416703     -0.772097      0.087228
  C      -1.703386      0.609734      0.495845
  C       2.408971      0.362624      0.488636
  C      -2.597157     -0.681551      0.528515
19
Coordinates from ORCA-job PFHxA_wb E -1477.788554798019
  F       0.900722     -0.171736     -2.114861
  F      -0.417640     -1.576666     -1.101441
  F      -0.010429      1.860580     -0.579162
  F      -1.443391      0.814008     -1.832149
  F       2.146975     -1.746534     -0.482201
  F       0.872228     -1.257123      1.208588
  F      -0.976102      0.743790      1.625250
  F      -2.497745      1.707442      0.410121
  F       1.833097      1.231824      1.306494
  F       3.439572     -0.188675      1.121642
  F       2.860996      1.003427     -0.581914
  O      -3.492381     -0.704596     -0.330862
  O      -2.310836     -1.512148      1.401112
  C       0.289592     -0.443150     -0.948825
  C      -0.720093      0.720539     -0.702463
  C       1.416723     -0.772140      0.087401
  C      -1.703716      0.610162      0.495772
  C       2.409201      0.362355      0.488936
  C      -2.597073     -0.681458      0.528560
19
Coordinates from ORCA-job PFHxA_wb E -1477.788555707313
  F       0.901102     -0.171194     -2.114546
  F      -0.417375     -1.576605     -1.101862
  F      -0.010923      1.860722     -0.580000
  F      -1.443907      0.813097     -1.832195
  F       2.146951     -1.746539     -0.482246
  F       0.872357     -1.257325      1.208692
  F      -0.976160      0.743881      1.625287
  F      -2.497543      1.707828      0.410097
  F       1.832812      1.232195      1.305979
  F       3.439093     -0.188762      1.122635
  F       2.861732      1.002781     -0.581741
  O      -3.493981     -0.703557     -0.329181
  O      -2.308836     -1.513140      1.399396
  C       0.289633     -0.443074     -0.948708
  C      -0.720307      0.720444     -0.702546
  C       1.416711     -0.772195      0.087520
  C      -1.703813      0.610424      0.495786
  C       2.409191      0.362245      0.489109
  C      -2.597038     -0.681326      0.528522
19
Coordinates from ORCA-job PFHxA_wb E -1477.788555578651
  F       0.901102     -0.171224     -2.114560
  F      -0.417308     -1.576706     -1.101855
  F      -0.010898      1.860630     -0.580117
  F      -1.443948      0.812878     -1.832158
  F       2.147139     -1.746471     -0.482370
  F       0.872493     -1.257472      1.208622
  F      -0.976206      0.743900      1.625360
  F      -2.497369      1.707965      0.410011
  F       1.832604      1.232187      1.305972
  F       3.439013     -0.188656      1.122783
  F       2.861703      1.002870     -0.581648
  O      -3.494418     -0.703166     -0.328814
  O      -2.308588     -1.513311      1.399026
  C       0.289667     -0.443157     -0.948688
  C      -0.720280      0.720339     -0.702520
  C       1.416788     -0.772237      0.087479
  C      -1.703800      0.610468      0.495794
  C       2.409130      0.362276      0.489154
  C      -2.597124     -0.681212      0.528530
