52
Coordinates from ORCA-job R4N+FHEA-_0.15M E -2199.764389580309
  N          -2.73433917387700      0.48309495724515      0.80269046326116
  C          -1.90282398849219      0.21531014236224     -0.45552975478415
  C          -2.18439510566378      1.64374830245781      1.57601446948152
  C          -4.13111134878745      0.81227702395939      0.35964903635003
  C          -2.77427541267927     -0.72634934593655      1.68780486185030
  C          -0.46333834563195     -0.11353593027991     -0.19095788689366
  C           0.49760146996580      0.90142313425709     -0.15243443718238
  C          -0.05983743144822     -1.44101371096547     -0.01896049872336
  C           1.83550687721416      0.59639205571453      0.07718689744444
  C           1.27807660176609     -1.74630485075493      0.21111013709946
  C           2.22698910389447     -0.72760718881769      0.26380338855407
  H          -1.99154393773435      1.12110881838460     -1.06149857999595
  H          -2.40686890541207     -0.61008513912464     -0.96556848208054
  H          -2.14025507421144      2.51512475317328      0.91947339696928
  H          -1.18886082676282      1.39075842704906      1.94319795382992
  H          -2.85462639409554      1.83545567337793      2.41648468912403
  H          -4.09285221081339      1.68769374690605     -0.29207984851662
  H          -4.73306039311858      1.02470332449623      1.24542292748688
  H          -4.53873971654792     -0.04561833088554     -0.17889196326865
  H          -1.76438849180809     -0.94787502454707      2.03618367582327
  H          -3.17606882083991     -1.56603874644012      1.11683243484443
  H          -3.42202571718937     -0.50166420348886      2.53786221784528
  H           0.19419327660000      1.93359753163589     -0.30863759679118
  H          -0.79804477740301     -2.23735340248229     -0.07168218126138
  H           2.57417543774676      1.39237732389614      0.10358062142450
  H           1.58124430637411     -2.78109299741384      0.34220337801640
  H           3.27215920279408     -0.96627643613899      0.43954451345463
  F         -10.82728114451663      0.76923569992842      7.56803241290260
  F          -8.68460929027936      0.30601176298073      7.57906241723705
  F         -10.26211491005638     -1.62096134555865      8.46799472484520
  F          -9.10624818940463     -2.16944898017935      6.68790710762079
  F          -9.58004559448147      2.03583898736125      5.69524342743397
  F         -10.93465026544398      0.51211073730712      4.87805882734450
  F          -8.88152965773811     -1.06307461182750      4.19564930477168
  F          -8.79299182703514      0.98326961872858      3.39851033852679
  F         -11.23928034770749     -2.23540841583961      5.15934262960962
  F         -12.47672171725769     -1.13817198539262      6.61034279606842
  F         -12.45427543363281     -3.18845721267694      8.31579142526595
  F         -10.91735742335782     -4.24001276945797      7.17988041694764
  F         -12.88572323293632     -3.90091780971264      6.30989378360460
  O          -5.16867631759547      1.14952786912598      4.03658433485636
  O          -6.22857237598960     -0.58690166397376      3.07587281611205
  C          -9.85171953242267      0.08010397566148      6.92758289337791
  C          -9.73861387229563      0.70090394137375      5.49552475557965
  C         -10.16034099811710     -1.44969728178499      7.12430704907352
  C          -8.59872036286543      0.23081989280542      4.53662710330648
  C         -11.46300228617591     -2.02083284067553      6.47223281589598
  C          -7.19400478490630      0.40984451444325      5.04875318162333
  C         -11.93802226234922     -3.37625743848659      7.09730213435393
  C          -6.11114339750868      0.31769003783914      3.94398299165531
  H          -6.98976331226271     -0.37161883938771      5.78922667267486
  H          -7.12371144990133      1.37706928395929      5.55243551274934
