56
Coordinates from ORCA-job R4N+PFOS-_0.15M E -3071.202959407994
  N      -4.933381     -1.073529      0.260385
  C      -4.251448     -0.452132     -0.962544
  C      -5.077868     -0.030015      1.368536
  C      -6.340387     -1.502869     -0.165672
  C      -4.200285     -2.274663      0.798297
  C      -2.819823     -0.006168     -0.779988
  C      -2.529682      1.293519     -0.336412
  C      -1.754787     -0.880161     -1.051598
  C      -1.208011      1.702418     -0.153013
  C      -0.433817     -0.467755     -0.867872
  C      -0.161587      0.821482     -0.415968
  H      -4.867835      0.396168     -1.288442
  H      -4.298488     -1.200871     -1.764382
  H      -5.432375      0.898605      0.922984
  H      -5.767319     -0.416968      2.123646
  H      -4.096296      0.130862      1.823981
  H      -6.237640     -2.307020     -0.901651
  H      -6.873286     -1.876214      0.712363
  H      -6.844421     -0.653983     -0.626402
  H      -4.065332     -2.994909     -0.014125
  H      -3.232201     -1.960453      1.197552
  H      -4.798691     -2.718938      1.600078
  H      -3.330696      2.004338     -0.134112
  H      -1.940876     -1.888118     -1.416073
  H      -0.994710      2.712155      0.191102
  H       0.386432     -1.148980     -1.082382
  H       0.867431      1.144099     -0.275739
  S      -8.288842      1.331661      1.133996
  F     -12.215636     -1.209337     -0.241099
  F     -11.294227     -0.348712      1.512110
  F     -11.799522      1.039067     -1.689490
  F     -10.023772      0.101497     -0.939586
  F     -13.117456      1.672291      1.563984
  F     -13.928024     -0.321448      1.659801
  F      -9.986873      2.855785     -1.018005
  F     -11.786670      2.954409      0.155646
  F     -15.454002      1.405827      0.304139
  F     -13.840322      1.936742     -1.031585
  F     -10.634752      1.798736      2.304850
  F      -9.626081      3.584904      1.585022
  F     -13.699475     -0.643114     -1.977896
  F     -15.635726      0.314503     -2.150728
  F     -16.467254     -0.990048      0.235476
  F     -14.568060     -2.054458      0.264048
  F     -15.906612     -2.282192     -1.423711
  O      -7.452141      1.737773      2.264193
  O      -7.694498      1.682172     -0.155544
  O      -8.656526     -0.082931      1.203290
  C     -11.975972     -0.012673      0.383426
  C     -11.092698      0.838116     -0.526758
  C     -13.326623      0.559370      0.800778
  C     -10.645047      2.199863     -0.012277
  C     -14.329839      0.895286     -0.294469
  C      -9.854267      2.263223      1.276918
  C     -14.757927     -0.213633     -1.237197
  C     -15.426028     -1.380105     -0.531774
56
Coordinates from ORCA-job R4N+PFOS-_0.15M E -3071.240026846490
  N      -4.878055     -1.034019      0.359998
  C      -4.234742     -0.502198     -0.917740
  C      -4.968246      0.076958      1.403146
  C      -6.298464     -1.473851      0.010128
  C      -4.139923     -2.205176      0.944016
  C      -2.796379     -0.068637     -0.797741
  C      -2.478763      1.248593     -0.440905
  C      -1.754534     -0.972986     -1.044076
  C      -1.148812      1.647725     -0.316596
  C      -0.424781     -0.572281     -0.920151
  C      -0.121832      0.736973     -0.553328
  H      -4.853068      0.330859     -1.272900
  H      -4.317415     -1.300078     -1.666081
  H      -5.326904      0.981565      0.915452
  H      -5.633546     -0.250604      2.206034
  H      -3.968429      0.250678      1.810221
  H      -6.225832     -2.323220     -0.676131
  H      -6.804470     -1.785714      0.926937
  H      -6.816211     -0.650784     -0.487399
  H      -4.041806     -2.975926      0.174733
  H      -3.155711     -1.877962      1.287396
  H      -4.714743     -2.588892      1.791593
  H      -3.266237      1.978944     -0.261888
  H      -1.968589     -1.996745     -1.342441
  H      -0.913691      2.672395     -0.039368
  H       0.378165     -1.278637     -1.115131
  H       0.914724      1.050991     -0.459516
  S      -8.164322      1.460266      1.190382
  F     -12.107428     -1.172990     -0.413334
  F     -11.289388     -0.434368      1.435105
  F     -11.726041      1.166040     -1.668482
  F      -9.971035      0.192428     -0.909802
  F     -13.256202      1.378953      1.707158
  F     -13.847934     -0.680819      1.563395
  F      -9.910255      2.894322     -1.004116
  F     -11.691365      3.066924      0.185373
  F     -15.604428      1.054945      0.645612
  F     -14.197398      1.951704     -0.724616
  F     -10.475364      2.010232      2.376994
  F      -9.481985      3.738910      1.510541
  F     -14.085591     -0.343819     -2.213780
  F     -16.036465      0.545234     -1.918629
  F     -16.604710     -1.364183      0.063975
  F     -14.723410     -2.357777     -0.386802
  F     -16.209854     -2.105964     -1.937794
  O      -7.288560      1.935893      2.272955
  O      -7.609819      1.731136     -0.144576
  O      -8.552296      0.054583      1.367151
  C     -11.962471     -0.035859      0.327969
  C     -11.052690      0.912612     -0.502983
  C     -13.384195      0.361147      0.814460
  C     -10.572580      2.286293      0.022030
  C     -14.530056      0.764007     -0.149263
  C      -9.736081      2.408905      1.301400
  C     -15.048767     -0.151015     -1.279889
  C     -15.643269     -1.503241     -0.868597
56
Coordinates from ORCA-job R4N+PFOS-_0.15M E -3071.253704430304
  N      -4.862383     -1.014507      0.385898
  C      -4.248456     -0.521584     -0.910610
  C      -4.919867      0.113753      1.400812
  C      -6.275560     -1.471513      0.075346
  C      -4.105436     -2.164825      0.969791
  C      -2.814357     -0.090247     -0.800134
  C      -2.494922      1.230884     -0.473391
  C      -1.780812     -1.001561     -1.033677
  C      -1.165539      1.629950     -0.365991
  C      -0.451098     -0.603442     -0.927231
  C      -0.141612      0.712241     -0.589546
  H      -4.876575      0.301176     -1.264770
  H      -4.343819     -1.343492     -1.627935
  H      -5.292204      1.008762      0.907454
  H      -5.563424     -0.190850      2.228115
  H      -3.908639      0.293289      1.772862
  H      -6.206453     -2.334462     -0.592623
  H      -6.759142     -1.764434      1.007934
  H      -6.821038     -0.664902     -0.426893
  H      -4.025890     -2.951049      0.215741
  H      -3.114702     -1.825424      1.276049
  H      -4.656929     -2.528431      1.839274
  H      -3.283985      1.960067     -0.307463
  H      -2.007720     -2.028710     -1.308481
  H      -0.928503      2.659266     -0.112745
  H       0.345944     -1.317550     -1.113055
  H       0.895847      1.024817     -0.508972
  S      -8.105076      1.480201      1.227201
  F     -12.147159     -1.170858     -0.492332
  F     -11.287981     -0.488664      1.393156
  F     -11.802930      1.203860     -1.643937
  F     -10.001162      0.202668     -0.944403
  F     -13.234888      1.322963      1.728477
  F     -13.847593     -0.758059      1.525380
  F      -9.967275      2.897381     -0.991863
  F     -11.736681      3.027242      0.260382
  F     -15.609654      1.016966      0.700251
  F     -14.192620      1.956581     -0.668424
  F     -10.426158      2.006580      2.395116
  F      -9.466324      3.737761      1.476192
  F     -14.100138     -0.273785     -2.210449
  F     -16.071634      0.597887     -1.874373
  F     -16.617901     -1.425158     -0.025619
  F     -14.711613     -2.356223     -0.528317
  F     -16.200554     -2.029966     -2.075445
  O      -7.231769      2.014322      2.296671
  O      -7.587207      1.744012     -0.134311
  O      -8.508046      0.077632      1.455934
  C     -11.975292     -0.079440      0.303587
  C     -11.083764      0.906553     -0.521252
  C     -13.392774      0.318877      0.830053
  C     -10.605513      2.285781      0.037688
  C     -14.549750      0.768772     -0.117357
  C      -9.719051      2.411856      1.310435
  C     -15.075427     -0.117514     -1.289385
  C     -15.659044     -1.512976     -0.958716
56
Coordinates from ORCA-job R4N+PFOS-_0.15M E -3071.258224134310
  N      -4.855909     -1.020445      0.355505
  C      -4.210223     -0.517695     -0.926952
  C      -4.919661      0.082106      1.384358
  C      -6.253254     -1.468565      0.011079
  C      -4.112333     -2.185870      0.926812
  C      -2.779347     -0.089891     -0.773838
  C      -2.465534      1.228965     -0.435922
  C      -1.743821     -1.000701     -0.995148
  C      -1.138627      1.625052     -0.299612
  C      -0.416521     -0.606019     -0.859977
  C      -0.111456      0.706861     -0.507153
  H      -4.834087      0.310679     -1.274177
  H      -4.294337     -1.338267     -1.645923
  H      -5.290967      0.987571      0.906618
  H      -5.578449     -0.232972      2.194643
  H      -3.912824      0.251498      1.770341
  H      -6.171370     -2.314328     -0.676498
  H      -6.752562     -1.777583      0.928460
  H      -6.794460     -0.648851     -0.469966
  H      -4.030154     -2.960664      0.161530
  H      -3.122760     -1.859744      1.248122
  H      -4.676922     -2.558925      1.783645
  H      -3.261255      1.953785     -0.285891
  H      -1.974731     -2.023895     -1.280666
  H      -0.906183      2.653154     -0.037817
  H       0.381232     -1.321791     -1.035740
  H       0.924647      1.016784     -0.404522
  S      -8.093096      1.469477      1.203388
  F     -12.155169     -1.133814     -0.528719
  F     -11.268357     -0.417370      1.343836
  F     -11.834699      1.251523     -1.697640
  F     -10.022323      0.251108     -0.975718
  F     -13.223564      1.365192      1.700800
  F     -13.817811     -0.734833      1.516700
  F      -9.981749      2.937165     -1.027873
  F     -11.754260      3.060382      0.252665
  F     -15.623282      1.009122      0.750443
  F     -14.268829      1.959480     -0.687744
  F     -10.445131      1.988532      2.329428
  F      -9.464084      3.732418      1.435368
  F     -14.187781     -0.294193     -2.186059
  F     -16.178941      0.537201     -1.780912
  F     -16.585739     -1.482833      0.101751
  F     -14.672798     -2.355852     -0.476945
  F     -16.238582     -2.089390     -1.961197
  O      -7.263224      2.014415      2.308014
  O      -7.562704      1.775850     -0.151551
  O      -8.524016      0.065288      1.409664
  C     -11.981936     -0.045067      0.262381
  C     -11.111345      0.949653     -0.585554
  C     -13.397088      0.351030      0.822942
  C     -10.632249      2.330079     -0.010659
  C     -14.591899      0.785072     -0.099676
  C      -9.729109      2.414976      1.264323
  C     -15.139299     -0.141757     -1.242408
  C     -15.671319     -1.560632     -0.870255
56
Coordinates from ORCA-job R4N+PFOS-_0.15M E -3071.259903157026
  N      -4.777779     -1.051661      0.396668
  C      -4.149853     -0.585693     -0.917112
  C      -4.861816      0.082914      1.379435
  C      -6.159278     -1.553157      0.082924
  C      -3.992627     -2.174265      1.004555
  C      -2.737856     -0.091046     -0.789038
  C      -2.479499      1.257055     -0.525276
  C      -1.664446     -0.967277     -0.971951
  C      -1.169997      1.716066     -0.421636
  C      -0.354783     -0.508829     -0.869228
  C      -0.105239      0.832986     -0.588862
  H      -4.810194      0.201850     -1.292229
  H      -4.203653     -1.446236     -1.590340
  H      -5.281194      0.954151      0.876321
  H      -5.501858     -0.222604      2.208379
  H      -3.856725      0.304722      1.742029
  H      -6.062021     -2.413950     -0.582980
  H      -6.637241     -1.846993      1.016445
  H      -6.735171     -0.761246     -0.401418
  H      -3.903937     -2.979899      0.272482
  H      -3.005848     -1.810704      1.292873
  H      -4.532636     -2.524050      1.887192
  H      -3.308022      1.951075     -0.408607
  H      -1.857150     -2.012457     -1.200695
  H      -0.980883      2.766172     -0.217987
  H       0.471722     -1.198581     -1.014634
  H       0.917150      1.192116     -0.511949
  S      -8.094659      1.386990      1.217967
  F     -12.303977     -1.226887     -0.484567
  F     -11.382503     -0.543362      1.384119
  F     -11.878360      1.099035     -1.683294
  F     -10.094939      0.089086     -0.905327
  F     -13.250210      1.289996      1.776096
  F     -13.989367     -0.756940      1.499944
  F     -10.045614      2.783764     -1.041149
  F     -11.801151      2.939789      0.259189
  F     -15.649695      1.136212      0.749024
  F     -14.182494      2.047886     -0.605479
  F     -10.464745      1.904036      2.337543
  F      -9.507978      3.631131      1.386625
  F     -14.189010     -0.129611     -2.193387
  F     -16.151898      0.785419     -1.808095
  F     -16.692077     -1.302163     -0.005730
  F     -14.827983     -2.247538     -0.626755
  F     -16.368244     -1.813848     -2.095777
  O      -7.299267      2.025081      2.298557
  O      -7.584222      1.664005     -0.152974
  O      -8.482493     -0.019430      1.492714
  C     -12.081404     -0.147748      0.303060
  C     -11.178741      0.811431     -0.556698
  C     -13.476130      0.322236      0.861725
  C     -10.690628      2.201560     -0.007911
  C     -14.606983      0.881028     -0.075280
  C      -9.764228      2.306931      1.253069
  C     -15.163986      0.031629     -1.274611
  C     -15.778431     -1.377705     -0.977860
56
Coordinates from ORCA-job R4N+PFOS-_0.15M E -3071.261002999844
  N      -4.727494     -1.093928      0.365008
  C      -4.073180     -0.610122     -0.937312
  C      -4.824831      0.022940      1.359290
  C      -6.101200     -1.590238      0.023453
  C      -3.945703     -2.226294      0.966015
  C      -2.674834     -0.090657     -0.772127
  C      -2.448661      1.262799     -0.502627
  C      -1.580115     -0.946667     -0.931239
  C      -1.150631      1.746636     -0.371001
  C      -0.282242     -0.462246     -0.800347
  C      -0.065708      0.884300     -0.515304
  H      -4.739833      0.171482     -1.314568
  H      -4.098351     -1.470557     -1.611574
  H      -5.261171      0.894099      0.868521
  H      -5.470976     -0.300409      2.177535
  H      -3.825329      0.254508      1.730457
  H      -6.001394     -2.428444     -0.669297
  H      -6.586832     -1.909517      0.945448
  H      -6.676737     -0.779855     -0.427657
  H      -3.857669     -3.025862      0.227264
  H      -2.958101     -1.868481      1.259656
  H      -4.488876     -2.582756      1.844365
  H      -3.295496      1.937658     -0.403636
  H      -1.751398     -1.995040     -1.162716
  H      -0.986260      2.800347     -0.163863
  H       0.560299     -1.136092     -0.927962
  H       0.947672      1.263170     -0.416337
  S      -8.087532      1.349846      1.230988
  F     -12.332766     -1.129091     -0.602142
  F     -11.422630     -0.500068      1.288648
  F     -11.893548      1.255401     -1.721145
  F     -10.128771      0.191943     -0.978145
  F     -13.302423      1.365912      1.675853
  F     -14.010809     -0.697064      1.436939
  F     -10.036022      2.883860     -1.001434
  F     -11.780357      3.016095      0.312316
  F     -15.675357      1.233470      0.670087
  F     -14.240986      1.999241     -0.804149
  F     -10.471723      1.872722      2.339721
  F      -9.471563      3.606866      1.449293
  F     -14.349381     -0.326214     -2.194142
  F     -16.274852      0.672358     -1.827509
  F     -16.767685     -1.222237      0.214546
  F     -14.983117     -2.287461     -0.439872
  F     -16.600981     -1.918361     -1.839151
  O      -7.332715      1.998282      2.333687
  O      -7.559070      1.650060     -0.128549
  O      -8.469826     -0.060692      1.491573
  C     -12.117749     -0.073793      0.216237
  C     -11.205496      0.912032     -0.606794
  C     -13.517324      0.380355      0.779572
  C     -10.692587      2.266853      0.005055
  C     -14.665944      0.891755     -0.163817
  C      -9.759700      2.292091      1.267077
  C     -15.283625     -0.052084     -1.259917
  C     -15.922662     -1.410376     -0.804170
56
Coordinates from ORCA-job R4N+PFOS-_0.15M E -3071.261901564757
  N      -4.760524     -1.109491      0.319205
  C      -4.058276     -0.624059     -0.957153
  C      -4.875935      0.003251      1.317058
  C      -6.131588     -1.579908     -0.069982
  C      -4.013610     -2.256564      0.935160
  C      -2.665357     -0.113149     -0.739420
  C      -2.442531      1.239079     -0.460192
  C      -1.570163     -0.975924     -0.853328
  C      -1.148059      1.715449     -0.277037
  C      -0.275860     -0.498689     -0.670805
  C      -0.063490      0.846807     -0.378252
  H      -4.706079      0.162763     -1.355052
  H      -4.063379     -1.482026     -1.634599
  H      -5.299674      0.877792      0.820153
  H      -5.543959     -0.322163      2.117619
  H      -3.885709      0.230515      1.714193
  H      -6.028365     -2.403486     -0.779072
  H      -6.647440     -1.911662      0.832219
  H      -6.680387     -0.747763     -0.514607
  H      -3.920964     -3.054370      0.195163
  H      -3.027914     -1.915310      1.254090
  H      -4.583788     -2.606809      1.798502
  H      -3.288631      1.918573     -0.393442
  H      -1.737710     -2.023604     -1.090564
  H      -0.985722      2.767984     -0.062888
  H       0.567442     -1.177053     -0.763951
  H       0.947269      1.219989     -0.238998
  S      -8.147325      1.393537      1.143291
  F     -12.300762     -1.076168     -0.662117
  F     -11.279952     -0.443116      1.168637
  F     -11.977099      1.321877     -1.790843
  F     -10.149588      0.309538     -1.133400
  F     -13.187699      1.341039      1.729299
  F     -13.845528     -0.733451      1.485038
  F     -10.068515      2.976455     -1.106782
  F     -11.816080      3.100152      0.205344
  F     -15.636595      1.118574      0.872360
  F     -14.332777      2.022635     -0.637937
  F     -10.533082      1.945802      2.229122
  F      -9.495435      3.670538      1.359768
  F     -14.408604     -0.194414     -2.154946
  F     -16.369655      0.612182     -1.589107
  F     -16.515542     -1.446473      0.380631
  F     -14.738231     -2.316544     -0.535330
  F     -16.518642     -1.977922     -1.729812
  O      -7.416679      2.029229      2.267752
  O      -7.580997      1.688721     -0.199548
  O      -8.541789     -0.015148      1.385408
  C     -12.063836     -0.021751      0.153656
  C     -11.230908      0.996717     -0.707543
  C     -13.432832      0.374008      0.819364
  C     -10.725772      2.351755     -0.101423
  C     -14.658739      0.863652     -0.030281
  C      -9.804250      2.359760      1.163334
  C     -15.283811     -0.058927     -1.137187
  C     -15.771120     -1.489957     -0.730670
56
Coordinates from ORCA-job R4N+PFOS-_0.15M E -3071.262582466386
  N      -4.687811     -1.123467      0.289932
  C      -3.987934     -0.625791     -0.980191
  C      -4.821001     -0.013009      1.290623
  C      -6.055216     -1.601477     -0.106699
  C      -3.935342     -2.264346      0.905138
  C      -2.605112     -0.093753     -0.754524
  C      -2.404827      1.262410     -0.478713
  C      -1.497031     -0.940732     -0.853743
  C      -1.119669      1.758365     -0.284104
  C      -0.211871     -0.444439     -0.659467
  C      -0.021916      0.905034     -0.370343
  H      -4.644711      0.149483     -1.384725
  H      -3.974895     -1.482982     -1.658427
  H      -5.261509      0.854020      0.794820
  H      -5.479073     -0.352362      2.093972
  H      -3.834719      0.232594      1.685803
  H      -5.945787     -2.411795     -0.829827
  H      -6.568587     -1.954687      0.789456
  H      -6.609205     -0.765392     -0.538744
  H      -3.837723     -3.060661      0.164332
  H      -2.952522     -1.915732      1.224213
  H      -4.503436     -2.617813      1.768087
  H      -3.260400      1.930381     -0.422985
  H      -1.645642     -1.991543     -1.089365
  H      -0.974589      2.813705     -0.072206
  H       0.642182     -1.110514     -0.740841
  H       0.981830      1.293427     -0.222511
  S      -8.135051      1.359306      1.148565
  F     -12.418123     -1.148882     -0.461560
  F     -11.468276     -0.419106      1.372259
  F     -11.958553      1.148380     -1.733430
  F     -10.200504      0.123567     -0.918998
  F     -13.339457      1.443876      1.720512
  F     -14.061731     -0.616003      1.558682
  F     -10.075731      2.806710     -1.104488
  F     -11.817610      3.039161      0.205756
  F     -15.746588      1.259114      0.741273
  F     -14.322151      2.042152     -0.723813
  F     -10.502853      1.901967      2.271016
  F      -9.503972      3.621514      1.347302
  F     -14.398247     -0.221656     -2.153352
  F     -16.353023      0.675237     -1.735670
  F     -16.681962     -1.302312      0.303514
  F     -14.906085     -2.276732     -0.506627
  F     -16.614613     -1.897276     -1.790858
  O      -7.406711      2.002322      2.270463
  O      -7.576222      1.653101     -0.195982
  O      -8.500800     -0.056083      1.388273
  C     -12.185843     -0.045578      0.290557
  C     -11.274449      0.879262     -0.593769
  C     -13.571939      0.435035      0.853471
  C     -10.741245      2.251976     -0.062248
  C     -14.728158      0.922748     -0.087893
  C      -9.800467      2.303117      1.183201
  C     -15.323932     -0.018990     -1.193718
  C     -15.891440     -1.412377     -0.771297
56
Coordinates from ORCA-job R4N+PFOS-_0.15M E -3071.262923184193
  N      -4.653285     -1.128868      0.284018
  C      -3.936672     -0.635126     -0.978798
  C      -4.809528     -0.013802      1.275685
  C      -6.012957     -1.612458     -0.131035
  C      -3.908017     -2.262916      0.918531
  C      -2.562671     -0.085861     -0.737254
  C      -2.380497      1.276058     -0.477885
  C      -1.444484     -0.922029     -0.808126
  C      -1.103951      1.788060     -0.269066
  C      -0.167839     -0.410074     -0.599165
  C       0.003650      0.944948     -0.324943
  H      -4.594876      0.128440     -1.403000
  H      -3.903577     -1.498765     -1.648498
  H      -5.257326      0.843508      0.769627
  H      -5.468122     -0.357289      2.076719
  H      -3.830302      0.248259      1.677566
  H      -5.891222     -2.416452     -0.859296
  H      -6.534272     -1.976487      0.756110
  H      -6.566067     -0.775886     -0.563514
  H      -3.800106     -3.065500      0.185929
  H      -2.929945     -1.910284      1.247386
  H      -4.486927     -2.609187      1.777261
  H      -3.243485      1.936035     -0.446224
  H      -1.578020     -1.976977     -1.033965
  H      -0.973021      2.847715     -0.069709
  H       0.694295     -1.068135     -0.657873
  H       1.000864      1.345736     -0.166285
  S      -8.155814      1.353352      1.116118
  F     -12.449737     -1.189979     -0.543855
  F     -11.441809     -0.538857      1.288145
  F     -11.985389      1.096096     -1.769299
  F     -10.206730      0.087887     -0.983827
  F     -13.272658      1.324331      1.762730
  F     -14.046981     -0.710787      1.518362
  F     -10.107381      2.762401     -1.154633
  F     -11.854932      2.983194      0.147491
  F     -15.679763      1.288804      0.828065
  F     -14.259995      2.039021     -0.661296
  F     -10.526362      1.894227      2.229049
  F      -9.541330      3.604107      1.273596
  F     -14.482832     -0.216881     -2.118642
  F     -16.365414      0.809712     -1.660026
  F     -16.807543     -1.150454      0.363382
  F     -15.115448     -2.244341     -0.469294
  F     -16.806019     -1.741775     -1.733753
  O      -7.444628      2.015674      2.238769
  O      -7.589777      1.636822     -0.227259
  O      -8.505725     -0.064276      1.365868
  C     -12.182592     -0.117724      0.240308
  C     -11.286844      0.827031     -0.639465
  C     -13.545836      0.362402      0.855756
  C     -10.768873      2.206793     -0.110712
  C     -14.703879      0.925521     -0.038635
  C      -9.830010      2.282160      1.133614
  C     -15.379287      0.038564     -1.143690
  C     -16.040305     -1.313217     -0.720961
56
Coordinates from ORCA-job R4N+PFOS-_0.15M E -3071.263301408902
  N      -4.656520     -1.136131      0.260159
  C      -3.920023     -0.641398     -0.992210
  C      -4.811279     -0.028024      1.258026
  C      -6.017638     -1.598959     -0.172155
  C      -3.931421     -2.283882      0.894290
  C      -2.544775     -0.102205     -0.732003
  C      -2.356474      1.257923     -0.467012
  C      -1.431056     -0.945360     -0.793326
  C      -1.078904      1.761137     -0.243223
  C      -0.153396     -0.442245     -0.569042
  C       0.023834      0.910896     -0.289095
  H      -4.568309      0.128615     -1.420605
  H      -3.884895     -1.502593     -1.665251
  H      -5.255422      0.833648      0.756104
  H      -5.472069     -0.375543      2.055349
  H      -3.832429      0.229009      1.664487
  H      -5.899779     -2.389373     -0.915813
  H      -6.547235     -1.976173      0.704331
  H      -6.560407     -0.748819     -0.590730
  H      -3.829197     -3.084458      0.158625
  H      -2.950784     -1.946891      1.232336
  H      -4.521336     -2.626323      1.747255
  H      -3.215878      1.923210     -0.443057
  H      -1.569069     -1.998593     -1.024618
  H      -0.943243      2.819521     -0.039844
  H       0.705146     -1.105733     -0.620392
  H       1.021866      1.304753     -0.118463
  S      -8.167185      1.388714      1.116241
  F     -12.456729     -1.133575     -0.550348
  F     -11.450050     -0.479988      1.280671
  F     -12.029409      1.181945     -1.757701
  F     -10.242127      0.162352     -1.012623
  F     -13.312478      1.376842      1.750581
  F     -14.037510     -0.681059      1.535487
  F     -10.124325      2.828117     -1.146030
  F     -11.858723      3.051386      0.169572
  F     -15.732757      1.248098      0.824778
  F     -14.341367      2.032000     -0.676693
  F     -10.529066      1.947206      2.235675
  F      -9.534628      3.648319      1.274556
  F     -14.476716     -0.233050     -2.109209
  F     -16.408961      0.702012     -1.648770
  F     -16.737318     -1.265889      0.392998
  F     -14.991100     -2.271561     -0.437621
  F     -16.712990     -1.877793     -1.697424
  O      -7.459576      2.047873      2.243881
  O      -7.597377      1.673093     -0.225455
  O      -8.523696     -0.028406      1.362263
  C     -12.198604     -0.062246      0.237424
  C     -11.316069      0.896900     -0.642210
  C     -13.567016      0.396469      0.858429
  C     -10.783335      2.268325     -0.103274
  C     -14.745030      0.912314     -0.038526
  C      -9.836806      2.329756      1.136239
  C     -15.382438     -0.014807     -1.133298
  C     -15.968174     -1.396879     -0.693637
56
Coordinates from ORCA-job R4N+PFOS-_0.15M E -3071.263570721086
  N      -4.639779     -1.140035      0.216328
  C      -3.874253     -0.631452     -1.011758
  C      -4.810336     -0.046048      1.226768
  C      -5.995184     -1.586510     -0.250908
  C      -3.934357     -2.300976      0.848242
  C      -2.503718     -0.100385     -0.712485
  C      -2.317574      1.255589     -0.425679
  C      -1.391637     -0.946746     -0.757006
  C      -1.043988      1.751857     -0.166290
  C      -0.117930     -0.450681     -0.496916
  C       0.056972      0.898462     -0.196779
  H      -4.510163      0.145852     -1.445534
  H      -3.825755     -1.483676     -1.695424
  H      -5.250448      0.820610      0.730076
  H      -5.477084     -0.408030      2.012455
  H      -3.837392      0.209610      1.648631
  H      -5.867788     -2.356190     -1.014621
  H      -6.539642     -1.988025      0.605413
  H      -6.527895     -0.723607     -0.656226
  H      -3.824496     -3.092910      0.104387
  H      -2.957388     -1.975695      1.208298
  H      -4.541653     -2.649861      1.686191
  H      -3.175310      1.923470     -0.412657
  H      -1.527013     -1.996815     -1.003949
  H      -0.909830      2.807188      0.053304
  H       0.739555     -1.116383     -0.535726
  H       1.051910      1.286793      0.002239
  S      -8.188699      1.404549      1.081949
  F     -12.478398     -1.136460     -0.521678
  F     -11.453411     -0.437599      1.283526
  F     -12.071083      1.171473     -1.776668
  F     -10.274580      0.158087     -1.039850
  F     -13.305667      1.433584      1.725078
  F     -14.031222     -0.630005      1.585295
  F     -10.146804      2.820127     -1.193693
  F     -11.879540      3.058578      0.124634
  F     -15.744704      1.265797      0.851047
  F     -14.383853      2.025161     -0.688955
  F     -10.552743      1.956893      2.194097
  F      -9.563333      3.660501      1.230179
  F     -14.541530     -0.252007     -2.086129
  F     -16.471894      0.664884     -1.588235
  F     -16.725554     -1.285572      0.481956
  F     -14.987865     -2.278754     -0.382564
  F     -16.746030     -1.917768     -1.601032
  O      -7.495834      2.057256      2.223182
  O      -7.606256      1.699933     -0.251701
  O      -8.542714     -0.016237      1.312579
  C     -12.214878     -0.047076      0.239095
  C     -11.344623      0.897446     -0.666780
  C     -13.575087      0.426646      0.867261
  C     -10.805828      2.272013     -0.144444
  C     -14.771133      0.916230     -0.021982
  C      -9.860577      2.340677      1.095094
  C     -15.424365     -0.033162     -1.089778
  C     -15.981868     -1.418128     -0.621754
56
Coordinates from ORCA-job R4N+PFOS-_0.15M E -3071.263738738665
  N      -4.620970     -1.138991      0.184531
  C      -3.836167     -0.622733     -1.026015
  C      -4.803503     -0.053864      1.203265
  C      -5.971903     -1.573734     -0.307388
  C      -3.930660     -2.308593      0.815735
  C      -2.468030     -0.099826     -0.702017
  C      -2.280518      1.253076     -0.402563
  C      -1.359333     -0.950842     -0.734761
  C      -1.009165      1.741770     -0.118951
  C      -0.087769     -0.462543     -0.450389
  C       0.088392      0.883610     -0.137785
  H      -4.461965      0.160089     -1.464323
  H      -3.779976     -1.468501     -1.717270
  H      -5.241051      0.815574      0.709539
  H      -5.471470     -0.427167      1.982471
  H      -3.834586      0.202115      1.634434
  H      -5.836241     -2.327869     -1.085236
  H      -6.526589     -1.994112      0.533179
  H      -6.496764     -0.702430     -0.704972
  H      -3.814438     -3.094620      0.066636
  H      -2.957135     -1.991647      1.192254
  H      -4.550941     -2.661421      1.642206
  H      -3.135016      1.925095     -0.397560
  H      -1.494404     -1.998723     -0.990991
  H      -0.873934      2.794767      0.110743
  H       0.767299     -1.131755     -0.479745
  H       1.081634      1.265958      0.080268
  S      -8.208715      1.429665      1.062857
  F     -12.499934     -1.146688     -0.491992
  F     -11.468445     -0.425402      1.300639
  F     -12.101528      1.145253     -1.776523
  F     -10.300489      0.141887     -1.037150
  F     -13.320270      1.450437      1.726992
  F     -14.046095     -0.614471      1.613868
  F     -10.170497      2.797515     -1.224483
  F     -11.903750      3.058282      0.090602
  F     -15.763321      1.268251      0.865850
  F     -14.408112      2.019313     -0.683816
  F     -10.568578      1.982282      2.176626
  F      -9.592496      3.680554      1.189933
  F     -14.564668     -0.275003     -2.060304
  F     -16.492356      0.653746     -1.574072
  F     -16.766756     -1.268406      0.507614
  F     -15.018783     -2.275561     -0.320366
  F     -16.763623     -1.934422     -1.565375
  O      -7.521249      2.080829      2.208821
  O      -7.621899      1.728146     -0.267951
  O      -8.558009      0.006476      1.288215
  C     -12.234170     -0.048084      0.254536
  C     -11.368921      0.885187     -0.666716
  C     -13.592489      0.433301      0.881641
  C     -10.828929      2.267220     -0.165680
  C     -14.792118      0.914032     -0.007751
  C      -9.882314      2.357736      1.071422
  C     -15.447783     -0.042633     -1.067363
  C     -16.010750     -1.419652     -0.585269
56
Coordinates from ORCA-job R4N+PFOS-_0.15M E -3071.263840053903
  N      -4.602985     -1.143610      0.172622
  C      -3.811782     -0.624640     -1.031861
  C      -4.791581     -0.061605      1.193866
  C      -5.950721     -1.577839     -0.328833
  C      -3.916319     -2.314828      0.804949
  C      -2.445219     -0.101962     -0.700360
  C      -2.259560      1.250421     -0.397810
  C      -1.336149     -0.952541     -0.729506
  C      -0.989908      1.738827     -0.106015
  C      -0.066255     -0.464516     -0.437047
  C       0.107963      0.881003     -0.120590
  H      -4.435008      0.159250     -1.472043
  H      -3.751783     -1.468012     -1.725859
  H      -5.230479      0.807619      0.701018
  H      -5.456578     -0.441634      1.972241
  H      -3.823993      0.197288      1.626526
  H      -5.808656     -2.326645     -1.110755
  H      -6.508499     -2.006495      0.505376
  H      -6.473677     -0.705833     -0.726714
  H      -3.794394     -3.098470      0.054227
  H      -2.945590     -1.998630      1.189104
  H      -4.541670     -2.670826      1.626135
  H      -3.114062      1.922426     -0.395653
  H      -1.469049     -2.000060     -0.988240
  H      -0.856265      2.791372      0.126654
  H       0.789154     -1.133421     -0.463254
  H       1.099876      1.263153      0.103711
  S      -8.225180      1.448681      1.063952
  F     -12.515906     -1.153594     -0.474200
  F     -11.484873     -0.422152      1.314503
  F     -12.123754      1.134111     -1.769103
  F     -10.320291      0.134241     -1.032336
  F     -13.336274      1.457766      1.728231
  F     -14.065077     -0.606614      1.627099
  F     -10.192478      2.788074     -1.231426
  F     -11.925903      3.054265      0.082709
  F     -15.779772      1.269002      0.867022
  F     -14.421527      2.019238     -0.680540
  F     -10.584462      2.000791      2.177233
  F      -9.617736      3.694629      1.174587
  F     -14.573464     -0.284493     -2.051346
  F     -16.499036      0.656245     -1.579880
  F     -16.806104     -1.251591      0.500282
  F     -15.048220     -2.270635     -0.291797
  F     -16.773026     -1.935422     -1.566467
  O      -7.538233      2.108037      2.205622
  O      -7.641667      1.744081     -0.269173
  O      -8.569243      0.025127      1.297744
  C     -12.250144     -0.051105      0.266190
  C     -11.387086      0.877836     -0.660711
  C     -13.608883      0.435476      0.888785
  C     -10.848531      2.264022     -0.168337
  C     -14.806731      0.914350     -0.004470
  C      -9.901025      2.369444      1.068034
  C     -15.460732     -0.042809     -1.064395
  C     -16.033703     -1.414320     -0.579598
56
Coordinates from ORCA-job R4N+PFOS-_0.15M E -3071.263896270621
  N      -4.593106     -1.150281      0.168733
  C      -3.802028     -0.628986     -1.034743
  C      -4.783198     -0.069584      1.191024
  C      -5.939171     -1.588190     -0.333969
  C      -3.903881     -2.320687      0.800419
  C      -2.436151     -0.105622     -0.701914
  C      -2.251877      1.246430     -0.397139
  C      -1.326428     -0.955343     -0.731353
  C      -0.982807      1.735440     -0.103746
  C      -0.057146     -0.466599     -0.437431
  C       0.115772      0.878601     -0.118900
  H      -4.425503      0.155606     -1.473438
  H      -3.741194     -1.470828     -1.730424
  H      -5.223315      0.799662      0.699192
  H      -5.446245     -0.452524      1.969585
  H      -3.815448      0.190194      1.622786
  H      -5.793407     -2.339155     -1.113124
  H      -6.497717     -2.015810      0.500287
  H      -6.461642     -0.718589     -0.737365
  H      -3.777205     -3.102157      0.048228
  H      -2.935235     -2.001847      1.187589
  H      -4.529965     -2.680956      1.619177
  H      -3.106885      1.917765     -0.394661
  H      -1.458259     -2.002677     -0.991305
  H      -0.850286      2.787765      0.130551
  H       0.798799     -1.134797     -0.464177
  H       1.107193      1.261244      0.106716
  S      -8.237301      1.466368      1.068714
  F     -12.518647     -1.152536     -0.461135
  F     -11.493968     -0.410827      1.326743
  F     -12.134057      1.134168     -1.762636
  F     -10.328556      0.140148     -1.022847
  F     -13.353124      1.461792      1.732094
  F     -14.076622     -0.604298      1.630452
  F     -10.208683      2.794287     -1.230439
  F     -11.942028      3.059216      0.083943
  F     -15.794325      1.261692      0.864395
  F     -14.434205      2.021354     -0.676796
  F     -10.597079      2.020819      2.181751
  F      -9.633048      3.710933      1.170773
  F     -14.571376     -0.285063     -2.050878
  F     -16.501181      0.651262     -1.587904
  F     -16.819510     -1.255619      0.486118
  F     -15.049303     -2.269302     -0.284608
  F     -16.761632     -1.944179     -1.578710
  O      -7.547125      2.133335      2.203647
  O      -7.658842      1.756259     -0.268013
  O      -8.580289      0.044219      1.312964
  C     -12.258025     -0.046338      0.275454
  C     -11.396543      0.881896     -0.653458
  C     -13.620138      0.437849      0.892532
  C     -10.862065      2.271486     -0.165317
  C     -14.816491      0.913300     -0.004847
  C      -9.913696      2.384541      1.070626
  C     -15.463227     -0.044865     -1.067751
  C     -16.034828     -1.417500     -0.585364
56
Coordinates from ORCA-job R4N+PFOS-_0.15M E -3071.263938624320
  N      -4.584548     -1.160689      0.172592
  C      -3.798715     -0.636217     -1.033807
  C      -4.775050     -0.080713      1.195356
  C      -5.929340     -1.606454     -0.326207
  C      -3.887825     -2.328080      0.802634
  C      -2.432937     -0.109738     -0.705453
  C      -2.250876      1.242614     -0.400503
  C      -1.321085     -0.956604     -0.740014
  C      -0.981917      1.734544     -0.111503
  C      -0.051974     -0.464816     -0.450572
  C       0.118714      0.880527     -0.131492
  H      -4.425634      0.147829     -1.468607
  H      -3.738637     -1.477309     -1.730369
  H      -5.218081      0.787972      0.705023
  H      -5.436196     -0.465230      1.974755
  H      -3.806653      0.180257      1.624711
  H      -5.780677     -2.365046     -1.097333
  H      -6.487353     -2.026504      0.512311
  H      -6.452938     -0.742249     -0.739547
  H      -3.755729     -3.107218      0.048989
  H      -2.921468     -2.003568      1.190674
  H      -4.512087     -2.694099      1.620297
  H      -3.107600      1.911727     -0.394706
  H      -1.451497     -2.003973     -1.000459
  H      -0.851263      2.787049      0.123075
  H       0.805496     -1.130896     -0.481378
  H       1.110022      1.265501      0.090653
  S      -8.249027      1.482848      1.079064
  F     -12.516473     -1.145139     -0.457613
  F     -11.499948     -0.398865      1.333137
  F     -12.137491      1.143420     -1.758172
  F     -10.330044      0.155927     -1.013829
  F     -13.368112      1.465165      1.733136
  F     -14.083067     -0.603622      1.627644
  F     -10.223077      2.813089     -1.221661
  F     -11.956962      3.067767      0.093344
  F     -15.806622      1.253657      0.857089
  F     -14.444786      2.022670     -0.677631
  F     -10.611778      2.038150      2.189867
  F      -9.646350      3.726914      1.178342
  F     -14.564887     -0.285843     -2.054414
  F     -16.499389      0.645199     -1.600544
  F     -16.823775     -1.264427      0.470157
  F     -15.048233     -2.273949     -0.293340
  F     -16.753959     -1.948318     -1.595799
  O      -7.553566      2.158881      2.204843
  O      -7.677219      1.764156     -0.262477
  O      -8.592179      0.063283      1.336597
  C     -12.262129     -0.037634      0.279409
  C     -11.401315      0.893556     -0.647276
  C     -13.628139      0.440739      0.891845
  C     -10.873693      2.285329     -0.157477
  C     -14.823445      0.911675     -0.009527
  C      -9.925903      2.400002      1.079265
  C     -15.461996     -0.048153     -1.075440
  C     -16.032839     -1.422622     -0.597557
56
Coordinates from ORCA-job R4N+PFOS-_0.15M E -3071.263955679179
  N      -4.580522     -1.167829      0.179725
  C      -3.801930     -0.641419     -1.031083
  C      -4.770457     -0.087149      1.201757
  C      -5.925214     -1.620962     -0.312583
  C      -3.875620     -2.331230      0.808431
  C      -2.435854     -0.111978     -0.708972
  C      -2.255529      1.240618     -0.403962
  C      -1.322157     -0.956234     -0.749224
  C      -0.986319      1.735399     -0.121044
  C      -0.052826     -0.461579     -0.465865
  C       0.116211      0.884015     -0.146977
  H      -4.432914      0.141340     -1.462204
  H      -3.743474     -1.482777     -1.727444
  H      -5.217378      0.780029      0.712176
  H      -5.429506     -0.471257      1.983103
  H      -3.801249      0.175979      1.627806
  H      -5.776082     -2.387834     -1.075328
  H      -6.481799     -2.031891      0.531402
  H      -6.450999     -0.762217     -0.734502
  H      -3.740473     -3.109556      0.054521
  H      -2.910430     -2.001006      1.194530
  H      -4.496407     -2.700825      1.627188
  H      -3.113931      1.907538     -0.393671
  H      -1.451692     -2.003717     -1.009668
  H      -0.857053      2.788091      0.113480
  H       0.806004     -1.125685     -0.501230
  H       1.107702      1.271217      0.070450
  S      -8.253764      1.489817      1.086920
  F     -12.513815     -1.139217     -0.461700
  F     -11.503953     -0.394529      1.333391
  F     -12.133115      1.150531     -1.757942
  F     -10.326588      0.166243     -1.007068
  F     -13.376911      1.462344      1.734606
  F     -14.087727     -0.607291      1.617719
  F     -10.227721      2.826279     -1.213235
  F     -11.962776      3.072886      0.100961
  F     -15.811025      1.253188      0.850430
  F     -14.446910      2.025353     -0.680674
  F     -10.619448      2.042518      2.195679
  F      -9.652523      3.733260      1.188988
  F     -14.564765     -0.277831     -2.063095
  F     -16.502460      0.644737     -1.604917
  F     -16.814217     -1.273841      0.463047
  F     -15.037868     -2.273404     -0.310793
  F     -16.748969     -1.948676     -1.606279
  O      -7.553561      2.172087      2.205741
  O      -7.687062      1.763531     -0.258299
  O      -8.596980      0.072228      1.353798
  C     -12.263664     -0.032390      0.278121
  C     -11.400859      0.901630     -0.644292
  C     -13.632316      0.441295      0.888021
  C     -10.877743      2.293809     -0.151069
  C     -14.825847      0.913230     -0.015006
  C      -9.931448      2.406342      1.086881
  C     -15.461883     -0.046185     -1.082616
  C     -16.026432     -1.424549     -0.608028
56
Coordinates from ORCA-job R4N+PFOS-_0.15M E -3071.263963209080
  N      -4.579531     -1.170797      0.185515
  C      -3.806193     -0.642874     -1.028315
  C      -4.769323     -0.089898      1.207348
  C      -5.924394     -1.628226     -0.302261
  C      -3.869461     -2.331674      0.813014
  C      -2.439442     -0.112291     -0.710968
  C      -2.259398      1.240208     -0.405291
  C      -1.324949     -0.955238     -0.756504
  C      -0.989609      1.736159     -0.127114
  C      -0.055039     -0.459460     -0.477850
  C       0.113761      0.886031     -0.158383
  H      -4.439827      0.139232     -1.456603
  H      -3.749495     -1.484252     -1.724812
  H      -5.219753      0.775963      0.718566
  H      -5.426537     -0.473910      1.990275
  H      -3.799728      0.175404      1.631054
  H      -5.775679     -2.400765     -1.059311
  H      -6.480364     -2.032485      0.545362
  H      -6.451611     -0.773041     -0.729601
  H      -3.732793     -3.109566      0.058947
  H      -2.904840     -1.998066      1.197600
  H      -4.487829     -2.703310      1.632722
  H      -3.118566      1.906072     -0.390950
  H      -1.454558     -2.002565     -1.017566
  H      -0.860554      2.788777      0.107861
  H       0.804368     -1.122585     -0.517279
  H       1.105718      1.274137      0.055294
  S      -8.254605      1.491708      1.090860
  F     -12.511172     -1.135193     -0.466422
  F     -11.503978     -0.393653      1.331691
  F     -12.128464      1.154637     -1.758770
  F     -10.322710      0.171840     -1.003844
  F     -13.379080      1.460833      1.734448
  F     -14.087586     -0.609355      1.612726
  F     -10.227705      2.833908     -1.207676
  F     -11.963833      3.075252      0.105814
  F     -15.811224      1.254009      0.845079
  F     -14.444627      2.024705     -0.684623
  F     -10.622227      2.039884      2.198503
  F      -9.655096      3.734374      1.198162
  F     -14.560171     -0.278092     -2.065852
  F     -16.498410      0.645136     -1.611317
  F     -16.810184     -1.275012      0.459377
  F     -15.038258     -2.276609     -0.322089
  F     -16.752281     -1.944883     -1.611667
  O      -7.551609      2.176494      2.206400
  O      -7.690350      1.761237     -0.256117
  O      -8.597911      0.074939      1.361665
  C     -12.262739     -0.029738      0.276186
  C     -11.398846      0.906239     -0.643434
  C     -13.632460      0.441336      0.885664
  C     -10.877957      2.298066     -0.147320
  C     -14.824886      0.913232     -0.018604
  C      -9.933174      2.407627      1.091687
  C     -15.459294     -0.046525     -1.087090
  C     -16.025786     -1.424904     -0.614087
56
Coordinates from ORCA-job R4N+PFOS-_0.15M E -3071.263967498085
  N      -4.579050     -1.171196      0.189020
  C      -3.808347     -0.642429     -1.026131
  C      -4.769597     -0.090228      1.210677
  C      -5.923914     -1.630760     -0.296699
  C      -3.866548     -2.330609      0.816229
  C      -2.441036     -0.111766     -0.711267
  C      -2.260687      1.240493     -0.404686
  C      -1.326399     -0.954307     -0.760194
  C      -0.990422      1.736567     -0.128924
  C      -0.056000     -0.458460     -0.483933
  C       0.113129      0.886781     -0.163554
  H      -4.443148      0.139447     -1.453029
  H      -3.752741     -1.483660     -1.722933
  H      -5.223432      0.774149      0.722372
  H      -5.424652     -0.474937      1.995076
  H      -3.800018      0.177874      1.632629
  H      -5.775541     -2.406493     -1.050538
  H      -6.480080     -2.031184      0.552647
  H      -6.451709     -0.777525     -0.727249
  H      -3.728875     -3.108462      0.062308
  H      -2.902323     -1.995273      1.200299
  H      -4.483867     -2.703098      1.636358
  H      -3.120016      1.906091     -0.387753
  H      -1.456322     -2.001413     -1.022008
  H      -0.861094      2.788992      0.106758
  H       0.803530     -1.121268     -0.525880
  H       1.105473      1.274970      0.048171
  S      -8.254018      1.491036      1.090823
  F     -12.512596     -1.133936     -0.472581
  F     -11.504736     -0.397668      1.327281
  F     -12.125071      1.155432     -1.761418
  F     -10.320805      0.171984     -1.004021
  F     -13.377739      1.458361      1.733904
  F     -14.087802     -0.611110      1.608666
  F     -10.226692      2.835319     -1.206053
  F     -11.963739      3.074095      0.106696
  F     -15.809493      1.257334      0.844192
  F     -14.442528      2.025362     -0.686588
  F     -10.622554      2.034192      2.198370
  F      -9.657139      3.732337      1.202568
  F     -14.563090     -0.274553     -2.068601
  F     -16.500816      0.647663     -1.609811
  F     -16.805015     -1.275051      0.462204
  F     -15.036459     -2.275303     -0.328748
  F     -16.756391     -1.942095     -1.609994
  O      -7.549975      2.176881      2.205185
  O      -7.690561      1.758605     -0.256772
  O      -8.596619      0.074223      1.362871
  C     -12.263045     -0.030399      0.272546
  C     -11.397699      0.906488     -0.644973
  C     -13.632195      0.440721      0.883432
  C     -10.877416      2.297703     -0.146878
  C     -14.824404      0.914690     -0.019775
  C      -9.933696      2.405625      1.092801
  C     -15.460665     -0.044329     -1.088085
  C     -16.025612     -1.423432     -0.614907
56
Coordinates from ORCA-job R4N+PFOS-_0.15M E -3071.263970959701
  N      -4.579362     -1.170429      0.190593
  C      -3.809891     -0.641053     -1.024853
  C      -4.770736     -0.089610      1.212217
  C      -5.924196     -1.630889     -0.294260
  C      -3.865733     -2.329084      0.817689
  C      -2.442001     -0.111300     -0.711031
  C      -2.260763      1.240467     -0.402831
  C      -1.327796     -0.954222     -0.762385
  C      -0.989962      1.735711     -0.128037
  C      -0.056843     -0.459236     -0.487107
  C       0.113225      0.885538     -0.165229
  H      -4.444862      0.141227     -1.450737
  H      -3.755277     -1.481759     -1.722402
  H      -5.228584      0.773061      0.724603
  H      -5.422570     -0.475915      1.998514
  H      -3.801137      0.181973      1.631933
  H      -5.776235     -2.408910     -1.045828
  H      -6.481144     -2.028432      0.555955
  H      -6.451667     -0.778778     -0.727435
  H      -3.727115     -3.106804      0.063806
  H      -2.901873     -1.992851      1.201933
  H      -4.482705     -2.702234      1.637779
  H      -3.119786      1.906413     -0.383885
  H      -1.458409     -2.000984     -1.025245
  H      -0.859873      2.787764      0.108873
  H       0.802412     -1.122276     -0.530918
  H       1.105994      1.273058      0.045720
  S      -8.252924      1.491352      1.088470
  F     -12.512177     -1.133827     -0.475245
  F     -11.503738     -0.399453      1.325030
  F     -12.124762      1.156104     -1.762280
  F     -10.320542      0.172264     -1.005275
  F     -13.376795      1.455964      1.734521
  F     -14.087125     -0.613264      1.607166
  F     -10.226436      2.835886     -1.205823
  F     -11.963657      3.073682      0.107089
  F     -15.807870      1.258629      0.844008
  F     -14.440169      2.024459     -0.687290
  F     -10.621110      2.029932      2.197677
  F      -9.658641      3.731411      1.204676
  F     -14.563589     -0.274132     -2.069162
  F     -16.500638      0.648792     -1.609403
  F     -16.803366     -1.274104      0.463698
  F     -15.036853     -2.275405     -0.330877
  F     -16.759109     -1.940885     -1.608610
  O      -7.547998      2.177752      2.202087
  O      -7.690155      1.757821     -0.259569
  O      -8.594808      0.074242      1.361096
  C     -12.262568     -0.031132      0.271016
  C     -11.397612      0.906718     -0.645977
  C     -13.631540      0.439371      0.883029
  C     -10.877159      2.297509     -0.147085
  C     -14.823513      0.914461     -0.019719
  C      -9.933549      2.404681      1.092581
  C     -15.460748     -0.043961     -1.088291
  C     -16.026213     -1.422839     -0.614869
56
Coordinates from ORCA-job R4N+PFOS-_0.15M E -3071.263973860516
  N      -4.579158     -1.169885      0.190975
  C      -3.809712     -0.639550     -1.023875
  C      -4.771937     -0.089753      1.213001
  C      -5.923581     -1.630850     -0.294409
  C      -3.865097     -2.328309      0.817946
  C      -2.441493     -0.110681     -0.709955
  C      -2.259570      1.240683     -0.400406
  C      -1.327690     -0.954022     -0.762670
  C      -0.988454      1.735097     -0.125537
  C      -0.056417     -0.459861     -0.487350
  C       0.114357      0.884494     -0.164082
  H      -4.444393      0.143394     -1.449008
  H      -3.755545     -1.479373     -1.722541
  H      -5.234297      0.771129      0.726482
  H      -5.419803     -0.478874      2.001171
  H      -3.802420      0.185798      1.630354
  H      -5.775330     -2.410407     -1.044344
  H      -6.481811     -2.026473      0.555871
  H      -6.450090     -0.779411     -0.730061
  H      -3.724803     -3.105342      0.063667
  H      -2.901970     -1.991477      1.203528
  H      -4.482519     -2.702732      1.637105
  H      -3.118245      1.907050     -0.380454
  H      -1.458742     -2.000490     -1.026469
  H      -0.857786      2.786830      0.112467
  H       0.802582     -1.123163     -0.532198
  H       1.107372      1.271361      0.046904
  S      -8.252247      1.491965      1.084529
  F     -12.514029     -1.134005     -0.477869
  F     -11.503332     -0.402104      1.322095
  F     -12.125587      1.156010     -1.763691
  F     -10.321348      0.171622     -1.007544
  F     -13.374645      1.455097      1.734380
  F     -14.086096     -0.613741      1.607665
  F     -10.227618      2.835536     -1.207194
  F     -11.964598      3.072433      0.106460
  F     -15.807126      1.258621      0.846413
  F     -14.440696      2.024685     -0.685858
  F     -10.619617      2.027298      2.196127
  F      -9.660298      3.730886      1.203855
  F     -14.565704     -0.273353     -2.068428
  F     -16.502111      0.649945     -1.607034
  F     -16.803881     -1.272777      0.465978
  F     -15.038045     -2.274663     -0.329730
  F     -16.761330     -1.940138     -1.606133
  O      -7.546796      2.178986      2.197518
  O      -7.690176      1.758055     -0.263871
  O      -8.593262      0.074518      1.357668
  C     -12.262933     -0.032283      0.269215
  C     -11.398333      0.906012     -0.647694
  C     -13.630964      0.438737      0.883061
  C     -10.877776      2.296632     -0.148459
  C     -14.823788      0.914457     -0.018177
  C      -9.933665      2.404050      1.090807
  C     -15.462080     -0.043270     -1.086911
  C     -16.027619     -1.421923     -0.613189
56
Coordinates from ORCA-job R4N+PFOS-_0.15M E -3071.263976439155
  N      -4.579255     -1.170249      0.190490
  C      -3.809335     -0.638529     -1.023360
  C      -4.773253     -0.091290      1.213445
  C      -5.923155     -1.631414     -0.296062
  C      -3.864959     -2.328898      0.816891
  C      -2.441037     -0.110327     -0.708647
  C      -2.258852      1.240697     -0.397811
  C      -1.327431     -0.953884     -0.762079
  C      -0.987655      1.734554     -0.122278
  C      -0.056083     -0.460253     -0.486128
  C       0.114963      0.883744     -0.161512
  H      -4.443613      0.145264     -1.447593
  H      -3.755290     -1.477234     -1.723382
  H      -5.240294      0.768009      0.728611
  H      -5.416706     -0.483894      2.003464
  H      -3.803657      0.188032      1.628132
  H      -5.774245     -2.412225     -1.044572
  H      -6.482869     -2.025413      0.553986
  H      -6.448241     -0.780389     -0.734190
  H      -3.722507     -3.104587      0.061643
  H      -2.902820     -1.991609      1.204552
  H      -4.483252     -2.705346      1.634452
  H      -3.117351      1.907282     -0.377363
  H      -1.458595     -2.000085     -1.026850
  H      -0.856772      2.786019      0.116789
  H       0.802796     -1.123672     -0.531567
  H       1.108033      1.270179      0.049997
  S      -8.251629      1.493732      1.079949
  F     -12.513502     -1.134262     -0.476972
  F     -11.501823     -0.400781      1.321758
  F     -12.128643      1.156763     -1.763456
  F     -10.323062      0.172615     -1.010063
  F     -13.374169      1.454907      1.735165
  F     -14.084829     -0.614203      1.609084
  F     -10.229653      2.836163     -1.209441
  F     -11.965499      3.073182      0.105780
  F     -15.807135      1.256928      0.848835
  F     -14.441856      2.024506     -0.683690
  F     -10.617593      2.028503      2.194488
  F      -9.660427      3.732393      1.200823
  F     -14.566546     -0.273486     -2.067239
  F     -16.502827      0.649517     -1.605013
  F     -16.805316     -1.273108      0.466622
  F     -15.038288     -2.274672     -0.326868
  F     -16.760413     -1.941294     -1.605172
  O      -7.545326      2.181413      2.192000
  O      -7.690673      1.759545     -0.269011
  O      -8.592291      0.076256      1.354008
  C     -12.262623     -0.032086      0.269419
  C     -11.399656      0.906615     -0.648598
  C     -13.630522      0.438288      0.884059
  C     -10.878724      2.297403     -0.150037
  C     -14.824096      0.913681     -0.016431
  C      -9.933261      2.405494      1.088260
  C     -15.462543     -0.043688     -1.085407
  C     -16.027889     -1.422333     -0.611807
56
Coordinates from ORCA-job R4N+PFOS-_0.15M E -3071.263978349292
  N      -4.579134     -1.171641      0.189351
  C      -3.808656     -0.637833     -1.023266
  C      -4.774267     -0.094340      1.213799
  C      -5.922402     -1.633036     -0.298783
  C      -3.864376     -2.330746      0.814574
  C      -2.440733     -0.109569     -0.707086
  C      -2.259247      1.241230     -0.394899
  C      -1.326798     -0.952715     -0.760482
  C      -0.988409      1.735287     -0.118051
  C      -0.055824     -0.458855     -0.483227
  C       0.114528      0.884910     -0.157292
  H      -4.442841      0.146608     -1.446483
  H      -3.754080     -1.475353     -1.724657
  H      -5.245012      0.764040      0.730940
  H      -5.414274     -0.490321      2.004891
  H      -3.804584      0.187584      1.626538
  H      -5.772358     -2.414450     -1.046438
  H      -6.483365     -2.026269      0.550776
  H      -6.446347     -0.782235     -0.738658
  H      -3.719537     -3.104544      0.057851
  H      -2.903366     -1.992950      1.204604
  H      -4.483604     -2.709866      1.630183
  H      -3.118030      1.907459     -0.374417
  H      -1.457386     -1.998720     -1.026287
  H      -0.858094      2.786581      0.122082
  H       0.803311     -1.121942     -0.528713
  H       1.107310      1.271505      0.055280
  S      -8.250842      1.494414      1.075245
  F     -12.514163     -1.134301     -0.475610
  F     -11.500729     -0.399267      1.321510
  F     -12.131176      1.156457     -1.763915
  F     -10.324587      0.172602     -1.012535
  F     -13.372772      1.456772      1.735019
  F     -14.083317     -0.612537      1.611548
  F     -10.231240      2.835790     -1.213171
  F     -11.965591      3.073760      0.103802
  F     -15.807289      1.255833      0.851992
  F     -14.444106      2.025258     -0.681436
  F     -10.615533      2.031476      2.191928
  F      -9.658628      3.733657      1.195216
  F     -14.567938     -0.273703     -2.065157
  F     -16.504113      0.649184     -1.602074
  F     -16.807050     -1.272977      0.468577
  F     -15.038906     -2.274257     -0.322589
  F     -16.759747     -1.941947     -1.602948
  O      -7.543810      2.182464      2.186555
  O      -7.690858      1.760215     -0.274173
  O      -8.591561      0.077158      1.350041
  C     -12.262543     -0.031503      0.269618
  C     -11.400607      0.906615     -0.649911
  C     -13.629873      0.439258      0.885057
  C     -10.879160      2.297759     -0.152683
  C     -14.824634      0.913818     -0.014444
  C      -9.932139      2.406739      1.084463
  C     -15.463390     -0.043742     -1.082897
  C     -16.028375     -1.422339     -0.609058
56
Coordinates from ORCA-job R4N+PFOS-_0.15M E -3071.263979490427
  N      -4.579306     -1.173249      0.188507
  C      -3.808634     -0.637245     -1.023186
  C      -4.775208     -0.097657      1.214622
  C      -5.922098     -1.634778     -0.300923
  C      -3.864039     -2.332913      0.812238
  C      -2.441156     -0.108553     -0.705819
  C      -2.260670      1.242116     -0.392495
  C      -1.326648     -0.950959     -0.759307
  C      -0.990299      1.736741     -0.114523
  C      -0.056154     -0.456528     -0.480908
  C       0.113177      0.887079     -0.153790
  H      -4.443088      0.147532     -1.445375
  H      -3.753425     -1.473821     -1.725653
  H      -5.247872      0.760642      0.733504
  H      -5.413642     -0.495941      2.005808
  H      -3.805495      0.185163      1.626655
  H      -5.771010     -2.416132     -1.048424
  H      -6.483741     -2.028097      0.548136
  H      -6.445592     -0.783989     -0.741342
  H      -3.717437     -3.104920      0.054030
  H      -2.903898     -1.994814      1.204130
  H      -4.483926     -2.714437      1.626224
  H      -3.119940      1.907719     -0.371937
  H      -1.456466     -1.996796     -1.026137
  H      -0.860814      2.787929      0.126525
  H       0.803391     -1.119081     -0.526457
  H       1.105595      1.274120      0.059667
  S      -8.249770      1.493832      1.071770
  F     -12.514037     -1.134433     -0.473473
  F     -11.499621     -0.396954      1.322130
  F     -12.132942      1.155744     -1.764243
  F     -10.325554      0.172127     -1.014402
  F     -13.371738      1.458904      1.734762
  F     -14.082206     -0.610592      1.613410
  F     -10.231421      2.834747     -1.216929
  F     -11.964342      3.074613      0.101457
  F     -15.806908      1.256216      0.853750
  F     -14.444945      2.025785     -0.680711
  F     -10.613497      2.034618      2.189362
  F      -9.655250      3.734259      1.189538
  F     -14.568924     -0.274243     -2.063520
  F     -16.504896      0.648884     -1.599770
  F     -16.807724     -1.272595      0.470912
  F     -15.039185     -2.273873     -0.319072
  F     -16.759431     -1.942252     -1.600419
  O      -7.542188      2.181716      2.182786
  O      -7.690299      1.759673     -0.277883
  O      -8.590948      0.076908      1.346808
  C     -12.262127     -0.030618      0.270225
  C     -11.400924      0.906506     -0.650937
  C     -13.629170      0.440584      0.885797
  C     -10.878625      2.297933     -0.155308
  C     -14.824544      0.914413     -0.013390
  C      -9.930322      2.407414      1.080844
  C     -15.463809     -0.043741     -1.080820
  C     -16.028508     -1.422233     -0.606338
56
Coordinates from ORCA-job R4N+PFOS-_0.15M E -3071.263980175674
  N      -4.579422     -1.174651      0.187683
  C      -3.808845     -0.636515     -1.023241
  C      -4.775970     -0.100582      1.215292
  C      -5.921856     -1.636359     -0.302693
  C      -3.863530     -2.334730      0.809949
  C      -2.441872     -0.107267     -0.704723
  C      -2.262565      1.243195     -0.389820
  C      -1.326700     -0.948779     -0.758493
  C      -0.992722      1.738488     -0.110649
  C      -0.056735     -0.453694     -0.478868
  C       0.111409      0.889693     -0.150232
  H      -4.443765      0.148373     -1.444496
  H      -3.752900     -1.472287     -1.726617
  H      -5.249306      0.758068      0.735458
  H      -5.414190     -0.500233      2.005956
  H      -3.806343      0.182175      1.627560
  H      -5.769931     -2.417166     -1.050587
  H      -6.483712     -2.030435      0.545873
  H      -6.445543     -0.785488     -0.742732
  H      -3.715776     -3.105325      0.050531
  H      -2.903960     -1.996396      1.203036
  H      -4.483683     -2.718146      1.622847
  H      -3.122418      1.908040     -0.368925
  H      -1.455636     -1.994404     -1.026583
  H      -0.864188      2.789517      0.131600
  H       0.803305     -1.115588     -0.524644
  H       1.103420      1.277247      0.064183
  S      -8.248497      1.492157      1.068696
  F     -12.514692     -1.134707     -0.472060
  F     -11.498930     -0.395795      1.322233
  F     -12.133602      1.154165     -1.765230
  F     -10.326055      0.170436     -1.015931
  F     -13.370024      1.461181      1.734052
  F     -14.081361     -0.608190      1.615033
  F     -10.230643      2.832612     -1.220806
  F     -11.962423      3.074703      0.098606
  F     -15.805932      1.258193      0.854980
  F     -14.444855      2.026352     -0.680995
  F     -10.611456      2.036531      2.186538
  F      -9.651585      3.733766      1.184026
  F     -14.570194     -0.274913     -2.061862
  F     -16.505631      0.649200     -1.597569
  F     -16.807839     -1.270890      0.474547
  F     -15.040032     -2.273109     -0.315718
  F     -16.760754     -1.941685     -1.596470
  O      -7.540540      2.179679      2.179683
  O      -7.689178      1.757889     -0.281047
  O      -8.590130      0.075497      1.343723
  C     -12.261872     -0.030186      0.270353
  C     -11.400794      0.905586     -0.652239
  C     -13.628355      0.442164      0.886206
  C     -10.877479      2.297173     -0.158175
  C     -14.824142      0.915606     -0.012679
  C      -9.928264      2.407009      1.077202
  C     -15.464394     -0.043308     -1.078714
  C     -16.029166     -1.421390     -0.602942
56
Coordinates from ORCA-job R4N+PFOS-_0.15M E -3071.263980728779
  N      -4.579518     -1.175869      0.187088
  C      -3.809181     -0.635549     -1.023113
  C      -4.776846     -0.103355      1.216198
  C      -5.921590     -1.637804     -0.304137
  C      -3.862978     -2.336328      0.807862
  C      -2.442634     -0.105804     -0.703640
  C      -2.264362      1.244415     -0.387082
  C      -1.326856     -0.946461     -0.758040
  C      -0.994977      1.740263     -0.106842
  C      -0.057342     -0.450842     -0.477322
  C       0.109750      0.892266     -0.147012
  H      -4.444646      0.149385     -1.443428
  H      -3.752552     -1.470493     -1.727435
  H      -5.250277      0.755860      0.737467
  H      -5.415526     -0.504085      2.005954
  H      -3.807458      0.178960      1.629307
  H      -5.768909     -2.417672     -1.052849
  H      -6.483418     -2.033191      0.543845
  H      -6.445847     -0.786769     -0.743205
  H      -3.714384     -3.105690      0.047356
  H      -2.903822     -1.997856      1.201833
  H      -4.483191     -2.721403      1.619937
  H      -3.124724      1.908585     -0.365691
  H      -1.454998     -1.991838     -1.027483
  H      -0.867269      2.791094      0.136699
  H       0.803158     -1.112104     -0.523548
  H       1.101415      1.280241      0.068241
  S      -8.247204      1.490200      1.065630
  F     -12.515445     -1.135138     -0.470831
  F     -11.498354     -0.394952      1.322213
  F     -12.134072      1.152399     -1.766336
  F     -10.326548      0.168360     -1.017394
  F     -13.368277      1.463209      1.733336
  F     -14.080767     -0.605913      1.616427
  F     -10.229615      2.830121     -1.224609
  F     -11.960376      3.074537      0.095707
  F     -15.804714      1.260856      0.855793
  F     -14.444139      2.026761     -0.681777
  F     -10.609324      2.037715      2.183690
  F      -9.648088      3.732890      1.178819
  F     -14.571519     -0.275621     -2.060351
  F     -16.506265      0.649769     -1.595623
  F     -16.807707     -1.268587      0.478532
  F     -15.041064     -2.272176     -0.312560
  F     -16.762738     -1.940900     -1.592049
  O      -7.538843      2.177386      2.176572
  O      -7.687942      1.755551     -0.284211
  O      -8.589256      0.073749      1.340722
  C     -12.261690     -0.029984      0.270355
  C     -11.400658      0.904420     -0.653603
  C     -13.627600      0.443635      0.886514
  C     -10.876194      2.296075     -0.161053
  C     -14.823606      0.916916     -0.012157
  C      -9.926202      2.406225      1.073637
  C     -15.465020     -0.042735     -1.076793
  C     -16.030046     -1.420253     -0.599456
56
Coordinates from ORCA-job R4N+PFOS-_0.15M E -3071.263981386734
  N      -4.579423     -1.177601      0.186272
  C      -3.809457     -0.634421     -1.022922
  C      -4.777920     -0.107042      1.217198
  C      -5.920981     -1.639991     -0.305974
  C      -3.861917     -2.338414      0.805211
  C      -2.443530     -0.103922     -0.702131
  C      -2.266768      1.245874     -0.382909
  C      -1.326874     -0.943316     -0.757708
  C      -0.998019      1.742504     -0.101205
  C      -0.057982     -0.446932     -0.475515
  C       0.107594      0.895709     -0.142555
  H      -4.445690      0.150516     -1.442045
  H      -3.751819     -1.468197     -1.728570
  H      -5.251258      0.752917      0.739701
  H      -5.417408     -0.509081      2.005643
  H      -3.808949      0.174717      1.631653
  H      -5.767376     -2.418383     -1.056027
  H      -6.482573     -2.037479      0.541191
  H      -6.446226     -0.788734     -0.743457
  H      -3.712407     -3.106365      0.043457
  H      -2.903189     -1.999718      1.200030
  H      -4.481978     -2.725447      1.616476
  H      -3.127856      1.909070     -0.360554
  H      -1.453835     -1.988298     -1.029234
  H      -0.871489      2.792994      0.144410
  H       0.803216     -1.107219     -0.522646
  H       1.098775      1.284277      0.073860
  S      -8.245554      1.487950      1.061063
  F     -12.516723     -1.135730     -0.469477
  F     -11.497654     -0.394142      1.321885
  F     -12.134761      1.150045     -1.767953
  F     -10.327348      0.165525     -1.019407
  F     -13.365840      1.465724      1.732446
  F     -14.080020     -0.602988      1.618327
  F     -10.228560      2.826860     -1.229673
  F     -11.958015      3.074133      0.091873
  F     -15.803088      1.264509      0.857006
  F     -14.443161      2.027312     -0.682691
  F     -10.606380      2.038921      2.179844
  F      -9.644089      3.731841      1.172013
  F     -14.573396     -0.276503     -2.058236
  F     -16.507132      0.650767     -1.593060
  F     -16.807746     -1.265011      0.483999
  F     -15.042772     -2.270746     -0.308157
  F     -16.765797     -1.939709     -1.585860
  O      -7.536404      2.175125      2.171522
  O      -7.686599      1.752230     -0.289116
  O      -8.588089      0.071782      1.336845
  C     -12.261590     -0.029879      0.270185
  C     -11.400657      0.902798     -0.655547
  C     -13.626653      0.445484      0.886957
  C     -10.874700      2.294536     -0.164954
  C     -14.822990      0.918658     -0.011289
  C      -9.923666      2.405269      1.068829
  C     -15.465994     -0.041842     -1.074222
  C     -16.031538     -1.418464     -0.594699
56
Coordinates from ORCA-job R4N+PFOS-_0.15M E -3071.263982262751
  N      -4.579080     -1.180209      0.185354
  C      -3.809651     -0.633139     -1.022437
  C      -4.779411     -0.112329      1.218710
  C      -5.919842     -1.643427     -0.308259
  C      -3.860097     -2.341385      0.801837
  C      -2.444566     -0.101497     -0.699995
  C      -2.269816      1.247759     -0.377376
  C      -1.326728     -0.939177     -0.757217
  C      -1.001899      1.745464     -0.093862
  C      -0.058648     -0.441727     -0.473220
  C       0.104911      0.900302     -0.136831
  H      -4.446968      0.151743     -1.440011
  H      -3.750582     -1.465261     -1.729946
  H      -5.252564      0.748612      0.742799
  H      -5.419991     -0.516320      2.005275
  H      -3.811133      0.168832      1.635170
  H      -5.764962     -2.419487     -1.060456
  H      -6.480882     -2.044252      0.537707
  H      -6.446642     -0.791847     -0.743272
  H      -3.709494     -3.107530      0.038478
  H      -2.901852     -2.002320      1.197516
  H      -4.479706     -2.730981      1.612229
  H      -3.131841      1.909689     -0.353773
  H      -1.452085     -1.983665     -1.031382
  H      -0.876921      2.795513      0.154421
  H       0.803504     -1.100676     -0.521609
  H       1.095456      1.289694      0.081011
  S      -8.243503      1.485707      1.054402
  F     -12.518378     -1.136363     -0.467826
  F     -11.496656     -0.392943      1.321281
  F     -12.136101      1.147417     -1.769983
  F     -10.328690      0.162288     -1.022250
  F     -13.362804      1.468763      1.731531
  F     -14.078969     -0.599454      1.620858
  F     -10.227855      2.823195     -1.236200
  F     -11.955507      3.073755      0.087183
  F     -15.801177      1.268847      0.858926
  F     -14.442201      2.028096     -0.683369
  F     -10.602348      2.040553      2.174872
  F      -9.639532      3.730974      1.163251
  F     -14.575910     -0.277344     -2.055462
  F     -16.508368      0.652189     -1.589644
  F     -16.808049     -1.260423      0.490805
  F     -15.045019     -2.268795     -0.302464
  F     -16.769639     -1.938201     -1.578098
  O      -7.532822      2.173475      2.163531
  O      -7.685441      1.747833     -0.296576
  O      -8.586674      0.070008      1.332008
  C     -12.261543     -0.029664      0.269912
  C     -11.400983      0.901009     -0.658128
  C     -13.625517      0.447727      0.887659
  C     -10.873160      2.292865     -0.169995
  C     -14.822404      0.920772     -0.009857
  C      -9.920588      2.404510      1.062508
  C     -15.467366     -0.040609     -1.070891
  C     -16.033558     -1.416092     -0.588739
56
Coordinates from ORCA-job R4N+PFOS-_0.15M E -3071.263983246408
  N      -4.578472     -1.183827      0.184508
  C      -3.809700     -0.632573     -1.021739
  C      -4.780932     -0.118743      1.220327
  C      -5.918305     -1.648209     -0.310466
  C      -3.857647     -2.345202      0.798468
  C      -2.445728     -0.099172     -0.697514
  C      -2.273674      1.249481     -0.370979
  C      -1.326277     -0.934531     -0.756849
  C      -1.006811      1.748807     -0.085625
  C      -0.059233     -0.435452     -0.471046
  C       0.101641      0.905903     -0.130712
  H      -4.448358      0.152057     -1.437760
  H      -3.748790     -1.462875     -1.731248
  H      -5.253915      0.743145      0.745970
  H      -5.422498     -0.525000      2.004909
  H      -3.813458      0.162046      1.638910
  H      -5.762054     -2.421434     -1.065289
  H      -6.478405     -2.053107      0.534183
  H      -6.447013     -0.796282     -0.742493
  H      -3.706066     -3.109570      0.033518
  H      -2.899807     -2.005584      1.194652
  H      -4.476455     -2.737392      1.608225
  H      -3.136961      1.909701     -0.345731
  H      -1.449476     -1.978472     -1.034051
  H      -0.883903      2.798363      0.165756
  H       0.804229     -1.092557     -0.521107
  H       1.091368      1.296560      0.088583
  S      -8.241225      1.484282      1.046346
  F     -12.519995     -1.136710     -0.466244
  F     -11.495327     -0.391403      1.320395
  F     -12.137854      1.145216     -1.772095
  F     -10.330260      0.159557     -1.025511
  F     -13.359574      1.471871      1.730824
  F     -14.077515     -0.595904      1.623632
  F     -10.227792      2.820181     -1.243136
  F     -11.953378      3.073684      0.082490
  F     -15.799297      1.272841      0.861527
  F     -14.441611      2.029170     -0.683329
  F     -10.597675      2.042604      2.169561
  F      -9.635271      3.730842      1.153951
  F     -14.578587     -0.277780     -2.052454
  F     -16.509747      0.653917     -1.585776
  F     -16.808666     -1.255702      0.497582
  F     -15.047352     -2.266596     -0.296432
  F     -16.773321     -1.936501     -1.570365
  O      -7.528147      2.173567      2.153001
  O      -7.684882      1.743032     -0.306009
  O      -8.585184      0.069311      1.327251
  C     -12.261424     -0.029184      0.269544
  C     -11.401515      0.899633     -0.660939
  C     -13.624239      0.450040      0.888543
  C     -10.871877      2.291678     -0.175356
  C     -14.821927      0.922911     -0.007937
  C      -9.917415      2.404471      1.055631
  C     -15.468834     -0.039144     -1.067287
  C     -16.035659     -1.413491     -0.582706
56
Coordinates from ORCA-job R4N+PFOS-_0.15M E -3071.263984028975
  N      -4.577957     -1.186996      0.184281
  C      -3.809746     -0.632976     -1.020985
  C      -4.781997     -0.123776      1.221715
  C      -5.917111     -1.652427     -0.311471
  C      -3.855574     -2.348344      0.796520
  C      -2.446660     -0.097886     -0.695764
  C      -2.276696      1.250519     -0.367166
  C      -1.325944     -0.931461     -0.756272
  C      -1.010620      1.751318     -0.080892
  C      -0.059682     -0.430889     -0.469588
  C       0.099123      0.910180     -0.127171
  H      -4.449472      0.151263     -1.436153
  H      -3.747356     -1.462121     -1.731714
  H      -5.254956      0.738645      0.748334
  H      -5.423938     -0.531858      2.005021
  H      -3.815115      0.157051      1.641644
  H      -5.759928     -2.423258     -1.068542
  H      -6.476102     -2.060740      0.532261
  H      -6.447421     -0.800213     -0.740954
  H      -3.703673     -3.111652      0.030571
  H      -2.897819     -2.008197      1.192463
  H      -4.473417     -2.742129      1.606237
  H      -3.140938      1.909449     -0.341047
  H      -1.447480     -1.975182     -1.035025
  H      -0.889313      2.800668      0.172124
  H       0.804803     -1.086578     -0.520587
  H       1.088229      1.302003      0.092843
  S      -8.239583      1.484410      1.040339
  F     -12.520672     -1.136436     -0.465617
  F     -11.494103     -0.390151      1.319517
  F     -12.139271      1.144784     -1.773266
  F     -10.331293      0.158920     -1.027853
  F     -13.357582      1.473561      1.730740
  F     -14.076115     -0.594084      1.625314
  F     -10.228455      2.819577     -1.247235
  F     -11.952568      3.074139      0.080158
  F     -15.798278      1.274424      0.863825
  F     -14.441758      2.030131     -0.682355
  F     -10.594286      2.044126      2.166368
  F      -9.633128      3.731622      1.148525
  F     -14.580245     -0.277346     -2.050689
  F     -16.510720      0.655193     -1.582987
  F     -16.809165     -1.253389      0.501071
  F     -15.048449     -2.265207     -0.293126
  F     -16.774889     -1.935369     -1.566503
  O      -7.524072      2.175568      2.144242
  O      -7.685258      1.739907     -0.313475
  O      -8.584204      0.070194      1.324768
  C     -12.261168     -0.028521      0.269192
  C     -11.401954      0.899562     -0.662707
  C     -13.623296      0.451338      0.889212
  C     -10.871413      2.291773     -0.178505
  C     -14.821739      0.924068     -0.006323
  C      -9.915469      2.405295      1.051351
  C     -15.469681     -0.038073     -1.065023
  C     -16.036677     -1.411955     -0.579540
56
Coordinates from ORCA-job R4N+PFOS-_0.15M E -3071.263984424060
  N      -4.577873     -1.188775      0.184634
  C      -3.809961     -0.634195     -1.020522
  C      -4.782261     -0.125865      1.222328
  C      -5.916895     -1.654630     -0.311066
  C      -3.854881     -2.349981      0.796513
  C      -2.447338     -0.097927     -0.695246
  C      -2.278558      1.250531     -0.366320
  C      -1.325858     -0.930463     -0.756205
  C      -1.012875      1.752403     -0.080157
  C      -0.059998     -0.428801     -0.469661
  C       0.097638      0.912319     -0.126901
  H      -4.450211      0.149625     -1.435705
  H      -3.746857     -1.463207     -1.731329
  H      -5.255333      0.736539      0.749059
  H      -5.423911     -0.534566      2.005526
  H      -3.815484      0.155265      1.642319
  H      -5.759568     -2.424403     -1.069182
  H      -6.475088     -2.064409      0.532475
  H      -6.447906     -0.802258     -0.739340
  H      -3.703366     -3.113257      0.030453
  H      -2.896919     -2.009598      1.191743
  H      -4.472092     -2.743848      1.606668
  H      -3.143377      1.908689     -0.339828
  H      -1.446476     -1.974212     -1.035247
  H      -0.892492      2.801793      0.173143
  H       0.805083     -1.083673     -0.521049
  H       1.086422      1.305007      0.093014
  S      -8.238765      1.485351      1.038302
  F     -12.520314     -1.135817     -0.465944
  F     -11.493327     -0.389670      1.319001
  F     -12.139471      1.145569     -1.773429
  F     -10.331206      0.159815     -1.028515
  F     -13.356978      1.473791      1.730956
  F     -14.075180     -0.593962      1.625515
  F     -10.228856      2.820672     -1.247837
  F     -11.952571      3.074779      0.080134
  F     -15.797971      1.274011      0.864810
  F     -14.442023      2.030669     -0.681417
  F     -10.593023      2.044590      2.165807
  F      -9.632941      3.732575      1.147928
  F     -14.580412     -0.276556     -2.050541
  F     -16.510854      0.655688     -1.582072
  F     -16.809169     -1.253493      0.501023
  F     -15.048135     -2.264871     -0.292947
  F     -16.774285     -1.934967     -1.566725
  O      -7.521854      2.177755      2.140496
  O      -7.685731      1.739104     -0.316363
  O      -8.583765      0.071623      1.324822
  C     -12.260718     -0.027973      0.268960
  C     -11.401809      0.900324     -0.663072
  C     -13.622734      0.451568      0.889366
  C     -10.871341      2.292636     -0.178957
  C     -14.821546      0.924244     -0.005746
  C      -9.914885      2.406246      1.050532
  C     -15.469576     -0.037646     -1.064593
  C     -16.036377     -1.411686     -0.579505
56
Coordinates from ORCA-job R4N+PFOS-_0.15M E -3071.263984576127
  N      -4.578143     -1.189160      0.185164
  C      -3.810447     -0.634943     -1.020304
  C      -4.782284     -0.126018      1.222687
  C      -5.917311     -1.655052     -0.310144
  C      -3.855001     -2.350264      0.797089
  C      -2.447870     -0.098270     -0.695480
  C      -2.279220      1.250419     -0.367451
  C      -1.326283     -0.930704     -0.756033
  C      -1.013552      1.752639     -0.081817
  C      -0.060446     -0.428692     -0.470018
  C       0.097066      0.912681     -0.128181
  H      -4.450839      0.148626     -1.435749
  H      -3.747285     -1.464265     -1.730735
  H      -5.255575      0.736203      0.749325
  H      -5.423460     -0.534760      2.006242
  H      -3.815381      0.155372      1.642218
  H      -5.760171     -2.424552     -1.068577
  H      -6.475040     -2.065167      0.533535
  H      -6.448549     -0.802608     -0.737982
  H      -3.704035     -3.113806      0.031184
  H      -2.896771     -2.009834      1.191634
  H      -4.471836     -2.743746      1.607713
  H      -3.144111      1.908493     -0.341266
  H      -1.446839     -1.974653     -1.034355
  H      -0.893286      2.802216      0.170764
  H       0.804700     -1.083502     -0.521094
  H       1.085831      1.305654      0.091313
  S      -8.238487      1.486022      1.038775
  F     -12.519614     -1.135309     -0.466632
  F     -11.492957     -0.389826      1.318774
  F     -12.138954      1.146512     -1.773136
  F     -10.330573      0.160909     -1.028269
  F     -13.357022      1.473306      1.731172
  F     -14.074728     -0.594581      1.624964
  F     -10.228783      2.821936     -1.246771
  F     -11.952688      3.075192      0.081062
  F     -15.797897      1.273077      0.864794
  F     -14.442019      2.030803     -0.680987
  F     -10.593045      2.044266      2.166516
  F      -9.633382      3.733029      1.149589
  F     -14.579832     -0.275906     -2.051174
  F     -16.510506      0.655682     -1.582259
  F     -16.808718     -1.254557      0.499633
  F     -15.047209     -2.265109     -0.294241
  F     -16.772997     -1.934988     -1.568462
  O      -7.521183      2.178785      2.140477
  O      -7.685870      1.739450     -0.316105
  O      -8.583585      0.072461      1.325806
  C     -12.260263     -0.027731      0.268818
  C     -11.401346      0.901074     -0.662741
  C     -13.622427      0.451270      0.889206
  C     -10.871288      2.293388     -0.178125
  C     -14.821265      0.923994     -0.005891
  C      -9.914944      2.406688      1.051456
  C     -15.469016     -0.037629     -1.065090
  C     -16.035514     -1.412040     -0.580740
56
Coordinates from ORCA-job R4N+PFOS-_0.15M E -3071.263984649594
  N      -4.578505     -1.189362      0.185671
  C      -3.811081     -0.635469     -1.020141
  C      -4.782267     -0.125961      1.223009
  C      -5.917870     -1.655200     -0.309195
  C      -3.855324     -2.350412      0.797655
  C      -2.448504     -0.098523     -0.695771
  C      -2.279998      1.250279     -0.368139
  C      -1.326779     -0.930772     -0.756420
  C      -1.014338      1.752795     -0.082990
  C      -0.060953     -0.428468     -0.470885
  C       0.096415      0.913023     -0.129439
  H      -4.451627      0.147914     -1.435694
  H      -3.747982     -1.465053     -1.730270
  H      -5.255790      0.736096      0.749589
  H      -5.423035     -0.534573      2.006963
  H      -3.815186      0.155591      1.642028
  H      -5.760968     -2.424662     -1.067716
  H      -6.475289     -2.065337      0.534677
  H      -6.449243     -0.802728     -0.736818
  H      -3.704788     -3.114190      0.031901
  H      -2.896895     -2.010001      1.191729
  H      -4.471932     -2.743551      1.608619
  H      -3.145008      1.908195     -0.341857
  H      -1.447253     -1.974797     -1.034491
  H      -0.894204      2.802460      0.169288
  H       0.804284     -1.083152     -0.522039
  H       1.085171      1.306233      0.089668
  S      -8.238214      1.486264      1.039638
  F     -12.518974     -1.135029     -0.467088
  F     -11.492683     -0.390036      1.318732
  F     -12.138120      1.146919     -1.772981
  F     -10.329782      0.161434     -1.027832
  F     -13.356930      1.473075      1.731135
  F     -14.074441     -0.594860      1.624446
  F     -10.228237      2.822530     -1.245955
  F     -11.952433      3.075388      0.081536
  F     -15.797607      1.272763      0.864323
  F     -14.441571      2.030833     -0.681162
  F     -10.593172      2.043940      2.167059
  F      -9.633470      3.733149      1.150893
  F     -14.579104     -0.275640     -2.051758
  F     -16.509926      0.655633     -1.582749
  F     -16.808144     -1.255080      0.498618
  F     -15.046413     -2.265256     -0.295189
  F     -16.771994     -1.934991     -1.569652
  O      -7.520899      2.179045      2.141317
  O      -7.685590      1.739723     -0.315220
  O      -8.583359      0.072761      1.326661
  C     -12.259786     -0.027625      0.268739
  C     -11.400702      0.901423     -0.662441
  C     -13.622079      0.451145      0.888955
  C     -10.870941      2.293745     -0.177508
  C     -14.820788      0.923920     -0.006316
  C      -9.914870      2.406803      1.052256
  C     -15.468353     -0.037635     -1.065645
  C     -16.034720     -1.412239     -0.581644
56
Coordinates from ORCA-job R4N+PFOS-_0.15M E -3071.263984705567
  N      -4.578916     -1.189473      0.186198
  C      -3.811921     -0.635646     -1.019941
  C      -4.782344     -0.126020      1.223552
  C      -5.918460     -1.655333     -0.308199
  C      -3.855513     -2.350481      0.797977
  C      -2.449280     -0.098569     -0.696078
  C      -2.280750      1.250326     -0.368817
  C      -1.327528     -0.930771     -0.756818
  C      -1.015037      1.752981     -0.084152
  C      -0.061649     -0.428335     -0.471760
  C       0.095745      0.913252     -0.130702
  H      -4.452670      0.147617     -1.435400
  H      -3.748976     -1.465365     -1.729926
  H      -5.256188      0.735930      0.750266
  H      -5.422711     -0.534628      2.007838
  H      -3.815102      0.155666      1.642107
  H      -5.761757     -2.424685     -1.066874
  H      -6.475519     -2.065619      0.535840
  H      -6.450097     -0.802854     -0.735492
  H      -3.705327     -3.114337      0.032232
  H      -2.896913     -2.010047      1.191619
  H      -4.471803     -2.743519      1.609232
  H      -3.145794      1.908194     -0.342459
  H      -1.448055     -1.974870     -1.034600
  H      -0.894899      2.802718      0.167820
  H       0.803597     -1.083001     -0.522979
  H       1.084543      1.306569      0.088025
  S      -8.237965      1.486393      1.040605
  F     -12.518334     -1.134858     -0.467414
  F     -11.492419     -0.390223      1.318768
  F     -12.137188      1.147103     -1.772891
  F     -10.328944      0.161726     -1.027352
  F     -13.356764      1.472955      1.730991
  F     -14.074204     -0.594990      1.623967
  F     -10.227548      2.822856     -1.245296
  F     -11.952053      3.075492      0.081809
  F     -15.797220      1.272708      0.863652
  F     -14.440918      2.030806     -0.681594
  F     -10.593307      2.043701      2.167505
  F      -9.633414      3.733187      1.151937
  F     -14.578250     -0.275548     -2.052305
  F     -16.509200      0.655537     -1.583412
  F     -16.807470     -1.255364      0.497776
  F     -15.045618     -2.265364     -0.295969
  F     -16.771078     -1.935044     -1.570570
  O      -7.520782      2.179102      2.142415
  O      -7.685169      1.739949     -0.314156
  O      -8.583101      0.072897      1.327491
  C     -12.259288     -0.027578      0.268690
  C     -11.400006      0.901608     -0.662177
  C     -13.621705      0.451093      0.888677
  C     -10.870486      2.293942     -0.177023
  C     -14.820222      0.923903     -0.006845
  C      -9.914736      2.406836      1.052949
  C     -15.467614     -0.037669     -1.066237
  C     -16.033921     -1.412380     -0.582398
