80
Coordinates from ORCA-job R4N+PFOA-_altB_r2 E -2865.069245463333
  N           5.49392100688169      0.61709066391716      2.56411810967483
  C           3.36452324501916     -4.09462697689636     -1.60673407733829
  C           4.22043183063539     -4.55528961368669     -2.79706847423961
  C           4.48463020575549     -3.46207880540145     -3.84677439643318
  C           4.01356859579034     -2.93913138728357     -0.87616933539713
  C           3.04733127984400     -5.26781668011487     -0.66569794959365
  C           5.89411914456087      0.41286029303766      1.09693884829104
  C           5.23702134874407     -0.75686041104609      0.42938482857276
  C           3.19902147608575     -2.86985652872101     -4.38957196259636
  C           3.40909949486480     -1.68093630226913     -0.85631264531020
  C           5.24697408549904     -3.08878400549872     -0.23097210413013
  C           5.35769931170281     -4.01509314610609     -4.97993874372504
  C           4.01687044737048      0.84511929079070      2.68908645616243
  C           6.22149805141240      1.83011100233631      3.06652119480144
  C           5.88849222954794     -0.56743268691537      3.39262507066770
  C           4.01465556148433     -0.60025583155424     -0.22588133714894
  C           5.84938183513896     -2.01503206044896      0.41387481859342
  C           2.06781010439220     -4.89179675373399      0.44194775038855
  C           2.24190844468833     -3.67779138016556     -5.01568358573366
  C           2.94044167314027     -1.50071470379850     -4.28238666454151
  C           1.06447737083900     -3.13127038577679     -5.51785238509030
  C           1.75777418339740     -0.95027080389672     -4.77517026628676
  C           0.81413561899740     -1.76476120598186     -5.39528953518579
  H           2.40850954032348     -3.73150213771222     -2.00714264936911
  H           3.71737768527082     -5.40447943989138     -3.27962812696440
  H           5.18675758594929     -4.92866074539503     -2.43070120551104
  H           5.03685886704495     -2.64763578193196     -3.35761357532239
  H           3.98055853840994     -5.65236689808376     -0.23203737861802
  H           2.62255713178900     -6.08122773734944     -1.26906990278017
  H           6.98214648865918      0.30279651663436      1.10715931308560
  H           5.63082876225655      1.34815287549951      0.59424284741344
  H           2.46191455149746     -1.53979298364497     -1.36704284211326
  H           5.74908828272536     -4.05316978567166     -0.23942013206563
  H           5.58044073592871     -3.23995330754512     -5.72111531473050
  H           4.85299406014425     -4.84129235080717     -5.49408155686934
  H           6.30715044259716     -4.39294055982167     -4.58368338462459
  H           3.49309629913745     -0.06386576398159      2.39287559250711
  H           3.73572190818470      1.68099842356831      2.04485059116411
  H           3.79646165031214      1.07837663069914      3.73300313513571
  H           7.29548057006804      1.66047599288295      2.96786051512888
  H           5.95782440639052      1.98207248488451      4.11484216023407
  H           5.91659819825887      2.69310784446721      2.47113157395759
  H           5.33857654595779     -1.44438946274021      3.04834806086875
  H           5.63565340207005     -0.35420302856131      4.43323826356631
  H           6.96395839118530     -0.72553197001109      3.28914415991449
  H           3.53581997682762      0.37542707649956     -0.24978668096255
  H           6.81131922544413     -2.14905269386213      0.90315220523779
  H           1.12256313389737     -4.53392494539207      0.01662452457214
  H           2.46943219800058     -4.09642854389823      1.08065866445945
  H           1.84298151816778     -5.75251700050738      1.08096233573825
  H           2.41818945953010     -4.74658912171091     -5.11422107529129
  H           3.67302890100223     -0.85865480250348     -3.79803561866052
  H           0.33629290767259     -3.77553651349844     -6.00312186688687
  H           1.57496756993076      0.11640675429120     -4.67236751813621
  H          -0.10953589151664     -1.34058929653709     -5.77973561356681
  F          -0.08561764197673     -2.02957244818013      0.43928631949147
  F          -2.18777402209567     -1.42257944571628      0.19888757649958
  F           0.47874886085421      0.17303739442269     -1.44893248769849
  F          -1.58096858677747      0.80419190367725     -0.99772896600664
  F          -1.59344807311634     -1.39222846699495     -2.67082921301661
  F           0.23010630465137     -2.48427731279640     -2.11347536785691
  F          -0.89301582917167      0.43859834158714      1.78163905843300
  F           1.18640671867791      0.20556252005148      1.10161099414848
  F          -1.59976031852631     -4.12322642909902     -0.45546508361214
  F          -3.17191080961999     -3.20643332181684     -1.69036003644788
  F           0.73265530036416      2.63631626044366      1.94459418866276
  F          -1.08307652615228      2.85782851066124      0.73552511661189
  F          -1.65643730970839     -3.93007181696923     -3.96867173345426
  F          -2.44226550137018     -5.52648607177630     -2.71150025602642
  F          -0.32361733921015     -5.04482223646430     -2.64594280876961
  O           2.27400833500224      2.72767093343872     -0.26061325379046
  O           0.40854217646366      3.25940988679695     -1.42946459560247
  C          -0.96135316781200     -1.39582164011520     -0.37189046828703
  C          -0.52222842342093      0.10387135018928     -0.53546956906269
  C          -1.02838339520913     -2.18000790036463     -1.72838577349535
  C          -0.01337274546520      0.75211871748931      0.79175872315941
  C          -1.85807262220075     -3.50774731427557     -1.63172956129588
  C           0.16050970001258      2.30121345616821      0.74555961012224
  C          -1.55137230719859     -4.52874664554224     -2.77541677632014
  C           1.04187116157013      2.82604079260756     -0.44524205739283
