52
Coordinates from ORCA-job R4N+PFOA-_wb E -2398.790343875634
  N      -4.675600      0.218616     -0.781903
  C      -3.192981      0.376777     -1.135646
  C      -5.150973      1.358276      0.067738
  C      -5.447671      0.217766     -2.070755
  C      -4.920234     -1.073598     -0.062223
  C      -2.268379      0.399177      0.045330
  C      -1.928652      1.610688      0.655170
  C      -1.701673     -0.786605      0.522470
  C      -1.055965      1.633434      1.738647
  C      -0.828866     -0.764032      1.605828
  C      -0.508474      0.445562      2.218416
  H      -3.128529      1.310021     -1.701730
  H      -2.962203     -0.462479     -1.797745
  H      -4.956926      2.294319     -0.460127
  H      -6.223189      1.232567      0.233803
  H      -4.622510      1.340273      1.021792
  H      -5.116919     -0.628138     -2.676484
  H      -6.508928      0.126309     -1.836742
  H      -5.256352      1.158548     -2.591584
  H      -4.557417     -1.895772     -0.682261
  H      -4.395319     -1.054344      0.893936
  H      -5.994210     -1.171660      0.106484
  H      -2.346279      2.539240      0.274013
  H      -1.942203     -1.729352      0.037463
  H      -0.797513      2.580146      2.204304
  H      -0.392839     -1.690825      1.967500
  H       0.175801      0.463653      3.062034
  F     -10.273713      1.518598      0.102149
  F     -10.402550      0.545024     -1.857401
  F      -8.532958     -0.410262     -0.240093
  F      -9.986603     -0.790027      1.361291
  F     -12.664601      1.533623     -1.044474
  F     -12.722885     -0.652491     -1.176168
  F      -9.116372     -2.969449      0.276169
  F     -11.239898     -2.658518     -0.156354
  F     -14.300463      0.389030      0.664725
  F     -12.729130     -0.891400      1.506531
  F     -10.744050     -2.033133     -2.691098
  F      -9.834552     -3.930091     -2.075742
  F     -12.726783      2.634013      1.458736
  F     -11.463450      1.233524      2.551737
  F     -13.589968      1.333407      2.976423
  O      -7.349864     -2.776981     -2.071441
  O      -8.327725     -1.240807     -3.415740
  C     -10.693310      0.402169     -0.546809
  C      -9.816396     -0.771241      0.018291
  C     -12.258345      0.386302     -0.449330
  C      -9.985239     -2.246990     -0.475808
  C     -12.977956      0.309308      0.943549
  C      -9.714907     -2.566956     -1.975619
  C     -12.670386      1.414621      2.006374
  C      -8.311662     -2.137510     -2.549075
52
Coordinates from ORCA-job R4N+PFOA-_wb E -2398.793109242923
  N      -4.687216      0.216817     -0.770412
  C      -3.217873      0.379912     -1.122401
  C      -5.166161      1.344153      0.077012
  C      -5.449937      0.219485     -2.053366
  C      -4.928718     -1.071629     -0.061200
  C      -2.283607      0.401499      0.051191
  C      -1.942978      1.607519      0.660378
  C      -1.710552     -0.779516      0.518379
  C      -1.064418      1.629893      1.733935
  C      -0.831711     -0.758544      1.591680
  C      -0.511157      0.446019      2.204012
  H      -3.160294      1.310843     -1.684040
  H      -2.989368     -0.451938     -1.786982
  H      -4.973848      2.278900     -0.445229
  H      -6.234458      1.216234      0.239897
  H      -4.642329      1.323739      1.028781
  H      -5.115080     -0.619886     -2.659757
  H      -6.508381      0.124586     -1.824989
  H      -5.259300      1.159307     -2.567277
  H      -4.562540     -1.887222     -0.681447
  H      -4.408548     -1.054478      0.892748
  H      -5.998837     -1.174188      0.104592
  H      -2.365722      2.533569      0.287209
  H      -1.951824     -1.719028      0.034028
  H      -0.807034      2.573324      2.200110
  H      -0.392339     -1.683021      1.946481
  H       0.176870      0.463216      3.040820
  F     -10.260010      1.492716      0.096652
  F     -10.409375      0.531843     -1.847337
  F      -8.538617     -0.423340     -0.241478
  F      -9.979599     -0.815238      1.342978
  F     -12.648913      1.511026     -1.039995
  F     -12.718161     -0.658612     -1.142580
  F      -9.118620     -2.975671      0.255370
  F     -11.221841     -2.668102     -0.186374
  F     -14.273357      0.392130      0.681989
  F     -12.707922     -0.857171      1.536431
  F     -10.717562     -2.042071     -2.704512
  F      -9.816889     -3.923551     -2.092843
  F     -12.725877      2.648633      1.435567
  F     -11.455520      1.287988      2.535981
  F     -13.563923      1.374579      2.965284
  O      -7.343105     -2.773721     -2.080387
  O      -8.314628     -1.243936     -3.413408
  C     -10.687905      0.386447     -0.544010
  C      -9.812615     -0.786353      0.009395
  C     -12.246773      0.378549     -0.435158
  C      -9.975887     -2.254599     -0.494159
  C     -12.958870      0.324591      0.956473
  C      -9.698776     -2.570805     -1.989623
  C     -12.657272      1.446311      1.995878
  C      -8.299394     -2.138880     -2.555738
52
Coordinates from ORCA-job R4N+PFOA-_wb E -2398.792840189466
  N      -4.684335      0.213019     -0.771113
  C      -3.216965      0.356257     -1.122758
  C      -5.154780      1.356841      0.054005
  C      -5.443992      0.201085     -2.052361
  C      -4.939073     -1.058103     -0.042136
  C      -2.278741      0.390314      0.048439
  C      -1.925668      1.602306      0.634956
  C      -1.715968     -0.786037      0.535203
  C      -1.044582      1.636019      1.704749
  C      -0.834555     -0.754473      1.604713
  C      -0.501293      0.456722      2.194022
  H      -3.149153      1.275633     -1.701081
  H      -2.993985     -0.487565     -1.773239
  H      -4.954357      2.280747     -0.483488
  H      -6.223686      1.241100      0.216992
  H      -4.634307      1.349515      1.007395
  H      -5.116531     -0.650500     -2.643969
  H      -6.502852      0.119876     -1.824811
  H      -5.244079      1.129826     -2.581657
  H      -4.579942     -1.887231     -0.647119
  H      -4.421209     -1.030168      0.912383
  H      -6.009371     -1.148139      0.123681
  H      -2.341025      2.525386      0.246982
  H      -1.967298     -1.731788      0.068877
  H      -0.777819      2.585034      2.153401
  H      -0.403395     -1.676481      1.974920
  H       0.188746      0.482424      3.028656
  F     -10.271442      1.543817      0.088405
  F     -10.382554      0.582614     -1.854898
  F      -8.540066     -0.382281     -0.236988
  F      -9.987981     -0.736899      1.346024
  F     -12.643343      1.572494     -1.031364
  F     -12.694050     -0.587781     -1.235832
  F      -9.143394     -2.920503      0.298041
  F     -11.239964     -2.600249     -0.151151
  F     -14.277231      0.392089      0.625146
  F     -12.740292     -0.935737      1.402104
  F     -10.727714     -2.021355     -2.676241
  F      -9.849321     -3.899078     -2.033057
  F     -12.697738      2.563056      1.544167
  F     -11.452931      1.107580      2.542296
  F     -13.557309      1.199237      2.977310
  O      -7.364494     -2.774537     -2.037477
  O      -8.318143     -1.261005     -3.394367
  C     -10.681896      0.437934     -0.558577
  C      -9.814765     -0.730285      0.015375
  C     -12.242006      0.417510     -0.476187
  C      -9.991838     -2.205424     -0.462524
  C     -12.968535      0.284009      0.902204
  C      -9.718317     -2.549377     -1.953192
  C     -12.649914      1.325489      2.017529
  C      -8.313319     -2.140607     -2.523836
52
Coordinates from ORCA-job R4N+PFOA-_wb E -2398.793260115097
  N      -4.687290      0.216708     -0.767519
  C      -3.221157      0.374383     -1.117595
  C      -5.165264      1.346122      0.073305
  C      -5.448324      0.217239     -2.048047
  C      -4.933275     -1.065858     -0.055991
  C      -2.281481      0.397867      0.053130
  C      -1.935359      1.603618      0.656509
  C      -1.710639     -0.781700      0.522582
  C      -1.052700      1.627851      1.725390
  C      -0.827681     -0.759777      1.591171
  C      -0.501032      0.445151      2.197054
  H      -3.158445      1.302435     -1.683252
  H      -2.991820     -0.458500     -1.780535
  H      -4.972119      2.279122     -0.451681
  H      -6.233460      1.220610      0.235437
  H      -4.644464      1.330169      1.026837
  H      -5.116066     -0.623957     -2.651822
  H      -6.506516      0.125875     -1.820675
  H      -5.255312      1.154700     -2.565085
  H      -4.569400     -1.884489     -0.672643
  H      -4.414878     -1.048139      0.898910
  H      -6.002931     -1.165236      0.109587
  H      -2.357307      2.529735      0.282353
  H      -1.956691     -1.722646      0.043245
  H      -0.791284      2.572338      2.187154
  H      -0.390081     -1.684439      1.947679
  H       0.190361      0.463423      3.031102
  F     -10.265769      1.505476      0.087683
  F     -10.407852      0.537508     -1.850955
  F      -8.539917     -0.411654     -0.237342
  F      -9.983141     -0.797295      1.342602
  F     -12.655225      1.512476     -1.042534
  F     -12.709896     -0.654635     -1.157660
  F      -9.123241     -2.961982      0.262616
  F     -11.223518     -2.651659     -0.180716
  F     -14.273617      0.377371      0.673630
  F     -12.705232     -0.872573      1.515400
  F     -10.717899     -2.029686     -2.697499
  F      -9.827480     -3.912276     -2.082465
  F     -12.742464      2.630869      1.448661
  F     -11.453896      1.269695      2.522673
  F     -13.557908      1.334589      2.968725
  O      -7.348604     -2.771603     -2.073308
  O      -8.313746     -1.245441     -3.407770
  C     -10.687661      0.398060     -0.549471
  C      -9.811911     -0.771813      0.011929
  C     -12.248124      0.380695     -0.445267
  C      -9.978546     -2.242631     -0.486381
  C     -12.961157      0.311050      0.946541
  C      -9.705037     -2.563125     -1.983322
  C     -12.659823      1.425639      1.995851
  C      -8.302491     -2.137332     -2.549671
52
Coordinates from ORCA-job R4N+PFOA-_wb E -2398.793270635437
  N      -4.685948      0.215634     -0.769685
  C      -3.219600      0.373287     -1.119319
  C      -5.163772      1.345955      0.071151
  C      -5.447866      0.215080     -2.050557
  C      -4.932080     -1.067027     -0.056987
  C      -2.281413      0.398105      0.052561
  C      -1.937108      1.604780      0.655876
  C      -1.709662     -0.780958      0.523182
  C      -1.055160      1.630447      1.725692
  C      -0.827405     -0.757586      1.592704
  C      -0.502480      0.448269      2.198444
  H      -3.155858      1.300985     -1.685756
  H      -2.988676     -0.460018     -1.781397
  H      -4.970992      2.279005     -0.454011
  H      -6.232113      1.220407      0.233568
  H      -4.642958      1.330744      1.024796
  H      -5.116239     -0.626990     -2.653939
  H      -6.506189      0.124236     -1.822519
  H      -5.255204      1.151971     -2.569001
  H      -4.568833     -1.886483     -0.673211
  H      -4.413509     -1.049358      0.897937
  H      -6.001961     -1.165947      0.109166
  H      -2.359779      2.530357      0.281069
  H      -1.954266     -1.722482      0.044150
  H      -0.795120      2.575484      2.187196
  H      -0.389072     -1.681660      1.949937
  H       0.188355      0.467687      3.032979
  F     -10.262657      1.506866      0.090668
  F     -10.404496      0.543382     -1.849945
  F      -8.539809     -0.411033     -0.236957
  F      -9.982927     -0.795958      1.343873
  F     -12.648938      1.526959     -1.037160
  F     -12.713476     -0.639353     -1.167680
  F      -9.122149     -2.960515      0.264921
  F     -11.223481     -2.653349     -0.177029
  F     -14.276625      0.388655      0.667061
  F     -12.717122     -0.876473      1.504404
  F     -10.719078     -2.036470     -2.697890
  F      -9.826326     -3.916920     -2.077466
  F     -12.734154      2.628467      1.461679
  F     -11.457148      1.252357      2.532008
  F     -13.563278      1.326670      2.970573
  O      -7.348264     -2.775222     -2.073062
  O      -8.314552     -1.249491     -3.408663
  C     -10.686525      0.401173     -0.548745
  C      -9.812268     -0.770977      0.012483
  C     -12.247859      0.388914     -0.446780
  C      -9.978889     -2.242943     -0.484857
  C     -12.964857      0.312966      0.943129
  C      -9.705465     -2.566804     -1.981823
  C     -12.660548      1.418711      2.001310
  C      -8.302971     -2.141204     -2.549527
52
Coordinates from ORCA-job R4N+PFOA-_wb E -2398.793278773005
  N      -4.684959      0.216264     -0.769651
  C      -3.218902      0.372705     -1.119154
  C      -5.162271      1.347327      0.070543
  C      -5.447226      0.215482     -2.050308
  C      -4.932161     -1.065854     -0.056336
  C      -2.280432      0.397110      0.052681
  C      -1.935156      1.603623      0.655797
  C      -1.709084     -0.782226      0.523146
  C      -1.052620      1.628905      1.725186
  C      -0.826251     -0.759314      1.592244
  C      -0.500312      0.446434      2.197737
  H      -3.153665      1.300099     -1.685983
  H      -2.987831     -0.460716     -1.781080
  H      -4.969325      2.280161     -0.454947
  H      -6.230689      1.222265      0.232989
  H      -4.641798      1.332787      1.024381
  H      -5.116649     -0.627155     -2.653513
  H      -6.505578      0.125555     -1.821958
  H      -5.254296      1.151871     -2.569584
  H      -4.569886     -1.886119     -0.672084
  H      -4.413738     -1.048651      0.898692
  H      -6.002119     -1.163805      0.110030
  H      -2.357432      2.529481      0.281232
  H      -1.954423     -1.723727      0.044427
  H      -0.791851      2.573858      2.186444
  H      -0.388304     -1.683642      1.949286
  H       0.191013      0.465535      3.031875
  F     -10.266056      1.510288      0.090305
  F     -10.404607      0.545144     -1.850318
  F      -8.539564     -0.407235     -0.235350
  F      -9.984006     -0.791501      1.344895
  F     -12.652768      1.523052     -1.039355
  F     -12.709651     -0.644110     -1.168339
  F      -9.123874     -2.957175      0.267425
  F     -11.225200     -2.647377     -0.175180
  F     -14.277074      0.379453      0.666119
  F     -12.712404     -0.879737      1.503292
  F     -10.720064     -2.032940     -2.695944
  F      -9.829484     -3.914274     -2.074533
  F     -12.744193      2.625207      1.459473
  F     -11.458112      1.255384      2.526990
  F     -13.563691      1.319577      2.970519
  O      -7.349642     -2.774773     -2.072116
  O      -8.315314     -1.248654     -3.407617
  C     -10.687024      0.403559     -0.549077
  C      -9.812036     -0.767091      0.013593
  C     -12.248282      0.386636     -0.448177
  C      -9.979797     -2.239183     -0.482841
  C     -12.964970      0.308510      0.941752
  C      -9.707150     -2.564297     -1.979927
  C     -12.663595      1.415912      1.999167
  C      -8.304268     -2.140302     -2.548295
52
Coordinates from ORCA-job R4N+PFOA-_wb E -2398.793280515191
  N      -4.685103      0.216893     -0.769205
  C      -3.219507      0.373243     -1.118245
  C      -5.162997      1.347699      0.070735
  C      -5.447215      0.216138     -2.049691
  C      -4.932773     -1.065128     -0.056249
  C      -2.280670      0.397325      0.053538
  C      -1.934997      1.603554      0.656816
  C      -1.709361     -0.782106      0.523563
  C      -1.052151      1.628494      1.725900
  C      -0.826221     -0.759617      1.592363
  C      -0.499874      0.445892      2.197983
  H      -3.153417      1.300585     -1.685060
  H      -2.987795     -0.459832     -1.780384
  H      -4.970303      2.280719     -0.454501
  H      -6.231411      1.222273      0.232737
  H      -4.643166      1.333590      1.024908
  H      -5.117026     -0.626450     -2.653075
  H      -6.505552      0.126352     -1.821432
  H      -5.254474      1.152404     -2.569241
  H      -4.570822     -1.885557     -0.671907
  H      -4.414804     -1.048741      0.899026
  H      -6.002743     -1.162872      0.109944
  H      -2.357154      2.529644      0.282698
  H      -1.955007     -1.723546      0.044879
  H      -0.791134      2.573333      2.187238
  H      -0.388387     -1.684133      1.949041
  H       0.191744      0.464706      3.031881
  F     -10.266589      1.510448      0.085190
  F     -10.407980      0.540840     -1.852889
  F      -8.540545     -0.406077     -0.234642
  F      -9.985974     -0.791556      1.343934
  F     -12.655049      1.520407     -1.040383
  F     -12.711370     -0.646875     -1.165729
  F      -9.122934     -2.956745      0.266328
  F     -11.224474     -2.647904     -0.176146
  F     -14.276744      0.381107      0.669422
  F     -12.712340     -0.878931      1.505227
  F     -10.719510     -2.032779     -2.696719
  F      -9.829853     -3.914307     -2.074975
  F     -12.741484      2.625647      1.458777
  F     -11.453445      1.256103      2.523952
  F     -13.557803      1.321311      2.972453
  O      -7.349503     -2.775653     -2.073716
  O      -8.315119     -1.248954     -3.408067
  C     -10.688366      0.402422     -0.550954
  C      -9.812702     -0.767037      0.012876
  C     -12.249545      0.385177     -0.447951
  C      -9.979323     -2.239254     -0.483620
  C     -12.964446      0.308887      0.943047
  C      -9.707103     -2.564551     -1.980829
  C     -12.660035      1.416781      1.999007
  C      -8.304215     -2.141041     -2.549301
52
Coordinates from ORCA-job R4N+PFOA-_wb E -2398.793282881316
  N      -4.683570      0.217686     -0.769063
  C      -3.218545      0.373229     -1.118496
  C      -5.160992      1.348396      0.071112
  C      -5.446437      0.217267     -2.048933
  C      -4.931977     -1.064224     -0.056385
  C      -2.278939      0.396709      0.052893
  C      -1.931881      1.602640      0.655872
  C      -1.708400     -0.783108      0.522741
  C      -1.048361      1.626954      1.724404
  C      -0.824637     -0.761306      1.591033
  C      -0.496858      0.443952      2.196321
  H      -3.151412      1.300439     -1.685427
  H      -2.986877     -0.459715     -1.780835
  H      -4.968413      2.281598     -0.453844
  H      -6.229370      1.223001      0.233254
  H      -4.641183      1.334342      1.025292
  H      -5.117609     -0.625525     -2.652719
  H      -6.504670      0.128232     -1.819989
  H      -5.253891      1.153213     -2.569135
  H      -4.571317     -1.885052     -0.672239
  H      -4.413864     -1.049236      0.898830
  H      -6.001934     -1.161112      0.110318
  H      -2.353384      2.529155      0.282064
  H      -1.955132     -1.724487      0.044488
  H      -0.786309      2.571657      2.185428
  H      -0.387486     -1.686216      1.947524
  H       0.195272      0.462259      3.029806
  F     -10.269411      1.512183      0.087406
  F     -10.407334      0.543156     -1.850961
  F      -8.540410     -0.402474     -0.231217
  F      -9.986683     -0.789917      1.345733
  F     -12.656530      1.518604     -1.041568
  F     -12.709179     -0.648639     -1.167057
  F      -9.120718     -2.953886      0.267755
  F     -11.222765     -2.646116     -0.173201
  F     -14.279587      0.376720      0.664724
  F     -12.715096     -0.880498      1.504076
  F     -10.719733     -2.032581     -2.694683
  F      -9.830285     -3.913475     -2.071309
  F     -12.751563      2.623948      1.456567
  F     -11.461878      1.258220      2.524459
  F     -13.567123      1.318055      2.969206
  O      -7.349660     -2.776553     -2.074775
  O      -8.315734     -1.248506     -3.406904
  C     -10.688861      0.403829     -0.549381
  C      -9.812288     -0.764730      0.014797
  C     -12.250239      0.384084     -0.448446
  C      -9.978003     -2.237090     -0.481697
  C     -12.967835      0.306706      0.941154
  C      -9.707143     -2.563707     -1.978958
  C     -12.667886      1.415508      1.997333
  C      -8.304652     -2.141260     -2.548817
52
Coordinates from ORCA-job R4N+PFOA-_wb E -2398.793287298885
  N      -4.682519      0.218475     -0.769011
  C      -3.217776      0.373686     -1.118479
  C      -5.159750      1.348850      0.071783
  C      -5.445922      0.218626     -2.048523
  C      -4.931726     -1.063723     -0.057104
  C      -2.278196      0.396590      0.053039
  C      -1.930970      1.602256      0.656477
  C      -1.707814     -0.783492      0.522455
  C      -1.047371      1.626055      1.725011
  C      -0.823889     -0.762192      1.590681
  C      -0.495904      0.442808      2.196434
  H      -3.149957      1.301019     -1.685164
  H      -2.985906     -0.459007     -1.781092
  H      -4.967125      2.282390     -0.452571
  H      -6.228135      1.223253      0.233697
  H      -4.640016      1.334423      1.026014
  H      -5.118354     -0.624264     -2.652861
  H      -6.504116      0.130234     -1.819025
  H      -5.253654      1.154356     -2.569246
  H      -4.572253     -1.884714     -0.673452
  H      -4.413626     -1.050598      0.898153
  H      -6.001762     -1.159767      0.109787
  H      -2.352353      2.529054      0.283212
  H      -1.954550     -1.724730      0.043931
  H      -0.785268      2.570595      2.186347
  H      -0.386826     -1.687328      1.946697
  H       0.196292      0.460724      3.029877
  F     -10.272312      1.512437      0.086112
  F     -10.410109      0.542144     -1.851677
  F      -8.541760     -0.399126     -0.228255
  F      -9.990063     -0.790194      1.345771
  F     -12.659412      1.516790     -1.042082
  F     -12.711469     -0.650707     -1.165559
  F      -9.116913     -2.951664      0.267189
  F     -11.220025     -2.647851     -0.171916
  F     -14.281427      0.376951      0.665832
  F     -12.716752     -0.879795      1.505887
  F     -10.719413     -2.034727     -2.694919
  F      -9.829420     -3.914660     -2.069549
  F     -12.754447      2.624679      1.454493
  F     -11.461969      1.261207      2.522009
  F     -13.566662      1.319620      2.969882
  O      -7.349043     -2.779197     -2.078416
  O      -8.315931     -1.248849     -3.407341
  C     -10.691098      0.403310     -0.549787
  C      -9.813395     -0.764048      0.014919
  C     -12.252427      0.382859     -0.448054
  C      -9.976157     -2.236670     -0.481874
  C     -12.969474      0.306899      0.941829
  C      -9.706289     -2.564598     -1.979069
  C     -12.668924      1.416800      1.996457
  C      -8.304435     -2.142862     -2.550395
52
Coordinates from ORCA-job R4N+PFOA-_wb E -2398.793289973090
  N      -4.681329      0.219221     -0.768459
  C      -3.216462      0.373625     -1.118826
  C      -5.157427      1.349677      0.072982
  C      -5.445441      0.220145     -2.047522
  C      -4.931206     -1.063117     -0.057041
  C      -2.276450      0.395897      0.052269
  C      -1.928379      1.601379      0.655632
  C      -1.706393     -0.784523      0.521290
  C      -1.044229      1.624643      1.723740
  C      -0.821943     -0.763699      1.589105
  C      -0.493015      0.441104      2.194751
  H      -3.148823      1.301058     -1.685355
  H      -2.985809     -0.459256     -1.781611
  H      -4.964219      2.283187     -0.451208
  H      -6.225826      1.224554      0.235089
  H      -4.637143      1.334378      1.026903
  H      -5.119024     -0.622922     -2.652233
  H      -6.503573      0.132506     -1.817313
  H      -5.253028      1.155748     -2.568427
  H      -4.572848     -1.884112     -0.674046
  H      -4.412618     -1.051173      0.897975
  H      -6.001304     -1.158200      0.110144
  H      -2.349490      2.528408      0.282642
  H      -1.953715     -1.725585      0.042737
  H      -0.781454      2.569027      2.185015
  H      -0.385116     -1.689071      1.944801
  H       0.199619      0.458630      3.027833
  F     -10.275932      1.513532      0.086989
  F     -10.410547      0.542641     -1.850746
  F      -8.542662     -0.395367     -0.224593
  F      -9.992620     -0.788984      1.347258
  F     -12.661685      1.514755     -1.044191
  F     -12.711381     -0.652860     -1.166393
  F      -9.113086     -2.948665      0.268586
  F     -11.217236     -2.648455     -0.168610
  F     -14.284702      0.374925      0.661912
  F     -12.720672     -0.880624      1.504977
  F     -10.719314     -2.034332     -2.692537
  F      -9.829136     -3.914155     -2.066942
  F     -12.759721      2.623838      1.452193
  F     -11.469685      1.261097      2.523818
  F     -13.575522      1.319386      2.966146
  O      -7.348738     -2.780643     -2.080205
  O      -8.316221     -1.247851     -3.406066
  C     -10.692770      0.403625     -0.549094
  C      -9.814135     -0.762485      0.016503
  C     -12.254119      0.381569     -0.448890
  C      -9.974230     -2.235367     -0.480115
  C     -12.973036      0.305825      0.940072
  C      -9.705473     -2.563898     -1.977211
  C     -12.675284      1.416172      1.994949
  C      -8.304220     -2.142881     -2.550123
52
Coordinates from ORCA-job R4N+PFOA-_wb E -2398.793292131914
  N      -4.680338      0.219912     -0.768617
  C      -3.215045      0.373349     -1.119794
  C      -5.154917      1.350613      0.073429
  C      -5.445008      0.221640     -2.047295
  C      -4.930766     -1.062453     -0.057547
  C      -2.275094      0.395188      0.051131
  C      -1.926461      1.600596      0.654327
  C      -1.706308     -0.785582      0.520811
  C      -1.042938      1.623434      1.722933
  C      -0.822534     -0.765120      1.589172
  C      -0.493042      0.439586      2.194679
  H      -3.147892      1.300814     -1.686279
  H      -2.985999     -0.460030     -1.782468
  H      -4.960796      2.283914     -0.450786
  H      -6.223340      1.226348      0.235826
  H      -4.633907      1.334112      1.026932
  H      -5.119418     -0.621684     -2.652071
  H      -6.503079      0.134738     -1.816445
  H      -5.252120      1.157172     -2.568138
  H      -4.573254     -1.883269     -0.675263
  H      -4.411520     -1.051088      0.897117
  H      -6.000917     -1.156581      0.109794
  H      -2.346745      2.527766      0.280776
  H      -1.954274     -1.726530      0.042369
  H      -0.779663      2.567717      2.184135
  H      -0.386691     -1.690720      1.945483
  H       0.199061      0.456796      3.028206
  F     -10.280394      1.514153      0.088909
  F     -10.411499      0.544527     -1.849665
  F      -8.543828     -0.391648     -0.221938
  F      -9.994939     -0.787844      1.348061
  F     -12.665053      1.511784     -1.045968
  F     -12.711826     -0.656046     -1.165744
  F      -9.109644     -2.945754      0.269720
  F     -11.214531     -2.649323     -0.166422
  F     -14.287069      0.373103      0.660863
  F     -12.722771     -0.881283      1.505299
  F     -10.718487     -2.034054     -2.690927
  F      -9.827954     -3.913587     -2.065179
  F     -12.762005      2.623090      1.450240
  F     -11.473337      1.260654      2.523952
  F     -13.579500      1.319902      2.964387
  O      -7.347824     -2.782126     -2.082291
  O      -8.315655     -1.246911     -3.405262
  C     -10.694878      0.403977     -0.548508
  C      -9.815030     -0.761028      0.017454
  C     -12.256157      0.379773     -0.449274
  C      -9.972374     -2.234268     -0.478968
  C     -12.975403      0.304767      0.939537
  C      -9.704032     -2.563239     -1.975879
  C     -12.678415      1.415784      1.993939
  C      -8.303158     -2.142715     -2.550202
52
Coordinates from ORCA-job R4N+PFOA-_wb E -2398.793293450753
  N      -4.679938      0.220822     -0.768290
  C      -3.214287      0.373088     -1.120091
  C      -5.153229      1.352116      0.073739
  C      -5.444865      0.222953     -2.046800
  C      -4.930997     -1.061306     -0.056997
  C      -2.274066      0.394343      0.050472
  C      -1.923826      1.599636      0.652980
  C      -1.706630     -0.786909      0.520604
  C      -1.040106      1.621900      1.721410
  C      -0.822653     -0.767004      1.588783
  C      -0.491669      0.437588      2.193693
  H      -3.147155      1.300462     -1.686706
  H      -2.986705     -0.460768     -1.782654
  H      -4.958238      2.285053     -0.450788
  H      -6.221731      1.228887      0.236316
  H      -4.631926      1.334971      1.027055
  H      -5.119623     -0.620705     -2.651279
  H      -6.502923      0.136592     -1.815614
  H      -5.251325      1.158404     -2.567530
  H      -4.573845     -1.882121     -0.674904
  H      -4.411489     -1.049726      0.897506
  H      -6.001218     -1.154670      0.110173
  H      -2.343032      2.527062      0.278865
  H      -1.955820     -1.727693      0.042479
  H      -0.775518      2.566054      2.182126
  H      -0.387845     -1.692931      1.945511
  H       0.200549      0.454347      3.027133
  F     -10.283992      1.515351      0.088893
  F     -10.412605      0.545229     -1.849584
  F      -8.544864     -0.388464     -0.220373
  F      -9.996582     -0.785750      1.348752
  F     -12.668293      1.509297     -1.047557
  F     -12.712046     -0.658638     -1.166080
  F      -9.107028     -2.942913      0.271250
  F     -11.212499     -2.649669     -0.164317
  F     -14.288996      0.369403      0.659574
  F     -12.723349     -0.882799      1.504714
  F     -10.717376     -2.032438     -2.689091
  F      -9.827076     -3.912272     -2.063678
  F     -12.764988      2.621484      1.448519
  F     -11.477614      1.259709      2.524633
  F     -13.584344      1.318897      2.962132
  O      -7.346899     -2.782544     -2.082464
  O      -8.314551     -1.245805     -3.403923
  C     -10.696669      0.404527     -0.548712
  C      -9.815775     -0.759301      0.018287
  C     -12.257964      0.378209     -0.450197
  C      -9.971051     -2.233025     -0.477430
  C     -12.977342      0.302806      0.938602
  C      -9.702858     -2.562020     -1.974270
  C     -12.681974      1.414483      1.992917
  C      -8.301924     -2.141872     -2.549237
52
Coordinates from ORCA-job R4N+PFOA-_wb E -2398.793294215608
  N      -4.679809      0.221316     -0.768038
  C      -3.214051      0.372497     -1.120153
  C      -5.151970      1.353134      0.073889
  C      -5.444905      0.223855     -2.046490
  C      -4.931613     -1.060578     -0.056462
  C      -2.273547      0.393547      0.050149
  C      -1.921910      1.598902      0.651735
  C      -1.707112     -0.787955      0.520891
  C      -1.037924      1.621011      1.719937
  C      -0.822825     -0.768219      1.588800
  C      -0.490510      0.436460      2.192814
  H      -3.146535      1.299643     -1.687092
  H      -2.987255     -0.461739     -1.782515
  H      -4.956199      2.285819     -0.450785
  H      -6.220598      1.230988      0.236548
  H      -4.630686      1.335541      1.027210
  H      -5.119833     -0.620049     -2.650707
  H      -6.502957      0.137884     -1.815109
  H      -5.250718      1.159298     -2.566980
  H      -4.574610     -1.881467     -0.674336
  H      -4.412203     -1.048669      0.898078
  H      -6.001937     -1.153320      0.110338
  H      -2.340327      2.526436      0.277001
  H      -1.957340     -1.728752      0.043338
  H      -0.772250      2.565176      2.180004
  H      -0.388778     -1.694303      1.946041
  H       0.201941      0.453083      3.026065
  F     -10.286833      1.516197      0.089359
  F     -10.413567      0.546367     -1.849323
  F      -8.545660     -0.386177     -0.219882
  F      -9.997205     -0.784168      1.349155
  F     -12.670830      1.507259     -1.048686
  F     -12.712041     -0.660762     -1.166223
  F      -9.105724     -2.940961      0.272290
  F     -11.211408     -2.649599     -0.163537
  F     -14.290530      0.367013      0.658880
  F     -12.724217     -0.884127      1.504267
  F     -10.716022     -2.031009     -2.688315
  F      -9.826095     -3.911057     -2.062938
  F     -12.766868      2.620118      1.447583
  F     -11.480002      1.258599      2.524543
  F     -13.586904      1.317803      2.961066
  O      -7.345864     -2.782654     -2.082373
  O      -8.313113     -1.244717     -3.402783
  C     -10.698052      0.405100     -0.548710
  C      -9.816251     -0.757946      0.018752
  C     -12.259385      0.376950     -0.450777
  C      -9.970319     -2.232016     -0.476540
  C     -12.978910      0.301223      0.938015
  C      -9.701801     -2.560941     -1.973349
  C     -12.684120      1.413257      1.992258
  C      -8.300590     -2.140964     -2.548350
52
Coordinates from ORCA-job R4N+PFOA-_wb E -2398.793295287981
  N      -4.679861      0.221405     -0.768118
  C      -3.214120      0.371296     -1.120174
  C      -5.150910      1.353787      0.073584
  C      -5.445020      0.224437     -2.046636
  C      -4.932727     -1.060188     -0.056185
  C      -2.273599      0.392571      0.050151
  C      -1.920942      1.598206      0.650583
  C      -1.708015     -0.788932      0.521940
  C      -1.036777      1.620651      1.718624
  C      -0.823625     -0.768910      1.589753
  C      -0.490230      0.436101      2.192519
  H      -3.145704      1.298000     -1.687751
  H      -2.987590     -0.463421     -1.782041
  H      -4.954223      2.286267     -0.451117
  H      -6.219698      1.232953      0.236163
  H      -4.629943      1.335841      1.027072
  H      -5.120077     -0.619681     -2.650622
  H      -6.503069      0.138831     -1.815149
  H      -5.250092      1.159915     -2.566766
  H      -4.575747     -1.881296     -0.673766
  H      -4.413806     -1.047893      0.898608
  H      -6.003216     -1.152273      0.109938
  H      -2.338757      2.525673      0.275000
  H      -1.959052     -1.729959      0.045260
  H      -0.770273      2.565014      2.177800
  H      -0.390252     -1.694977      1.947855
  H       0.202358      0.452962      3.025654
  F     -10.288609      1.517060      0.088931
  F     -10.415194      0.547107     -1.849643
  F      -8.546213     -0.384228     -0.220691
  F      -9.997010     -0.782809      1.348892
  F     -12.673168      1.506010     -1.048477
  F     -12.712437     -0.662061     -1.165743
  F      -9.104770     -2.939342      0.272542
  F     -11.210527     -2.649362     -0.163878
  F     -14.291190      0.364441      0.659941
  F     -12.723391     -0.885221      1.504687
  F     -10.714172     -2.029645     -2.688668
  F      -9.824800     -3.909879     -2.063030
  F     -12.768537      2.618985      1.447604
  F     -11.480851      1.258373      2.524682
  F     -13.587723      1.316534      2.961431
  O      -7.344462     -2.782735     -2.082522
  O      -8.311038     -1.243534     -3.401957
  C     -10.699199      0.405682     -0.549003
  C      -9.816434     -0.756737      0.018475
  C     -12.260522      0.376174     -0.450625
  C      -9.969657     -2.231057     -0.476507
  C     -12.979445      0.299816      0.938502
  C      -9.700491     -2.559887     -1.973258
  C     -12.685113      1.412287      1.992488
  C      -8.298852     -2.140026     -2.547805
52
Coordinates from ORCA-job R4N+PFOA-_wb E -2398.793295750545
  N      -4.680126      0.222504     -0.768054
  C      -3.214542      0.370849     -1.120184
  C      -5.150067      1.355546      0.073293
  C      -5.445517      0.225839     -2.046568
  C      -4.934186     -1.058663     -0.055581
  C      -2.273673      0.391447      0.050004
  C      -1.919583      1.596858      0.650069
  C      -1.708942     -0.790479      0.521754
  C      -1.034899      1.618693      1.717706
  C      -0.823995     -0.771102      1.589122
  C      -0.489181      0.433719      2.191493
  H      -3.144806      1.297283     -1.688072
  H      -2.988455     -0.464099     -1.781933
  H      -4.952354      2.287806     -0.451420
  H      -6.219056      1.236167      0.235713
  H      -4.629538      1.337390      1.027012
  H      -5.120820     -0.618531     -2.650341
  H      -6.503511      0.140539     -1.814771
  H      -5.250038      1.161285     -2.566516
  H      -4.577195     -1.880211     -0.672553
  H      -4.416026     -1.045934      0.899616
  H      -6.004862     -1.150069      0.109691
  H      -2.336746      2.524640      0.274529
  H      -1.961068     -1.731376      0.045384
  H      -0.767285      2.562876      2.176605
  H      -0.391297     -1.697495      1.947191
  H       0.203865      0.450087      3.024259
  F     -10.291360      1.518129      0.088263
  F     -10.417018      0.547439     -1.849969
  F      -8.546679     -0.381219     -0.221401
  F      -9.996327     -0.780680      1.349058
  F     -12.676023      1.503533     -1.049284
  F     -12.712490     -0.664661     -1.165356
  F      -9.102254     -2.936767      0.273920
  F     -11.208327     -2.649445     -0.162878
  F     -14.292609      0.361419      0.659874
  F     -12.723553     -0.886273      1.505185
  F     -10.711572     -2.029653     -2.688164
  F      -9.821933     -3.909314     -2.061202
  F     -12.772161      2.617856      1.446043
  F     -11.482858      1.259248      2.523676
  F     -13.589700      1.315480      2.960864
  O      -7.342020     -2.782904     -2.082143
  O      -8.308478     -1.242301     -3.400008
  C     -10.700654      0.406054     -0.549236
  C      -9.816315     -0.755085      0.018551
  C     -12.261952      0.374582     -0.450781
  C      -9.967926     -2.229876     -0.475544
  C     -12.980802      0.298163      0.938384
  C      -9.698127     -2.559276     -1.972052
  C     -12.687399      1.411569      1.991623
  C      -8.296335     -2.139260     -2.546323
52
Coordinates from ORCA-job R4N+PFOA-_wb E -2398.793297407508
  N      -4.680397      0.223261     -0.768386
  C      -3.214891      0.369997     -1.120392
  C      -5.149338      1.356972      0.072552
  C      -5.445892      0.226903     -2.046949
  C      -4.935849     -1.057439     -0.055471
  C      -2.274010      0.390265      0.049892
  C      -1.918959      1.595608      0.649513
  C      -1.710287     -0.791928      0.522135
  C      -1.034153      1.617173      1.717055
  C      -0.825249     -0.772842      1.589444
  C      -0.489325      0.431957      2.191251
  H      -3.143806      1.296056     -1.688745
  H      -2.989159     -0.465364     -1.781747
  H      -4.950406      2.288994     -0.452137
  H      -6.218544      1.239041      0.234649
  H      -4.629259      1.338570      1.026524
  H      -5.121663     -0.617713     -2.650634
  H      -6.503845      0.142036     -1.814885
  H      -5.249901      1.162248     -2.566878
  H      -4.578933     -1.879591     -0.671681
  H      -4.418597     -1.044578      0.900217
  H      -6.006734     -1.148098      0.108870
  H      -2.335392      2.523607      0.273700
  H      -1.963254     -1.732863      0.046280
  H      -0.765744      2.561330      2.175538
  H      -0.393312     -1.699457      1.947860
  H       0.203846      0.448103      3.023920
  F     -10.293158      1.519439      0.087009
  F     -10.418903      0.547738     -1.850700
  F      -8.546677     -0.378120     -0.222871
  F      -9.994971     -0.778347      1.348717
  F     -12.678348      1.502105     -1.048974
  F     -12.712559     -0.666157     -1.164837
  F      -9.099454     -2.934033      0.274809
  F     -11.205881     -2.649117     -0.162026
  F     -14.293168      0.358178      0.660776
  F     -12.722237     -0.887281      1.505958
  F     -10.709054     -2.030047     -2.688109
  F      -9.819138     -3.908977     -2.059480
  F     -12.776051      2.616760      1.445899
  F     -11.483961      1.260535      2.523225
  F     -13.590671      1.313424      2.961462
  O      -7.339588     -2.783230     -2.082249
  O      -8.305959     -1.241137     -3.398387
  C     -10.701666      0.406633     -0.549684
  C      -9.815752     -0.753267      0.018067
  C     -12.262850      0.373641     -0.450464
  C      -9.965924     -2.228482     -0.475076
  C     -12.981175      0.296663      0.938909
  C      -9.695686     -2.558800     -1.971270
  C     -12.689011      1.410728      1.991708
  C      -8.293878     -2.138765     -2.545354
52
Coordinates from ORCA-job R4N+PFOA-_wb E -2398.793297369801
  N      -4.681003      0.224769     -0.769011
  C      -3.215425      0.369627     -1.120859
  C      -5.148944      1.359260      0.071413
  C      -5.446528      0.228648     -2.047615
  C      -4.938019     -1.055362     -0.055645
  C      -2.274658      0.389088      0.049616
  C      -1.917661      1.594153      0.648603
  C      -1.713247     -0.793819      0.522775
  C      -1.033089      1.614790      1.716374
  C      -0.828479     -0.775653      1.590346
  C      -0.490560      0.428895      2.191523
  H      -3.142867      1.295361     -1.689578
  H      -2.990452     -0.466243     -1.781822
  H      -4.948499      2.290953     -0.453296
  H      -6.218397      1.242875      0.233004
  H      -4.629323      1.340548      1.025636
  H      -5.122929     -0.616199     -2.651323
  H      -6.504437      0.144219     -1.815250
  H      -5.250153      1.163835     -2.567679
  H      -4.581110     -1.878281     -0.670845
  H      -4.421884     -1.042497      0.900649
  H      -6.009138     -1.145308      0.107558
  H      -2.332270      2.522719      0.272177
  H      -1.967792     -1.734652      0.047566
  H      -0.763140      2.558776      2.174309
  H      -0.398373     -1.702851      1.949462
  H       0.202406      0.444313      3.024375
  F     -10.295332      1.520886      0.085200
  F     -10.421157      0.547633     -1.851747
  F      -8.546189     -0.374151     -0.225051
  F      -9.992435     -0.775314      1.348290
  F     -12.681078      1.499624     -1.048808
  F     -12.712410     -0.668754     -1.163766
  F      -9.094859     -2.930538      0.276004
  F     -11.201919     -2.649051     -0.160254
  F     -14.293463      0.354479      0.662151
  F     -12.720473     -0.888502      1.507309
  F     -10.706006     -2.031250     -2.687553
  F      -9.815144     -3.909002     -2.056891
  F     -12.780038      2.615404      1.445518
  F     -11.484271      1.262112      2.522149
  F     -13.590665      1.311133      2.962418
  O      -7.336294     -2.783380     -2.082492
  O      -8.303112     -1.239598     -3.396281
  C     -10.702685      0.406982     -0.550318
  C      -9.814493     -0.751093      0.017410
  C     -12.263689      0.371953     -0.449988
  C      -9.962677     -2.226930     -0.474287
  C     -12.981206      0.294811      0.939697
  C      -9.692306     -2.558581     -1.970081
  C     -12.690117      1.409753      1.991739
  C      -8.290779     -2.138264     -2.544278
52
Coordinates from ORCA-job R4N+PFOA-_wb E -2398.793298113327
  N      -4.681500      0.225012     -0.769738
  C      -3.215663      0.368831     -1.121297
  C      -5.148821      1.360028      0.070362
  C      -5.446762      0.229183     -2.048444
  C      -4.939719     -1.054749     -0.056269
  C      -2.275382      0.388269      0.049556
  C      -1.918071      1.593401      0.648189
  C      -1.714909     -0.794743      0.523557
  C      -1.034136      1.614003      1.716494
  C      -0.830832     -0.776579      1.591702
  C      -0.492628      0.428027      2.192582
  H      -3.142578      1.294351     -1.690294
  H      -2.991140     -0.467507     -1.781814
  H      -4.947170      2.291447     -0.454373
  H      -6.218446      1.244645      0.231467
  H      -4.629465      1.340931      1.024722
  H      -5.123769     -0.615813     -2.652273
  H      -6.504716      0.145254     -1.816101
  H      -5.250021      1.164203     -2.568678
  H      -4.582887     -1.878198     -0.670818
  H      -4.424331     -1.042195      0.900433
  H      -6.011003     -1.144176      0.106170
  H      -2.331938      2.522066      0.271187
  H      -1.969564     -1.735665      0.048601
  H      -0.763988      2.558065      2.174154
  H      -0.401497     -1.703879      1.951475
  H       0.199770      0.443426      3.025904
  F     -10.295885      1.521990      0.083905
  F     -10.422374      0.547934     -1.852601
  F      -8.545382     -0.371758     -0.227212
  F      -9.989960     -0.773223      1.347626
  F     -12.682306      1.498666     -1.048039
  F     -12.712131     -0.669754     -1.162803
  F      -9.091979     -2.928376      0.276235
  F     -11.199424     -2.648498     -0.159275
  F     -14.292714      0.352451      0.663965
  F     -12.718198     -0.889162      1.508390
  F     -10.704524     -2.031753     -2.687406
  F      -9.813221     -3.908910     -2.055701
  F     -12.781406      2.614663      1.446373
  F     -11.483023      1.262955      2.521848
  F     -13.589086      1.309400      2.963961
  O      -7.334636     -2.783453     -2.083136
  O      -8.301668     -1.238508     -3.395384
  C     -10.702795      0.407490     -0.550873
  C      -9.813201     -0.749596      0.016574
  C     -12.263670      0.371328     -0.449385
  C      -9.960583     -2.225801     -0.474179
  C     -12.980214      0.293884      0.940729
  C      -9.690507     -2.558374     -1.969783
  C     -12.689502      1.409123      1.992522
  C      -8.289213     -2.138024     -2.544258
52
Coordinates from ORCA-job R4N+PFOA-_wb E -2398.793298920490
  N      -4.682307      0.225525     -0.770226
  C      -3.216001      0.367963     -1.121427
  C      -5.148900      1.361243      0.069452
  C      -5.446979      0.230073     -2.049154
  C      -4.942040     -1.053780     -0.056727
  C      -2.276226      0.387128      0.049741
  C      -1.917939      1.592307      0.647665
  C      -1.716970     -0.796113      0.524624
  C      -1.034444      1.612744      1.716335
  C      -0.833279     -0.778074      1.593091
  C      -0.494129      0.426589      2.193314
  H      -3.142413      1.293265     -1.690692
  H      -2.992408     -0.468976     -1.781483
  H      -4.945625      2.292268     -0.455347
  H      -6.218769      1.247103      0.229784
  H      -4.629989      1.341526      1.024034
  H      -5.124733     -0.615191     -2.653016
  H      -6.505054      0.146956     -1.817143
  H      -5.249600      1.164792     -2.569687
  H      -4.585278     -1.877786     -0.670584
  H      -4.427499     -1.041697      0.900447
  H      -6.013543     -1.142573      0.104724
  H      -2.330705      2.521146      0.269900
  H      -1.972181     -1.737094      0.050091
  H      -0.763585      2.556874      2.173442
  H      -0.404929     -1.705563      1.953558
  H       0.197964      0.441869      3.026886
  F     -10.297403      1.523587      0.082086
  F     -10.424171      0.548487     -1.853865
  F      -8.544579     -0.368197     -0.229745
  F      -9.987207     -0.770143      1.346766
  F     -12.684626      1.496703     -1.047683
  F     -12.711855     -0.671787     -1.161683
  F      -9.088064     -2.925182      0.276752
  F     -11.196068     -2.647824     -0.157696
  F     -14.292037      0.349070      0.666124
  F     -12.715180     -0.890249      1.509645
  F     -10.702773     -2.032094     -2.686884
  F      -9.810911     -3.908581     -2.054006
  F     -12.783350      2.613448      1.446637
  F     -11.481861      1.263957      2.521128
  F     -13.587542      1.307320      2.965315
  O      -7.332658     -2.783355     -2.083858
  O      -8.300011     -1.236978     -3.394214
  C     -10.703316      0.408234     -0.551863
  C      -9.811738     -0.747371      0.015550
  C     -12.264050      0.370071     -0.449037
  C      -9.957851     -2.224203     -0.473792
  C     -12.979214      0.292272      0.941751
  C      -9.688341     -2.557979     -1.969222
  C     -12.689070      1.408189      1.993010
  C      -8.287338     -2.137593     -2.544266
52
Coordinates from ORCA-job R4N+PFOA-_wb E -2398.793300308174
  N      -4.682624      0.225471     -0.770731
  C      -3.216086      0.367988     -1.121605
  C      -5.149343      1.361185      0.068945
  C      -5.446910      0.230092     -2.049804
  C      -4.942397     -1.053860     -0.057396
  C      -2.276749      0.387138      0.049824
  C      -1.918606      1.592349      0.647803
  C      -1.718018     -0.796142      0.525236
  C      -1.035582      1.612792      1.716857
  C      -0.834851     -0.778094      1.594129
  C      -0.495770      0.426607      2.194322
  H      -3.142643      1.293347     -1.690778
  H      -2.992547     -0.468988     -1.781628
  H      -4.945865      2.292175     -0.455829
  H      -6.219252      1.247044      0.229009
  H      -4.630580      1.341242      1.023602
  H      -5.124764     -0.615228     -2.653645
  H      -6.505107      0.147222     -1.818202
  H      -5.249339      1.164707     -2.570462
  H      -4.585548     -1.877789     -0.671323
  H      -4.427847     -1.041960      0.899783
  H      -6.013900     -1.142766      0.103977
  H      -2.331061      2.521184      0.269692
  H      -1.973265     -1.737140      0.050754
  H      -0.764767      2.556942      2.173946
  H      -0.406895     -1.705607      1.954995
  H       0.195903      0.441889      3.028245
  F     -10.296976      1.523707      0.081438
  F     -10.424420      0.548288     -1.854291
  F      -8.544033     -0.367829     -0.230851
  F      -9.985851     -0.769678      1.346410
  F     -12.684703      1.496181     -1.047399
  F     -12.711693     -0.672326     -1.160786
  F      -9.087169     -2.924932      0.276555
  F     -11.195300     -2.647760     -0.157362
  F     -14.291078      0.348986      0.667577
  F     -12.713812     -0.890216      1.510479
  F     -10.702838     -2.032179     -2.686693
  F      -9.810707     -3.908646     -2.054035
  F     -12.781502      2.613488      1.446939
  F     -11.480063      1.263864      2.521297
  F     -13.585594      1.307833      2.966073
  O      -7.332504     -2.783039     -2.084298
  O      -8.300235     -1.236715     -3.394488
  C     -10.702980      0.408202     -0.552204
  C      -9.810994     -0.747177      0.015139
  C     -12.263692      0.369771     -0.448681
  C      -9.957193     -2.224161     -0.473844
  C     -12.978135      0.292209      0.942527
  C      -9.688175     -2.558098     -1.969367
  C     -12.687384      1.408307      1.993504
  C      -8.287325     -2.137547     -2.544806
52
Coordinates from ORCA-job R4N+PFOA-_wb E -2398.793299713469
  N      -4.682892      0.225312     -0.771052
  C      -3.216173      0.368353     -1.121537
  C      -5.150033      1.360836      0.068690
  C      -5.446687      0.229950     -2.050337
  C      -4.942430     -1.054187     -0.057942
  C      -2.277121      0.387296      0.050056
  C      -1.919663      1.592371      0.648754
  C      -1.717815     -0.795957      0.524893
  C      -1.036925      1.612668      1.718040
  C      -0.834916     -0.778067      1.594003
  C      -0.496633      0.426483      2.194963
  H      -3.143044      1.293963     -1.690329
  H      -2.992427     -0.468318     -1.781878
  H      -4.946634      2.291901     -0.455975
  H      -6.219963      1.246439      0.228432
  H      -4.631547      1.340713      1.023492
  H      -5.124524     -0.615506     -2.653987
  H      -6.505067      0.147425     -1.819393
  H      -5.248788      1.164414     -2.571155
  H      -4.585464     -1.877842     -0.672177
  H      -4.427691     -1.042404      0.899132
  H      -6.013896     -1.143347      0.103538
  H      -2.332556      2.521166      0.271011
  H      -1.972505     -1.736779      0.049761
  H      -0.766698      2.556684      2.175749
  H      -0.406534     -1.705543      1.954455
  H       0.194850      0.441657      3.029047
  F     -10.296737      1.523752      0.081100
  F     -10.424419      0.548172     -1.854505
  F      -8.543650     -0.367635     -0.231587
  F      -9.984847     -0.769245      1.346302
  F     -12.684768      1.495532     -1.047619
  F     -12.711480     -0.673007     -1.160023
  F      -9.086625     -2.924800      0.276690
  F     -11.194866     -2.647725     -0.156656
  F     -14.290403      0.348959      0.668453
  F     -12.712766     -0.889799      1.511261
  F     -10.703337     -2.032443     -2.686137
  F      -9.810827     -3.908835     -2.053681
  F     -12.779820      2.613903      1.446203
  F     -11.478988      1.264297      2.521276
  F     -13.584505      1.309337      2.965969
  O      -7.332733     -2.782666     -2.084381
  O      -8.300987     -1.236820     -3.394805
  C     -10.702703      0.408161     -0.552434
  C      -9.810449     -0.747062      0.014997
  C     -12.263428      0.369458     -0.448565
  C      -9.956856     -2.224221     -0.473549
  C     -12.977394      0.292359      0.942956
  C      -9.688422     -2.558364     -1.969189
  C     -12.686237      1.408961      1.993370
  C      -8.287749     -2.137622     -2.545144
