28
XYZ file generated by Avogadro.
N     -2.2334149632   -0.0259377758    0.2287183134
C     -1.2517093727   -0.0335568926   -0.9775689299
C     -2.0718402875    1.2299114980    1.0492392509
C     -3.6504330622   -0.0464830521   -0.3566796780
C     -2.0496016978   -1.2559565407    1.0830176133
C      0.2206643585   -0.0181175244   -0.6204409729
C      0.9086819182    1.1965284028   -0.4711473878
C      0.9272942864   -1.2185773843   -0.4451534891
C      2.2617854757    1.2092121982   -0.1285890270
C      2.2803979337   -1.2030906039   -0.1027220565
C      2.9452042787    0.0101414667    0.0603246171
H     -1.4861439669    0.8496655462   -1.5818756044
H     -1.4725904456   -0.9352106887   -1.5593073829
H     -2.1531334861    2.0981419749    0.3885691350
H     -1.0999317305    1.2110241587    1.5490738934
H     -2.8648253698    1.2557461578    1.8034545778
H     -3.7911468703    0.8546468224   -0.9578733113
H     -4.3600533793   -0.0416771465    0.4773237628
H     -3.7748578621   -0.9657581967   -0.9335172498
H     -1.0781961724   -1.2062101200    1.5817411759
H     -2.1154257421   -2.1431243755    0.4462209906
H     -2.8420427525   -1.2753355827    1.8379952753
H      0.4016905228    2.1444736796   -0.6416076692
H      0.4349480502   -2.1776495893   -0.5950886707
H      2.7887942479    2.1549390089   -0.0256478024
H      2.8218752837   -2.1381775084    0.0203018371
H      4.0024493922    0.0210033298    0.3143201387
Cl    -3.3535705871   -0.0890062624   -3.8658763493
