28
Coordinates from ORCA-job R4N+Cl-_0.15M E -905.514532232482
  N      -2.233415     -0.025938      0.228718
  C      -1.251709     -0.033557     -0.977569
  C      -2.071840      1.229911      1.049239
  C      -3.650433     -0.046483     -0.356680
  C      -2.049602     -1.255957      1.083018
  C       0.220664     -0.018118     -0.620441
  C       0.908682      1.196528     -0.471147
  C       0.927294     -1.218577     -0.445153
  C       2.261785      1.209212     -0.128589
  C       2.280398     -1.203091     -0.102722
  C       2.945204      0.010141      0.060325
  H      -1.486144      0.849666     -1.581876
  H      -1.472590     -0.935211     -1.559307
  H      -2.153133      2.098142      0.388569
  H      -1.099932      1.211024      1.549074
  H      -2.864825      1.255746      1.803455
  H      -3.791147      0.854647     -0.957873
  H      -4.360053     -0.041677      0.477324
  H      -3.774858     -0.965758     -0.933517
  H      -1.078196     -1.206210      1.581741
  H      -2.115426     -2.143124      0.446221
  H      -2.842043     -1.275336      1.837995
  H       0.401691      2.144474     -0.641608
  H       0.434948     -2.177650     -0.595089
  H       2.788794      2.154939     -0.025648
  H       2.821875     -2.138178      0.020302
  H       4.002449      0.021003      0.314320
  Cl     -3.353571     -0.089006     -3.865876
28
Coordinates from ORCA-job R4N+Cl-_0.15M E -905.516734505682
  N      -2.216456     -0.025764      0.210602
  C      -1.260924     -0.034579     -0.984957
  C      -2.034256      1.215852      1.026366
  C      -3.621643     -0.046246     -0.348197
  C      -2.012128     -1.239363      1.062508
  C       0.194500     -0.018930     -0.606893
  C       0.874657      1.193450     -0.451132
  C       0.895022     -1.216873     -0.430942
  C       2.225640      1.208104     -0.112976
  C       2.246017     -1.203079     -0.092804
  C       2.911351      0.009684      0.072247
  H      -1.509698      0.846162     -1.582445
  H      -1.496593     -0.934809     -1.558195
  H      -2.134135      2.082814      0.370957
  H      -1.048681      1.195796      1.494838
  H      -2.807041      1.233496      1.798219
  H      -3.764312      0.846809     -0.956416
  H      -4.315775     -0.040545      0.496454
  H      -3.748394     -0.958275     -0.931185
  H      -1.027165     -1.187704      1.529944
  H      -2.096156     -2.126894      0.432949
  H      -2.784708     -1.248140      1.834727
  H       0.355285      2.136057     -0.605817
  H       0.391564     -2.170558     -0.569529
  H       2.746053      2.154751      0.000406
  H       2.782270     -2.138795      0.036391
  H       3.965731      0.020784      0.334431
  Cl     -3.365158     -0.091640     -3.892347
28
Coordinates from ORCA-job R4N+Cl-_0.15M E -905.517163325167
  N      -2.216798     -0.025426      0.209134
  C      -1.256264     -0.033584     -0.979509
  C      -2.041595      1.210265      1.033234
  C      -3.612758     -0.046795     -0.346828
  C      -2.017246     -1.232984      1.068597
  C       0.195202     -0.018237     -0.595201
  C       0.876991      1.192798     -0.449869
  C       0.896044     -1.215623     -0.429458
  C       2.228331      1.207345     -0.118121
  C       2.247429     -1.203254     -0.097793
  C       2.915044      0.008844      0.063492
  H      -1.514450      0.844089     -1.576157
  H      -1.501104     -0.931126     -1.551639
  H      -2.151326      2.081475      0.385241
  H      -1.054504      1.197353      1.496477
  H      -2.812535      1.214104      1.806740
  H      -3.752311      0.839960     -0.964370
  H      -4.308007     -0.041660      0.496010
  H      -3.735306     -0.952780     -0.939406
  H      -1.030466     -1.186895      1.530633
  H      -2.109523     -2.124633      0.446174
  H      -2.788022     -1.229616      1.842257
  H       0.351331      2.131986     -0.601828
  H       0.384925     -2.165398     -0.564514
  H       2.747960      2.154637     -0.007853
  H       2.781858     -2.140239      0.028620
  H       3.970713      0.019365      0.319507
  Cl     -3.348746     -0.092405     -3.926364
28
Coordinates from ORCA-job R4N+Cl-_0.15M E -905.517358676224
  N      -2.217996     -0.026017      0.209304
  C      -1.252720     -0.033091     -0.977660
  C      -2.042702      1.207449      1.040392
  C      -3.612324     -0.046282     -0.344349
  C      -2.018931     -1.233240      1.073026
  C       0.197290     -0.017525     -0.593463
  C       0.879577      1.193756     -0.451777
  C       0.897130     -1.215235     -0.425150
  C       2.230975      1.208084     -0.121836
  C       2.248618     -1.202729     -0.095505
  C       2.917591      0.009469      0.060691
  H      -1.519729      0.842721     -1.573764
  H      -1.505977     -0.927934     -1.550978
  H      -2.164949      2.082887      0.399542
  H      -1.050433      1.201041      1.492725
  H      -2.806402      1.200667      1.820964
  H      -3.750404      0.835316     -0.970757
  H      -4.310204     -0.041520      0.495567
  H      -3.734376     -0.946297     -0.947218
  H      -1.026871     -1.195146      1.524449
  H      -2.123805     -2.127773      0.455886
  H      -2.782772     -1.220473      1.853367
  H       0.348961      2.130114     -0.604788
  H       0.379814     -2.162258     -0.556706
  H       2.750468      2.155991     -0.015046
  H       2.781816     -2.140424      0.031905
  H       3.973852      0.019970      0.314112
  Cl     -3.340632     -0.089955     -3.965729
28
Coordinates from ORCA-job R4N+Cl-_0.15M E -905.517427936049
  N      -2.218971     -0.026481      0.212590
  C      -1.251227     -0.034161     -0.975465
  C      -2.042183      1.207594      1.044561
  C      -3.613789     -0.044910     -0.341525
  C      -2.021868     -1.235005      1.077036
  C       0.198756     -0.018071     -0.594309
  C       0.880534      1.194309     -0.452667
  C       0.899539     -1.216055     -0.425451
  C       2.232011      1.209026     -0.122585
  C       2.251083     -1.202180     -0.095651
  C       2.918886      0.010666      0.060458
  H      -1.521467      0.840804     -1.572229
  H      -1.507735     -0.928097     -1.549679
  H      -2.170849      2.083671      0.405508
  H      -1.046615      1.203989      1.490035
  H      -2.801170      1.197726      1.829735
  H      -3.750332      0.834179     -0.972850
  H      -4.314334     -0.038895      0.495818
  H      -3.736890     -0.942704     -0.948588
  H      -1.026753     -1.202351      1.522395
  H      -2.134950     -2.129846      0.461466
  H      -2.781537     -1.217305      1.861398
  H       0.347539      2.129182     -0.607033
  H       0.381201     -2.162336     -0.558739
  H       2.751126      2.157293     -0.016387
  H       2.785083     -2.139560      0.031346
  H       3.975282      0.021860      0.313454
  Cl     -3.335501     -0.090776     -3.995439
28
Coordinates from ORCA-job R4N+Cl-_0.15M E -905.517485265574
  N      -2.219513     -0.026770      0.217335
  C      -1.251387     -0.034282     -0.972571
  C      -2.041717      1.207890      1.048945
  C      -3.614759     -0.044027     -0.338007
  C      -2.022813     -1.237324      1.079626
  C       0.198899     -0.018028     -0.595196
  C       0.880872      1.195136     -0.454499
  C       0.899764     -1.216465     -0.424200
  C       2.232588      1.209771     -0.124725
  C       2.251498     -1.201773     -0.094551
  C       2.918808      0.011430      0.060029
  H      -1.522845      0.840522     -1.569629
  H      -1.509000     -0.927846     -1.547562
  H      -2.175667      2.083693      0.410527
  H      -1.043487      1.206081      1.488804
  H      -2.796697      1.196055      1.838021
  H      -3.750617      0.834091     -0.971499
  H      -4.317844     -0.037582      0.497032
  H      -3.738521     -0.940753     -0.947275
  H      -1.025049     -1.208228      1.519700
  H      -2.141963     -2.130907      0.463304
  H      -2.778627     -1.217921      1.867721
  H       0.347283      2.129252     -0.611545
  H       0.380739     -2.162385     -0.557681
  H       2.752302      2.157934     -0.020157
  H       2.785943     -2.138800      0.033490
  H       3.975284      0.022902      0.312908
  Cl     -3.328610     -0.090102     -4.031140
28
Coordinates from ORCA-job R4N+Cl-_0.15M E -905.517574855621
  N      -2.220826     -0.027193      0.226398
  C      -1.253069     -0.034848     -0.965699
  C      -2.042136      1.208657      1.055798
  C      -3.615714     -0.043401     -0.332292
  C      -2.025095     -1.239689      1.085873
  C       0.198015     -0.018538     -0.593680
  C       0.880149      1.195551     -0.455335
  C       0.899674     -1.217283     -0.422517
  C       2.232882      1.210474     -0.129094
  C       2.252332     -1.201467     -0.096028
  C       2.918960      0.012283      0.055733
  H      -1.524085      0.840470     -1.562689
  H      -1.510701     -0.928513     -1.541242
  H      -2.181709      2.082976      0.416627
  H      -1.041121      1.208609      1.489720
  H      -2.792710      1.195757      1.849111
  H      -3.750724      0.834851     -0.966258
  H      -4.323084     -0.036934      0.499046
  H      -3.739558     -0.939800     -0.942797
  H      -1.024804     -1.213820      1.520775
  H      -2.150590     -2.131409      0.468240
  H      -2.776887     -1.218599      1.877851
  H       0.345749      2.128940     -0.614057
  H       0.380506     -2.163155     -0.555834
  H       2.753546      2.158424     -0.027305
  H       2.788130     -2.137769      0.031712
  H       3.976078      0.024280      0.306176
  Cl     -3.308340     -0.087287     -4.101027
28
Coordinates from ORCA-job R4N+Cl-_0.15M E -905.517659818218
  N      -2.222237     -0.027392      0.234079
  C      -1.256161     -0.035141     -0.959032
  C      -2.043326      1.209134      1.061449
  C      -3.616372     -0.043712     -0.327071
  C      -2.026179     -1.240340      1.091819
  C       0.196053     -0.018981     -0.590575
  C       0.878502      1.195277     -0.455157
  C       0.898170     -1.217635     -0.420801
  C       2.232443      1.210533     -0.133900
  C       2.252048     -1.201551     -0.099279
  C       2.918944      0.012396      0.049139
  H      -1.525042      0.841485     -1.555142
  H      -1.512270     -0.929755     -1.533972
  H      -2.184301      2.082145      0.420989
  H      -1.041697      1.209113      1.494027
  H      -2.792569      1.196794      1.856052
  H      -3.751545      0.836587     -0.958285
  H      -4.326362     -0.037868      0.502158
  H      -3.739801     -0.941511     -0.935702
  H      -1.025388     -1.214180      1.525672
  H      -2.152793     -2.130992      0.473072
  H      -2.776725     -1.219685      1.885009
  H       0.344015      2.128771     -0.612902
  H       0.379178     -2.163910     -0.551882
  H       2.754003      2.158224     -0.034655
  H       2.788868     -2.137385      0.027316
  H       3.976985      0.024580      0.295746
  Cl     -3.281574     -0.083436     -4.170967
28
Coordinates from ORCA-job R4N+Cl-_0.15M E -905.517735366192
  N      -2.221451     -0.027280      0.237029
  C      -1.260994     -0.035203     -0.958480
  C      -2.040384      1.209212      1.062768
  C      -3.616738     -0.044710     -0.319180
  C      -2.021654     -1.239080      1.094334
  C       0.192958     -0.019194     -0.592600
  C       0.875190      1.194475     -0.457060
  C       0.894539     -1.217391     -0.422929
  C       2.228771      1.210012     -0.134672
  C       2.248139     -1.201917     -0.100606
  C       2.915366      0.011841      0.048491
  H      -1.527907      0.843072     -1.552831
  H      -1.515203     -0.931626     -1.531014
  H      -2.179754      2.081658      0.421377
  H      -1.039248      1.207305      1.496173
  H      -2.789591      1.198924      1.857412
  H      -3.755522      0.839203     -0.944163
  H      -4.323500     -0.039672      0.513032
  H      -3.741960     -0.945847     -0.921937
  H      -1.021365     -1.209425      1.528814
  H      -2.145705     -2.129930      0.475510
  H      -2.772015     -1.220574      1.887723
  H       0.341651      2.128954     -0.611972
  H       0.376366     -2.164445     -0.551375
  H       2.750146      2.157534     -0.033477
  H       2.784634     -2.137690      0.027358
  H       3.973017      0.023859      0.296665
  Cl     -3.262916     -0.080504     -4.237186
28
Coordinates from ORCA-job R4N+Cl-_0.15M E -905.517770557883
  N      -2.220339     -0.027154      0.236440
  C      -1.263578     -0.035399     -0.960489
  C      -2.037562      1.208917      1.062514
  C      -3.617614     -0.045517     -0.312697
  C      -2.017582     -1.237237      1.095626
  C       0.191047     -0.019299     -0.594244
  C       0.872883      1.193796     -0.457574
  C       0.892276     -1.217101     -0.425282
  C       2.225908      1.209454     -0.133379
  C       2.245324     -1.202194     -0.101124
  C       2.912802      0.011314      0.049974
  H      -1.530385      0.843606     -1.553549
  H      -1.517302     -0.933200     -1.530665
  H      -2.174111      2.081976      0.421353
  H      -1.037551      1.205334      1.498092
  H      -2.788134      1.199957      1.855838
  H      -3.760278      0.840689     -0.933194
  H      -4.318872     -0.040696      0.524209
  H      -3.745692     -0.949117     -0.910749
  H      -1.018327     -1.204514      1.531844
  H      -2.138254     -2.129552      0.478235
  H      -2.769090     -1.219706      1.887903
  H       0.340174      2.128925     -0.611257
  H       0.374893     -2.164569     -0.553685
  H       2.746660      2.157106     -0.030486
  H       2.781236     -2.138250      0.027013
  H       3.969971      0.023166      0.299976
  Cl     -3.253634     -0.079170     -4.283437
28
Coordinates from ORCA-job R4N+Cl-_0.15M E -905.517811029035
  N      -2.220152     -0.027000      0.238495
  C      -1.266467     -0.035947     -0.960134
  C      -2.035186      1.208758      1.065538
  C      -3.620247     -0.046007     -0.302331
  C      -2.014435     -1.235500      1.100232
  C       0.188549     -0.019430     -0.593842
  C       0.870104      1.193324     -0.457032
  C       0.889892     -1.216971     -0.427053
  C       2.223186      1.208997     -0.133522
  C       2.243046     -1.202379     -0.103750
  C       2.910901      0.010932      0.048290
  H      -1.534356      0.843512     -1.552072
  H      -1.520454     -0.935660     -1.527057
  H      -2.168999      2.082859      0.425123
  H      -1.036060      1.203575      1.502761
  H      -2.787012      1.200816      1.857631
  H      -3.767530      0.842188     -0.918882
  H      -4.315163     -0.040728      0.539772
  H      -3.752689     -0.952279     -0.895289
  H      -1.015835     -1.200303      1.537397
  H      -2.132394     -2.129656      0.484864
  H      -2.766843     -1.218201      1.891596
  H       0.337719      2.128821     -0.609493
  H       0.373011     -2.164639     -0.555912
  H       2.743352      2.156933     -0.030323
  H       2.778699     -2.138816      0.022625
  H       3.968165      0.022696      0.297645
  Cl     -3.227932     -0.078331     -4.368072
28
Coordinates from ORCA-job R4N+Cl-_0.15M E -905.517768387851
  N      -2.221516     -0.026794      0.243678
  C      -1.269386     -0.036326     -0.955966
  C      -2.035118      1.208820      1.071966
  C      -3.623768     -0.046424     -0.291290
  C      -2.013617     -1.234237      1.107745
  C       0.185766     -0.019321     -0.590360
  C       0.867596      1.193251     -0.455345
  C       0.887549     -1.216884     -0.427195
  C       2.221759      1.208615     -0.136678
  C       2.241802     -1.202552     -0.108828
  C       2.910564      0.010538      0.041581
  H      -1.539204      0.843291     -1.546977
  H      -1.524194     -0.937900     -1.519662
  H      -2.166652      2.083980      0.432384
  H      -1.036654      1.202567      1.510456
  H      -2.788192      1.201396      1.862824
  H      -3.774654      0.842995     -0.905570
  H      -4.314053     -0.040649      0.554492
  H      -3.759590     -0.954758     -0.880732
  H      -1.015365     -1.197364      1.545351
  H      -2.129477     -2.129994      0.494154
  H      -2.766841     -1.216908      1.898268
  H       0.335025      2.128872     -0.606313
  H       0.370387     -2.164429     -0.555819
  H       2.741873      2.156812     -0.035537
  H       2.777493     -2.139463      0.013900
  H       3.968842      0.022127      0.286399
  Cl     -3.185507     -0.077696     -4.469721
28
Coordinates from ORCA-job R4N+Cl-_0.15M E -905.517828356616
  N      -2.222141     -0.026860      0.242003
  C      -1.266181     -0.035866     -0.955630
  C      -2.037837      1.209047      1.070060
  C      -3.622594     -0.045893     -0.299693
  C      -2.016986     -1.235761      1.104395
  C       0.188190     -0.019040     -0.589309
  C       0.870434      1.193871     -0.454747
  C       0.890049     -1.216966     -0.425044
  C       2.224867      1.208992     -0.136754
  C       2.244535     -1.202359     -0.107236
  C       2.913200      0.010836      0.041831
  H      -1.535833      0.843066     -1.547643
  H      -1.521020     -0.935967     -1.521665
  H      -2.170597      2.083677      0.430008
  H      -1.038986      1.203980      1.508021
  H      -2.790777      1.200939      1.861073
  H      -3.769794      0.841278     -0.918091
  H      -4.317181     -0.040167      0.542578
  H      -3.755245     -0.951713     -0.893785
  H      -1.018393     -1.201005      1.541740
  H      -2.134366     -2.130232      0.489243
  H      -2.770194     -1.218363      1.894975
  H       0.337455      2.129103     -0.606777
  H       0.372209     -2.164164     -0.553600
  H       2.745448      2.157065     -0.036626
  H       2.780387     -2.139149      0.015900
  H       3.971722      0.022441      0.285780
  Cl     -3.205502     -0.079224     -4.403801
28
Coordinates from ORCA-job R4N+Cl-_0.15M E -905.517830983704
  N      -2.222276     -0.026958      0.242772
  C      -1.266572     -0.035883     -0.955263
  C      -2.037661      1.209070      1.070229
  C      -3.622536     -0.045737     -0.299664
  C      -2.017204     -1.236267      1.104294
  C       0.188010     -0.019017     -0.590033
  C       0.870270      1.193992     -0.455528
  C       0.889866     -1.216982     -0.425167
  C       2.224695      1.209135     -0.137336
  C       2.244334     -1.202251     -0.107146
  C       2.912886      0.011003      0.041623
  H      -1.536203      0.843144     -1.547180
  H      -1.521340     -0.935932     -1.521501
  H      -2.170645      2.083356      0.429780
  H      -1.038480      1.203836      1.507525
  H      -2.790150      1.201394      1.861693
  H      -3.769201      0.841332     -0.918429
  H      -4.317578     -0.040018      0.542214
  H      -3.754852     -0.951278     -0.894322
  H      -1.018284     -1.201787      1.540988
  H      -2.135124     -2.130230      0.488539
  H      -2.769941     -1.219207      1.895353
  H       0.337212      2.129220     -0.607314
  H       0.371938     -2.164218     -0.553072
  H       2.745262      2.157200     -0.037051
  H       2.780148     -2.138973      0.016673
  H       3.971374      0.022674      0.285785
  Cl     -3.203078     -0.079052     -4.401259
28
Coordinates from ORCA-job R4N+Cl-_0.15M E -905.517834268896
  N      -2.223294     -0.027072      0.245268
  C      -1.267435     -0.035991     -0.953041
  C      -2.038476      1.209201      1.071686
  C      -3.622846     -0.045325     -0.299737
  C      -2.018969     -1.237087      1.105368
  C       0.187447     -0.019008     -0.589659
  C       0.869836      1.194195     -0.455918
  C       0.889642     -1.217039     -0.425073
  C       2.224734      1.209391     -0.139469
  C       2.244553     -1.202068     -0.108744
  C       2.912999      0.011310      0.038847
  H      -1.536991      0.843083     -1.544923
  H      -1.521946     -0.935993     -1.519516
  H      -2.171636      2.082836      0.430442
  H      -1.038844      1.203702      1.508118
  H      -2.790424      1.202341      1.863700
  H      -3.767848      0.841221     -0.919759
  H      -4.319527     -0.039472      0.540763
  H      -3.754008     -0.950168     -0.895831
  H      -1.019561     -1.203327      1.541160
  H      -2.137898     -2.130127      0.488532
  H      -2.771077     -1.220405      1.897063
  H       0.336479      2.129345     -0.607122
  H       0.371563     -2.164289     -0.552223
  H       2.745432      2.157457     -0.039904
  H       2.780627     -2.138676      0.014788
  H       3.971853      0.023116      0.281526
  Cl     -3.189519     -0.079586     -4.399139
28
Coordinates from ORCA-job R4N+Cl-_0.15M E -905.517836244294
  N      -2.224006     -0.027117      0.247040
  C      -1.268432     -0.035970     -0.951545
  C      -2.038932      1.209135      1.073147
  C      -3.623341     -0.045144     -0.298764
  C      -2.019699     -1.237424      1.106445
  C       0.186732     -0.018944     -0.589380
  C       0.869280      1.194292     -0.456431
  C       0.889029     -1.216989     -0.425014
  C       2.224502      1.209503     -0.141304
  C       2.244253     -1.201987     -0.109991
  C       2.912828      0.011422      0.036581
  H      -1.538046      0.843168     -1.543286
  H      -1.522872     -0.936022     -1.517980
  H      -2.172369      2.082600      0.431756
  H      -1.039026      1.203500      1.509004
  H      -2.790440      1.202458      1.865590
  H      -3.767734      0.841282     -0.919152
  H      -4.320683     -0.039349      0.541182
  H      -3.754031     -0.949674     -0.895491
  H      -1.019945     -1.203990      1.541532
  H      -2.139296     -2.130077      0.489206
  H      -2.771237     -1.220884      1.898694
  H       0.335794      2.129429     -0.607261
  H       0.370738     -2.164236     -0.551345
  H       2.745345      2.157554     -0.042396
  H       2.780411     -2.138564      0.013375
  H       3.971932      0.023255      0.278198
  Cl     -3.175890     -0.079662     -4.405208
28
Coordinates from ORCA-job R4N+Cl-_0.15M E -905.517838702208
  N      -2.224855     -0.027109      0.248570
  C      -1.269660     -0.035970     -0.950155
  C      -2.039574      1.209051      1.074609
  C      -3.623992     -0.044940     -0.297754
  C      -2.020581     -1.237522      1.107656
  C       0.185801     -0.018943     -0.588874
  C       0.868476      1.194280     -0.456760
  C       0.888276     -1.216942     -0.425223
  C       2.224080      1.209569     -0.143295
  C       2.243880     -1.201954     -0.111863
  C       2.912621      0.011486      0.033778
  H      -1.539181      0.843205     -1.541817
  H      -1.524010     -0.936063     -1.516503
  H      -2.173373      2.082512      0.433305
  H      -1.039492      1.203380      1.510080
  H      -2.790674      1.202302      1.867443
  H      -3.767899      0.841498     -0.918229
  H      -4.322016     -0.039260      0.541630
  H      -3.754280     -0.949247     -0.894911
  H      -1.020582     -1.204428      1.542234
  H      -2.140890     -2.130021      0.490351
  H      -2.771576     -1.220811      1.900421
  H       0.334853      2.129425     -0.607093
  H       0.369880     -2.164218     -0.550949
  H       2.745093      2.157597     -0.045118
  H       2.780253     -2.138484      0.010875
  H       3.972030      0.023340      0.274060
  Cl     -3.157738     -0.080168     -4.409263
28
Coordinates from ORCA-job R4N+Cl-_0.15M E -905.517843866579
  N      -2.227135     -0.027020      0.251921
  C      -1.273338     -0.035917     -0.947320
  C      -2.041004      1.208695      1.078309
  C      -3.626238     -0.044329     -0.294166
  C      -2.022523     -1.237540      1.110605
  C       0.182893     -0.018936     -0.588108
  C       0.865874      1.194210     -0.458078
  C       0.885778     -1.216792     -0.426407
  C       2.222386      1.209699     -0.148700
  C       2.242306     -1.201885     -0.117171
  C       2.911545      0.011598      0.026266
  H      -1.542863      0.843232     -1.538852
  H      -1.527827     -0.936006     -1.513440
  H      -2.176052      2.082522      0.437789
  H      -1.040415      1.203021      1.512607
  H      -2.790849      1.201250      1.872332
  H      -3.769703      0.842406     -0.914295
  H      -4.325182     -0.039089      0.544466
  H      -3.756243     -0.948146     -0.892141
  H      -1.021821     -1.205390      1.543644
  H      -2.144933     -2.129976      0.493640
  H      -2.771884     -1.220008      1.904906
  H       0.331907      2.129388     -0.607056
  H       0.367122     -2.164148     -0.550584
  H       2.743826      2.157660     -0.052269
  H       2.779228     -2.138308      0.003895
  H       3.971692      0.023473      0.263244
  Cl     -3.101679     -0.082101     -4.417831
28
Coordinates from ORCA-job R4N+Cl-_0.15M E -905.517848586659
  N      -2.227528     -0.026906      0.251866
  C      -1.274444     -0.035849     -0.947731
  C      -2.040890      1.208583      1.078614
  C      -3.627022     -0.044053     -0.292928
  C      -2.022546     -1.237368      1.110666
  C       0.181953     -0.018928     -0.588809
  C       0.864922      1.194173     -0.458771
  C       0.884894     -1.216737     -0.427555
  C       2.221450      1.209699     -0.149546
  C       2.241459     -1.201881     -0.118525
  C       2.910731      0.011587      0.025118
  H      -1.544149      0.843161     -1.539347
  H      -1.529256     -0.935814     -1.513818
  H      -2.176410      2.082700      0.438581
  H      -1.040125      1.202914      1.512464
  H      -2.790279      1.200737      1.873062
  H      -3.771032      0.842878     -0.912603
  H      -4.325380     -0.038916      0.546199
  H      -3.757661     -0.947855     -0.890746
  H      -1.021626     -1.205481      1.543180
  H      -2.145608     -2.129953      0.494033
  H      -2.771375     -1.219462      1.905455
  H       0.330921      2.129378     -0.607462
  H       0.366292     -2.164118     -0.551782
  H       2.742906      2.157638     -0.052973
  H       2.778484     -2.138283      0.002250
  H       3.970885      0.023442      0.262036
  Cl     -3.084696     -0.083721     -4.413724
28
Coordinates from ORCA-job R4N+Cl-_0.15M E -905.517860617585
  N      -2.227843     -0.026345      0.249395
  C      -1.277032     -0.035424     -0.951724
  C      -2.039341      1.208480      1.077508
  C      -3.629321     -0.042998     -0.289383
  C      -2.021430     -1.236729      1.108782
  C       0.179461     -0.018720     -0.592851
  C       0.862208      1.194256     -0.460916
  C       0.882419     -1.216543     -0.432525
  C       2.218212      1.209615     -0.149566
  C       2.238532     -1.201885     -0.121537
  C       2.907573      0.011424      0.024892
  H      -1.548170      0.842817     -1.543833
  H      -1.533611     -0.934717     -1.517915
  H      -2.175704      2.083622      0.438990
  H      -1.038126      1.202598      1.510157
  H      -2.787738      1.199619      1.872871
  H      -3.776361      0.844526     -0.907419
  H      -4.323589     -0.037731      0.553125
  H      -3.763561     -0.947190     -0.885714
  H      -1.019994     -1.205373      1.539964
  H      -2.145697     -2.129867      0.493107
  H      -2.769201     -1.218072      1.904532
  H       0.328270      2.129573     -0.609124
  H       0.364187     -2.163898     -0.558472
  H       2.739406      2.157503     -0.050946
  H       2.775574     -2.138354     -0.001222
  H       3.967268      0.023106      0.263762
  Cl     -3.041523     -0.091729     -4.386736
28
Coordinates from ORCA-job R4N+Cl-_0.15M E -905.517866268355
  N      -2.229591     -0.025971      0.251494
  C      -1.280377     -0.034984     -0.951044
  C      -2.039584      1.208525      1.079672
  C      -3.631776     -0.041905     -0.285543
  C      -2.022491     -1.236979      1.109791
  C       0.176531     -0.018347     -0.594275
  C       0.859490      1.194606     -0.462413
  C       0.879783     -1.216306     -0.435590
  C       2.215924      1.209730     -0.152839
  C       2.236339     -1.201793     -0.126435
  C       2.905498      0.011435      0.019909
  H      -1.552838      0.842724     -1.543344
  H      -1.538014     -0.933799     -1.517458
  H      -2.176526      2.083840      0.441519
  H      -1.037670      1.202116      1.510736
  H      -2.786840      1.199762      1.876121
  H      -3.779250      0.845470     -0.903796
  H      -4.324898     -0.036297      0.557887
  H      -3.767185     -0.945859     -0.882116
  H      -1.020203     -1.206412      1.539087
  H      -2.148284     -2.129597      0.493676
  H      -2.768877     -1.218494      1.906858
  H       0.325290      2.129982     -0.609265
  H       0.361326     -2.163543     -0.561471
  H       2.737234      2.157561     -0.054214
  H       2.773562     -2.138333     -0.007438
  H       3.965523      0.022982      0.257355
  Cl     -2.987228     -0.098550     -4.379657
28
Coordinates from ORCA-job R4N+Cl-_0.15M E -905.517872584696
  N      -2.231458     -0.025500      0.253293
  C      -1.284056     -0.034259     -0.950743
  C      -2.040050      1.208577      1.081732
  C      -3.634488     -0.040953     -0.281564
  C      -2.023355     -1.237037      1.110582
  C       0.173310     -0.017859     -0.596005
  C       0.856601      1.194950     -0.464215
  C       0.876731     -1.215986     -0.439124
  C       2.213448      1.209731     -0.156404
  C       2.233708     -1.201807     -0.131749
  C       2.903139      0.011258      0.014625
  H      -1.557706      0.842955     -1.543144
  H      -1.542789     -0.932391     -1.517584
  H      -2.177659      2.084172      0.444109
  H      -1.037512      1.201731      1.511346
  H      -2.786188      1.199690      1.879237
  H      -3.782817      0.846403     -0.899651
  H      -4.326229     -0.035192      0.562990
  H      -3.771109     -0.944736     -0.878175
  H      -1.020304     -1.207014      1.538143
  H      -2.150425     -2.129227      0.494110
  H      -2.768399     -1.218850      1.908922
  H       0.322313      2.130478     -0.609756
  H       0.358019     -2.163084     -0.565008
  H       2.734986      2.157439     -0.057765
  H       2.771026     -2.138469     -0.014129
  H       3.963468      0.022551      0.250732
  Cl     -2.927336     -0.106004     -4.367601
28
Coordinates from ORCA-job R4N+Cl-_0.15M E -905.517878848166
  N      -2.233184     -0.025153      0.255156
  C      -1.286683     -0.033132     -0.949960
  C      -2.041332      1.208746      1.083595
  C      -3.636778     -0.040892     -0.278882
  C      -2.024082     -1.237090      1.111511
  C       0.170951     -0.017188     -0.596873
  C       0.854898      1.195358     -0.465634
  C       0.874242     -1.215639     -0.441317
  C       2.212240      1.209529     -0.159903
  C       2.231666     -1.202013     -0.135818
  C       2.901703      0.010777      0.009846
  H      -1.560956      0.844027     -1.541880
  H      -1.546259     -0.930346     -1.517731
  H      -2.178971      2.084323      0.445955
  H      -1.038530      1.201614      1.512621
  H      -2.787125      1.200082      1.881433
  H      -3.785790      0.846613     -0.896646
  H      -4.327623     -0.035512      0.566403
  H      -3.773541     -0.944587     -0.875570
  H      -1.020767     -1.206654      1.538460
  H      -2.150811     -2.128846      0.494364
  H      -2.768787     -1.220016      1.910210
  H       0.320808      2.131113     -0.610396
  H       0.355002     -2.162491     -0.566844
  H       2.734232      2.157061     -0.061956
  H       2.768737     -2.138944     -0.019200
  H       3.962403      0.021647      0.244333
  Cl     -2.880796     -0.110823     -4.358073
28
Coordinates from ORCA-job R4N+Cl-_0.15M E -905.517884556184
  N      -2.234775     -0.024867      0.256817
  C      -1.289460     -0.032217     -0.949296
  C      -2.042364      1.208907      1.085202
  C      -3.638796     -0.040794     -0.276225
  C      -2.024656     -1.237041      1.112507
  C       0.168482     -0.016680     -0.597808
  C       0.852953      1.195638     -0.467024
  C       0.871719     -1.215384     -0.443611
  C       2.210736      1.209327     -0.163171
  C       2.229561     -1.202229     -0.139938
  C       2.900097      0.010339      0.005212
  H      -1.564602      0.844925     -1.540817
  H      -1.549968     -0.928564     -1.517917
  H      -2.180481      2.084500      0.447683
  H      -1.039148      1.201726      1.513291
  H      -2.787481      1.200269      1.883680
  H      -3.788427      0.846802     -0.893742
  H      -4.328902     -0.035720      0.569659
  H      -3.775750     -0.944350     -0.873117
  H      -1.020973     -1.206389      1.538596
  H      -2.151502     -2.128560      0.495046
  H      -2.768743     -1.220617      1.911807
  H       0.318881      2.131564     -0.610755
  H       0.352011     -2.162017     -0.568851
  H       2.733079      2.156712     -0.065660
  H       2.766488     -2.139375     -0.024375
  H       3.961132      0.020856      0.238214
  Cl     -2.834244     -0.115198     -4.348200
28
Coordinates from ORCA-job R4N+Cl-_0.15M E -905.517886612531
  N      -2.236010     -0.024732      0.258234
  C      -1.292211     -0.030986     -0.949114
  C      -2.043305      1.209051      1.086394
  C      -3.640370     -0.041287     -0.273810
  C      -2.024466     -1.236882      1.113480
  C       0.166072     -0.016093     -0.599512
  C       0.851218      1.195888     -0.469159
  C       0.868992     -1.215133     -0.446068
  C       2.209265      1.208946     -0.166384
  C       2.227046     -1.202612     -0.143360
  C       2.898206      0.009658      0.001411
  H      -1.568625      0.846585     -1.539517
  H      -1.554408     -0.925987     -1.519237
  H      -2.182105      2.084538      0.448869
  H      -1.039623      1.202158      1.513415
  H      -2.787693      1.200443      1.885561
  H      -3.790742      0.846669     -0.890684
  H      -4.329654     -0.036930      0.572747
  H      -3.777252     -0.944797     -0.870725
  H      -1.020616     -1.205384      1.539104
  H      -2.150626     -2.128349      0.495798
  H      -2.768301     -1.221432      1.913047
  H       0.317247      2.131997     -0.612083
  H       0.348608     -2.161445     -0.570884
  H       2.731964      2.156162     -0.069128
  H       2.763485     -2.140081     -0.028121
  H       3.959399      0.019705      0.233730
  Cl     -2.790626     -0.118105     -4.336798
28
Coordinates from ORCA-job R4N+Cl-_0.15M E -905.517886761450
  N      -2.235875     -0.024838      0.258199
  C      -1.291878     -0.030990     -0.949059
  C      -2.043419      1.209022      1.086301
  C      -3.640133     -0.041488     -0.274212
  C      -2.024397     -1.236854      1.113620
  C       0.166358     -0.016204     -0.599379
  C       0.851504      1.195785     -0.469161
  C       0.869255     -1.215232     -0.445702
  C       2.209532      1.208893     -0.166311
  C       2.227285     -1.202660     -0.142898
  C       2.898449      0.009633      0.001726
  H      -1.568124      0.846838     -1.539068
  H      -1.554334     -0.925748     -1.519484
  H      -2.182250      2.084460      0.448714
  H      -1.039769      1.202299      1.513405
  H      -2.787884      1.200397      1.885395
  H      -3.790313      0.846516     -0.891043
  H      -4.329678     -0.037218      0.572145
  H      -3.776824     -0.945071     -0.871038
  H      -1.020721     -1.205122      1.539641
  H      -2.150126     -2.128426      0.495999
  H      -2.768550     -1.221477      1.912891
  H       0.317511      2.131853     -0.612290
  H       0.348867     -2.161546     -0.570472
  H       2.732208      2.156139     -0.069209
  H       2.763696     -2.140124     -0.027494
  H       3.959626      0.019715      0.234115
  Cl     -2.795146     -0.116986     -4.338127
28
Coordinates from ORCA-job R4N+Cl-_0.15M E -905.517886846123
  N      -2.235771     -0.024900      0.258078
  C      -1.291721     -0.030873     -0.949202
  C      -2.043535      1.208983      1.086228
  C      -3.640037     -0.041684     -0.274348
  C      -2.024151     -1.236814      1.113576
  C       0.166477     -0.016312     -0.599452
  C       0.851666      1.195669     -0.469418
  C       0.869289     -1.215338     -0.445423
  C       2.209655      1.208807     -0.166406
  C       2.227276     -1.202743     -0.142445
  C       2.898492      0.009556      0.002002
  H      -1.567756      0.847275     -1.538747
  H      -1.554538     -0.925233     -1.520053
  H      -2.182763      2.084444      0.448760
  H      -1.039812      1.202581      1.513159
  H      -2.787845      1.200070      1.885462
  H      -3.790242      0.846299     -0.891155
  H      -4.329730     -0.037457      0.571905
  H      -3.776690     -0.945386     -0.871001
  H      -1.020585     -1.204851      1.539843
  H      -2.149533     -2.128481      0.496016
  H      -2.768474     -1.221572      1.912691
  H       0.317708      2.131707     -0.612879
  H       0.348882     -2.161656     -0.570080
  H       2.732355      2.156059     -0.069485
  H       2.763644     -2.140198     -0.026779
  H       3.959634      0.019640      0.234543
  Cl     -2.797029     -0.116027     -4.338186
