25
Coordinates from ORCA-job PFOA_altA_r2 E -1953.065660472988
  F           0.46474813325356     -0.68687256523952     -0.82840422567837
  F           0.01061457437113     -2.39887383149597      0.45935259361760
  F          -0.18062170787378      0.90712626540420      1.61559106045865
  F          -0.03233646533111     -1.03019661702480      2.62508961227222
  F          -2.20806600960141     -2.02277368859350     -0.57016734914829
  F          -2.36272766668579     -0.80857252424582      1.24229375949158
  F           2.26866095201933     -0.18994764724247      2.90522518981574
  F           2.46021214707295     -1.34747488472755      1.05227629396814
  F          -3.42464441907328      0.74064540007916     -0.38136315631120
  F          -1.34873879813674      1.34916265169324     -0.72122663018045
  F           3.95553283256879      0.86564149256022      1.20845227479094
  F           2.20863589205350      2.12539257486261      1.61511633811663
  F          -3.47655273522782     -0.74260638340198     -2.57701832908865
  F          -1.32330737024518     -0.57639978146829     -2.87450292486203
  F          -2.58566894255689      1.19096236146923     -3.00982864659254
  O           1.64634391211934      2.10169587971083     -0.97413193414174
  O           3.15771728114284      0.45177619863916     -1.31793609915412
  C          -0.20695408781753     -1.07847633888461      0.27846399708460
  C           0.36008781122645     -0.32991668264651      1.53618168384674
  C          -1.76043398013615     -0.89854339895602      0.03724807456417
  C           1.93434298007651     -0.21616646661114      1.58749707897968
  C          -2.22352117527858      0.32927240421748     -0.84202207273063
  C           2.62134343319142      1.02320990819551      0.92654923367753
  C          -2.40459471592021      0.02870283300684     -2.36808143877694
  C           2.45002812478862      1.21323284069972     -0.62485538401926
