25
Coordinates from ORCA-job PFOA_altA_r2 E -1953.034189018175
  F       0.451670     -1.687239     -0.493362
  F      -0.544743     -2.484668      1.195038
  F      -0.180989      0.805796      1.692124
  F       0.219088     -0.962465      2.801052
  F      -2.273989     -1.883548     -0.539378
  F      -2.425901     -0.695098      1.252603
  F       2.492638     -0.169426      2.664495
  F       2.494002     -1.326430      0.857803
  F      -3.414658      0.426225     -0.773869
  F      -1.713301      1.573873     -0.219539
  F       3.749569      1.007934      0.528121
  F       2.097695      2.129298      1.361506
  F      -2.702846      0.084243     -3.015065
  F      -0.772772     -0.658065     -2.538218
  F      -1.118633      1.473122     -2.697430
  O       0.514281      0.704702     -0.770857
  O       2.355684      1.551485     -1.728924
  C      -0.296957     -1.314126      0.547369
  C       0.421514     -0.389576      1.588746
  C      -1.718432     -0.835449      0.110842
  C       1.961512     -0.220968      1.417248
  C      -2.054136      0.408462     -0.768462
  C       2.394003      1.023545      0.620121
  C      -1.616088      0.326453     -2.269658
  C       1.681890      1.111919     -0.822507
25
Coordinates from ORCA-job PFOA_altA_r2 E -1953.038204136999
  F       0.390661     -1.651320     -0.598146
  F      -0.548760     -2.423736      1.147725
  F      -0.150404      0.890199      1.612388
  F       0.215121     -0.909088      2.709175
  F      -2.321317     -1.954220     -0.519507
  F      -2.438969     -0.704441      1.259079
  F       2.411793     -0.197407      2.753286
  F       2.542519     -1.326694      0.914594
  F      -3.698026      0.196058     -0.690414
  F      -2.073434      1.547563     -0.372166
  F       4.049567      0.833118      0.943014
  F       2.415454      2.131183      1.562081
  F      -3.246056     -0.180536     -2.980166
  F      -1.189261     -0.708717     -2.733805
  F      -1.776127      1.383442     -2.926293
  O       1.168879      1.093291     -0.971122
  O       3.284050      1.717097     -1.435280
  C      -0.324716     -1.259558      0.464861
  C       0.439140     -0.317628      1.502261
  C      -1.801218     -0.844189      0.068987
  C       2.019870     -0.197730      1.449122
  C      -2.344829      0.324099     -0.836677
  C       2.709683      1.034451      0.799296
  C      -2.094328      0.206881     -2.394639
  C       2.360809      1.317883     -0.727855
25
Coordinates from ORCA-job PFOA_altA_r2 E -1953.048859378468
  F       0.380445     -1.598552     -0.614310
  F      -0.531995     -2.503618      1.120055
  F      -0.211921      0.862125      1.588543
  F       0.179946     -0.918177      2.751668
  F      -2.333557     -1.981406     -0.553458
  F      -2.462755     -0.775689      1.293736
  F       2.419151     -0.072927      2.744663
  F       2.527110     -1.310720      0.947551
  F      -3.690023      0.228755     -0.686231
  F      -1.993697      1.505389     -0.244208
  F       3.976058      0.889600      0.874795
  F       2.275052      2.175159      1.392522
  F      -3.064587     -0.046605     -3.041565
  F      -1.028989     -0.639914     -2.605401
  F      -1.544652      1.475616     -2.735758
  O       1.079017      0.951916     -1.047963
  O       3.183845      1.632965     -1.543509
  C      -0.338606     -1.304617      0.480540
  C       0.401640     -0.341390      1.531082
  C      -1.823626     -0.894512      0.096691
  C       1.986401     -0.171600      1.452087
  C      -2.325481      0.321492     -0.775746
  C       2.627195      1.038626      0.711796
  C      -1.962483      0.275459     -2.325540
  C       2.276613      1.202624     -0.812240
25
Coordinates from ORCA-job PFOA_altA_r2 E -1953.050796408995
  F       0.383107     -1.626231     -0.574374
  F      -0.542619     -2.525408      1.160606
  F      -0.201159      0.840585      1.583785
  F       0.178474     -0.933154      2.779395
  F      -2.357917     -1.974249     -0.519418
  F      -2.457488     -0.727569      1.307627
  F       2.448311     -0.116257      2.694141
  F       2.475089     -1.327801      0.864569
  F      -3.591394      0.338656     -0.705636
  F      -1.797584      1.489883     -0.263257
  F       3.907015      0.890437      0.757511
  F       2.229319      2.151995      1.412101
  F      -2.949392      0.008209     -3.055394
  F      -0.968751     -0.727526     -2.567209
  F      -1.324097      1.414901     -2.716197
  O       0.864981      1.036710     -0.958520
  O       2.945984      1.690506     -1.590706
  C      -0.342907     -1.336584      0.512794
  C       0.394866     -0.370687      1.553513
  C      -1.814523     -0.898147      0.119808
  C       1.964036     -0.197260      1.419246
  C      -2.228237      0.331437     -0.778602
  C       2.548932      1.040568      0.676383
  C      -1.845999      0.250272     -2.320938
  C       2.082053      1.276713     -0.791431
25
Coordinates from ORCA-job PFOA_altA_r2 E -1953.050243891085
  F       0.451505     -1.461705     -0.617359
  F      -0.425000     -2.500790      1.059016
  F      -0.184218      0.876813      1.589739
  F       0.129873     -0.917945      2.765601
  F      -2.280132     -1.982938     -0.553455
  F      -2.430301     -0.786436      1.290529
  F       2.403571     -0.069160      2.762316
  F       2.476003     -1.335226      0.974034
  F      -3.613919      0.289645     -0.658680
  F      -1.854963      1.495774     -0.251962
  F       3.909561      0.906014      0.859075
  F       2.172489      2.165768      1.335235
  F      -3.044213     -0.009046     -3.007753
  F      -1.004931     -0.613840     -2.621351
  F      -1.517179      1.496666     -2.725083
  O       0.960008      0.850608     -1.024238
  O       3.054915      1.504303     -1.591258
  C      -0.293519     -1.275955      0.475464
  C       0.395478     -0.338560      1.562810
  C      -1.784393     -0.897117      0.100799
  C       1.959727     -0.185052      1.477869
  C      -2.259707      0.331120     -0.768653
  C       2.556062      1.017863      0.692755
  C      -1.934023      0.295753     -2.321604
  C       2.157407      1.143443     -0.804048
25
Coordinates from ORCA-job PFOA_altA_r2 E -1953.052430032455
  F       0.409125     -1.476687     -0.638400
  F      -0.450116     -2.490649      1.058349
  F      -0.160553      0.892757      1.570680
  F       0.130535     -0.898588      2.747845
  F      -2.319068     -1.984628     -0.511973
  F      -2.432534     -0.740035      1.299241
  F       2.410331     -0.139397      2.752483
  F       2.472462     -1.350681      0.933059
  F      -3.647541      0.290611     -0.648345
  F      -1.872194      1.497455     -0.327074
  F       3.964349      0.835390      0.902963
  F       2.278918      2.137651      1.430479
  F      -3.127104     -0.120925     -2.997569
  F      -1.073529     -0.688701     -2.639952
  F      -1.617513      1.410121     -2.817524
  O       1.034802      1.102828     -1.006174
  O       3.175019      1.633357     -1.504204
  C      -0.313859     -1.270202      0.465688
  C       0.400330     -0.331246      1.541439
  C      -1.806062     -0.885217      0.103734
  C       1.971820     -0.206265      1.463500
  C      -2.295335      0.317945     -0.792757
  C       2.619065      1.007900      0.731736
  C      -2.004708      0.222734     -2.350733
  C       2.253460      1.234470     -0.766692
25
Coordinates from ORCA-job PFOA_altA_r2 E -1953.053087165755
  F       0.391399     -1.469444     -0.650397
  F      -0.438664     -2.509762      1.052861
  F      -0.189172      0.888066      1.554991
  F       0.112780     -0.897034      2.745994
  F      -2.340591     -1.999216     -0.511236
  F      -2.443396     -0.762775      1.312857
  F       2.399004     -0.120889      2.737233
  F       2.458809     -1.342756      0.922463
  F      -3.647475      0.305047     -0.642269
  F      -1.848659      1.477262     -0.286911
  F       3.947440      0.835711      0.885538
  F       2.271912      2.151324      1.415460
  F      -3.080816     -0.106690     -3.005084
  F      -1.034039     -0.686701     -2.596682
  F      -1.557286      1.417753     -2.766957
  O       1.030516      1.135492     -1.037620
  O       3.194212      1.583319     -1.529982
  C      -0.325108     -1.283764      0.463822
  C       0.381068     -0.333720      1.536273
  C      -1.821341     -0.905998      0.113510
  C       1.954401     -0.197136      1.450431
  C      -2.292691      0.310987     -0.771895
  C       2.602959      1.018781      0.715696
  C      -1.971845      0.226559     -2.326412
  C       2.246683      1.265583     -0.781886
25
Coordinates from ORCA-job PFOA_altA_r2 E -1953.053700139802
  F       0.422743     -1.417086     -0.647510
  F      -0.398880     -2.504252      1.033355
  F      -0.182369      0.898365      1.560891
  F       0.092295     -0.890783      2.754219
  F      -2.318769     -2.002138     -0.518160
  F      -2.435522     -0.771174      1.306560
  F       2.395563     -0.120339      2.752777
  F       2.444185     -1.354085      0.943846
  F      -3.629480      0.315386     -0.637586
  F      -1.820879      1.474567     -0.293865
  F       3.939359      0.817869      0.870673
  F       2.271217      2.145092      1.402889
  F      -3.086719     -0.112655     -2.997761
  F      -1.030947     -0.675370     -2.614977
  F      -1.570034      1.423982     -2.774745
  O       0.988172      1.154546     -1.009526
  O       3.152398      1.545546     -1.546098
  C      -0.308135     -1.269361      0.463091
  C       0.377996     -0.327429      1.549986
  C      -1.807958     -0.907624      0.109867
  C       1.949023     -0.201990      1.467597
  C      -2.277696      0.311129     -0.774955
  C       2.593565      1.003392      0.713039
  C      -1.973918      0.228661     -2.332760
  C       2.214888      1.235751     -0.781052
25
Coordinates from ORCA-job PFOA_altA_r2 E -1953.054213532737
  F       0.437398     -1.355989     -0.664881
  F      -0.364574     -2.487304      0.996767
  F      -0.168389      0.919509      1.562901
  F       0.080309     -0.876641      2.747317
  F      -2.296467     -2.005169     -0.524991
  F      -2.427363     -0.778771      1.299283
  F       2.387353     -0.129462      2.775377
  F       2.443921     -1.357503      0.964257
  F      -3.652107      0.291194     -0.627999
  F      -1.857269      1.478849     -0.318192
  F       3.961535      0.787132      0.897278
  F       2.312693      2.138256      1.428642
  F      -3.137583     -0.167048     -2.985715
  F      -1.058311     -0.657117     -2.642784
  F      -1.672818      1.420862     -2.808958
  O       1.024602      1.208044     -0.993082
  O       3.205557      1.478996     -1.530698
  C      -0.295807     -1.241986      0.448511
  C       0.381120     -0.310306      1.549299
  C      -1.802651     -0.902548      0.100425
  C       1.954270     -0.202017      1.485812
  C      -2.302788      0.305370     -0.784455
  C       2.619768      0.993822      0.735618
  C      -2.024671      0.216989     -2.346549
  C       2.252371      1.232839     -0.763384
25
Coordinates from ORCA-job PFOA_altA_r2 E -1953.054952098095
  F       0.442057     -1.283957     -0.690902
  F      -0.311705     -2.475783      0.953549
  F      -0.174305      0.942362      1.543143
  F       0.047772     -0.853979      2.731952
  F      -2.276970     -2.023474     -0.538731
  F      -2.424521     -0.819568      1.298238
  F       2.353583     -0.109174      2.792538
  F       2.429924     -1.361894      1.000282
  F      -3.677345      0.260647     -0.607245
  F      -1.892543      1.464716     -0.298142
  F       3.970011      0.758146      0.931512
  F       2.333465      2.140415      1.414489
  F      -3.156416     -0.205899     -2.969289
  F      -1.056927     -0.611090     -2.641129
  F      -1.756974      1.439918     -2.792374
  O       1.087054      1.278416     -1.024628
  O       3.289507      1.374364     -1.526253
  C      -0.287937     -1.220039      0.429186
  C       0.368529     -0.289871      1.539310
  C      -1.804384     -0.917429      0.095302
  C       1.942687     -0.194110      1.497908
  C      -2.330185      0.291086     -0.772014
  C       2.635456      0.982982      0.740536
  C      -2.057690      0.220002     -2.334802
  C       2.307956      1.213214     -0.772635
25
Coordinates from ORCA-job PFOA_altA_r2 E -1953.056059337197
  F       0.453323     -1.184046     -0.716099
  F      -0.245608     -2.462039      0.893714
  F      -0.179418      0.962284      1.537019
  F       0.009941     -0.846003      2.719472
  F      -2.252559     -2.038809     -0.555374
  F      -2.416958     -0.854498      1.294058
  F       2.323982     -0.088620      2.812146
  F       2.411712     -1.367551      1.036792
  F      -3.689121      0.251187     -0.577464
  F      -1.894574      1.450889     -0.294037
  F       3.973909      0.724623      0.958924
  F       2.357237      2.139923      1.412396
  F      -3.184253     -0.263956     -2.946045
  F      -1.062605     -0.573359     -2.650206
  F      -1.852723      1.444432     -2.793414
  O       1.142827      1.392594     -1.035740
  O       3.343835      1.228487     -1.525835
  C      -0.275184     -1.191952      0.408376
  C       0.354460     -0.273613      1.537712
  C      -1.800658     -0.929807      0.087625
  C       1.929783     -0.187645      1.514791
  C      -2.345613      0.279604     -0.764526
  C       2.646310      0.972307      0.749839
  C      -2.095953      0.212501     -2.330620
  C       2.348010      1.203066     -0.773705
25
Coordinates from ORCA-job PFOA_altA_r2 E -1953.057633404231
  F       0.474112     -1.064763     -0.731509
  F      -0.164529     -2.441966      0.828123
  F      -0.177733      0.985915      1.530406
  F      -0.031628     -0.833842      2.711597
  F      -2.209258     -2.057121     -0.588778
  F      -2.410927     -0.911655      1.280716
  F       2.290812     -0.049751      2.838603
  F       2.393635     -1.374399      1.093756
  F      -3.698328      0.230555     -0.552144
  F      -1.903859      1.434454     -0.276268
  F       3.973322      0.695778      0.981278
  F       2.371598      2.140323      1.395594
  F      -3.188040     -0.336751     -2.922646
  F      -1.042806     -0.480199     -2.663939
  F      -1.987199      1.470948     -2.781501
  O       1.213600      1.538913     -1.045347
  O       3.349197      0.982520     -1.539168
  C      -0.256300     -1.159245      0.390278
  C       0.340882     -0.255971      1.541466
  C      -1.790566     -0.948204      0.074772
  C       1.916001     -0.178372      1.539614
  C      -2.358405      0.266334     -0.755040
  C       2.651379      0.958442      0.754860
  C      -2.129706      0.220515     -2.323781
  C       2.374846      1.167543     -0.781142
25
Coordinates from ORCA-job PFOA_altA_r2 E -1953.059963476146
  F       0.494959     -0.907508     -0.732956
  F      -0.081114     -2.423875      0.732808
  F      -0.172972      0.984102      1.568521
  F      -0.058324     -0.872140      2.714421
  F      -2.168550     -2.059860     -0.619548
  F      -2.403990     -0.943886      1.265176
  F       2.275067     -0.016044      2.864137
  F       2.389091     -1.379747      1.143030
  F      -3.672193      0.271458     -0.526753
  F      -1.836061      1.426777     -0.291006
  F       3.956494      0.694207      0.978930
  F       2.355165      2.140045      1.392249
  F      -3.168366     -0.442168     -2.887200
  F      -1.009024     -0.397810     -2.682042
  F      -2.114750      1.466185     -2.799482
  O       1.283933      1.741591     -1.034767
  O       3.206099      0.664651     -1.555317
  C      -0.235518     -1.123516      0.376861
  C       0.331827     -0.263798      1.565563
  C      -1.774403     -0.954531      0.063347
  C       1.906035     -0.176171      1.568328
  C      -2.336622      0.269103     -0.755702
  C       2.631711      0.953789      0.760646
  C      -2.144386      0.212715     -2.326047
  C       2.345991      1.136432     -0.783398
25
Coordinates from ORCA-job PFOA_altA_r2 E -1953.061832754275
  F       0.525488     -0.832410     -0.723707
  F      -0.045022     -2.431989      0.663485
  F      -0.166415      0.949799      1.602743
  F      -0.054062     -0.933975      2.716876
  F      -2.151802     -2.044588     -0.643733
  F      -2.388849     -0.937930      1.244980
  F       2.271678      0.002708      2.887862
  F       2.426776     -1.371229      1.174758
  F      -3.603539      0.375948     -0.490849
  F      -1.693164      1.427446     -0.344088
  F       3.930835      0.758834      0.978671
  F       2.283543      2.146870      1.406049
  F      -3.157110     -0.543432     -2.830115
  F      -0.998093     -0.316772     -2.739385
  F      -2.261766      1.446697     -2.836074
  O       1.348615      1.875893     -1.041330
  O       3.003187      0.401752     -1.518901
  C      -0.214385     -1.119961      0.368471
  C       0.339326     -0.299529      1.584740
  C      -1.751137     -0.948379      0.048290
  C       1.910675     -0.179313      1.592682
  C      -2.279651      0.292496     -0.767499
  C       2.593719      0.971468      0.776325
  C      -2.161066      0.206510     -2.339099
  C       2.292320      1.103086     -0.771352
25
Coordinates from ORCA-job PFOA_altA_r2 E -1953.063588217200
  F       0.487822     -0.781143     -0.754468
  F      -0.058975     -2.427564      0.585580
  F      -0.142813      0.920508      1.640466
  F      -0.020630     -0.994610      2.691242
  F      -2.202887     -2.011740     -0.585641
  F      -2.375027     -0.844545      1.268435
  F       2.290223     -0.088958      2.885980
  F       2.454917     -1.372158      1.109483
  F      -3.571043      0.492200     -0.479900
  F      -1.597185      1.438594     -0.468240
  F       3.932305      0.830039      1.046517
  F       2.219808      2.130047      1.480316
  F      -3.177249     -0.688659     -2.758497
  F      -1.033817     -0.326802     -2.776000
  F      -2.415848      1.343401     -2.915570
  O       1.443709      1.959855     -1.032557
  O       3.023102      0.387907     -1.447537
  C      -0.224236     -1.106395      0.345091
  C       0.359897     -0.330088      1.576155
  C      -1.763000     -0.905753      0.061869
  C       1.929445     -0.209055      1.582692
  C      -2.265488      0.318404     -0.794809
  C       2.589967      0.991780      0.822614
  C      -2.210312      0.145124     -2.356107
  C       2.327414      1.129611     -0.727316
25
Coordinates from ORCA-job PFOA_altA_r2 E -1953.064665640798
  F       0.454134     -0.731662     -0.832941
  F      -0.036648     -2.428209      0.464707
  F      -0.170514      0.883263      1.620282
  F      -0.002037     -1.051199      2.616312
  F      -2.255816     -1.996174     -0.537452
  F      -2.328302     -0.753608      1.266813
  F       2.264484     -0.183487      2.903248
  F       2.504763     -1.339579      1.060797
  F      -3.468486      0.685962     -0.401645
  F      -1.408312      1.380159     -0.699378
  F       3.946962      0.924169      1.240053
  F       2.155199      2.129930      1.590722
  F      -3.426192     -0.777316     -2.596057
  F      -1.293995     -0.473439     -2.909635
  F      -2.661020      1.213565     -2.981489
  O       1.667168      2.036396     -1.029874
  O       3.249522      0.435709     -1.278408
  C      -0.217058     -1.102877      0.277121
  C       0.374304     -0.352631      1.525068
  C      -1.761590     -0.878777      0.045902
  C       1.946122     -0.219756      1.581163
  C      -2.238258      0.332345     -0.842541
  C       2.615483      1.035182      0.925105
  C      -2.398470      0.050683     -2.374720
  C       2.488655      1.181351     -0.633353
25
Coordinates from ORCA-job PFOA_altA_r2 E -1953.065266235332
  F       0.455034     -0.643939     -0.820312
  F       0.015214     -2.380285      0.439068
  F      -0.172851      0.910765      1.647934
  F      -0.021242     -1.041123      2.623992
  F      -2.216287     -2.012167     -0.550352
  F      -2.351274     -0.787832      1.258792
  F       2.266787     -0.182634      2.911763
  F       2.463562     -1.352984      1.070783
  F      -3.487058      0.668853     -0.411539
  F      -1.430113      1.379723     -0.691319
  F       3.962194      0.857436      1.203676
  F       2.221884      2.125251      1.595892
  F      -3.389654     -0.817060     -2.610518
  F      -1.261415     -0.452832     -2.893821
  F      -2.673439      1.197592     -2.985164
  O       1.701117      2.093144     -1.009364
  O       3.140547      0.372378     -1.307828
  C      -0.211078     -1.060131      0.279844
  C       0.363113     -0.327948      1.543851
  C      -1.763100     -0.884404      0.045585
  C       1.936414     -0.217833      1.593083
  C      -2.251526      0.324036     -0.841596
  C       2.628199      1.015383      0.919275
  C      -2.389606      0.039307     -2.375203
  C       2.464677      1.177303     -0.636725
25
Coordinates from ORCA-job PFOA_altA_r2 E -1953.065263117257
  F       0.461468     -0.725227     -0.805697
  F      -0.020710     -2.409211      0.501618
  F      -0.171631      0.902206      1.640081
  F      -0.015319     -1.038817      2.654576
  F      -2.226121     -2.021573     -0.546500
  F      -2.382609     -0.793167      1.258592
  F       2.295401     -0.171636      2.891092
  F       2.451800     -1.359976      1.050544
  F      -3.453194      0.700666     -0.419370
  F      -1.379236      1.368275     -0.655544
  F       3.951095      0.860168      1.141335
  F       2.213977      2.121275      1.584885
  F      -3.391156     -0.719310     -2.647764
  F      -1.227334     -0.538437     -2.841671
  F      -2.487544      1.230028     -2.998142
  O       1.519340      2.047270     -0.967399
  O       3.110848      0.487819     -1.373660
  C      -0.220664     -1.088022      0.305622
  C       0.362408     -0.338481      1.557736
  C      -1.771537     -0.896213      0.056210
  C       1.937055     -0.220352      1.578959
  C      -2.219809      0.328228     -0.833586
  C       2.608748      1.015529      0.892919
  C      -2.331991      0.053022     -2.373944
  C       2.386815      1.205936     -0.651091
25
Coordinates from ORCA-job PFOA_altA_r2 E -1953.065622186518
  F       0.455724     -0.675471     -0.828141
  F       0.009543     -2.395063      0.451500
  F      -0.177163      0.905454      1.627724
  F      -0.026446     -1.038775      2.626177
  F      -2.218798     -2.021739     -0.553596
  F      -2.363534     -0.793380      1.250430
  F       2.271996     -0.187284      2.903915
  F       2.459853     -1.351732      1.054474
  F      -3.435045      0.730060     -0.392612
  F      -1.357316      1.350482     -0.713615
  F       3.956872      0.866340      1.207001
  F       2.207316      2.122957      1.609357
  F      -3.458213     -0.754382     -2.590628
  F      -1.306979     -0.559589     -2.876632
  F      -2.589806      1.194227     -3.005672
  O       1.634284      2.086537     -0.977534
  O       3.165786      0.455291     -1.321423
  C      -0.211292     -1.074230      0.279527
  C       0.361634     -0.332395      1.539487
  C      -1.764969     -0.894395      0.043531
  C       1.935940     -0.218663      1.585774
  C      -2.225355      0.326679     -0.843072
  C       2.621988      1.021160      0.923146
  C      -2.396381      0.028990     -2.371410
  C       2.450460      1.208924     -0.627910
25
Coordinates from ORCA-job PFOA_altA_r2 E -1953.065636940304
  F       0.463152     -0.677410     -0.829296
  F       0.017799     -2.393426      0.455929
  F      -0.182858      0.912047      1.615791
  F      -0.034844     -1.025754      2.622729
  F      -2.204395     -2.025733     -0.572608
  F      -2.361620     -0.816615      1.243174
  F       2.262530     -0.177776      2.908613
  F       2.458435     -1.347762      1.064188
  F      -3.446567      0.712815     -0.381979
  F      -1.377791      1.357293     -0.699622
  F       3.958427      0.859221      1.212388
  F       2.214615      2.128961      1.601281
  F      -3.463282     -0.747950     -2.588640
  F      -1.313121     -0.548570     -2.875984
  F      -2.599566      1.202856     -2.997010
  O       1.657270      2.082151     -0.989623
  O       3.176981      0.436752     -1.315510
  C      -0.206592     -1.073933      0.276965
  C       0.358402     -0.324549      1.535017
  C      -1.760970     -0.901145      0.036747
  C       1.932676     -0.212427      1.589449
  C      -2.234354      0.325002     -0.837167
  C       2.626197      1.020366      0.922780
  C      -2.403389      0.036209     -2.367053
  C       2.462965      1.199376     -0.630760
25
Coordinates from ORCA-job PFOA_altA_r2 E -1953.065653645482
  F       0.465059     -0.677191     -0.828428
  F       0.015528     -2.396605      0.451647
  F      -0.182872      0.905080      1.619805
  F      -0.032086     -1.035640      2.623044
  F      -2.207011     -2.022694     -0.571443
  F      -2.361601     -0.809878      1.242184
  F       2.266074     -0.183578      2.907072
  F       2.461827     -1.345714      1.056677
  F      -3.429211      0.735987     -0.380700
  F      -1.354685      1.351746     -0.715653
  F       3.954057      0.869289      1.214640
  F       2.203041      2.128486      1.607188
  F      -3.473151     -0.746407     -2.576331
  F      -1.321810     -0.565631     -2.876434
  F      -2.595566      1.194686     -3.004476
  O       1.653798      2.090779     -0.984870
  O       3.165325      0.437684     -1.313282
  C      -0.205960     -1.076040      0.276635
  C       0.359508     -0.330864      1.536536
  C      -1.760223     -0.898678      0.036611
  C       1.933683     -0.214221      1.588527
  C      -2.225542      0.329175     -0.840571
  C       2.620879      1.024039      0.925766
  C      -2.405802      0.031242     -2.366858
  C       2.456842      1.204949     -0.627485
25
Coordinates from ORCA-job PFOA_altA_r2 E -1953.065657607372
  F       0.463854     -0.678959     -0.828937
  F       0.014086     -2.396522      0.452688
  F      -0.182489      0.905402      1.620331
  F      -0.031273     -1.035155      2.623575
  F      -2.207151     -2.022972     -0.570050
  F      -2.362398     -0.809423      1.242747
  F       2.266564     -0.185448      2.906755
  F       2.460904     -1.347099      1.056268
  F      -3.427864      0.738329     -0.380947
  F      -1.352745      1.350560     -0.718406
  F       3.955196      0.867746      1.212541
  F       2.205853      2.127211      1.609193
  F      -3.476648     -0.742843     -2.577334
  F      -1.323702     -0.573023     -2.874452
  F      -2.588655      1.192749     -3.007795
  O       1.648342      2.092298     -0.980616
  O       3.166800      0.447030     -1.315710
  C      -0.206503     -1.076003      0.276938
  C       0.359807     -0.330602      1.536732
  C      -1.760737     -0.898400      0.037328
  C       1.933935     -0.215064      1.588339
  C      -2.225442      0.329245     -0.841175
  C       2.621627      1.023216      0.925798
  C      -2.405809      0.029815     -2.367442
  C       2.454546      1.207914     -0.626571
25
Coordinates from ORCA-job PFOA_altA_r2 E -1953.065659276995
  F       0.464492     -0.683070     -0.828440
  F       0.012613     -2.397990      0.455915
  F      -0.182167      0.905883      1.618085
  F      -0.031535     -1.033177      2.624280
  F      -2.206918     -2.023242     -0.571514
  F      -2.362848     -0.811207      1.242214
  F       2.266558     -0.185214      2.906357
  F       2.460883     -1.347113      1.056071
  F      -3.426849      0.738353     -0.379910
  F      -1.351751      1.350286     -0.717372
  F       3.954824      0.868144      1.211397
  F       2.205546      2.127139      1.609391
  F      -3.475689     -0.741632     -2.577656
  F      -1.322524     -0.571839     -2.874259
  F      -2.587397      1.193800     -3.007448
  O       1.647604      2.093783     -0.980343
  O       3.164147      0.447008     -1.316704
  C      -0.206623     -1.077569      0.277715
  C       0.359772     -0.330412      1.536417
  C      -1.760578     -0.899232      0.037059
  C       1.933833     -0.214938      1.588113
  C      -2.224883      0.329340     -0.840641
  C       2.621173      1.023400      0.925343
  C      -2.404852      0.030889     -2.367256
  C       2.453269      1.208608     -0.627014
25
Coordinates from ORCA-job PFOA_altA_r2 E -1953.065660064832
  F       0.465135     -0.685839     -0.828165
  F       0.011485     -2.398865      0.458191
  F      -0.182198      0.905932      1.617177
  F      -0.031661     -1.032319      2.624667
  F      -2.206879     -2.023049     -0.572061
  F      -2.362824     -0.811254      1.241839
  F       2.267287     -0.186264      2.906015
  F       2.460855     -1.346966      1.055067
  F      -3.425344      0.739702     -0.379766
  F      -1.349976      1.349884     -0.718931
  F       3.954770      0.867629      1.209697
  F       2.206383      2.126828      1.611266
  F      -3.476061     -0.741225     -2.577206
  F      -1.322648     -0.573187     -2.874092
  F      -2.586283      1.193173     -3.008343
  O       1.647188      2.097101     -0.978464
  O       3.160531      0.447919     -1.317251
  C      -0.206615     -1.078464      0.278199
  C       0.359812     -0.330422      1.536379
  C      -1.760292     -0.899246      0.036833
  C       1.933911     -0.215064      1.588053
  C      -2.224172      0.329612     -0.840968
  C       2.620879      1.023570      0.925552
  C      -2.404641      0.030651     -2.367410
  C       2.451457      1.210164     -0.626480
25
Coordinates from ORCA-job PFOA_altA_r2 E -1953.065660300882
  F       0.465060     -0.686668     -0.828257
  F       0.011070     -2.399016      0.458964
  F      -0.181621      0.906402      1.616438
  F      -0.031945     -1.031380      2.624892
  F      -2.207214     -2.022967     -0.571605
  F      -2.362805     -0.810525      1.241909
  F       2.267775     -0.187643      2.905660
  F       2.460499     -1.347182      1.053991
  F      -3.424623      0.740357     -0.380090
  F      -1.348934      1.349391     -0.719994
  F       3.954885      0.867059      1.209171
  F       2.206915      2.126258      1.612760
  F      -3.476263     -0.741679     -2.576982
  F      -1.322928     -0.574288     -2.874261
  F      -2.586143      1.192410     -3.008803
  O       1.647103      2.099244     -0.976926
  O       3.159070      0.449206     -1.317502
  C      -0.206733     -1.078632      0.278345
  C       0.359885     -0.330235      1.536283
  C      -1.760264     -0.899085      0.036923
  C       1.933999     -0.215465      1.587823
  C      -2.223713      0.329510     -0.841324
  C       2.620875      1.023489      0.925892
  C      -2.404644      0.030015     -2.367596
  C       2.450794      1.211425     -0.625913
25
Coordinates from ORCA-job PFOA_altA_r2 E -1953.065660431103
  F       0.464877     -0.686988     -0.828336
  F       0.010698     -2.398997      0.459377
  F      -0.181034      0.906829      1.615950
  F      -0.032191     -1.030642      2.625070
  F      -2.207767     -2.022831     -0.570702
  F      -2.362742     -0.809256      1.242148
  F       2.268401     -0.189078      2.905375
  F       2.460293     -1.347386      1.052932
  F      -3.424520      0.740613     -0.380914
  F      -1.348629      1.349177     -0.720889
  F       3.955276      0.866128      1.208539
  F       2.208032      2.125681      1.614332
  F      -3.476358     -0.742331     -2.577060
  F      -1.323100     -0.575533     -2.874466
  F      -2.585900      1.191521     -3.009406
  O       1.646645      2.101050     -0.975101
  O       3.157918      0.450829     -1.317836
  C      -0.206889     -1.078597      0.278465
  C       0.360004     -0.330057      1.536261
  C      -1.760343     -0.898737      0.037124
  C       1.934210     -0.215910      1.587630
  C      -2.223507      0.329351     -0.841797
  C       2.621125      1.023315      0.926281
  C      -2.404577      0.029193     -2.367929
  C       2.450177      1.212658     -0.625251
25
Coordinates from ORCA-job PFOA_altA_r2 E -1953.065660472988
  F       0.464748     -0.686873     -0.828404
  F       0.010615     -2.398874      0.459353
  F      -0.180622      0.907126      1.615591
  F      -0.032336     -1.030197      2.625090
  F      -2.208066     -2.022774     -0.570167
  F      -2.362728     -0.808573      1.242294
  F       2.268661     -0.189948      2.905225
  F       2.460212     -1.347475      1.052276
  F      -3.424644      0.740645     -0.381363
  F      -1.348739      1.349163     -0.721227
  F       3.955533      0.865641      1.208452
  F       2.208636      2.125393      1.615116
  F      -3.476553     -0.742606     -2.577018
  F      -1.323307     -0.576400     -2.874503
  F      -2.585669      1.190962     -3.009829
  O       1.646344      2.101696     -0.974132
  O       3.157717      0.451776     -1.317936
  C      -0.206954     -1.078476      0.278464
  C       0.360088     -0.329917      1.536182
  C      -1.760434     -0.898543      0.037248
  C       1.934343     -0.216166      1.587497
  C      -2.223521      0.329272     -0.842022
  C       2.621343      1.023210      0.926549
  C      -2.404595      0.028703     -2.368081
  C       2.450028      1.213233     -0.624855
