80
Coordinates from ORCA-job R4N+PFOA-_wb E -2865.805595809037
  N           5.45570393579047      0.69350434591751      2.47609285580899
  C           3.42139052984705     -4.15108401694492     -1.58643105655299
  C           4.27565658333782     -4.62176062382987     -2.76855834468212
  C           4.54763207316894     -3.55605751678910     -3.83827063177488
  C           4.03575344801715     -2.95758208535328     -0.88703160591646
  C           3.13976037448863     -5.30238558519119     -0.61424831842520
  C           5.76705673111916      0.51154117185750      1.00192761311502
  C           5.16567074795152     -0.70687000285413      0.36564967203949
  C           3.27217363866044     -2.95740121940162     -4.39783016885784
  C           3.36122782515263     -1.74302446653966     -0.84805209905275
  C           5.29327015181039     -3.02772678130579     -0.28853798957607
  C           5.42502943771706     -4.12924904561565     -4.95105610491913
  C           3.98627627987740      0.74704202554992      2.71205415616755
  C           6.05824457995117      1.98714702405371      2.90014256201240
  C           6.04416990015053     -0.40535022421049      3.28520246898052
  C           3.91708864250537     -0.62954182383457     -0.24016868643511
  C           5.85134348299375     -1.91932775843836      0.32711747935736
  C           2.12324352954165     -4.94704933448526      0.46147286447398
  C           2.30530421434118     -3.75592801214443     -5.00820342356965
  C           3.03510550569811     -1.58845425284893     -4.31437514965722
  C           1.13950001980847     -3.20243932302708     -5.51548336965895
  C           1.86645772259026     -1.02889529294434     -4.81546395918054
  C           0.91277619653850     -1.83530978219861     -5.41786695879845
  H           2.45587954399789     -3.82211738932200     -1.98433191551281
  H           3.77633053099579     -5.47864398478410     -3.23311058801099
  H           5.23795783821229     -4.99238399259492     -2.39888736257062
  H           5.10161978148941     -2.73824038104630     -3.36657691181926
  H           4.07772804771456     -5.62781321497408     -0.15135537722523
  H           2.77018334081958     -6.15451118453005     -1.19320754259984
  H           6.85435770483425      0.49523027186607      0.93486739125904
  H           5.39824554648472      1.41425123292131      0.51628306957134
  H           2.38967648218324     -1.66360138177415     -1.31880496348879
  H           5.85301815286697     -3.95667887466994     -0.31160848692649
  H           5.65961174385147     -3.36947631719580     -5.70012348468411
  H           4.92747092066845     -4.95916566765342     -5.46019565596677
  H           6.36811961200702     -4.50395128767658     -4.54506131354009
  H           3.55580572642271     -0.22609395230656      2.49311425627344
  H           3.55253147678007      1.50799847303116      2.06564729308342
  H           3.81920937504133      0.99548964995116      3.75822939907422
  H           7.12885980375517      1.95767275544514      2.70784453335895
  H           5.87259259708284      2.12566743958506      3.96305261097258
  H           5.59550822071770      2.79138176699084      2.33179276495179
  H           5.58342166318860     -1.34768527628910      2.99964105018072
  H           5.84347859243490     -0.20253538947689      4.33518772620442
  H           7.11753259452232     -0.43925182821751      3.10979314316532
  H           3.37767290989109      0.31173521023824     -0.24204548721096
  H           6.83757142476460     -1.99511333442777      0.77295130226265
  H           1.16906720372742     -4.65435316634555      0.01452819314389
  H           2.46578090673803     -4.11641446748706      1.08429540326639
  H           1.93339466671988     -5.79696332284958      1.12083394113890
  H           2.46069316096419     -4.82710594107638     -5.08623243362147
  H           3.77378132364860     -0.95018479408816     -3.84048767161724
  H           0.40107919473093     -3.84295023198200     -5.98434908517982
  H           1.70065848336535      0.03916033717816     -4.72830231464136
  H          -0.00333462319564     -1.40415752156725     -5.80494915276242
  F          -0.26651968227409     -2.09593071533051      0.45783303728878
  F          -2.29150778764967     -1.33940456722314      0.17913312523647
  F           0.51995766950988      0.12695802860529     -1.28719774030999
  F          -1.49509815183544      0.87448728162166     -0.90766094904996
  F          -1.57614230746720     -1.22783539792722     -2.66169204646965
  F           0.11902898486029     -2.46811480547969     -2.07698441655130
  F          -0.97762145107221      0.39498069177190      1.86458711567388
  F           1.09104195931218      0.01182714744331      1.29642000566665
  F          -1.83524669037364     -4.06460620000718     -0.62975340230609
  F          -3.32517503222512     -2.94527222488018     -1.76596629810069
  F           0.74668174775430      2.43145404508249      2.22186157320123
  F          -0.90927900627604      2.84360857860729      0.87829914733064
  F          -2.78097711101838     -5.22902039396948     -2.94206281740348
  F          -0.65251872506820     -4.89810989087048     -2.90000784579703
  F          -1.92229959856871     -3.62275588450282     -4.10148332223561
  O           2.48573917129882      2.53626410393980      0.19713857833956
  O           0.78574485413298      3.15986054484699     -1.13483415160105
  C          -1.05755305054210     -1.37112787155393     -0.34604255719111
  C          -0.51435029870289      0.09798664972616     -0.42895726481582
  C          -1.12065012340631     -2.08688995508363     -1.73872912730481
  C          -0.02984311382814      0.66301560202331      0.94191464126363
  C          -2.04775702040058     -3.34606852193973     -1.74280406467397
  C           0.26985323811884      2.19130197397443      0.97267688269904
  C          -1.83319191970061     -4.29727487469721     -2.96159741391394
  C           1.29392194693861      2.69040700152925     -0.11057682440213
