56
Coordinates from ORCA-job R4N+Cl-_wb E -1372.727090701061
  N      -2.190394     -0.286538     -4.067704
  C       1.236232      1.100495      1.443789
  C       2.070985      0.042249      2.172749
  C       1.277402     -1.133589      2.753474
  C       0.417277      0.507708      0.317926
  C       2.134145      2.240809      0.947254
  C      -1.935953     -1.187649     -2.874563
  C      -1.112697     -0.580375     -1.777478
  C       0.192806     -0.682454      3.709863
  C       1.026136     -0.176713     -0.733002
  C      -0.968131      0.630934      0.303765
  C       2.221412     -2.133293      3.421206
  C      -2.910098      0.951228     -3.662193
  C      -3.049739     -1.049689     -5.015309
  C      -0.921376      0.079805     -4.748340
  C       0.273713     -0.715122     -1.762832
  C      -1.725205      0.091593     -0.725458
  C       1.367780      3.397046      0.321917
  C      -1.138297     -1.018028      3.481973
  C       0.496995      0.076609      4.839688
  C      -2.141287     -0.607382      4.351309
  C      -0.499826      0.489942      5.710617
  C      -1.825390      0.150047      5.469185
  H       0.529054      1.529766      2.161972
  H       2.622752      0.537087      2.978794
  H       2.825297     -0.358736      1.487668
  H       0.778855     -1.647254      1.925571
  H       2.855882      1.841101      0.226897
  H       2.717028      2.606873      1.797718
  H      -1.449065     -2.073055     -3.281343
  H      -2.926868     -1.458859     -2.507223
  H       2.103747     -0.298431     -0.745331
  H      -1.463602      1.149841      1.117250
  H       1.673989     -2.995756      3.807403
  H       2.755723     -1.672344      4.256122
  H       2.964450     -2.496014      2.707143
  H      -3.822956      0.665011     -3.140695
  H      -3.147158      1.513739     -4.562748
  H      -2.267712      1.545217     -3.017447
  H      -3.982669     -1.297317     -4.510819
  H      -2.524441     -1.955273     -5.311430
  H      -3.242764     -0.426679     -5.885551
  H      -1.166028      0.660834     -5.635069
  H      -0.397116     -0.831024     -5.029817
  H      -0.311245      0.676706     -4.075522
  H       0.767440     -1.254134     -2.564125
  H      -2.805675      0.188117     -0.708896
  H       0.632614      3.804925      1.021001
  H       0.831301      3.084707     -0.577429
  H       2.042689      4.207122      0.038286
  H      -1.393748     -1.605145      2.605842
  H       1.526642      0.353306      5.040591
  H      -3.171541     -0.878605      4.151120
  H      -0.241856      1.081635      6.581534
  H      -2.604861      0.474403      6.148530
  Cl     -5.567513     -1.210305     -2.092425
56
Coordinates from ORCA-job R4N+Cl-_wb E -1372.727121419146
  N      -2.190092     -0.284856     -4.075535
  C       1.233241      1.099497      1.441804
  C       2.067775      0.042157      2.173890
  C       1.276091     -1.133257      2.760068
  C       0.415499      0.506123      0.314694
  C       2.131172      2.241339      0.946523
  C      -1.936576     -1.186515     -2.881379
  C      -1.112990     -0.580164     -1.783424
  C       0.193779     -0.682320      3.720092
  C       1.024612     -0.182416     -0.733514
  C      -0.969509      0.633847      0.296240
  C       2.222871     -2.132788      3.425173
  C      -2.909842      0.952915     -3.669037
  C      -3.050919     -1.047255     -5.022857
  C      -0.921182      0.081341     -4.756312
  C       0.273013     -0.720228     -1.764196
  C      -1.725773      0.094876     -0.733606
  C       1.366093      3.397715      0.319200
  C      -1.136862     -1.025016      3.500046
  C       0.499593      0.081306      4.846486
  C      -2.137549     -0.615800      4.372475
  C      -0.495040      0.493170      5.720422
  C      -1.820009      0.146918      5.486047
  H       0.524932      1.528617      2.158846
  H       2.620823      0.539432      2.977678
  H       2.822216     -0.360556      1.489663
  H       0.774954     -1.648503      1.934600
  H       2.855762      1.842903      0.227935
  H       2.711984      2.608496      1.798295
  H      -1.450760     -2.073122     -3.287452
  H      -2.928699     -1.456326     -2.515648
  H       2.101854     -0.309072     -0.742781
  H      -1.465952      1.155857      1.107266
  H       1.676689     -2.994685      3.815095
  H       2.761778     -1.671993      4.257486
  H       2.962762     -2.497893      2.708439
  H      -3.823032      0.665955     -3.148344
  H      -3.147051      1.516916     -4.568969
  H      -2.267796      1.546247     -3.022986
  H      -3.983805     -1.293530     -4.517662
  H      -2.527328     -1.954015     -5.319346
  H      -3.244341     -0.424485     -5.893562
  H      -1.164956      0.663850     -5.642634
  H      -0.397079     -0.829247     -5.039712
  H      -0.309815      0.676909     -4.083161
  H       0.767694     -1.264751     -2.561573
  H      -2.806031      0.193358     -0.719067
  H       0.628331      3.805631      1.015959
  H       0.832518      3.086296     -0.582493
  H       2.041782      4.208598      0.038192
  H      -1.394199     -1.617513      2.627893
  H       1.528946      0.362948      5.042871
  H      -3.167712     -0.892721      4.178035
  H      -0.235624      1.088661      6.588753
  H      -2.598041      0.470096      6.168106
  Cl     -5.561068     -1.203853     -2.107615
56
Coordinates from ORCA-job R4N+Cl-_wb E -1372.727142104551
  N      -2.193931     -0.283322     -4.070983
  C       1.239681      1.099077      1.441903
  C       2.073571      0.042279      2.175483
  C       1.281056     -1.133025      2.760710
  C       0.421169      0.505188      0.315463
  C       2.137258      2.241686      0.946637
  C      -1.936884     -1.186280     -2.877646
  C      -1.110710     -0.580370     -1.781230
  C       0.193287     -0.682507      3.715121
  C       1.028191     -0.186371     -0.732065
  C      -0.963689      0.635075      0.297311
  C       2.225916     -2.131687      3.430284
  C      -2.914740      0.952698     -3.660146
  C      -3.057582     -1.045436     -5.016093
  C      -0.927454      0.085136     -4.753955
  C       0.275046     -0.723435     -1.761972
  C      -1.721521      0.096558     -0.731459
  C       1.373244      3.397252      0.316351
  C      -1.134950     -1.031854      3.490874
  C       0.490664      0.087139      4.839694
  C      -2.141041     -0.623770      4.357405
  C      -0.509480      0.497692      5.707803
  C      -1.831723      0.144654      5.469180
  H       0.531290      1.528150      2.158940
  H       2.625486      0.540343      2.979688
  H       2.830172     -0.360306      1.493354
  H       0.784160     -1.650148      1.933674
  H       2.864642      1.844149      0.230087
  H       2.715994      2.610985      1.799125
  H      -1.451781     -2.072675     -3.285402
  H      -2.928930     -1.456584     -2.511497
  H       2.105112     -0.316473     -0.741987
  H      -1.459598      1.158476      1.107926
  H       1.678362     -2.992968      3.820117
  H       2.763354     -1.671100      4.263875
  H       2.967847     -2.499401      2.716639
  H      -3.826308      0.662359     -3.138182
  H      -3.155582      1.518873     -4.557951
  H      -2.272441      1.545681     -3.013839
  H      -3.988531     -1.292347     -4.507382
  H      -2.535265     -1.952212     -5.315365
  H      -3.255028     -0.422615     -5.886084
  H      -1.172632      0.670660     -5.638099
  H      -0.403269     -0.823999     -5.042454
  H      -0.313659      0.678380     -4.080685
  H       0.769352     -1.271169     -2.557647
  H      -2.801669      0.195874     -0.715959
  H       0.632805      3.805884      1.010107
  H       0.842822      3.086250     -0.587544
  H       2.049590      4.208657      0.037503
  H      -1.386721     -1.629362      2.620331
  H       1.517720      0.374587      5.040271
  H      -3.169237     -0.906128      4.159493
  H      -0.256388      1.097703      6.575118
  H      -2.614268      0.467157      6.146665
  Cl     -5.545647     -1.203967     -2.106102
56
Coordinates from ORCA-job R4N+Cl-_wb E -1372.727150597902
  N      -2.193572     -0.283766     -4.072132
  C       1.238538      1.099361      1.442241
  C       2.072512      0.042304      2.174982
  C       1.279699     -1.132572      2.760121
  C       0.420305      0.506250      0.315422
  C       2.135783      2.242139      0.947826
  C      -1.937398     -1.185651     -2.877612
  C      -1.111516     -0.578909     -1.781788
  C       0.193555     -0.682198      3.716150
  C       1.027119     -0.186026     -0.731679
  C      -0.964413      0.637668      0.296216
  C       2.224028     -2.132539      3.427879
  C      -2.914784      0.952547     -3.662928
  C      -3.057108     -1.046797     -5.016337
  C      -0.926813      0.083513     -4.754065
  C       0.274013     -0.722829     -1.761810
  C      -1.722224      0.099693     -0.732877
  C       1.372131      3.397272      0.316687
  C      -1.134754     -1.033156      3.494815
  C       0.492363      0.087928      4.839909
  C      -2.139585     -0.625616      4.363103
  C      -0.506461      0.497788      5.709938
  C      -1.828847      0.143446      5.474080
  H       0.530163      1.527848      2.159637
  H       2.625366      0.540046      2.978791
  H       2.828674     -0.360569      1.492566
  H       0.781512     -1.648749      1.933309
  H       2.864400      1.845384      0.232160
  H       2.713337      2.611953      1.800835
  H      -1.452104     -2.072246     -3.284585
  H      -2.930005     -1.455482     -2.512599
  H       2.103863     -0.317390     -0.741380
  H      -1.460649      1.161757      1.106157
  H       1.675908     -2.993322      3.817966
  H       2.763412     -1.673744      4.261180
  H       2.964527     -2.501211      2.713377
  H      -3.826591      0.661838     -3.141401
  H      -3.155269      1.517970     -4.561225
  H      -2.273124      1.546204     -3.016785
  H      -3.988061     -1.292981     -4.506934
  H      -2.535152     -1.954019     -5.314705
  H      -3.254596     -0.425194     -5.887119
  H      -1.170318      0.669687     -5.638193
  H      -0.403207     -0.825826     -5.042933
  H      -0.312453      0.675551     -4.080262
  H       0.768907     -1.270747     -2.556907
  H      -2.802311      0.200418     -0.718316
  H       0.630180      3.805605      1.008922
  H       0.843661      3.086924     -0.588475
  H       2.048600      4.209083      0.039610
  H      -1.388078     -1.631000      2.625029
  H       1.519355      0.376760      5.038670
  H      -3.167803     -0.908915      4.167097
  H      -0.252191      1.098323      6.576426
  H      -2.610335      0.465519      6.152856
  Cl     -5.535057     -1.200230     -2.115505
56
Coordinates from ORCA-job R4N+Cl-_wb E -1372.727153319667
  N      -2.194949     -0.284578     -4.068901
  C       1.241068      1.100740      1.442913
  C       2.074505      0.043208      2.175319
  C       1.280519     -1.131882      2.757958
  C       0.422230      0.507923      0.316569
  C       2.138736      2.242604      0.947989
  C      -1.937071     -1.185708     -2.874105
  C      -1.111021     -0.578030     -1.779229
  C       0.192698     -0.682111      3.712093
  C       1.028405     -0.183703     -0.731218
  C      -0.962570      0.638572      0.298765
  C       2.223056     -2.132311      3.427130
  C      -2.916155      0.951853     -3.660168
  C      -3.058908     -1.048641     -5.011747
  C      -0.929121      0.082585     -4.752307
  C       0.274547     -0.720934     -1.760698
  C      -1.721143      0.100282     -0.729641
  C       1.375558      3.397569      0.316191
  C      -1.135374     -1.031661      3.487129
  C       0.489592      0.085909      4.837712
  C      -2.141905     -0.625001      4.353954
  C      -0.510886      0.495009      5.706320
  C      -1.833071      0.141922      5.467045
  H       0.533146      1.529771      2.160429
  H       2.626605      0.540099      2.980118
  H       2.831186     -0.359177      1.493293
  H       0.783946     -1.647363      1.929808
  H       2.867018      1.845056      0.232536
  H       2.716460      2.612545      1.800747
  H      -1.451143     -2.071693     -3.281519
  H      -2.929056     -1.456407     -2.508139
  H       2.105200     -0.314149     -0.742264
  H      -1.458342      1.162155      1.109280
  H       1.674006     -2.993333      3.815245
  H       2.760370     -1.674125      4.262037
  H       2.965271     -2.500310      2.714202
  H      -3.827367      0.661074     -3.137608
  H      -3.157407      1.516195     -4.558850
  H      -2.273956      1.546327     -3.015373
  H      -3.989129     -1.295347     -4.501124
  H      -2.536493     -1.955460     -5.310317
  H      -3.257521     -0.427526     -5.882547
  H      -1.173660      0.668850     -5.636027
  H      -0.406064     -0.826779     -5.041924
  H      -0.313792      0.674370     -4.079272
  H       0.769168     -1.267625     -2.556690
  H      -2.801283      0.200900     -0.713941
  H       0.633494      3.806347      1.007937
  H       0.847368      3.087040     -0.588986
  H       2.052323      4.208998      0.039052
  H      -1.387271     -1.627421      2.615564
  H       1.516262      0.373842      5.039122
  H      -3.169792     -0.907220      4.155120
  H      -0.258052      1.093913      6.574244
  H      -2.615750      0.463307      6.144638
  Cl     -5.527356     -1.201375     -2.112453
56
Coordinates from ORCA-job R4N+Cl-_wb E -1372.727154402028
  N      -2.193642     -0.284923     -4.072168
  C       1.237615      1.099799      1.443126
  C       2.071123      0.041698      2.174535
  C       1.276779     -1.132604      2.758045
  C       0.419636      0.507645      0.315859
  C       2.135453      2.241865      0.949393
  C      -1.935628     -1.186094     -2.877545
  C      -1.111400     -0.577960     -1.781692
  C       0.192611     -0.681464      3.715553
  C       1.027138     -0.181706     -0.732544
  C      -0.965327      0.636589      0.297737
  C       2.219459     -2.134549      3.424579
  C      -2.915554      0.951332     -3.664202
  C      -3.056137     -1.049510     -5.015946
  C      -0.927549      0.082989     -4.754843
  C       0.274335     -0.718774     -1.762958
  C      -1.722894      0.098398     -0.731525
  C       1.372286      3.397439      0.318790
  C      -1.136823     -1.028607      3.494894
  C       0.494659      0.086141      4.840039
  C      -2.139709     -0.620633      4.365406
  C      -0.502165      0.496834      5.712156
  C      -1.825766      0.145693      5.477582
  H       0.529405      1.528243      2.160725
  H       2.624516      0.538018      2.978749
  H       2.826305     -0.361444      1.491361
  H       0.777188     -1.646696      1.930894
  H       2.863355      1.844613      0.233473
  H       2.713333      2.610681      1.802463
  H      -1.448022     -2.070931     -3.285350
  H      -2.927270     -1.458414     -2.511925
  H       2.104128     -0.310283     -0.743466
  H      -1.461929      1.158633      1.108703
  H       1.670267     -2.995181      3.813205
  H       2.758723     -1.677157      4.258602
  H       2.959875     -2.502517      2.709869
  H      -3.827004      0.660513     -3.142132
  H      -3.156035      1.515080     -4.563403
  H      -2.273740      1.546193     -3.019427
  H      -3.986516     -1.297551     -4.506236
  H      -2.532232     -1.955426     -5.314505
  H      -3.254322     -0.428040     -5.886533
  H      -1.172136      0.669556     -5.638294
  H      -0.404252     -0.826167     -5.044522
  H      -0.312781      0.674666     -4.081269
  H       0.769892     -1.263232     -2.559812
  H      -2.803178      0.198136     -0.715882
  H       0.630084      3.805154      1.010935
  H       0.844307      3.087640     -0.586677
  H       2.048965      4.209176      0.042617
  H      -1.392586     -1.623554      2.623942
  H       1.522469      0.372520      5.037628
  H      -3.168662     -0.901252      4.170154
  H      -0.245337      1.095357      6.579093
  H      -2.605501      0.468127      6.157973
  Cl     -5.522678     -1.204966     -2.119817
56
Coordinates from ORCA-job R4N+Cl-_wb E -1372.727155087834
  N      -2.193742     -0.285507     -4.072238
  C       1.237539      1.100279      1.442939
  C       2.070867      0.041939      2.174356
  C       1.276477     -1.132477      2.757867
  C       0.419561      0.508132      0.315554
  C       2.135630      2.242413      0.949432
  C      -1.935613     -1.186464     -2.877600
  C      -1.111398     -0.578008     -1.781760
  C       0.192371     -0.681467      3.715676
  C       1.027219     -0.180891     -0.732996
  C      -0.965451      0.636599      0.297593
  C       2.219344     -2.134638      3.424070
  C      -2.914936      0.951257     -3.664466
  C      -3.056491     -1.049991     -5.016017
  C      -0.927490      0.081886     -4.755295
  C       0.274441     -0.718226     -1.763275
  C      -1.722987      0.098080     -0.731521
  C       1.372492      3.398445      0.319508
  C      -1.137205     -1.027866      3.494764
  C       0.494755      0.085079      4.840845
  C      -2.139946     -0.619751      4.365349
  C      -0.501922      0.495712      5.713128
  C      -1.825686      0.145587      5.478082
  H       0.529277      1.528717      2.160480
  H       2.624239      0.538102      2.978660
  H       2.825957     -0.361155      1.491032
  H       0.776721     -1.646357      1.930668
  H       2.863164      1.845118      0.233133
  H       2.713857      2.610675      1.802528
  H      -1.447915     -2.071306     -3.285332
  H      -2.927052     -1.458840     -2.511408
  H       2.104270     -0.309079     -0.743930
  H      -1.462016      1.158533      1.108663
  H       1.670245     -2.995435      3.812473
  H       2.758493     -1.677193      4.258154
  H       2.959779     -2.502190      2.709117
  H      -3.826535      0.661452     -3.142130
  H      -3.155076      1.514829     -4.563905
  H      -2.272563      1.545899     -3.020010
  H      -3.986966     -1.297945     -4.506515
  H      -2.532578     -1.955942     -5.314535
  H      -3.254408     -0.428379     -5.886591
  H      -1.172232      0.668253     -5.638854
  H      -0.404554     -0.827582     -5.044684
  H      -0.312542      0.673694     -4.081964
  H       0.769882     -1.262766     -2.560185
  H      -2.803290      0.197553     -0.715444
  H       0.630553      3.805844      1.012153
  H       0.844163      3.088872     -0.585866
  H       2.049181      4.210220      0.043379
  H      -1.393092     -1.622191      2.623397
  H       1.522772      0.370522      5.038754
  H      -3.169077     -0.899651      4.169829
  H      -0.244847      1.093426      6.580594
  H      -2.605332      0.467972      6.158648
  Cl     -5.523177     -1.204698     -2.118899
56
Coordinates from ORCA-job R4N+Cl-_wb E -1372.727155890300
  N      -2.194709     -0.286330     -4.070976
  C       1.238815      1.101214      1.442874
  C       2.071568      0.042462      2.174596
  C       1.276977     -1.132353      2.757321
  C       0.420750      0.509246      0.315318
  C       2.137478      2.243246      0.949715
  C      -1.935476     -1.186971     -2.876444
  C      -1.110723     -0.577873     -1.781112
  C       0.191734     -0.681799      3.714208
  C       1.028342     -0.179464     -0.733538
  C      -0.964338      0.636942      0.297967
  C       2.219763     -2.134430      3.424079
  C      -2.914876      0.951003     -3.663000
  C      -3.058358     -1.050790     -5.014108
  C      -0.928831      0.080588     -4.755429
  C       0.275301     -0.717241     -1.763344
  C      -1.722142      0.097778     -0.730598
  C       1.374632      3.399817      0.320278
  C      -1.137699     -1.027407      3.491261
  C       0.492962      0.083654      4.840489
  C      -2.141410     -0.619274      4.360665
  C      -0.504677      0.494077      5.711687
  C      -1.828274      0.144899      5.474451
  H       0.530479      1.529817      2.160244
  H       2.624279      0.538354      2.979547
  H       2.827158     -0.360263      1.491566
  H       0.778104     -1.646218      1.929547
  H       2.864735      1.845784      0.233175
  H       2.715940      2.610911      1.802939
  H      -1.447742     -2.071794     -3.284231
  H      -2.926370     -1.459598     -2.508893
  H       2.105464     -0.307202     -0.744793
  H      -1.460685      1.158614      1.109355
  H       1.670632     -2.995512      3.811837
  H       2.758003     -1.676767      4.258650
  H       2.960882     -2.501472      2.709515
  H      -3.826382      0.662520     -3.139804
  H      -3.155198      1.514407     -4.562547
  H      -2.271498      1.545402     -3.019271
  H      -3.988619     -1.298752     -4.504282
  H      -2.534571     -1.956759     -5.312909
  H      -3.256650     -0.429090     -5.884571
  H      -1.174432      0.666622     -5.638994
  H      -0.406357     -0.829166     -5.044790
  H      -0.313301      0.672706     -4.082877
  H       0.770389     -1.262057     -2.560342
  H      -2.802493      0.196476     -0.713318
  H       0.632972      3.807104      1.013331
  H       0.845957      3.090441     -0.585017
  H       2.051483      4.211493      0.044128
  H      -1.392545     -1.621141      2.619163
  H       1.520916      0.368272      5.040012
  H      -3.170476     -0.898436      4.163525
  H      -0.248497      1.090929      6.580071
  H      -2.608731      0.467163      6.154210
  Cl     -5.522526     -1.204692     -2.115130
56
Coordinates from ORCA-job R4N+Cl-_wb E -1372.727156141116
  N      -2.194660     -0.286294     -4.071224
  C       1.238582      1.101057      1.442914
  C       2.071442      0.042318      2.174495
  C       1.277022     -1.132475      2.757440
  C       0.420538      0.509114      0.315351
  C       2.137196      2.243169      0.949909
  C      -1.935704     -1.186847     -2.876570
  C      -1.110876     -0.577849     -1.781228
  C       0.191906     -0.681891      3.714416
  C       1.028128     -0.179677     -0.733470
  C      -0.964534      0.636906      0.297897
  C       2.220003     -2.134425      3.424084
  C      -2.914595      0.951254     -3.663527
  C      -3.058407     -1.050680     -5.014290
  C      -0.928666      0.080246     -4.755615
  C       0.275123     -0.717397     -1.763318
  C      -1.722309      0.097849     -0.730764
  C       1.374339      3.399914      0.320831
  C      -1.137446     -1.028098      3.491963
  C       0.493108      0.084359      4.840158
  C      -2.141074     -0.620093      4.361521
  C      -0.504471      0.494806      5.711422
  C      -1.827981      0.144916      5.474744
  H       0.530246      1.529530      2.160361
  H       2.624318      0.538250      2.979310
  H       2.826921     -0.360416      1.491349
  H       0.778048     -1.646458      1.929803
  H       2.864429      1.845917      0.233234
  H       2.715724      2.610648      1.803168
  H      -1.448134     -2.071845     -3.284167
  H      -2.926674     -1.459231     -2.509054
  H       2.105242     -0.307485     -0.744683
  H      -1.460910      1.158646      1.109223
  H       1.670978     -2.995471      3.812075
  H       2.758475     -1.676711      4.258477
  H       2.960927     -2.501585      2.709388
  H      -3.826283      0.663163     -3.140420
  H      -3.154673      1.514632     -4.563151
  H      -2.271205      1.545577     -3.019763
  H      -3.988799     -1.298358     -4.504540
  H      -2.534840     -1.956836     -5.312908
  H      -3.256503     -0.429096     -5.884881
  H      -1.174018      0.666191     -5.639307
  H      -0.406331     -0.829643     -5.044790
  H      -0.313080      0.672337     -4.083097
  H       0.770229     -1.262226     -2.560291
  H      -2.802663      0.196552     -0.713496
  H       0.632742      3.807068      1.014024
  H       0.845611      3.090830     -0.584514
  H       2.051190      4.211645      0.044857
  H      -1.392286     -1.622405      2.620255
  H       1.520995      0.369551      5.039238
  H      -3.170070     -0.899806      4.164814
  H      -0.248319      1.092235      6.579409
  H      -2.608395      0.467235      6.154521
  Cl     -5.522428     -1.203523     -2.116173
56
Coordinates from ORCA-job R4N+Cl-_wb E -1372.727156023171
  N      -2.194686     -0.286686     -4.071124
  C       1.238605      1.101411      1.442964
  C       2.071444      0.042506      2.174273
  C       1.277081     -1.132339      2.757107
  C       0.420509      0.509640      0.315426
  C       2.137254      2.243524      0.950217
  C      -1.936170     -1.186680     -2.876010
  C      -1.111038     -0.577526     -1.780991
  C       0.191978     -0.681960      3.714113
  C       1.028001     -0.179235     -0.733435
  C      -0.964539      0.637423      0.298034
  C       2.220120     -2.134356      3.423468
  C      -2.914016      0.951442     -3.664257
  C      -3.058724     -1.051206     -5.013751
  C      -0.928508      0.078845     -4.755625
  C       0.274949     -0.717060     -1.763156
  C      -1.722386      0.098290     -0.730575
  C       1.374430      3.400567      0.321702
  C      -1.137274     -1.028545      3.491700
  C       0.492999      0.084424      4.839820
  C      -2.140986     -0.620988      4.361361
  C      -0.504669      0.494479      5.711172
  C      -1.828086      0.144178      5.474541
  H       0.530325      1.529742      2.160545
  H       2.624439      0.538288      2.979104
  H       2.826875     -0.360122      1.491012
  H       0.778078     -1.646259      1.929445
  H       2.864420      1.846566      0.233326
  H       2.715894      2.610687      1.803531
  H      -1.448977     -2.072164     -3.282988
  H      -2.927211     -1.458469     -2.508294
  H       2.105112     -0.307033     -0.744743
  H      -1.460898      1.159186      1.109352
  H       1.671083     -2.995382      3.811494
  H       2.758896     -1.676891      4.257799
  H       2.960802     -2.501615      2.708593
  H      -3.826075      0.664419     -3.141181
  H      -3.153612      1.514568     -4.564157
  H      -2.270513      1.545733     -3.020598
  H      -3.989349     -1.298144     -4.504023
  H      -2.535650     -1.957847     -5.311766
  H      -3.256497     -0.430132     -5.884777
  H      -1.173430      0.664272     -5.639775
  H      -0.406474     -0.831424     -5.044112
  H      -0.312770      0.671147     -4.083442
  H       0.770007     -1.261898     -2.560139
  H      -2.802770      0.196669     -0.713047
  H       0.633052      3.807644      1.015164
  H       0.845487      3.091939     -0.583651
  H       2.051326      4.212299      0.045868
  H      -1.391969     -1.622933      2.620011
  H       1.520807      0.369948      5.038862
  H      -3.169897     -0.901000      4.164680
  H      -0.248682      1.091934      6.579171
  H      -2.608572      0.466283      6.154325
  Cl     -5.522414     -1.201067     -2.117158
