56
Coordinates from ORCA-job R4N+Cl-_wb E -1372.727156023171
  N          -2.19468626633555     -0.28668627286072     -4.07112371738483
  C           1.23860492705825      1.10141104512418      1.44296394504613
  C           2.07144390655228      0.04250634242658      2.17427290977238
  C           1.27708113008973     -1.13233895881019      2.75710728382943
  C           0.42050908995712      0.50964028916956      0.31542610541094
  C           2.13725423628359      2.24352362207707      0.95021712667612
  C          -1.93616979810864     -1.18667975192507     -2.87600989417603
  C          -1.11103838085801     -0.57752618610462     -1.78099130911093
  C           0.19197815160467     -0.68196037308710      3.71411337866648
  C           1.02800121716773     -0.17923508342146     -0.73343456611542
  C          -0.96453929474106      0.63742319943959      0.29803444631054
  C           2.22012043519721     -2.13435596344048      3.42346828829687
  C          -2.91401569524069      0.95144187394585     -3.66425719486235
  C          -3.05872430446252     -1.05120608004043     -5.01375069569756
  C          -0.92850849869012      0.07884479380136     -4.75562510936247
  C           0.27494852119276     -0.71705955283123     -1.76315594695151
  C          -1.72238561050706      0.09828986624309     -0.73057493992698
  C           1.37443012464275      3.40056727432241      0.32170248420658
  C          -1.13727409732475     -1.02854481310511      3.49169950358774
  C           0.49299938318378      0.08442379501076      4.83982001385782
  C          -2.14098584708691     -0.62098796145377      4.36136130538877
  C          -0.50466870880815      0.49447900753596      5.71117157821373
  C          -1.82808629889371      0.14417758628380      5.47454090862049
  H           0.53032465252604      1.52974226480217      2.16054480120477
  H           2.62443853999417      0.53828751373577      2.97910435474307
  H           2.82687549171636     -0.36012182707042      1.49101221939806
  H           0.77807757912463     -1.64625911824478      1.92944540218354
  H           2.86442045634234      1.84656646103071      0.23332626808241
  H           2.71589415140257      2.61068672512803      1.80353104314830
  H          -1.44897749223965     -2.07216438580081     -3.28298846183792
  H          -2.92721053717407     -1.45846863312948     -2.50829419528085
  H           2.10511203433618     -0.30703346747779     -0.74474256188159
  H          -1.46089828623516      1.15918596834573      1.10935241076107
  H           1.67108330358420     -2.99538173354765      3.81149408385587
  H           2.75889555729176     -1.67689110689676      4.25779869393366
  H           2.96080174748116     -2.50161459030677      2.70859276076267
  H          -3.82607548189951      0.66441900104813     -3.14118107888229
  H          -3.15361168888100      1.51456764140172     -4.56415721840514
  H          -2.27051332533539      1.54573307088580     -3.02059833933885
  H          -3.98934940390495     -1.29814443248288     -4.50402288460102
  H          -2.53565012727920     -1.95784663944824     -5.31176648763908
  H          -3.25649666491921     -0.43013241295433     -5.88477664215253
  H          -1.17343002719562      0.66427228651695     -5.63977530424501
  H          -0.40647360039497     -0.83142366111852     -5.04411175314003
  H          -0.31277029102376      0.67114714868279     -4.08344173946726
  H           0.77000676418005     -1.26189797867727     -2.56013910806644
  H          -2.80276958576257      0.19666893464010     -0.71304685765779
  H           0.63305191818312      3.80764424356396      1.01516365320888
  H           0.84548685137413      3.09193930045284     -0.58365123185517
  H           2.05132631774250      4.21229903665234      0.04586786599396
  H          -1.39196853085668     -1.62293323655889      2.62001071139475
  H           1.52080662667530      0.36994778018985      5.03886172593383
  H          -3.16989651578547     -0.90100046128928      4.16467964135885
  H          -0.24868223082890      1.09193440612618      6.57917072397492
  H          -2.60857229134728      0.46628347814487      6.15432494954321
  Cl         -5.52241394366366     -1.20106658524397     -2.11715788262650
