56
Coordinates from ORCA-job R4N+Cl-_wb E -1372.713157832215
  N          -2.19039395777159     -0.28653764349830     -4.06770401752129
  C           1.23623171541653      1.10049548241949      1.44378851401429
  C           2.07098478813974      0.04224911851479      2.17274868265511
  C           1.27740161711767     -1.13358867272175      2.75347353399623
  C           0.41727668108329      0.50770805554753      0.31792612630133
  C           2.13414522614475      2.24080907810646      0.94725410997830
  C          -1.93595310476814     -1.18764858638913     -2.87456254533691
  C          -1.11269726699324     -0.58037450845377     -1.77747792981019
  C           0.19280648606230     -0.68245419017541      3.70986335431196
  C           1.02613648372461     -0.17671260109443     -0.73300176106152
  C          -0.96813142526932      0.63093426547977      0.30376456640140
  C           2.22141231597693     -2.13329265656124      3.42120596413283
  C          -2.91009753948843      0.95122793902524     -3.66219305185620
  C          -3.04973879417537     -1.04968920820836     -5.01530888432922
  C          -0.92137574009544      0.07980490700874     -4.74833995660248
  C           0.27371278047520     -0.71512185027582     -1.76283189968249
  C          -1.72520507700911      0.09159305483768     -0.72545761678664
  C           1.36777991309940      3.39704565504824      0.32191664108276
  C          -1.13829729273460     -1.01802823688483      3.48197287101841
  C           0.49699467524728      0.07660896488621      4.83968839092259
  C          -2.14128705730899     -0.60738243352813      4.35130886801165
  C          -0.49982630430238      0.48994231336306      5.71061656398655
  C          -1.82538994455841      0.15004657547759      5.46918509075224
  H           0.52905363691766      1.52976573274007      2.16197207971975
  H           2.62275214532418      0.53708701956872      2.97879354054809
  H           2.82529714729937     -0.35873576206335      1.48766825937272
  H           0.77885460061119     -1.64725375634529      1.92557050940915
  H           2.85588179388557      1.84110069301766      0.22689667580444
  H           2.71702750660631      2.60687310202229      1.79771805854131
  H          -1.44906533141872     -2.07305521924208     -3.28134342188234
  H          -2.92686752956723     -1.45885866438642     -2.50722272228059
  H           2.10374664510473     -0.29843141865864     -0.74533125826331
  H          -1.46360234723701      1.14984067225478      1.11724973215467
  H           1.67398876798430     -2.99575644477642      3.80740340063947
  H           2.75572262328594     -1.67234416489144      4.25612181748206
  H           2.96444964860100     -2.49601368564048      2.70714268388845
  H          -3.82295593353275      0.66501121353098     -3.14069486809747
  H          -3.14715774150350      1.51373923963033     -4.56274828717804
  H          -2.26771235353988      1.54521725974117     -3.01744720611433
  H          -3.98266870216096     -1.29731721441268     -4.51081933284515
  H          -2.52444107575770     -1.95527288785088     -5.31142997980495
  H          -3.24276448528306     -0.42667929720612     -5.88555082571477
  H          -1.16602820698180      0.66083429288411     -5.63506894863140
  H          -0.39711621183959     -0.83102392684169     -5.02981690578102
  H          -0.31124497157774      0.67670594757664     -4.07552153116479
  H           0.76744035594862     -1.25413404877616     -2.56412516933401
  H          -2.80567532680596      0.18811723412096     -0.70889632720720
  H           0.63261377163024      3.80492547564432      1.02100084890232
  H           0.83130094715882      3.08470704573215     -0.57742925026810
  H           2.04268874960823      4.20712160717325      0.03828645491339
  H          -1.39374838382551     -1.60514490720905      2.60584220731994
  H           1.52664241952473      0.35330559802106      5.04059086721403
  H          -3.17154139757485     -0.87860454283953      4.15111989472516
  H          -0.24185587533205      1.08163465061206      6.58153350733961
  H          -2.60486056613128      0.47440250899991      6.14852991912023
  Cl         -5.56751320833383     -1.21030548465367     -2.09242457040573
