25
-88.1265397601 converged=true
F  -0.90163079430426629202 0.53065000970119191592 2.61154863038934914599
F  0.37803954518525706430 1.29564219963280313763 1.11369781316799820736
F  -0.79411424433865906991 -1.92156376142257467876 1.86434103800048434074
F  1.08627959099224802308 -1.00051467696940044050 2.37781779864714026829
F  -2.84594467516048998945 0.36958424925571481401 1.33795528967797827669
F  -1.99523357764141251458 -0.71698699251178121816 -0.27685517639574563908
F  -3.34084960279269393979 1.93418187980425693162 -0.41626796553337103157
F  -1.45850810342976111578 2.73601871242593253086 0.21843006473799153611
F  0.07875726985095371502 -2.21117055662406425398 -0.76417034393940641568
F  1.20033334518083423248 -3.04641821930248024586 0.83169994417897874506
F  3.22917116625188294066 -2.01140900005815748131 0.20268947872111101050
F  2.47947930837393659687 -0.02947370554293907846 0.18961590035525527353
F  2.32460215502680789257 -1.27887340027082907490 -1.57679551921528871006
O  0.26158845139606062835 0.20447880361277548378 -1.01511320187985143448
O  0.69229601486338920857 1.45703098413492271312 -2.80514487890612596033
C  -0.50967279917985730542 0.31865044530038910686 1.31731512391487926017
C  -1.80956289063174424747 0.39800762245175452803 0.45324114015668498512
C  0.16057609825240784507 -1.08767983441839999337 1.39277323687481957570
C  -1.99595027664719926186 1.67046230046191146457 -0.43307645336528988178
C  0.87586847720011318241 -1.85855929027758470795 0.24375804797637906640
C  -1.50609839897919450813 1.56085660476412302344 -1.85163314128473022180
C  2.22393353418798955801 -1.24782255672045416794 -0.26056261535054253686
C  -0.02835012244226182629 1.03479013384703999456 -1.90738586921905972638
H  -1.56706491774425171748 2.53787572959092821989 -2.32879955182253661761
H  -2.13274255347009944472 0.84480331913486406137 -2.38401678978715336754
25
-88.1263478058 converged=true
F  -1.59826002032807967801 -1.44601028060088299121 1.79107983475763399284
F  -1.32899037419697862994 0.58762528555843163147 2.44210917713864539280
F  0.75761803251055037656 -0.77538578028029148115 2.66085722606329477813
F  1.11282636486129660192 0.70487917483141204755 1.19433971171267727662
F  -3.23687178227736627179 0.26077855539079036751 0.81166162362468696756
F  -2.11180928331518869001 -0.66228978237669100526 -0.73463901114884344601
F  -2.86794133663276573643 2.40826863967102777764 -0.10018437257477183500
F  -0.80926600329566500402 2.30671735418627132930 0.47315774175417713021
F  -0.02963594185517812174 -2.18102097570391828540 -0.22884828659856629174
F  1.30091977440750827810 -2.62704646692804733021 1.36202675007142093300
F  3.18303550982476934905 -2.23896723806054165351 -0.00777539653894132599
F  2.74312061602205847777 -0.20486385619896563259 -0.39679164168531266821
F  1.95022017627798227579 -1.75812921907984076597 -1.67367010152321138428
O  0.26435247755027091454 0.14856694973143155791 -1.01270204361316373820
O  0.59826919900202724101 1.04844682387131249435 -3.02345048480165612403
C  -1.09066941242463699702 -0.25052242111811451331 1.40613881457313794066
C  -1.99417086028057544134 0.25187337521790054140 0.23960961440928049693
C  0.45744109836628610299 -0.44224670190069748088 1.37181931931588274587
C  -1.72642497638134639892 1.68786675325794366387 -0.31773728968413594842
C  0.95805879365599788677 -1.63868370202073121433 0.49569056845980508097
C  -1.33275762991466151242 1.73542779728933171945 -1.77105816406662830431
C  2.20700453409073515942 -1.41133346620324617859 -0.42396379469739320367
C  -0.01950798887292004569 0.90069562128628610775 -1.97490038337104034660
H  -1.15687357862478568116 2.76976864642329090316 -2.06260240178395148902
H  -2.12448538816934773266 1.30814591375648658911 -2.38510500969307859265
25
-88.1253301714 converged=true
F  -0.73785114852134503494 0.13451762195765412655 2.52206552352596879985
F  0.46435646597205326724 0.89514943522652601349 0.96462776724248844307
F  -0.68414180824010284443 -2.06300655107221508899 -0.12199233980868487426
F  -0.57042275938184550110 -2.14204174276566661206 1.99274091922265861321
F  -2.77781756060000040165 0.68594817096468352347 1.54614879096839130668
F  -2.47272089673686057409 -0.42724834876650996662 -0.23886822475091012974
F  -3.11607320536323539883 2.41844371939887770040 -0.09140502207768189114
F  -1.04710892740397598644 2.74538678758203635866 0.35395137487046496316
F  1.62259424630207504947 -2.95478435424658103514 1.13651767528385905237
F  1.97383894089058764543 -0.98225118013747025891 1.92202190201430234140
F  2.45354083713633830399 -0.03284615133996736380 -0.58005125604818597029
F  1.74126670367268054918 -1.88531036327540624242 -1.47882658801923727587
F  3.44932744243587130484 -1.87349004645605821118 -0.20613292929495630190
O  0.38065066052882789993 1.21882027348175348003 -3.02368531424555975207
O  -0.04778442181607955863 0.00891757638163451563 -1.20522725985510348323
C  -0.55837788516452158127 0.05125011482004505903 1.17184380069139026936
C  -1.89916492333134701020 0.52483854964167941937 0.51636523534488576459
C  -0.13022255763015311292 -1.43604167254853343216 0.91671041811949960376
C  -1.87193806958528408124 1.87039276560245948389 -0.27821188084565307008
C  1.41265941470624434295 -1.64104393678388960076 0.89027283495208842101
C  -1.57484772882185408704 1.75924622819650644523 -1.74948091174096087563
C  2.23661370077602406070 -1.32116059122980478158 -0.39240739407989005949
C  -0.27513126145192079441 0.92075642169734162046 -2.02950313440943652665
H  -1.45943673832678122437 2.75888569253585735908 -2.16612001863182168648
H  -2.40660652004548003546 1.24923258113505153410 -2.23629196832790988481
25
-88.1251027674 converged=true
F  -0.89196478535163792323 0.76171328359571566224 2.47704172633798025416
F  0.27417901322172194556 1.39062562127847155757 0.83025679920601491713
F  -0.66002198422438462799 -1.75137284797128867098 2.08037930248655200671
F  1.18290782222078805219 -0.66658857203599430896 2.37216342540701452535
F  -2.86591651527598356708 0.28025864711116993400 1.30086766946152998514
F  -1.99054656893235160098 -0.87926768333316773774 -0.24546703547950751712
F  -3.37668687215385077138 1.24555799223540319964 -1.07740215106989878358
F  -2.36754248846428572151 2.55935864344947150428 0.30078478207245229470
F  0.12739522917006207425 -2.40505695735555180548 -0.48982518887189552270
F  1.38076566435746261874 -2.89785659947111806645 1.14993545158795895667
F  2.28261229953085731381 -1.48292620907472683101 -1.56026306394362079821
F  3.29957665509746300714 -1.83114394015381454217 0.27498610414128688006
F  2.39302998369507191612 0.05757256153904012630 -0.04171871370488724334
O  0.14469491696297881456 -0.04934841613227231027 -1.14613799580447217608
O  -0.05795583158771991372 0.53964421359205283490 -3.28532978487951643487
C  -0.53026241618843017456 0.39236362125931800726 1.21057213423089859994
C  -1.84904960792702333094 0.29615905907485473580 0.38927973035797291956
C  0.22775598789704104563 -0.94726715499747315974 1.45259651923970478649
C  -2.14677972252906279493 1.50633943325971975113 -0.54919826768086132951
C  0.94435435723274219200 -1.84433696539861813335 0.39983481666460407578
C  -1.16493195945362693067 1.87669696532770147179 -1.62977927495107355327
C  2.22207787697306624608 -1.23772203624280319190 -0.26489321736728121959
C  -0.27697350021563438283 0.66355145952149874322 -2.08546441660230241766
H  -0.48492935727544594915 2.63563428819772838096 -1.24162792269489563601
H  -1.71058619677975420892 2.26997259272477602821 -2.48652942804379195607
25
-88.1247220999 converged=true
F  -1.16107067480798598069 0.44276539427007916006 2.61266131668369316898
F  0.19261320336444617829 1.37449951915846679817 1.28291973546892434932
F  -0.53047151527288738393 -2.08439075913085547498 1.19021594210225134525
F  0.54850760291759814713 -1.14427590958352509709 2.77405162155327511542
F  -2.92623591003094896124 0.13002347161050215041 1.15269228470616957871
F  -1.84881669450195906812 -0.75683154283954567898 -0.44344240877849683269
F  -3.39513392502362920666 1.76603727614745786845 -0.54512183675515768488
F  -1.66152943523102436529 2.68391336547437653337 0.31177241007953426788
F  2.35653631650685113641 -1.94755688245383140611 1.51084707004423490773
F  2.28032354381555313338 -0.00672775188035051180 0.65272185489526024504
F  0.39498942176028717377 -2.11718159772527592111 -1.20774978693767320870
F  2.14550452794198864837 -3.08666868764764146249 -0.52448108330688736345
F  2.34060687341793327576 -1.24216420545141459364 -1.56623472998713286763
O  0.34827395455721266160 0.31916235408631027370 -0.89127443018535579267
O  0.82254078387386708737 1.56906509384674963670 -2.67195610258135962667
C  -0.60676789763879146467 0.30430112763682459764 1.37241507225863590413
C  -1.81778724308856443059 0.30736282528531161384 0.37634816105415014320
C  0.23537171111967061798 -1.01366203985376279739 1.46176471849767253275
C  -2.03603969933767547928 1.61884701731466074115 -0.44515339224794320261
C  1.59759197035186994995 -1.15211447943441203101 0.70609016033653981825
C  -1.41137573644857439170 1.63854906942803313363 -1.81466610197830813256
C  1.58503352063631619551 -1.87405122412340552351 -0.68504459354013647054
C  0.07664249630444089356 1.14071565314549028258 -1.79798875432107974071
H  -1.45215896450950521235 2.65049675369947479453 -2.21497504355410512744
H  -1.97194623067650609549 0.96244715902028232790 -2.46135008340668726134
25
-88.1245247623 converged=true
F  -1.80858803668525491837 -0.96102793535748243237 -0.14445634481457325649
F  -2.12281118043547767371 -0.58392534807702234367 1.91247266531276838286
F  -0.37887539977851319994 -2.11231944429470086533 2.19457571635613213346
F  0.82001279796552661860 -0.34690951564358213366 2.14132706081870249903
F  0.12742088808509446918 1.66892858295253065926 0.80159114808695430821
F  -1.69596118144344276679 1.70370176349760171775 1.88125683245111186004
F  -3.23774601992109944959 1.50266353148290110475 -0.16394386820806250427
F  -1.82821175716782202691 3.12625697327342511045 -0.29032743331331267722
F  0.29120638651999775082 -2.36072737813561506215 -0.71223565475670014280
F  1.41417475946775206275 -2.98699407116231885340 0.97673461525791172022
F  2.45044399319295491679 -1.25890276156160285659 -1.45314104630424445475
F  3.32908330664907481378 -1.76097634245961343069 0.41736595067233805967
F  2.40003945590431744250 0.12761558664269923025 0.21127983613921949568
O  0.58960556181484802263 1.23863557878077679142 -2.90491832085644219319
O  0.26140482491183081315 0.08090812751416963378 -1.03029632113629365797
C  -1.22373410579073693683 -0.37224262101275995551 0.90777532168833696691
C  -1.12128176170746884921 1.17945386534039409199 0.75750379818090551876
C  0.06399159489352165830 -1.13816181933701265905 1.36178627650272998650
C  -1.92359884437667516544 1.77430564694998871289 -0.44245507251492399714
C  0.97634499810051622593 -1.87426481054808502513 0.32591833540927184210
C  -1.56264151838724707488 1.36541413594556093614 -1.84724886619656247788
C  2.27785779357854911709 -1.13777387957996167778 -0.14860762742498875855
C  -0.08103107275469337289 0.85780352122079872590 -1.95227516045041715742
H  -1.70740625565248205220 2.21349413440786380036 -2.51510303770880438989
H  -2.20449722698303096635 0.53760547916103351707 -2.14951680309106096800
25
-88.1244215975 converged=true
F  -0.73594961033545358564 0.44975182556181969584 2.42558759271298107763
F  0.33543324642596217267 1.02959682990298895255 0.70204622020804086091
F  -0.59033861145548471860 -2.16644382753573205846 0.21748828406172410199
F  -0.34112351957658243462 -1.85632339490295361628 2.30004319547240365651
F  -2.86988724738203826448 0.54147890613676319393 1.44811296488535812266
F  -2.45297796632591058597 -0.65205973052282328872 -0.25805302688665787691
F  -3.36678291556853670485 1.78995900888348424829 -0.78527783776394222137
F  -1.89697160688359001135 2.72380954254997398323 0.48168896161378166321
F  1.86685390620171953735 -2.62614861385240772051 1.44646033552755648444
F  2.06857322401101662024 -0.52028407924224162606 1.84275028580583266624
F  1.75285024002641853791 -2.05565887972206118306 -1.31483069209440617264
F  3.51159211673772908568 -1.63244828429897714805 -0.18897794157503855494
F  2.29714645188093546935 -0.00643566649395514029 -0.82197525096277723744
O  -0.18412494974134063774 -0.29588678280183283720 -1.30124015293348205269
O  -0.66375103867677109903 0.32704954287044024630 -3.38603087381890111018
C  -0.58829348370132250601 0.14108876088111815816 1.10635311938706371038
C  -1.97206759608543480411 0.39330127691248351063 0.43131350317433841957
C  -0.03307154901213213427 -1.32323635463691524627 1.08676566299798360582
C  -2.05637148899805666247 1.70061313821259263435 -0.41639001999670482990
C  1.51872511463548542920 -1.40311342751663437056 0.98686609700439331672
C  -1.14946642503418705594 1.86306799540461165421 -1.60838703620955936202
C  2.23713335143477021205 -1.25266694239218034923 -0.38623389775331146145
C  -0.62146814719740428590 0.48825851684340637604 -2.16998235899786440228
H  -0.27238601149833469028 2.43640496205535228569 -1.30743167571534191218
H  -1.68807348388142153262 2.38888667770366147636 -2.39560345804344487775
25
-88.1241139018 converged=true
F  -0.68684542262629000309 0.49263861372511941195 2.70524424778822680793
F  0.29561126262665493591 1.42912865316386161751 1.08167589189927593196
F  -0.78395634147598369790 -1.69057353983194724734 0.22256447520076294566
F  -0.15035037517328628254 -1.71732603376235437587 2.23606252436384256299
F  -2.32448574887816539203 1.86768632505930054499 1.37324839189426262109
F  -2.78477277647846399589 -0.23629552713580642687 1.25338800575739028886
F  -2.31306069574254236088 -0.30005091235237019154 -1.35116474221023818991
F  -3.49977018102601311611 1.38786034612324038484 -0.78200751808548840671
F  2.07872200964240771981 -1.97432484657185569610 1.65226686442682368927
F  2.20476932355915877793 -0.02854746526413470126 0.81297710612277762632
F  0.90819168245256098881 -2.28548718964475972015 -1.41933334877823424947
F  2.66461409081614064576 -2.91667213034269146021 -0.42041500024051414730
F  2.66355372903899789705 -1.02908197203748041915 -1.39945092854192698617
O  0.73856275365374912667 1.53033262855207996544 -2.73143430276881460372
O  0.35057325727572807850 0.15810001423637573548 -1.02094494405420221916
C  -0.52935585516403382833 0.41102784581777795925 1.35235312359943549154
C  -1.94399470495614146159 0.70930605586452266653 0.77451738062604380541
C  0.01435004106810841562 -1.03250918339301844817 1.07140737754921810954
C  -2.21112692012591161017 0.90806979622149119891 -0.74529461300248711630
C  1.53051632807249560209 -1.17865124517372676927 0.69813155958819705926
C  -1.28018800293617740493 1.84099797999664671622 -1.47431853399734880128
C  1.90420433205591366210 -1.83651302243939018588 -0.67862664578257625436
C  0.07907985481584725584 1.11100842915731923277 -1.78771553119419390754
H  -1.07938842201462237291 2.72565084857687311981 -0.87131648889674950809
H  -1.74025121848018216042 2.13678653145498032018 -2.41675235116341191599
25
-88.1240496656 converged=true
F  -1.85632395425855101223 -1.16571358569918603898 1.30581582632611459260
F  -1.21239630351230909255 0.21982852380377224111 2.80122639394746020258
F  0.68239459123460211032 -1.17499585595308131403 2.63815471409842627892
F  1.28459825850286613047 0.45119956154709417451 1.42710576961364199455
F  -0.62505483904454439692 2.11058251092387560988 0.75617262094758452839
F  -2.56944089523306429257 1.60255795717155180569 1.45629980825280358481
F  -2.24942076497180210026 -0.36578834791658565440 -1.04895393491196764479
F  -3.39294067244071895217 1.40822780395632207728 -0.72130121670826508051
F  -0.22159220048230021671 -1.99253347544520931223 -0.44508545883864242265
F  0.96798732839533763173 -2.85293548809106667363 1.08083733079264177057
F  1.84327565533957349331 -1.65509755632034782913 -1.77246481376390718765
F  2.94020774093252557080 -2.53159837864855141731 -0.17322572993674414943
F  2.79652195618471521854 -0.42233797416023372007 -0.27646277123928164610
O  0.88565726862514881912 1.38940897556872955398 -2.75188777498984293857
O  0.38776030857119569983 0.33419382172969186451 -0.85288659763148033655
C  -1.03557363665937396391 -0.11955977694071244499 1.49633169339835392364
C  -1.53966115666461433875 1.12645521872500897764 0.69655812982152998103
C  0.45453476332001074844 -0.59502009176389181189 1.42593029426588935316
C  -2.10369253539790257435 0.95033075801424837792 -0.75627843007606432302
C  0.79770776004011711979 -1.70462701360632684633 0.37278863025739633619
C  -1.31328117796820720287 1.67063649057834773259 -1.81922659187289315064
C  2.10116562268595563623 -1.52500087526851868525 -0.48122763432860088395
C  0.14014185750318347568 1.08421025641616952662 -1.82809388252523974394
H  -1.27704278786735825335 2.73783830010470019545 -1.60659513976537260405
H  -1.78033018683445298791 1.50229924127420444435 -2.78846923503354249263
25
-88.1240146390 converged=true
F  -1.77822768758637361763 -1.40746045556412346933 0.05489235140632628407
F  -1.76530361301431248933 -1.10572122792850535689 2.15063636687826598148
F  0.50785559119692536001 -0.80469490625898210112 2.48595393861473912267
F  0.84039591424684467746 0.58245987584923797353 0.93534927979759197036
F  -1.24366135939032385060 1.68902019133336289691 1.66646476227729589681
F  -3.13959596867439882928 0.72321949534916873947 1.39168625697995840262
F  -2.77797618815899172162 0.62473524297220728307 -1.32764536819202749740
F  -2.95344340055468101980 2.51114095935447467767 -0.31738496907092073052
F  0.26369117451900575544 -2.65712160089066884439 -0.16585860639196997601
F  1.67884169335285937663 -2.49135085054684113359 1.41029307003886161809
F  2.53580237983332645868 -0.11302454089502228518 -0.64439276701813041903
F  1.93789524036574345445 -1.83911971566228360508 -1.80103882419832217465
F  3.32779836059866340747 -2.02780947187909088569 -0.20438986990564866897
O  0.57803087071899850180 1.04968250387749373331 -2.91765107051404459781
O  -0.02489836076113066676 -0.23346275833775198549 -1.20178279800557286094
C  -1.27101715002504045415 -0.59565942207421829213 0.98579700458351493531
C  -1.89597200140999810891 0.82868621273485165712 0.85597132782696205844
C  0.29175697287350249587 -0.62157653585396765994 1.15387400801268702466
C  -2.07117296372622750056 1.48260776214091105629 -0.54640470153446030199
C  1.07179168609479669172 -1.77409203317822705692 0.42934770571164410091
C  -0.84151311412146112545 2.00700846291019097123 -1.23861792072193832581
C  2.20602333729566923992 -1.39235618524690818454 -0.58803695408484579765
C  -0.01257930236563886695 0.82875556828556029565 -1.86658658310050040718
H  -0.20861658145321987368 2.53790188237517932990 -0.52818143506181503000
H  -1.15070352985453938643 2.68079254713395620513 -2.03723220422760409321
25
-88.1239288278 converged=true
F  -0.62881982978004613560 0.43849352603475033607 2.61880262574815292353
F  0.25786548351433979942 1.47107713595820466246 0.99664635901936182716
F  -0.57047633839432110303 -1.62199295112153385467 -0.04805896803487211266
F  -0.10919227144656656892 -1.76405932632008477512 2.00828487465267579992
F  -2.40926176359335331156 1.73258751613867256758 1.41282283152922794045
F  -2.71517358220874926999 -0.39104770322927534520 1.17381169500760496049
F  -2.33109317626363798936 -0.27266111524916869513 -1.42741731860661480447
F  -3.60382217084828182507 1.30370369702403832157 -0.73760335666869647486
F  2.22192432482360313628 -1.39826303242851013309 1.83678400306920175389
F  2.23201947479893325621 0.13170800205826527218 0.36054431298460692945
F  1.59343300071510984850 -3.30817769706283337783 0.05612995680908595963
F  3.37652666595176942366 -2.21051758053848823593 -0.39973529225292053768
F  1.62485991762701154073 -1.94431164542764634007 -1.59754365865941561076
O  0.31028503996966955158 0.32689112637484074586 -1.21037974972503326043
O  0.53635000105054109198 1.85106377961106538521 -2.82029450165884254531
C  -0.51614760244997992533 0.41210382157566860517 1.25973621068620422747
C  -1.96172722927277476401 0.64466460363804733991 0.73510550129564511401
C  0.10186865698477570730 -0.98072293863950410486 0.91604705473684777672
C  -2.28547759182101195563 0.90853467901435291942 -0.76373601636885102284
C  1.64459181703867263202 -1.02532932884474514701 0.66502050318460981249
C  -1.44002643624340476158 1.93635884359390009202 -1.46610269728356779062
C  2.04615519965318970463 -2.12369466910403703608 -0.36225338766278364355
C  -0.04969566621187854194 1.31144731792384638958 -1.88628424954325413232
H  -1.26388140521621727963 2.79253158324275219115 -0.81643790112688430227
H  -1.95588251837741444739 2.26217335577742728603 -2.36882683103149060955
25
-88.1239005423 converged=true
F  -1.77056363046530007566 -1.38749186894144926896 0.02340428588680770750
F  -1.61397771723585159442 -1.12558271438702939271 2.11934879063056591519
F  0.68269644752402913745 -0.71985753302014865440 2.29686181372417363988
F  0.92995153288096776834 0.53080303782833593296 0.61622578068310140953
F  -1.06096115770146393054 1.68692143715803166693 1.60914218976343326162
F  -2.99647036789601406426 0.76065547222634743996 1.57573201834914500274
F  -2.93666303852663856944 0.64402038065719025006 -1.19511550992045267883
F  -3.04004424820735286161 2.51654409071209261839 -0.15095765550285192291
F  0.34120514336658380738 -2.47281984503256690999 -0.65594854168837812836
F  1.22039945792440240879 -2.78781153255735603125 1.25653600599540138383
F  3.20592543981443833800 -1.02695900642009485537 0.76808233622911736838
F  2.50309529207654302141 -0.62259750267978164473 -1.21643220750169933631
F  3.05106314287071134217 -2.61607398008171143644 -0.66173878327068558214
O  -0.15861669061852629037 -0.15972830030306897631 -1.42328477960147914416
O  0.13803585011847743780 1.16765301268276733282 -3.18768084928741268769
C  -1.21228961574047788829 -0.58611174722703140993 0.93317329010115479537
C  -1.83088617349756610508 0.84546191543837578841 0.88562508642451276408
C  0.35240118724959013097 -0.62446545380546791826 0.98074857947328941687
C  -2.16625276501445895860 1.50826656264423708542 -0.48323294531015481557
C  1.03746033719844699128 -1.84878399059334408427 0.29213574258632657443
C  -1.02425661805264112125 2.06286802741506747338 -1.29069699088295863909
C  2.46096756108640457583 -1.50154358865597847839 -0.23304271022387029744
C  -0.26992376107491661275 0.90706590991418922787 -2.05971786016986024848
H  -0.31333556600136885928 2.56977114430560460434 -0.63977986643058659677
H  -1.42375804207798761780 2.76235707272278085966 -2.02432521995666014902
25
-88.1233063762 converged=true
F  -0.43323063331372113627 0.40314348286316459280 2.56770632089370787199
F  0.55858132275087213348 1.11465370416072073745 0.84031851353941411364
F  -0.87300433770482488427 -1.77272579591135914789 -0.04797560351537800277
F  -0.59050002744914009689 -1.87616942898903937831 2.04717425685986631478
F  -1.96341948286668865897 2.00967973954080392218 1.41186656868020454780
F  -2.73613319383939579410 -0.00702469128777875873 1.35404892714741564852
F  -2.56151104148070007938 -0.12099305392496664813 -1.27761124284768956549
F  -3.48119430441424793088 1.67681858607243516879 -0.56760749502955798462
F  1.43938140584358631457 -2.90548304310852989474 1.16317981618730437177
F  2.01982677875575689086 -0.92953346746804610401 1.79613941147907518747
F  1.61397981537620816006 -2.01044817252242857819 -1.53180749607285848768
F  3.31910468114593726341 -2.14506971572076654553 -0.26764575603838069995
F  2.56647488422384029150 -0.21504577957983436742 -0.72920325690343679170
O  0.13048979069005578468 0.04098323991629439916 -1.27127452788540762363
O  0.48980108578352432591 1.38382730070081261253 -3.01317844359582753810
C  -0.42942689964900149224 0.28792338385943749834 1.20573289612816192395
C  -1.82754315207611939265 0.81715221740897370228 0.77807691211999063796
C  -0.15421769147190789173 -1.22458499052320179956 0.93229176598449292612
C  -2.25565627648180377918 1.06467030309616039752 -0.69607290030496149491
C  1.35428775946419666099 -1.59709799841860000669 0.83114761620190846791
C  -1.32983778643646255446 1.90382947348992237480 -1.53447754162552207902
C  2.18274046851122527357 -1.45304243185795756155 -0.48012334743627149702
C  -0.10602341511532939466 1.02552257461002738204 -2.00223120663391362939
H  -0.96194746483288806616 2.75262787726801372301 -0.95966305960335041014
H  -1.86582028541300215529 2.25894768632572384703 -2.41374912762899374030
25
-88.1232980250 converged=true
F  -1.60571892731700116563 -0.96598510527788972180 -0.19900433264115252596
F  -1.84756805555186942591 -0.83141116371635892524 1.89664252811568978530
F  0.35804644858395229257 -1.40341099696096471838 2.37377773442582196139
F  1.22758854418379526052 0.22664289385704627922 1.34804616147794553704
F  -0.34857472764262154019 2.00199895289144391697 0.96717630882709337836
F  -2.19047243993741602708 1.47862621074428246537 1.88277207115978106877
F  -3.46467120257775906822 1.05602150649425663431 -0.29759491290148543108
F  -2.47543357589838119992 2.96744132891922207662 -0.24863519970690101113
F  0.46054159008514239382 -1.92562099779818551859 -1.04346447713917322986
F  0.76361154986254498045 -3.06428715997113121361 0.72931590954413938466
F  3.01898730622918698430 -2.72646487824593020122 -0.61377387922283732635
F  3.09260986156248751655 -1.71015402912093228416 1.26985380142611004040
F  2.92236189764333076369 -0.58922857663462713251 -0.55499449547437018637
O  0.50196907375632227044 1.89431966642890148300 -2.70765023949041827578
O  0.36648312794916493296 0.53634504860331311260 -0.94647159731734320509
C  -1.09984284523042452619 -0.33432232340547790583 0.87265669032320369869
C  -1.40790876068433723489 1.19771677014233057790 0.80000249472213624813
C  0.37338153523255690480 -0.78499030769200406343 1.16230812913287318011
C  -2.23378475697125988830 1.63963686868197311419 -0.44978704440705497003
C  0.98401979207877143807 -1.84376997985133828095 0.18092014291904598422
C  -1.67408019516770312229 1.39890939923784585197 -1.82741143122149796163
C  2.52799064465189804451 -1.68681103811816113236 0.06227428249304056695
C  -0.10314140288563825032 1.27920871787229328831 -1.83477057708211055420
H  -1.97553191527214977441 2.21711046363841379758 -2.48018610909999193126
H  -2.06566056668258823947 0.45503972928176256163 -2.20693995876252202493
25
-88.1232854113 converged=true
F  -1.42067344878995727164 -1.12082078844206889379 -0.31867349789452048547
F  -1.64428898189487959769 -1.03401095458695446716 1.77696054419647619937
F  0.62738382737883890972 -0.96462864051018826217 2.33946918733128983448
F  1.32595492591096575374 0.40747832597796285192 0.88387843178828495727
F  -0.52080143049285376744 1.95973972703843046794 0.91153098955135403170
F  -2.27095541693401559158 1.20435757048918401502 1.85196529684595101450
F  -3.21027230689153775245 0.48361831295504431605 -0.83250928649865596487
F  -3.25451815846148262423 2.44138819176412447121 0.03361031393535159062
F  0.81208265307231009000 -1.96683715960324190242 -1.03790908742640963780
F  0.61011056448346967507 -2.99192313773283657952 0.83924735899920999138
F  3.24923859600072795217 -1.00619736530108938588 -0.37037736756967176710
F  3.11116578974969826277 -3.11557103300888860176 -0.01116810591683632670
F  3.07473491627888995126 -1.75027731603930547521 1.63706093131958607678
O  0.12600342182353149734 0.54275321551481980897 -1.23763186287756177251
O  -0.22527571428348552862 1.16695110658338019327 -3.34734497429656840950
C  -1.00315573716792449943 -0.41676084195581253322 0.74238107298594624428
C  -1.50748629208297102444 1.06611021375046188808 0.73092043486709046274
C  0.52364426522377016671 -0.64996298588448842004 1.02037689968918532379
C  -2.38909033101055667814 1.50748808139671375272 -0.48105232155529431548
C  1.11279839570343241917 -1.87812467840554742082 0.26014268212410796011
C  -1.65077144404911946296 2.08464387361324465786 -1.65767415303601750587
C  2.66500207792693144526 -1.92542145014379650902 0.38440021119598877242
C  -0.46523900243606974847 1.16530556535272555863 -2.14212595644289072183
H  -1.21957458335247559411 3.04133907503049805143 -1.36143346892537886461
H  -2.35081458570522494611 2.23192409214760090208 -2.47898227229003786931
25
-88.1232826990 converged=true
F  -1.61261949303015894586 -1.13731002873985365120 -0.10708181180575676583
F  -1.76409928293636331098 -0.94385426146545692294 1.98970473417865600929
F  0.49087252612855902800 -1.31718182231659519665 2.40238660235712897517
F  1.22536181531953336510 0.27075967805571521385 1.22135916717205983417
F  -0.47350455858265849685 1.92543018459166548340 1.03189073360972183302
F  -2.31173503650122924569 1.30598220278156684770 1.90105256232431907293
F  -3.20610336563653275377 0.59600008416267868938 -0.76472482383056639144
F  -3.06049905757685225538 2.59160267152904477683 -0.00362789039071023667
F  0.41347189394838446130 -2.12800180644428360566 -0.94437017752543850335
F  0.99385103479540226612 -3.05533526955167955563 0.88101107483284446520
F  3.21611661526483105789 -1.51754937576029935720 1.07212635069041795077
F  2.78826639635604767165 -0.50634129962434903938 -0.77151677332783530350
F  3.04947754309800034278 -2.63008041288949279135 -0.75015931847046402048
O  -0.05637938186520966011 0.80216357072980870591 -3.16704877920700100802
O  0.18563427951941727234 0.36262480180980094513 -0.99825924786149045076
C  -1.09934453387808739322 -0.43464514388359276609 0.91251661850321841296
C  -1.49816010116859743562 1.08180630070277605803 0.82979828251602172351
C  0.41206769711268032008 -0.78916634374216343417 1.15207349557244720373
C  -2.28791537102206277154 1.54251570286378969499 -0.43860869249699957484
C  1.03479927376313152187 -1.87676048498262137976 0.20863418486157936371
C  -1.45998177477530388657 1.97365180300832054883 -1.61914669949244061087
C  2.53996248646726341391 -1.59931403928963478123 -0.07552191184942901037
C  -0.33486967189466460004 0.93725362117669674955 -1.97931465553140695235
H  -0.96616320005491651557 2.91339108661319556859 -1.36905203811811793102
H  -2.11330473285059472488 2.11491958066495966406 -2.47905898661077328526
25
-88.1232166065 converged=true
F  -1.24184736437778031615 -1.08896156212878958414 -0.41389514941839167239
F  -1.37203985893991853295 -0.97665152881385086658 1.69371757735511963006
F  0.92832929340804104523 -0.45424202868042573566 2.17448316925835927194
F  1.49167834344495742194 0.48735037211806897517 0.34834231615094729539
F  -0.39525730944837689229 2.03938260914497471177 0.61021491437381469858
F  -1.94021451371096942395 1.28331583839926377522 1.85635975608511860635
F  -3.22551871181874005856 0.36938474352000627565 -0.66612257913555528166
F  -3.31977221473739625424 2.32986167281633749226 0.19013980114958622947
F  1.30870693399768400766 -1.87497800512409340534 -1.03441606201134184140
F  0.42433238547344576119 -2.85235796011400477568 0.68142615694215702415
F  3.18210635305226974268 -3.22146328379552393528 0.19100976201664393583
F  2.60427348075545905814 -2.54488938784903551138 2.13969193646246358398
F  3.51326308781971841100 -1.17884061557424901778 0.75501355426890048861
O  -0.04125134750797043726 0.64363007323749865662 -1.58855087482858747805
O  -0.75448225540951119328 1.24864362724927113746 -3.61203337445376870818
C  -0.82071773849300377890 -0.34662163807992829589 0.61695247325750779410
C  -1.37261399434797137786 1.11752913938643172465 0.62813616341758382600
C  0.72414847211959620932 -0.48838718186616253414 0.83314171336770492804
C  -2.45657335202377424821 1.46776888734186328200 -0.44027794551118393240
C  1.24972982689205402984 -1.85528880340314539232 0.30266243441015289184
C  -1.94617797529270819545 2.08588652103345317812 -1.71227525117515044784
C  2.66691693225440484838 -2.19472202121665382890 0.85915464467302327112
C  -0.79761974343408537091 1.23146840279506464277 -2.38270810595449455960
H  -1.53129987937211842208 3.06720580910820217468 -1.48129518451042963001
H  -2.77289685030331867210 2.18853732049542104576 -2.41380984609019222376
25
-88.1231488678 converged=true
F  -0.40835532347046293866 0.51499373169692330698 2.26326228414109520415
F  0.43037030365568190726 1.31229247709017649015 0.49687585117029298143
F  -0.20124588264869791576 -1.81445775185022983855 -0.30069383881654698776
F  -0.06191006723297759473 -1.79686178547155406271 1.82123853537942004266
F  -2.62944772174930863073 0.49014640680839716147 1.55061279986831168642
F  -2.30741380804792983739 -0.57774841850921399011 -0.25745977388496055216
F  -3.49861849931499024891 2.10785130779007134905 -0.00440440268425594528
F  -1.48767934353818009896 2.82912878426739000659 0.14398253903667901366
F  2.26370608029851494436 -0.34212753779366611440 1.73410067314305194053
F  2.24872806593071894454 -0.32910035325685682572 -0.42769108330838490062
F  2.09041397487957203438 -3.13680961614914455282 -0.40468812872123205437
F  2.21664321460441327005 -3.08838760998424310955 1.73835462606003465780
F  3.80007479315508733819 -2.26714550358942812380 0.55411982833477535504
O  -0.20609848887516366012 0.27802002004775350219 -1.59714700228347594724
O  -0.27251215181428156686 1.58651884017806854565 -3.40014810669753542172
C  -0.38870121699399073911 0.33720365920587308528 0.91071460000336890150
C  -1.86666876492429567591 0.49500890781135120644 0.42098418303941725904
C  0.25483357988015420403 -1.07909229350237723111 0.71299955031539552497
C  -2.21112244444436445434 1.79829762653622493573 -0.36806093156530089727
C  1.80846152027558737529 -0.99737779247691316087 0.64486232406893984059
C  -2.10547914095527533007 1.70642791508674029899 -1.86511740038105444661
C  2.47915676943442209179 -2.40421088460877374615 0.62998402740214265449
C  -0.71005239944071241176 1.13977187976473381958 -2.34113622401059728872
H  -2.25674900347930273981 2.69616112071680280593 -2.29368999578533427908
H  -2.87513204518419618338 1.02405787019187566322 -2.22679293372423270370
25
-88.1225630066 converged=true
F  -1.60209853236637211893 -1.12785939447825378501 0.29367411927233721958
F  -1.53147723873505836600 -0.21645177397331721858 2.20777886363989583884
F  0.44112246816093941826 -1.67301462538991319029 2.22150139858554984684
F  1.24702176880553383675 0.27936619342361046492 1.82154640748971163866
F  0.15993221425840570271 1.65470543008138348817 -0.09805975808348345313
F  -1.03442622242944781696 2.01121018385128946804 1.61742826247580806509
F  -3.21767319735669454772 0.73160047401967198688 -0.16087710461293847075
F  -2.72634292470219818938 2.79331186251275154220 0.13900055964804586273
F  1.83315819909770594265 -0.36706840986919736514 -0.71394158858820588875
F  0.64710984630762746761 -2.20586979993437504177 -0.61700906492603979636
F  3.46644945056813957862 -2.33766081972955852564 -0.33195815648940651954
F  2.24380457426266444187 -3.28144996259277332840 1.15378684178362833634
F  3.24422943338291647208 -1.43515189648360408370 1.59827858738003936168
O  -1.49184426515891410681 0.30682445588218598687 -3.67296598164134424636
O  -0.57268596663072857123 -0.14243206108446931912 -1.69196274836968441058
C  -0.91888290596567268054 -0.21898999946684125084 0.99225740500708059511
C  -0.98629928837336255931 1.25857530756391788884 0.48117090326714739845
C  0.53432708131094108772 -0.71895290432754077603 1.26658020182848751745
C  -2.22618935559098130028 1.63322849967135774740 -0.39419101337871953472
C  1.36213760725503263416 -1.32471291920372657991 0.09555814066549581098
C  -1.94844265583660614105 1.80624040659902673767 -1.86143700383030052947
C  2.60166131649879783794 -2.10656226220310394126 0.64876452081521318593
C  -1.27148527848561254672 0.51663576929646592983 -2.48045836905360328473
H  -1.26323111018867506594 2.64241606962844288731 -1.99851299300503160161
H  -2.88467301808836040777 2.00462317620665286810 -2.38089042977966558468
25
-88.1225612968 converged=true
F  -1.75332051875879990632 -1.17065705086333671225 1.23846745072880848326
F  -1.12654018382726706093 0.19673528299769321714 2.75625168462518699286
F  0.86401949222589979893 -1.02149715661064144356 2.52979269491808622661
F  1.35986725887322768003 0.50191932261960292561 1.14989826139003548100
F  -0.62212052168469655911 2.13898592068946546974 0.68395317323797644171
F  -2.51388452979535070853 1.62024213278704487529 1.50453369788245550076
F  -2.29795636556586657662 -0.35379431175508030405 -1.03465212926817140549
F  -3.49195649185866185960 1.36259177408673326504 -0.59934668391589696057
F  -0.06764228883040609985 -1.91358567510210675344 -0.65252421857558173812
F  0.74802251952229614762 -2.85062691086718178468 1.06584805024053985711
F  2.45491606450152932695 -2.77398920581163865862 -0.99612884646611643547
F  3.11649341838056148646 -1.81682359995795983387 0.80621249355639257317
F  2.65568428299654746283 -0.64597855763529554718 -0.91925822787585831364
O  0.59974790179172876581 1.47026974616821592967 -2.97406054603499026001
O  0.30500069255175543681 0.42188334371788466237 -1.02727546924912638282
C  -0.96941874531917826552 -0.09694771793753524658 1.43950860321855267365
C  -1.53269564776881428436 1.14975183478904963152 0.68081178555965760069
C  0.52754369261734490593 -0.53115161390017684440 1.30329421393748146052
C  -2.18903478568000764426 0.96452325895910906439 -0.73205428707083108897
C  0.81890452448853723322 -1.71287556442701349724 0.32226558823952733412
C  -1.50351147658026462750 1.72585418642256005484 -1.83631867170708718007
C  2.27577912256992798135 -1.69940160937034989708 -0.22771524701398415669
C  -0.04304601808032892940 1.15793100073005494899 -1.97623671787476440365
H  -1.46458093375789810686 2.78812848767532717176 -1.60206044652081791568
H  -2.04506846301182543257 1.57107368259556179346 -2.76814420586147091896
25
-88.1221293944 converged=true
F  -0.86965873863703846425 -0.98108766335263608571 -1.01617722355897388553
F  -1.50779705046821588255 -1.37938397161026782278 0.97423128015488569265
F  0.77382382844505048780 -0.16861904072877209604 1.99726702159525171254
F  1.57951799942654491637 0.05209558518122327231 0.00997226376028281791
F  -0.37724860153152683928 1.83177309213416328326 0.62280952294258395963
F  -1.89262214942783590921 0.84030821945796463357 1.73340961176737029525
F  -3.01533156244746702868 0.30364230733648589489 -1.09606058476800360957
F  -3.47054939283377583692 1.87651259109799983804 0.28273423308966805223
F  0.76187618999037387546 -2.84868421491116441402 -0.26305408595191215326
F  0.65122561338804185738 -2.72728443594860570087 1.88890985161828073302
F  3.07050111336628850367 -3.48637504868422354321 1.25650121416633320237
F  3.23833583097213884017 -1.41319453056186739026 1.77306804174893528625
F  3.29754088068582840165 -2.02078496761207970778 -0.29150616458078859594
O  -0.00959106190278294357 1.16931997171668489166 -1.81712388069644692479
O  -0.77440989478544675073 2.35735358230480507302 -3.54247360079525464016
C  -0.76154445670472736829 -0.51929090950908296520 0.23093387610304552671
C  -1.34488830670080417029 0.90990546695570384550 0.48726118652113170615
C  0.70732623635314495480 -0.65301558051352337486 0.73779771339582855827
C  -2.45451277810863910389 1.39184101882937505401 -0.50181686134574832181
C  1.17709420410183329686 -2.14042544397334921769 0.79803654349101682541
C  -2.02455977052475377675 2.42857531636398205066 -1.50139082516610300466
C  2.72950249335291683650 -2.25687042248668401356 0.88289472482683617471
C  -0.80781025270863504595 1.92914099535809535624 -2.38801539901468817817
H  -1.70562424349308328075 3.32491301459355925729 -0.97029308823679794038
H  -2.86539412980736463155 2.66219606856226409519 -2.15285337096671502977
25
-88.1218290986 converged=true
F  -0.91346310615696402202 -1.39100355230319605582 1.65721678963713747734
F  -0.86303022384065186667 0.66825775676050935825 2.28632276311726867490
F  1.40732958833004762056 -0.27049880156380778917 2.12902991476899439149
F  1.29084442303068769320 1.11306684162102120794 0.52618056593069895133
F  -2.95869738470808130160 -0.01644187052152527515 1.03453770028950642335
F  -1.99640280479135778791 -0.72546140630026156870 -0.71783249217345990179
F  -3.09988277863182926097 2.19905179251950855246 0.23774031158677685904
F  -0.97185651099818426424 2.40863667819477456078 0.27347941285163401837
F  2.23085862297787507202 -0.72729377850248799753 -0.94104725068350747463
F  0.40291707887271299704 -1.88176534071874468346 -0.66262407004040069225
F  1.48687945577611890791 -2.84469150743543019999 1.75200027653384582393
F  3.30744609073957684942 -1.79842447358598334084 1.28358572522856495546
F  2.54332637749131862392 -3.28175782070895571962 -0.05768781964061701212
O  0.04175075536567010581 0.51593287420839462065 -1.50442290493005037533
O  -0.33726814972224122835 1.38234612603841511280 -3.52532933758019462189
C  -0.68602706362454424216 -0.13032103764376179456 1.20927949253409017238
C  -1.86349985584328825539 0.19900665297175762491 0.24339632725171814198
C  0.84204841137895325431 -0.08297585937426434077 0.89684634967943599460
C  -1.95873157682114662492 1.66393067268198113773 -0.29430549645641124190
C  1.38398188736293636936 -1.22110029867208602639 -0.02690197540062649884
C  -1.95405829406858089214 1.77867006079395850726 -1.79421912621656254316
C  2.19182941756506632913 -2.29998760731529694468 0.76711702788443381085
C  -0.60814274122066724892 1.16612160732686143128 -2.34643518719258281635
H  -2.01685677632978421769 2.82824493418590616756 -2.07662567177382051398
H  -2.79609284213361153348 1.23101835734267628375 -2.21423932510586762845
25
-88.1214351115 converged=true
F  -1.48242118071467410267 -1.30991443889615610807 0.37171584405904634085
F  -0.81023840917779188509 -0.66829004271709424589 2.27239448638589935925
F  1.34981084704876908020 0.02842263064729724439 1.75698358895898931742
F  0.99476166116460307265 0.90905639029100315796 -0.12935527183859779621
F  -0.78627373524007504457 2.04597815113353531657 1.21707743544586133311
F  -2.52746750480230453206 0.96677717225703962978 1.85785230652661570439
F  -3.19599624254739245188 0.37806545936055563351 -0.74921027377450444273
F  -3.21432122862803071328 2.40351505399926734796 -0.03704957082590767947
F  2.04797210090531400795 -1.04325600859369638229 -1.19850610247244127038
F  0.53010404141901368291 -2.40319852454071547498 -0.45656782009519603083
F  2.93121693610849920475 -3.18928238594413615559 0.25193202164633332618
F  1.87582216108428445622 -2.50621848612932929257 1.98666396508913845054
F  3.44508334350133882396 -1.30558421104607802476 1.12783720882996840729
O  -0.50698572517706808060 -0.29117451313282610714 -1.64593135215866914756
O  -0.89289388072025710485 0.69433623017774304120 -3.60682469519146486903
C  -0.80941655493848840841 -0.31641471197051473929 0.95379033844733673853
C  -1.60023065792872021262 1.02600991240347716449 0.86874763219268280601
C  0.70763498832222859747 -0.19273443100584811138 0.57423276168238412964
C  -2.35923088709254447082 1.40316817354774969751 -0.43775132913168479654
C  1.38226048834287196243 -1.43447021756394210712 -0.09983562036848804555
C  -1.54513247405927423017 1.86213443094522501653 -1.61619050927788521221
C  2.42898380647635425689 -2.11089741582085599347 0.84434977735702010371
C  -0.91837307247817245859 0.62581870587671672990 -2.38046413747065566113
H  -0.73923026440386752078 2.51597002132549318887 -1.28600090188419868831
H  -2.20023655646458360380 2.39474405539608881099 -2.30482778203158744645
25
-88.1213589038 converged=true
F  -1.45967762171928239212 -0.98863672655678713763 -0.54096756784479227420
F  -1.97740748235581254022 -0.89348359165717750052 1.51435296983513656421
F  0.01959887393816031609 -2.28770662226277199380 1.57566672346874825372
F  0.75931478270098684558 -0.34527649486177652838 2.12725707617451575970
F  0.08580361340496975298 1.68723851173381445001 0.57945134380251439588
F  -1.51621886172214548338 1.39990679308763654731 1.94383963133813275626
F  -3.38576778756202267928 1.34394608551333316626 0.20979255818024991620
F  -2.14006132871421161923 3.09652897055259401782 0.04735499222424419119
F  2.09591585440610028712 -0.06751784907715319139 -0.14427290231480691118
F  1.02772870550640127441 -1.72067596578427406406 -1.11120599701580147212
F  2.82778067858871340334 -2.02104366601958140848 1.87554115913738250754
F  3.64442646672472658764 -2.14467497437792609105 -0.10189128116903535537
F  2.09180814095259615115 -3.49400799866678424266 0.49737147280176885467
O  -0.24844332637786056828 2.26427670955166071565 -3.15595129926949979904
O  0.12291448690497810969 0.65456918333407609900 -1.65682392326022065454
C  -1.05939146874725298453 -0.45049710821257465954 0.61482625672562252195
C  -1.12015835108723771363 1.10622878706821636818 0.67013200056938559968
C  0.29935596077706394524 -1.05860731070316926861 1.08289833672911961493
C  -2.17061147496062689655 1.77121265656413995337 -0.27118415147301777601
C  1.45961182338654049673 -1.22775985047418112472 0.05796204350370995351
C  -2.07555805057261411051 1.57139656810044692214 -1.75706839249888147059
C  2.52287417776473388287 -2.24195362565277456213 0.60153657306393226722
C  -0.56998048426151770585 1.49899527431671719668 -2.24774542418386680254
H  -2.57790424491965097786 2.40171061182319833804 -2.25194240966568237639
H  -2.55075108205573730658 0.62839263266113210005 -2.02386778875884765228
25
-88.1212696938 converged=true
F  0.30883939696950601927 0.85571563166132968981 2.14429160608411439881
F  0.57709438470632001827 1.44309888576982370267 0.13062534067798242665
F  -0.85034269594939293491 -1.60884259995705791724 0.14973228066261143332
F  0.30648887994663165379 -1.46197256149875687292 1.91412384196712137552
F  -1.68984732454469765983 2.18880084535485908148 1.42249243022808569137
F  -2.24292399802771180717 0.13059724797716695810 1.76186614679793907001
F  -2.86769200903689913673 -0.24066571757686539001 -0.77159282279161500728
F  -3.65075335020969227173 1.60133268263614492177 -0.01372109143047382102
F  2.13293926486567819722 -0.26019236434957904169 -0.65314147622823759409
F  1.19760197185403316489 -2.16177240705834572410 -1.12046494022839882021
F  2.08399873910205579719 -3.18796453569885551715 1.25725738601765701929
F  2.88862840970601464363 -1.27008932370140881218 1.82060145545199159045
F  3.63586046740990731507 -2.28810526565480865102 0.09054011823160229566
O  -0.63815453678449984842 1.14404809734940093868 -3.53380160868229031834
O  -0.29036707896022612152 -0.01269404878018750085 -1.66076868031202495857
C  -0.11803196874554405804 0.57992503702713338321 0.87751423050736343523
C  -1.62984428788063717697 0.94835261676346238602 0.87464625578322230393
C  0.18701019233292806576 -0.93989939311941184119 0.65918137286081135429
C  -2.47754351994611843324 1.01185026434953484475 -0.42874628145994797546
C  1.49057558520510724520 -1.31220694314909014366 -0.12554335993690260431
C  -1.88442610236367413812 1.77089303032203448929 -1.58427360620770274480
C  2.53465965405774396046 -2.03119939083444078776 0.78933140465801310270
C  -0.82623872176152768354 0.87493811006930977126 -2.35002013407102827713
H  -1.39285750058973945009 2.67699330880072494665 -1.23302952999675863310
H  -2.67947185135558241242 2.03161979329790431947 -2.28203833848311532506
25
-88.1212376532 converged=true
F  -0.79929495827870944424 -1.07696351974433079945 -0.54134334556305796493
F  -1.16252476279535121861 -1.23614004513148256770 1.53346348136318644251
F  0.97592348279869267635 -0.61615819436963203959 2.28336956762840337376
F  1.37425437605620226478 0.98272032872213543886 0.94759805595078594465
F  -0.80357626074763377488 2.01694543749249888265 0.94799791821990564422
F  -2.30999541238331795867 0.76371790650496806929 1.76392689352503095890
F  -2.94453433061227398682 0.02189574078769265103 -1.02240253654370394365
F  -3.56555619134642842738 1.80028142407520186374 -0.00464261453322474538
F  3.09168103461909060670 -0.75625943529637773555 0.39234261527164726591
F  1.64626992864528998162 -1.20146969791353996904 -1.14125052471950128030
F  0.54569548797243205840 -3.15105756307967466157 0.74312729991185300094
F  2.34115685272498819103 -2.81006623379580933175 1.87081701419999824054
F  2.46289602036825217013 -3.44977343355360410726 -0.16798172694667104499
O  -0.17898378287354027583 1.78869857605212057017 -3.29347642713530008862
O  0.23168543113219441931 1.02100827050168740939 -1.24240573125884656847
C  -0.64373871724575282283 -0.38796643992710899695 0.59799088529249277979
C  -1.51509460112161464806 0.91376161661117294432 0.66584844936967857443
C  0.87319747637146583052 -0.25171629841856124621 0.97604801624118930903
C  -2.45750369601878349002 1.19844103861591055882 -0.54825983121729837677
C  1.83214091780363341755 -1.19620834554717991871 0.18196734901170885657
C  -1.88252817840646624603 2.06439179400770678185 -1.63531810570818869621
C  1.78393635250990056917 -2.67658963238687475084 0.67291120584139341165
C  -0.46503153708594846538 1.56900195261609076702 -2.11830360110759396974
H  -1.75738886133743177353 3.07502632585534652065 -1.24546273293946674343
H  -2.56788407074889946102 2.07703942732165813823 -2.48149957405436483171
25
-88.1212145667 converged=true
F  -2.38538973909417251207 -0.80530270298796857720 1.16728206772494536025
F  -0.80111678523611318248 -0.37741955439978247533 2.56825562854767364129
F  -0.63734151837566266341 -1.60895135848784409660 -0.69875010958971595088
F  -0.56427934154330483540 -2.53142737167321252301 1.19851688881923412744
F  -0.09926523353650598680 1.87445761910196440070 1.08497430105251235766
F  -2.04450283077690508904 1.67017014978226940869 1.92304128145293096175
F  -3.30015710840602638498 1.34469848848964668164 -0.19028351422740441556
F  -1.93433019006518236438 2.99786160731351936093 -0.37729552604360239165
F  1.68124498222610885279 -2.14999501961323202792 1.65591262813195516657
F  1.61673769877912731907 -0.05166136395770185713 1.34788011114813066627
F  3.04673971916048724751 -2.46142759449591075338 -0.24211113831749322967
F  3.04068243872962717944 -0.38047182961482989283 -0.68318961647879117294
F  1.62966585661505702909 -1.71589445803560103343 -1.62879915731287150393
O  0.58846786841350129382 0.50314629849232295200 -0.84463160853691943153
O  0.58361574673324168039 1.59604477584328297013 -2.78714982072707329053
C  -1.12733532252371571047 -0.31021892713007764852 1.25597045047667821294
C  -1.24450874546889167505 1.20337298099262701712 0.91111110869359024367
C  -0.23105204315131358528 -1.37590213552981310841 0.55245310814638837194
C  -1.97718829437707199759 1.63383042490833263471 -0.40024794505556748891
C  1.31103839985375003607 -1.20845173498747260332 0.74938234821867988344
C  -1.52380545908668429966 1.11174377694091042201 -1.73389027697498199210
C  2.24208176100265976771 -1.41537869448113062809 -0.49575899244051957471
C  0.04625935448944090700 1.08167242891671011584 -1.81337778094637425141
H  -1.91896398788129562973 1.76229652474162890030 -2.51360457007215565284
H  -1.89209522648011208013 0.09576866987134652343 -1.87062786558919613711
25
-88.1211914098 converged=true
F  0.28873540220391036293 0.54031915436509969641 1.87591318362028247613
F  0.74039757353068658130 0.80082298041862676197 -0.17352279415786428518
F  -0.75872433941514882960 -2.05711931333220343632 -0.20542746779401896418
F  -0.25249069723219985661 -1.81396142958871742223 1.84797019712870724817
F  -2.00241085296533594118 0.99173150721258040985 1.76167595753648442702
F  -2.45586660080928220751 -0.30107251204213680840 0.13870472209385889539
F  -2.84019558928167947798 2.64683767892812982225 0.23439689978114844338
F  -0.76747156100719515770 2.76221657331961134574 -0.29178173259946521556
F  1.89779684947310478549 -1.43281967530687026624 -0.93956786208969811369
F  1.53514427444735312989 -3.16287311720059749476 0.29699755648539472030
F  3.73402839838133937533 -1.99036871132295467568 1.06321195588161465651
F  2.25295610073748520108 -1.59885774646891798412 2.55920186869228150073
F  2.85588776102549823932 -0.04252436953041965895 1.20590164578659098105
O  -0.71370282562105380464 -0.18160688347987760660 -1.82180439892158063664
O  -1.05834900598861558763 0.87404995016678077580 -3.75437274074853721828
C  -0.13316368196753239350 0.17928637751336590211 0.62695706668762973823
C  -1.60962925732476369589 0.67948190256024343370 0.49466770892986278163
C  0.05259242382415779682 -1.37258647933991140277 0.60148702408047893808
C  -1.84574863620479412418 1.94080016879397776464 -0.39616589089605591667
C  1.51455695376662013985 -1.81185586462399417229 0.28717659065279033115
C  -2.22951678368758532400 1.67041468877693199957 -1.82453179224803929692
C  2.59870955623505173193 -1.33996049302560660266 1.30338336248879205215
C  -1.22229213698023242429 0.69030903324106374086 -2.54912622044818482081
H  -2.26407536669165754262 2.61383212046809809692 -2.36746926413289582314
H  -3.21196595844808507891 1.19806545949770715254 -1.83881357570958847703
25
-88.1211158972 converged=true
F  -0.27795922574102244207 0.63530770656041091193 1.90216532190025455762
F  0.46203808323568407168 1.21834036752354957223 -0.00984574354877475189
F  0.60644426896917802416 -1.49000136428556273493 -0.77745136456295771410
F  -0.43989668812378768248 -2.03209035615348154735 1.03012207050095061511
F  -2.49126086817838654497 -0.06370951808948088768 1.24218551901395102277
F  -2.03626582901015540372 -0.70918058789782678630 -0.73757992750572842766
F  -3.67314167975165206670 1.45060153750787113047 -0.51262060702238276821
F  -2.25089300811231485255 2.47058022027775470164 0.74722608054214645357
F  1.46707627650211813730 -1.31443427923862410367 2.59088074048108385483
F  2.44585524575553980853 -0.04985620001641159760 1.14113262490355027445
F  1.91496875198497051862 -3.49748636893325670627 0.72437055340392930702
F  3.57942003387781726431 -2.58790267562768816489 1.72319612770937324875
F  3.20068568282182797091 -2.13409388426351087631 -0.33736565004285334890
O  -0.41272561578278055272 0.45699349107920900215 -2.33214578813906525667
O  -1.96763023346146592729 1.25255640667033940616 -3.72133079692489321388
C  -0.28635444194361375780 0.28874596868392721216 0.59036975158565896393
C  -1.77625118617231247953 0.27818000052951930012 0.13271827941357025593
C  0.38673974756245343976 -1.11372308470765357669 0.48620723751676137026
C  -2.33396389299725592892 1.64845025526096744528 -0.35403124707379340919
C  1.73053432049503852497 -1.17729686901064178883 1.27943288097968999040
C  -1.73281408865478070425 2.29732489865164657417 -1.56714911820374158680
C  2.61871959456020508838 -2.37690924766626832110 0.82903115255607562339
C  -1.33208883545651524116 1.21849433604907431139 -2.66688930313759708923
H  -0.82870426788209039515 2.83090093461005087860 -1.27937050130182838892
H  -2.46733014449669196821 2.98276931248603771607 -1.98819629294340805004
25
-88.1210659098 converged=true
F  -0.87977201094219603661 -0.24443402826543095263 2.07814710207593655866
F  -0.05191183479401678680 1.54352332510537681998 1.30662871932854152135
F  1.93266479639236421484 0.04015894021638491407 1.42689418405106094312
F  1.40658585315476503119 -0.43548282074035304934 -0.60637487006929791100
F  -2.35069764149315618695 -0.74286558943415170742 0.32461933079319060802
F  -0.99993490735973922234 -0.39910728211788260023 -1.27971073253441303130
F  -3.58900223356514613826 1.05477080519751997834 -0.60329689213036774564
F  -2.30486484410856506955 2.27808827309532269112 0.59376337516164845454
F  -0.32238883739710189058 -2.52334619640147161945 0.62125835272104901197
F  0.87913700722450582870 -2.14195825329606881482 2.37856978459661849712
F  3.18182454090360922194 -2.28649406336118055094 0.60547796123552555247
F  1.81244497468386156491 -3.06387192259794050031 -0.86336808272223664051
F  2.03642976208563641904 -4.04763951922633147262 1.02707832972454027320
O  0.39388246876575128130 1.81655334226863951486 -1.07602801280157889252
O  -0.03132732963374310065 3.62221135441449915149 -2.31333185386879858214
C  -0.35694804313300149134 0.29622782264057462287 0.94041911959866131276
C  -1.46711553094402247233 0.17648868812532800265 -0.15715672028076665967
C  0.96589895502756661916 -0.49426565113011661223 0.65473201570890571244
C  -2.28430539844253388537 1.46700229360536393841 -0.49678609474264517898
C  0.84342939799072647045 -2.00352998796566961204 1.04285822999232080655
C  -1.86899731113557554529 2.19501695053873691066 -1.74454472073914290675
C  1.99675304988317336985 -2.85815659741734640065 0.43395910693657363533
C  -0.33943538073021845003 2.59589003051932243338 -1.70731695319067044991
H  -2.47382340934950573086 3.09480861385204564229 -1.84751158537947146598
H  -2.02332409308340954723 1.54297247237484125293 -2.60391709336518051288
25
-88.1210337733 converged=true
F  0.11506595518633147557 0.81498311598571682168 1.99411959666057891916
F  0.50960421062056004970 0.98729467802426251755 -0.07479645735822336439
F  -0.81501375920726792934 -2.07245567759202975466 0.50588909404641158041
F  0.40121949648259680465 -1.50127123758234248818 2.14352763768104637165
F  -2.19748279754411157683 1.09959565167890671589 1.82842739265917564317
F  -2.57064712267551165326 -0.39869123480223539469 0.37441732883016487499
F  -3.39936057902769084293 2.03194375016668615785 -0.28950531571483090199
F  -1.49146074063216649286 2.92213437566899125741 0.16397034998234213954
F  1.59961810484950861522 -0.98861577217373497461 -1.13406616551957584171
F  1.44448884919866293863 -2.90619178540498523944 -0.16405617717910403464
F  3.80988175918924332208 -1.30601041937859996267 0.10415086016693878013
F  2.92086205096962769900 -2.13223920624598406448 1.86684675583076287175
F  2.69485862276889553968 -0.04037208007672020427 1.42667367667400890596
O  -2.03271417633273676628 -0.17887382581993879760 -3.34921237065899113361
O  -0.89316986085251270922 -0.58476562559359046567 -1.47705283861841785154
C  -0.25744293098108866902 0.30074256259388254531 0.78842088511520669325
C  -1.77055327268722884071 0.64989648973679992050 0.61164154693303185439
C  0.14757613591800508579 -1.21296855688913707283 0.83585243230842887208
C  -2.05802222250967670192 1.80655722458534206964 -0.39724285216212040783
C  1.45550727897292753177 -1.57677943201810544238 0.05754910177658778547
C  -1.65454722548967914086 1.64667670581841885102 -1.83917793658288419856
C  2.73873637906022393551 -1.25473865213493551707 0.88810779408472007024
C  -1.52506975689074031344 0.13462010627793022377 -2.27498555807635538528
H  -0.67472823660284242386 2.10174333004556146420 -1.98383628209662599140
H  -2.39200416178332497807 2.14034651512977891485 -2.47060049868235509507
25
-88.1206307018 converged=true
F  -1.26224954455960203248 -0.65671641183271733944 1.25928301799859676535
F  0.23730045756662374035 0.86773577466575801953 1.56416239447319882494
F  1.74293923025562946805 -0.57383715458941153553 -0.54908310355888789722
F  0.28410485052506684323 -2.14015680453252077342 -0.23144342652464044985
F  -0.79190783723196245258 -0.10108944213541114221 -1.62999140949623644303
F  0.23202060572239061043 1.66842071792682156151 -0.89139304561159216078
F  -3.04484885003017291538 0.48730266877670463943 -0.39795984604838396947
F  -2.12147129610805329492 1.93761807594644963615 0.89727457680604139068
F  0.83142521215577114280 -1.65259604243864788309 2.65929426093799570197
F  2.54711902473787121792 -0.56354191548553811408 1.92160922358754371331
F  3.28209449283390464203 -3.05063024558908457706 2.36027928786937657435
F  3.05943351596627133304 -2.87381856896013809788 0.23335322552032267129
F  1.55475174229797530323 -3.88108529860318407501 1.39691181925044793921
O  -3.31310872585334248441 1.35959972149067009894 -3.26150506662108696787
O  -1.22144001843632654669 2.11409424723817318537 -3.44035162023438445544
C  -0.24403678501964473635 -0.01100504395393816712 0.66543410136676350852
C  -0.72521419734062675388 0.76641321330526024358 -0.60111349940521874302
C  0.85880888044115277768 -1.06400864502914038745 0.33442982158947143212
C  -2.10178073474525772824 1.46500077076798773668 -0.39796664411844795417
C  1.64924251223679485534 -1.51044705459190153896 1.60366342491342162013
C  -2.39110366491053127902 2.55177181215095050248 -1.38716177779904170642
C  2.40130034494691013691 -2.85944424135617492055 1.38563155242206392792
C  -2.30110821753539340762 1.94408315909983087089 -2.86526840845737673646
H  -1.65423658574779208763 3.34513747488664758833 -1.28030634367863171974
H  -3.40283241216766496606 2.91376023284256735479 -1.21272051508132316933
25
-88.1206046879 converged=true
F  -1.20110574993601693095 -0.90958855614252254185 -0.59549566850339641366
F  -1.63591333365108226872 -1.26025941491658599602 1.43905430062368644428
F  0.57189208912983868771 -1.50963918622264436920 2.05679353366053474517
F  1.12872327450959586415 0.47126999792941259848 1.56224864590746781445
F  -0.72831915874005503930 1.95784845462690504370 1.21650184947861439433
F  -2.45082315984129106567 0.88733007138265329594 1.83855038372898738075
F  -3.46591963457824281392 0.63543725651848947944 -0.50716909770466356289
F  -2.95471475445237619084 2.66581354144849091981 -0.00704011118048587792
F  2.61429153406372449808 -0.35981069700106044218 -0.17479308502649115731
F  1.04498207915831331505 -1.35365732879861599969 -1.28385560373343188267
F  2.83501527479081971705 -2.53354149528484473564 1.47436764707760015192
F  2.93809166716973102496 -3.03115579561419545840 -0.60414342564233358690
F  1.16089200999257546876 -3.48098877034697729016 0.50334370091232083499
O  0.35232315729576391128 2.74707634997964333934 -2.30178442614935718780
O  0.40419659937885588086 1.07765326571942487988 -0.82689114813257413861
C  -0.93073657639560847255 -0.42342683545463594141 0.62557569707515325863
C  -1.56593090369292764485 0.99622378734524130728 0.80419738252879591212
C  0.57624426061085065598 -0.61805043534353365509 1.02495489061726496871
C  -2.39832027169990791293 1.49061844297573409257 -0.42135697234533758815
C  1.56256526990037714064 -1.18534726324434203093 -0.05929434206902126081
C  -1.71451978564496521074 1.66059669755471706054 -1.75278720994632664087
C  2.12983677239982860385 -2.58284395102365937902 0.35162298622057347464
C  -0.15734870061648631445 1.86501891047354173558 -1.61631742368412689714
H  -2.14563641682570294122 2.51867249509803636798 -2.26690796127738414256
H  -1.86456354232561993811 0.75731145834136326389 -2.34431254233602937020
25
-88.1205075499 converged=true
F  -1.60835639716910949737 -1.24940872615476350482 0.95116594559937639453
F  -0.52068970759272248383 -0.06200187939438203677 2.37723356279386388579
F  1.45430114007664501585 0.39806212072599506113 0.33006944861470982611
F  0.42761682242523574304 -1.15371054184306842672 -0.81844737439377990285
F  -0.55815403009088560005 2.09582028891900584711 0.55215716322891716938
F  -2.31795833303995113539 1.40858896243676556814 1.53234290833100050833
F  -1.97682624328042377826 -0.23298108411646983873 -1.37847240361383072127
F  -3.55669838223842971203 0.82103386848033388379 -0.40234983855456218915
F  0.46171110222446648530 -2.63189398071196567486 1.76322774342891142041
F  1.91297289823330540770 -1.14100552043641667588 2.33815055113032777001
F  1.88360396579412991969 -3.35039049761089069435 -0.37895349140927520049
F  3.18266798871912559576 -3.19872136912430482525 1.31760660641759774769
F  3.22485976539232499505 -1.67436656954539953013 -0.18858685751044995671
O  0.18596945540480852577 1.28317141951821089840 -1.82266511191288849147
O  -0.38146901362659157986 2.92316567962869378050 -3.22533686766324967365
C  -0.74272336459992338575 -0.22313885663513852164 1.05099307948930809076
C  -1.43469029873810716147 1.07940732354247881375 0.55026063676137726421
C  0.61286253414932190253 -0.64289737742886976513 0.40593847696921026014
C  -2.24518332216387461742 0.95753475734783688456 -0.78152883215371093950
C  1.33077594891813855149 -1.72841860654036638678 1.27885419894819030162
C  -2.06360787427574488007 2.11511914060757799660 -1.72269241761855318451
C  2.42586899166807068440 -2.49533934884860242320 0.47865767954422899777
C  -0.59055191109986937548 2.10864440327542013165 -2.32477952227899731241
H  -2.22992924652920754269 3.05676175970093177980 -1.20279192589839323269
H  -2.77117048856073378005 2.01952563420738018252 -2.54499135814927868182
25
-88.1203943060 converged=true
F  -1.31658885905419698048 -1.07646332611658168688 -0.00638412923519991737
F  -1.22318697681506671771 -0.68232115465158005296 2.06147023089953895791
F  1.07309471793829569464 -0.74189014493095861713 2.19535288804758810244
F  1.43119555979262735868 0.83786438243862748632 0.83443379389480720754
F  -0.49100079590395767637 2.21413074958133826442 0.61618035071631271915
F  -2.02551182680745833764 1.48359984124119437254 1.89039267591582005323
F  -3.26807391171362038307 0.32370714549473594834 -0.46444254392984407609
F  -3.29080729698780061199 2.40373771734459307226 0.04142277889336831720
F  2.39581444785867336833 -0.67276088014213508703 -0.79689746370047187529
F  0.69114478827897185553 -2.00401247410615690470 -0.88449775300074395812
F  2.89646428839359915131 -3.24448124131971571416 -0.13264886610787285370
F  1.49581955157055079830 -3.17837164611932143643 1.48638271059179061240
F  3.23983483292498375405 -1.91343802020968922761 1.50688021614369760393
O  -0.59977593043674404250 0.66166460923128211924 -3.42385459972796812878
O  0.04984790478814266068 0.52794273363474042426 -1.29814948295310594872
C  -0.77723750721088569193 -0.20889511490026474450 0.86020139314618682125
C  -1.39578405455526288748 1.22701174559682835152 0.70805312691982535966
C  0.79111931683848646379 -0.32959646050420904340 0.92687937690165755900
C  -2.45877542567138496210 1.41396936340309919977 -0.42251228733614243360
C  1.49900098664392511516 -1.33675185699586052124 -0.05013198401613479238
C  -1.92120121255067366484 1.78907417616064567945 -1.77684464234963135354
C  2.29560208719692671053 -2.43157089864195086193 0.73108601061362632478
C  -0.70537148064306287587 0.89468129454284828217 -2.22270474674921691971
H  -1.56162909001891136995 2.81781071916016312429 -1.73076853412298392598
H  -2.71879211385616992303 1.70791974080834152439 -2.51383651935488572349
25
-88.1203254348 converged=true
F  -0.47524249726897582757 -0.12398423715847992077 2.54229969439044589663
F  0.62256555527961587870 0.95314937792168197284 1.09115513092191895872
F  -1.07557948182219287325 -1.54116119346275581847 -0.44639398629943072283
F  -0.58484620644511786658 -2.18751381851462900485 1.50802414527663830590
F  -2.07567867135327244199 1.55780922401794530430 1.92467219691300361895
F  -2.73018810016740198776 -0.10484364208199151158 0.73590619842125193362
F  -2.99548410161776113014 2.47212399116343117811 -0.18492407998588805684
F  -0.86401892742164809746 2.72258640562120080020 -0.25010812750349264988
F  1.23034851882788398569 -2.04362558357664614306 -1.22289082972001117433
F  1.45258426729442846614 -2.95012928997744161563 0.69501770491403047636
F  2.69632308437525125555 0.19371711287599588380 -0.20747413634078643030
F  3.54782947564516382144 -1.70214304543562322536 0.24223883502813620128
F  2.47200089825502899998 -0.65024140001045149795 1.76250971654204358074
O  0.33004532321433482922 0.31312368582094884939 -1.22061458645766052200
O  -0.08009499036044975817 0.78539857318285011267 -3.35916085977850764621
C  -0.40884324883414813190 0.11007686247191217355 1.19983592248544201908
C  -1.75003448833332519996 0.81859118887489701333 0.83361785528916942933
C  -0.20667257958576376597 -1.30125302291544264754 0.54701973529833125554
C  -1.82850511646947966327 1.77561407524051029228 -0.39211979251553891190
C  1.22335933912606953378 -1.75587971894216976487 0.08182832225978699248
C  -1.83239366005253812020 1.15962889701366322903 -1.76471157764851005467
C  2.48235484251410865042 -0.92166601240604595358 0.45484263991800683025
C  -0.37613380199799689718 0.71136305882602701711 -2.17100382986885209746
H  -2.18180184815436417622 1.90287461858107853629 -2.48063354130444890799
H  -2.48669158464738559999 0.28894489286965313601 -1.78387075013510298938
25
-88.1202438610 converged=true
F  -0.08508763259565596537 0.38119532156663737954 1.98022375199663880352
F  0.75667939120174299017 0.69565716798837473611 0.05273994322086271447
F  -0.00816406975513825350 -1.95950798257298286487 -0.67409666395246792270
F  -1.01412977893748168512 -2.11443634705846417177 1.22585833258335563656
F  -2.39635784845302968193 0.37895092300981780831 1.42587937843481782352
F  -2.26795922059625665312 -0.47978791388471370150 -0.51260195830549248885
F  -2.91993698016825931063 2.43594305996592241925 0.34475010577700415659
F  -0.80787790641146461912 2.64899072689922432389 0.06738752825575379524
F  1.39517556257674879561 -3.31823411546945568062 1.07952009440482887825
F  1.26274730185222439083 -1.78496790536247651460 2.58595312842637081729
F  2.66881970170637883299 -1.25401947367641897202 -0.59207893569875202910
F  3.66468477304350415125 -2.14179357179010487755 1.08354516785452381633
F  2.86270225410693202051 -0.16728712472064652395 1.26610075931973731223
O  -0.38523257566183150002 0.27695590234823047604 -2.06263436767015972961
O  -0.64612369090485333167 1.75243519506494771498 -3.71462608856624720843
C  -0.22907757785343746404 0.04006158835498967175 0.67207723759885007464
C  -1.68470957656963027382 0.44580065451137063093 0.26589331823041090219
C  0.00180943710950950964 -1.49789733366792066072 0.57981176181433435879
C  -1.86002843451591903801 1.88133474471199990674 -0.32717777713140899776
C  1.32024879658223648349 -1.98426307059920592479 1.25760278887912879675
C  -2.08735774929516715304 1.94497156600553977590 -1.81117496255385712622
C  2.64547057676305641394 -1.36136246619625933540 0.72820731293174845167
C  -0.90861036380923576594 1.25518699169416048100 -2.61895045606713194886
H  -2.16169409520594024698 2.98851798465493034840 -2.11344946769106067919
H  -3.01078829420902138736 1.42011647822252840001 -2.05369793199171857268
25
-88.1201974632 converged=true
F  1.17608483106929240236 1.23190124917077614697 0.48803181376064752595
F  0.39159286443351221108 0.10739806165919761616 -1.19127459219371956145
F  -0.63230065007576374825 -1.76801155916935681667 0.76206630327567081995
F  0.58430461982460379922 -0.70270805865216567909 2.19886024488342801675
F  -1.03554508773464903904 2.29733383485821063275 0.80004527684475967853
F  -1.64384014455070337490 0.41781061334835045695 1.57758139075687764397
F  -2.04357635312091545643 -0.27855318229155573428 -1.36193523937671057134
F  -3.44647939553343585217 0.55024430945706903628 0.02711258802457264250
F  2.70250959171823401661 -0.91299852501229550317 0.09389563099281353353
F  1.36408004281614858577 -2.38194983519086767032 -0.76646291746679195978
F  3.03590711265016865994 -3.62657801587144978939 0.83245239596833242590
F  1.17865134389479586652 -3.51073736214065812433 1.89984207050478492995
F  2.80409828557863827214 -2.20319155734430704996 2.41996483143071250410
O  -1.34961406941029560258 2.74415023188300466472 -3.51510461294367271279
O  -0.16395759791551092754 2.51454796392640034242 -1.64123524918601648714
C  0.20583595642569235684 0.38350371683660178235 0.10888669754515162280
C  -1.18945825249362258091 1.01515591526875215145 0.43893062230335111451
C  0.43312367127480649875 -0.95716036087130595966 0.88676347060340210415
C  -2.29445888095291516962 0.85870611926653372947 -0.65396560839902562190
C  1.67957706721506716541 -1.73778313791636951358 0.36948412362292981648
C  -2.51597063621666805489 2.05087782560991849223 -1.53934219195040267181
C  2.17956603166278206629 -2.79116181965569509771 1.40729178487950923326
C  -1.19894898317096010310 2.47807619634541120845 -2.32122384263729797382
H  -2.82334491033304146868 2.89455818026940248089 -0.92203323688099725342
H  -3.29263445705524659957 1.80913019621641679713 -2.26356975426230455639
25
-88.1201616108 converged=true
F  0.71153369847380898428 1.09925015447783436251 1.65770655908045516647
F  1.00313427816996303399 0.84135348058943804084 -0.45877940783447479500
F  -0.49198302987781555862 -1.75768831702947592177 0.04223007950179294423
F  0.06826462352453377402 -1.33696235626362458504 2.08116172747411276589
F  -1.43853783937399071213 2.15089125916035595054 0.85063362478975257375
F  -1.97584110637216592288 0.14565500742753570429 1.30463101281942739362
F  -0.98216487628084214734 0.12151266662514104144 -1.83506938981605194350
F  -2.83146394090269559740 -0.32894835084425200211 -0.85882653091558869285
F  2.73037273621027232196 -0.70971120040108148785 0.96664915436279719163
F  1.98549465282143478007 -1.65974193202440045702 -0.83372448047281255690
F  3.18811832262910765934 -3.49134550049684255768 0.61111165252982846408
F  1.08777125779881833623 -3.81261956299375315282 0.90836391481213796251
F  2.26047495626030547911 -2.86423545952873270792 2.44030623832455351163
O  -1.83580983311220746756 3.91135007051389216315 -2.69524918244943512136
O  -0.35189627348695262654 2.86232015885292234714 -1.40189582062751116887
C  0.21849365859193348172 0.48268029072376800181 0.56180794294309610581
C  -1.27871428621600413678 0.89544415707273916638 0.40518214703731031401
C  0.36853594501160130692 -1.05762746839063748183 0.79907678383382318987
C  -1.91108333071035274564 0.67663301344913162616 -1.00931412363457972958
C  1.80934272034918608441 -1.56597560252644441015 0.49372529122351965780
C  -2.54462646395931280097 1.89806895941860620525 -1.61388571915340306440
C  2.08525629493247199875 -2.96489886765879084862 1.12868951548766904835
C  -1.45691578905761764950 3.01276039566679632031 -1.94077408400851680881
H  -3.27565257064556147881 2.31850252665647138528 -0.92522373902053434147
H  -3.03690180477796412006 1.61589347752341860875 -2.54347116618736235338
25
-88.1200848508 converged=true
F  -1.91920140465037314392 -0.93748326209511756435 0.41449251427867422892
F  -0.80514481733461473745 -0.10493353115238122919 2.01952373151450892408
F  0.53396049189693539638 -1.59324313586068733173 -0.90170341092384409531
F  0.06260051012003811644 -2.49024639244052581333 1.00075005090258373208
F  0.20897596886042088538 1.02288594889993400550 -1.08067714328842567895
F  0.17963913970430575584 1.78102410584350900891 0.90353522722414780777
F  -2.87447277831192860020 1.38979712258495990973 0.52359642456277843969
F  -1.66893957248463165044 3.13678974449695502358 0.24358644868410156414
F  1.70417924418587185542 -0.36745810024999403520 2.18502376897322836413
F  2.32710490458827257143 0.05847001571805365838 0.16190429438054027012
F  2.49883164548970926333 -2.88656272345883735397 2.03797923083176346637
F  4.02440377840166529921 -1.63496263002223862770 1.20128188827723381138
F  2.78422102249664416007 -2.81355760092962770003 -0.09157745933938600535
O  -3.42512648691186605276 0.44715846868209924159 -3.17952012188894261868
O  -1.73202677341220212526 -0.35330874372355564050 -1.96923836062652646284
C  -0.76442173946678870777 -0.31952005347699402593 0.67894663000671051645
C  -0.57333308495127488502 1.07740505810273257126 0.00884127001312702554
C  0.39689167773021305496 -1.32476508652537261490 0.40203763375715551032
C  -1.88375784117668443329 1.88212397715845236590 -0.26868415960749181259
C  1.79199057115956783548 -0.88844140755639278151 0.94920503669612799058
C  -2.29627991248471374774 1.96512695417356053618 -1.71083378616207704148
C  2.78909380380779348130 -2.08794974515844344864 1.01821931438549895255
C  -2.51348214846252426824 0.52904911071879445750 -2.35485518638417712367
H  -1.51347643091091144107 2.46880638568777843744 -2.27704116062916206431
H  -3.22702776788294576349 2.52635652058337267789 -1.77973067553810460062
25
-88.1200662329 converged=true
F  -0.43616501834373588853 -1.00720410492369216726 -1.08409302583757605198
F  -1.40611844762298798805 -1.10335196755436792948 0.84551827105233634541
F  0.73224974603199532996 -0.55555132599061840537 2.17361398379425674321
F  1.83167616052704551599 0.19184580584655225310 0.47699840467264470467
F  0.09166737894273874199 1.75326397727646576818 -0.58780377091065161288
F  -0.74423944235625050236 1.52397736449392451341 1.36159660412188077139
F  -2.83391087953426001889 0.20167974206522290559 -0.92041503293072068903
F  -3.04076866804937750999 1.57679659631059410074 0.70347011898497724403
F  2.02251200721183277409 -2.14921980831536396650 -0.66393848296638724449
F  0.47678345799510279956 -3.04405002265927748795 0.56152923596326576039
F  1.96344290002583732324 -2.87652185983884045584 2.76017885608859936397
F  3.42113161047239788815 -1.60383418229514540521 1.82278297198066496776
F  3.18460352573296390233 -3.63362763984246583959 1.16787052848812455963
O  -1.07740962033151732591 1.05065310876588591249 -2.81489786247382944850
O  -1.90640599190955972730 2.92456002860156560885 -3.69718596939994492701
C  -0.46606603199845930696 -0.44683886014071172443 0.12962301510082113731
C  -0.84085756688050894425 1.06290728575973214554 0.08602570511145728183
C  0.90064513788255440296 -0.70114780026959688808 0.84525408916259747727
C  -2.29299722313916376493 1.34410773578739695111 -0.42456349863147657686
C  1.45915426642069845364 -2.12774162633859109661 0.55447276937752121295
C  -2.39551808349508466023 2.48473987708873389479 -1.39690710553623809176
C  2.53078950881422137797 -2.56337911389865569234 1.60200088075992286285
C  -1.71720970992551369427 2.11039925702639807881 -2.79028394784201472234
H  -1.90453588152315633764 3.36952546831662846927 -0.99583046429970101254
H  -3.44725113494781698620 2.70057306472821867516 -1.57995427373051078312
25
-88.1200468124 converged=true
F  -1.06946754941878618972 -1.87145755119170442704 0.14372383644057815100
F  -1.60425915778454708516 -1.08413154070305828292 2.03572097518050654230
F  0.37772512878325203989 0.03487723605664421606 2.49708808859221154108
F  0.80815375653593812810 0.88762214155386576220 0.60818584147911192161
F  -3.17875098892014040786 0.30156954902372901106 1.05309213330992545998
F  -2.66540887412734583961 -0.34036647240934048142 -0.91589319535438629138
F  -3.00194663812192708008 2.36663532812443433428 -0.17554323688977380158
F  -1.20729348764204647004 2.24472038860890599210 0.98590968508467002884
F  0.99944209296665287301 -2.50830924241887531778 1.52363868152484194241
F  2.50810278211211645782 -0.98576988634589846061 1.71057460005725570085
F  2.43038328248216073391 -0.59812440857828341745 -1.07174187910249862909
F  1.19204163637889859473 -2.38324937658380742178 -1.20691699245502337412
F  3.08766896116630729097 -2.45065841264665751353 -0.24802425409702519299
O  0.03829246202184205528 0.95504676598155724410 -3.24157709701387375389
O  -0.13382290083080436438 -0.18097555749529686819 -1.33516054633074010560
C  -1.08649444053537069799 -0.71529628543566559085 0.82600144933571539863
C  -2.13730487305037630819 0.24886348397249707931 0.17135825370865812034
C  0.36822418831665326699 -0.24409757920923674801 1.16664775733991121776
C  -1.78724153677694630460 1.73497519152612311721 -0.14033109650636094168
C  1.43648242978142759441 -1.36097285020297564806 0.97361940344090758259
C  -1.01825455656038821317 2.04610124074925758819 -1.40300701016714457481
C  2.00245069892265270539 -1.68024883140264380543 -0.44199658456201523782
C  -0.30282505573495521745 0.81575359289980020616 -2.07071228085422998078
H  -0.24720500848800730509 2.78132364573434998078 -1.17216129703639460047
H  -1.70349035147623650843 2.46873043039227413331 -2.13743323502484017240
25
-88.1200351673 converged=true
F  -1.37382523686608459812 -0.72547941102801449809 -1.17545077453471669138
F  -1.41364773838488866353 -1.41660307076704405915 0.82032129183863566890
F  1.54949660325794624782 0.16028231633034217829 0.17431562229820801724
F  0.98418476943995125694 -1.32860812633477132216 -1.29101235016806148437
F  -0.17406749367670115713 1.73868386085998549717 0.80770347198993319715
F  -1.66916638972220754411 0.66240045462372953988 1.85779461031317039144
F  -3.44972150824843692973 0.80443246000897927761 -0.00403489992804485775
F  -2.64701051455802005563 2.71364467456360269892 0.58894270798756631624
F  0.48163836581391372693 -3.13603406697747288945 0.64639801489432402448
F  0.71312728753954379712 -1.64298480874578034516 2.20263045172340721223
F  2.87269967910557344482 -3.36283495281096955765 1.69246513506437001872
F  3.27857187549452477882 -1.26080854970214217836 1.60543188825711058421
F  3.15296734962685798465 -2.41351019146467882237 -0.20747364759055048067
O  -0.35205949222715626767 3.20528315662607754533 -2.62434784172779522748
O  0.11219934312594490033 1.25836589971858403558 -1.64225374974436477693
C  -0.80883786452249684107 -0.49556655118967146700 0.01791311190740717263
C  -1.19956426023553852644 0.90172999529268926810 0.59760445850965704384
C  0.71630713672582135843 -0.86159203394512962060 -0.06106560568938985273
C  -2.35582651176009294502 1.61714915621551069691 -0.16841294548762589245
C  1.09807824725245062325 -1.98449164195355054474 0.95894119598886029543
C  -2.16034994756834564100 1.99542112381393788034 -1.61209193854138144175
C  2.63354185627813519588 -2.25078135258407341368 1.00178053524473020808
C  -0.63676180742484722597 2.18449178055368520290 -1.99969278884551271425
H  -2.69554890799749902186 2.92333736334157379133 -1.80941306237163068715
H  -2.55122284046832392690 1.19663351555465036213 -2.24193089128827383050
25
-88.1199264497 converged=true
F  -0.61921258839967707743 0.19467516607415266683 1.98206851428849506469
F  0.04152958179815413597 1.71560909554301832536 0.66986965626351990810
F  2.08509928756951179452 0.31820828656358890463 0.71077865949721341643
F  1.16784322850838906405 -0.84905226475748751813 -0.85326386463694248175
F  -2.31438322912301730483 -0.71535647331055884912 0.61183505733339194066
F  -1.27361471044599605662 -0.69098474710735002802 -1.23935356024334031311
F  -3.51845824173691479331 0.76893576831466570187 -1.15135191316175977683
F  -2.89421262935093404067 1.77644898333293266290 0.64944179111113720104
F  -0.12638726047111756290 -2.34039447727715499425 1.32299738879942929692
F  1.34312739072261910778 -1.37313106108091487201 2.58512296361751170437
F  1.73153390538904083940 -3.39061366500191274653 -0.24163250675347391905
F  2.37202678172657677180 -3.62625580165089056450 1.78997391732610844350
F  3.29423099636724403538 -2.13986455849265944096 0.55312682007563540587
O  0.21319898335015707858 1.28463382862957775643 -1.80175446919545434454
O  -0.80444333669231116168 2.24278584748632159318 -3.54008834353954204843
C  -0.27209020628629249083 0.41496151437243528060 0.68362095873677952707
C  -1.53197415691494365220 0.08126595040596484854 -0.17355486084220136944
C  1.01328195030868473125 -0.43882091053569899364 0.41047542394386776765
C  -2.41868244984485603055 1.30857986251417668377 -0.55159718836535609476
C  1.06264135144429339164 -1.71228070584422709111 1.31628992316205550850
C  -1.84383335177741614075 2.42176613552382757888 -1.38296596689282980108
C  2.14026221620604095719 -2.73127102743551297692 0.83405918433999404193
C  -0.69352759530965379930 1.92813758789212652545 -2.35549739343460462493
H  -1.40445483298959672425 3.16746796910862427055 -0.72113732213105363744
H  -2.64429908404792701759 2.86711069673304796979 -1.97240086919861368209
25
-88.1198567914 converged=true
F  -0.71034386669802485059 -1.16134067039051891435 -0.87138827554492570560
F  -1.60814933763663558963 -1.91475718916527748448 0.88651235557243834862
F  -0.01701827200779412741 -1.28352113069790219058 2.44494299257185376817
F  0.26734319388600724654 0.70931551980650975331 1.77802886847071084375
F  -2.44253199365037243496 0.46652944031478155162 1.71204004474244397827
F  -3.16046815465266384138 -0.26418502314846920020 -0.18738736248281473440
F  -3.17009506070830671121 2.23806070556052860709 -0.17918485696412628227
F  -1.18531754346058937344 2.49798423863783458643 0.57814739641539880655
F  2.20373466836624665177 -1.69319281509650076956 1.89641239349255341651
F  2.48699624222612136748 0.10794703563459670526 0.79102673585925220578
F  1.05081695764268223670 -2.92287243694782139514 -0.28249488816775508715
F  3.11927225076523662040 -2.37569660476119892678 -0.30633993508122614458
F  1.74738962237831807478 -1.32947174386257249701 -1.55214567589864760322
O  0.61039438211980179272 0.85491254405135874705 -0.68498413002465952104
O  0.79095898220066740425 1.94756103368991295710 -2.61862178264239053860
C  -0.98737788305613671813 -0.80544405414367192808 0.38924122313718811927
C  -2.08373516450106999187 0.29918529332643845065 0.41775995744937499676
C  0.23849504167767912599 -0.55053827940632460436 1.32741337576340034943
C  -1.90660598545579951235 1.69667890603776294611 -0.24338232377704352438
C  1.68715352450173927679 -0.95640761745691671436 0.87409972128141721903
C  -1.39490709091538267472 1.71059516671381728337 -1.65841057344919606820
C  1.88045665456607258292 -1.87883689010536802932 -0.36286390877049085057
C  0.16898875383700309727 1.49003918259628909126 -1.66569346999271461485
H  -1.61259142822256862360 2.67914849260370502293 -2.10687696551909109388
H  -1.86765649320220705754 0.92086789620898712450 -2.24078891634094956586
25
-88.1197320814 converged=true
F  -1.20186910890931053508 -1.17669799121657092655 1.20691461404749289521
F  -0.59945642961248812863 0.28613958109258436080 2.64224253202639625115
F  1.50689674494211800493 -0.58109862554410796065 2.13746385452917087022
F  1.55095620270600154100 0.98450808372800102664 0.71210246424701917345
F  -0.71529376729258631329 2.26980212564781069773 0.55097927234837995591
F  -2.35912179251255160750 1.45443257059495634209 1.62302443388044714823
F  -2.15830181804484988461 -0.47197187697473413914 -0.97279593843743750181
F  -3.57769345769633995147 0.97682362295388747153 -0.30705095558584771798
F  2.26437617737595120460 -0.82179814944960227763 -0.90374609686825391197
F  0.25591491876751215617 -1.65542293431028264550 -0.85012221135611432121
F  1.97364248793236529700 -3.51759829201428075862 -0.33999507050952626486
F  1.00970988092083935328 -3.03527723197790022525 1.51116536904130049912
F  3.02594018000846975980 -2.38314364509959464300 1.13742407903113962320
O  0.01325846872085237327 1.94200506709222153745 -3.24151490854709933842
O  0.22066422540079258519 0.77739974416651624889 -1.34902000536387745022
C  -0.58155808882496695666 0.01209944522753165011 1.31241980409617475800
C  -1.44255017898278237176 1.14489604107445286374 0.66054404735072047572
C  0.93509898271822544658 -0.16910097157609083052 0.96671278054094045284
C  -2.25750139528001136924 0.84058381592957254203 -0.64553316714641018059
C  1.29134273899561624610 -1.26517852699339616862 -0.09330797679511398934
C  -1.90615258421728994698 1.72750907580193979740 -1.81019949410355640573
C  1.83540655368471949949 -2.56850295096385350391 0.57982366939225649105
C  -0.39751794707857301958 1.46331819586123179633 -2.18694796822568582328
H  -2.04002411007959327804 2.77531755415867698034 -1.54795347373633895849
H  -2.54096488364211303690 1.47351727279104016688 -2.65756765375618497771
25
-88.1196548950 converged=true
F  -1.02943539318026466844 -1.17582920345229635650 -0.41588643098698968581
F  -1.86453609114116236611 -1.29801995629605637639 1.51607548322218477210
F  0.21270373864219929705 -1.64983437533857357771 2.43366577441559206463
F  0.77603900146538384863 0.38069857927455591495 2.12899699973844125367
F  -0.85214517277369361548 1.86056296773433693659 1.20937962179415570141
F  -2.68627944008826924360 0.85958314878556640881 1.57839169555827329994
F  -2.76250416687907351942 0.29581619589947882876 -1.30955827453930484516
F  -3.26513500427686498284 2.15285909748078063686 -0.37214701935994448645
F  2.33006959532606172658 -2.01813025588251448994 1.53538209178203599592
F  2.51322770371429449199 -0.22400402724168791413 0.40970812344191631649
F  1.10363650922862199799 -1.56950049882902864518 -1.71403337936847788292
F  0.64146712735556032925 -3.12408279195336957557 -0.30012817369625371944
F  2.67210137685771398353 -2.70039920013660195153 -0.82656490119077064005
O  0.48184234322766383851 0.70935995781288074813 -0.61556373891892746109
O  0.85291690790642393782 1.58448986079599452026 -2.62805975888011822406
C  -1.00021604517356954567 -0.54890918633889773659 0.77024004013102898014
C  -1.63229428633056317111 0.88782006737480323455 0.71161630887045268512
C  0.40059531081281518627 -0.71807049282031365500 1.46355064966647829827
C  -2.19277445520840075233 1.35145024625025356180 -0.67297146946563690673
C  1.65671092151350296540 -1.21569823928610443176 0.65935042342387650827
C  -1.22054367105559569140 2.09837722451519725908 -1.54735861838792065903
C  1.48715611367947397881 -2.13001748431603177281 -0.58626994862357617588
C  0.18039754510052583014 1.39405336984874694828 -1.62029782628806517941
H  -1.06352803166325826645 3.09034987365075286547 -1.12200531412827464450
H  -1.63427043705950691965 2.18963612246813177364 -2.55045035811021314487
25
-88.1196227506 converged=true
F  -1.33845419250646924247 -1.92925543009582378673 0.17080999272284413948
F  -1.84967053977021933520 -1.17178053368989454341 2.08553598474947010644
F  0.50385738828947224111 -1.81408086353911346400 2.08353681979138860569
F  0.21345726923799357433 0.29631196622196409596 2.38692961004991621721
F  -3.01130392986372363850 0.63466926739136697577 1.26062056627425067568
F  -2.81818739168027310171 -0.21266905971533614506 -0.69230489574030973365
F  -2.41698468302614610792 2.63539972763939545075 0.15626250844437786225
F  -0.42292695123296519810 2.00282394315757450443 0.59460243667553680513
F  2.51293101341933544646 -0.40674472998647676070 1.59557090103415988303
F  1.68839264707163350110 0.78484325532014120874 0.05015445796738057793
F  3.05185732514536489646 -2.18138036047215821966 0.12964362956957972695
F  2.36447917766176107790 -1.06413241931573310239 -1.54426530480689083724
F  1.07152624197936097161 -2.49310115269284438000 -0.55857428300174505331
O  -0.11918347578858121127 -0.30768453229902176238 -1.17948902776298769624
O  -0.03411749574494779558 0.42884323173294308651 -3.28196636165330302148
C  -1.21518157388194136814 -0.82706745889560973062 0.91751030673077016431
C  -2.08951700812602059187 0.32674552380499577442 0.30611207564501419220
C  0.25089020661371747023 -0.65067893221795369829 1.42587925140533289259
C  -1.49129642287328834094 1.68473362141269089598 -0.17967176003967011422
C  1.56221321507373467341 -0.41618161723816410325 0.61581250582160984575
C  -1.18937316603803067139 1.75761309494309836410 -1.65451644002689346458
C  1.97929100579690642192 -1.54963518256473364865 -0.37674907934770696105
C  -0.36517885640342162556 0.50522943590290969595 -2.10486541153315531716
H  -0.60942673428164484406 2.65741814792481756413 -1.85627624222247855634
H  -2.12289106907162050675 1.79232205727097726466 -2.21524024064645752574
25
-88.1195000704 converged=true
F  -1.46939193703218418108 -1.23392189752297554151 0.65714301568497579531
F  -0.51785778650465019712 -0.15303186850345723569 2.25132505232890434144
F  1.79413633698251073767 -0.14436346040583092343 1.21011817514619068881
F  1.13645626069826288784 -0.53414197401864893511 -0.80477772311604311994
F  0.19605958668766176878 1.77873334027423135595 0.05638678650760102495
F  -1.66475263077571211667 1.74716327394985504462 1.16579280377719607387
F  -1.25435513767374029470 -0.19313345222959535374 -1.71536923817188458052
F  -3.00261962966793083396 0.53959109489402623527 -0.69990072116501689248
F  0.39795353987617976266 -3.00128045039349089507 -0.26732606532985464520
F  0.49105378831338120094 -2.71004171520212278068 1.87513312983659163891
F  3.13052775261673010831 -2.40716455736342238581 1.84021233985297349989
F  3.20737651895084452391 -2.24567809567322163034 -0.30339361431689670923
F  2.62235208662335717023 -4.09422160784910982301 0.61623503912527544113
O  -1.47062796699486897367 4.06807309552127716046 -0.54399374329794381033
O  -3.54668099675014047989 3.48785444664988286689 -1.11850343922413020259
C  -0.54283502435823260956 -0.29420204482782685851 0.91132049238728018992
C  -0.93403358768601030260 1.07329385964205648030 0.25775611182421104273
C  0.87143807682195129072 -0.80070272751721638382 0.48307927290018026767
C  -1.74950618042902306115 0.91899064687523490669 -1.06066916508439268441
C  1.03792710431618973033 -2.33509622151840900983 0.70616814382992354471
C  -1.73906510534965574877 2.12920402660314289633 -1.94046605633283153480
C  2.53554778963675131465 -2.77310752704051211026 0.71177987699833322743
C  -2.31882875621481998607 3.37292430353695849021 -1.11118033143553573971
H  -2.38660220693316338370 1.93943124367030694799 -2.79449617452278609164
H  -0.71846989515363746115 2.34738926844886153233 -2.24731196810234035155
25
-88.1194915077 converged=true
F  -0.45149916780695364960 0.68909828849675736073 2.40551055486047493659
F  0.46876721408761978793 1.01221409165519915518 0.53519250912369620288
F  -1.01088942694930739030 -2.11119678370011154556 0.99935134764497979276
F  0.35154359421895631233 -1.46341767188656968202 2.50314767577730767911
F  -2.64179399288761063147 0.89983597957947702994 1.64397745933085004388
F  -2.55336670565416046230 -0.50819602053884238568 0.06062695340913330788
F  -3.27480073194287513161 1.94989820043457240395 -0.64508618168430942319
F  -1.56324076767785280495 2.84096388978271408021 0.30827224510804390745
F  0.84627711222977930472 -2.57123701590187669908 -0.64266992745421192001
F  1.87903814431111904071 -2.65265720635513657655 1.21491123982899074107
F  3.41198859267134091411 -1.56660636144012332949 -0.42532461971865737071
F  2.74845172753416866485 -0.08022342107486152285 0.96387815292310285997
F  2.10608387137409991396 -0.02254971606838044110 -1.08764523114832800665
O  -1.03228491143300260546 -0.15103086793629846851 -3.29607831681306295835
O  -0.42312999228203274082 -0.53369277563930139774 -1.18704175970469205659
C  -0.45590656152469288820 0.23253929403383127861 1.12044859142346742154
C  -1.88670135993406606900 0.53998864889663922284 0.56510634497712441959
C  0.00585566005762983011 -1.26520868901450667110 1.20444266590711057674
C  -1.94387983435364297691 1.74750302088729547734 -0.42327586379604204003
C  1.22992015775611696071 -1.79729083822989887942 0.37295507661866011961
C  -1.18982664225466594488 1.65573111925740334982 -1.72529749130145759750
C  2.35859910413379569860 -0.82555312280802173319 -0.07266315930227325304
C  -0.85943605929320021630 0.17050645694596294755 -2.12554139868740277208
H  -0.23579808275845756671 2.17235285396606681019 -1.61767181587420294520
H  -1.77876894162210463790 2.12078964665794789113 -2.51446305134837722051
25
-88.1194762080 converged=true
F  -0.88404436165498867517 -0.65628037850745712944 2.23260725767914358642
F  -0.35106402471938458199 1.34575746870840506908 1.78898782857091531717
F  1.78551776917598004069 0.31244936403250117563 0.92890287918328606764
F  0.67748116088195353690 -0.35962682599846013121 -0.81830694002871096071
F  -2.88678372041132025316 -0.11321341941885484927 1.08828441944600617930
F  -1.76644064294699498774 -0.84738695788493201277 -0.58687686562241114796
F  -3.58053150170342382452 1.29449286324486756428 -0.76802296430227179336
F  -2.22832550405859297626 2.52694887258336597924 0.35084763422514780862
F  -0.12606741457553011232 -2.62949053508174301896 0.80677797540414453170
F  1.37404587226009922141 -1.95063542426497882332 2.21148468003497500334
F  2.46694789149550208762 -3.69504509681306325675 0.58569687539123249653
F  3.17154420891207422528 -1.77684875178679413388 -0.05882711659927557235
F  1.64006391051852640217 -2.79816361127786050744 -1.17560538504295064577
O  0.44466313766538428931 2.11535260985124651256 -0.45887477678797478076
O  0.30108427161555401108 3.20611469767213463911 -2.39852342866716661263
C  -0.57891567503476282219 0.17462289535345967839 1.19464667174132954663
C  -1.84317050742239230132 0.19061955696289650808 0.27752323942900242182
C  0.72116691156622514391 -0.39290479121805810259 0.52534207928373199969
C  -2.24110875041761614668 1.47676640578977025342 -0.50942335393419380107
C  0.98605542354246655812 -1.88289564142133936109 0.92760714540550659457
C  -1.50962213554776236712 1.75963632130007741061 -1.79343520089778118987
C  2.09130864605363875341 -2.53911761651429745967 0.04556329826061976396
C  -0.10264990423716027768 2.44008242255721574665 -1.52353481014883040956
H  -2.10981842579994705034 2.44520432401233067665 -2.39085704944228538693
H  -1.34613463515745768184 0.83612224811956958881 -2.34692209248119576515
25
-88.1194637143 converged=true
F  -0.59722694272568110918 -0.52761007495032352654 -1.31736611760656585624
F  -1.12536258860060356390 -1.44176387205857103879 0.53573092066617167273
F  1.02258505281471401283 -0.33937183497058975856 1.80862221397796374411
F  1.78629489587577250376 0.48074231597831806884 -0.02535239725430797619
F  -0.32831915416214119130 1.89077247154474181734 0.83993201423448948795
F  -1.68604010610558918692 0.54137628567672024804 1.77395294552171578495
F  -3.31920131739901069778 0.38656202137549888764 -0.22691566677211977288
F  -2.96590897107469775307 2.39669648244269684056 0.47006530565386595022
F  2.82905902612435777854 -1.66602991715458892408 -0.50015300805851503618
F  0.88709086066185449670 -2.55078616126964474731 -0.78723272448414227664
F  0.76465314096722492021 -2.98410938302843753434 2.02416253847977589686
F  2.79259256398695665524 -2.26892567417810964159 2.14200808533641318121
F  2.32083515300193621300 -3.97136782623483686194 0.92875555154709243944
O  -0.82433081108726113939 3.80225120411445338675 -2.15668574788726052915
O  0.21174698741754707787 1.88919778287329198641 -1.65990647734148821790
C  -0.48174641898639347648 -0.36983896540923077989 0.00304874733005407184
C  -1.19122941606154109095 0.90338335871444530589 0.55603389555627114049
C  1.00421656841534234772 -0.48154313525858127853 0.46198715762960718134
C  -2.40161138211135316567 1.41070932581084518276 -0.28331417021623894748
C  1.64008149766303001904 -1.86791350030757019596 0.09118855471504669352
C  -2.17815053765952093556 1.86827516886468769641 -1.69603130666800216986
C  1.87829915459358920415 -2.78499401963055959186 1.33076134504532705982
C  -0.77878275733436486128 2.60891950129038763251 -1.85606651701612745953
H  -2.98004369215600251053 2.55464835025708536520 -1.96521844363677744560
H  -2.17429880605808989458 1.00328109550781707782 -2.35694469865222266947
25
-88.1193653834 converged=true
F  -1.27761201662596790563 -1.73495521897076865336 -0.41588658884854146081
F  -1.99761024087733707333 -1.59416163611094341412 1.56598889594298062988
F  0.31057372062244503752 -2.08394048766646022841 1.90466037489185646692
F  -0.02439689035326184086 -0.01045663402216258017 2.40326312917815876347
F  -2.61548157949910642373 0.68672070605743573690 1.60293751597894318373
F  -3.11059789871054137578 0.00853504848984011806 -0.38076994460074553572
F  -2.43812089548490806834 2.65494875967329679867 0.20061264949149246184
F  -0.40473424902061128083 2.06615663663041448928 0.53333358633040250929
F  2.36911155520536853558 -0.74301895150701513515 1.85977162254341910064
F  1.77512529274407615532 0.74660814347561210713 0.47826807231449142144
F  3.07198575599380330203 -2.24221611396379083558 0.17361674832218149112
F  2.63630278105051862880 -0.81990921333900768087 -1.34504985131846876989
F  1.19343305657014564503 -2.34194010305701016961 -0.80225916268090580186
O  0.17597564393338230304 -0.01098113003632477172 -1.16439425431464416150
O  0.16305925503009113808 0.74338392686361431938 -3.26242516452946240690
C  -1.23698855575249133665 -0.91944303976543084733 0.63900737321333944685
C  -2.06799934871128909819 0.38320985738897744843 0.39678004537842759269
C  0.14684928635341312764 -0.85082285661223022721 1.35862972402385095982
C  -1.50762798151014409953 1.71743445451409915137 -0.17470962341516527161
C  1.56097226080378681523 -0.53328146091508943361 0.77889121129783134290
C  -1.29929144511013205943 1.77589189512020073636 -1.66493451938740077978
C  2.08968269696588615503 -1.48380054048117715482 -0.34258200798662441500
C  -0.20835241989230907089 0.73671159349147663509 -2.09408321618567594413
H  -0.96471506548052210483 2.77708402382736085912 -1.93526411804911080417
H  -2.23434071824425339869 1.55480334091506255945 -2.17834049749059488477
25
-88.1193314404 converged=true
F  1.22330304749711782364 1.12344870449563627446 0.26183847513225705361
F  0.11976555456938925426 0.03086073584547838894 -1.25717124474082364571
F  -0.68196163002656473573 -1.77582524142661624111 0.82667367055662355213
F  0.70815359444408954026 -0.72640277654135454455 2.11025065707135039972
F  -0.85421849219880785498 2.31387088308698540828 0.90986260721353617864
F  -1.57822752853289638431 0.45835814264656227213 1.66401731908063155174
F  -2.65128062601702918499 -0.31090308715531250749 -0.59846584675861613789
F  -3.38845505050024264904 1.54764005469841547935 0.20934499961000180290
F  2.59896803401637566111 -1.05928746910026694295 -0.18545704140559615691
F  1.11839335172811260577 -2.46680687727118375108 -0.89662089046263060421
F  2.89138865388945998092 -3.77440604482051345059 0.54162118902250189212
F  1.15005924722893770884 -3.58415622605877004503 1.77980954050985973325
F  2.86698480462499016852 -2.33952042038017404835 2.13617200547058194715
O  -1.81592187055433451626 4.05483313808322609617 -1.84908738747513012868
O  -0.05002255359366156173 2.71879715097401586377 -1.57454186444892485497
C  0.15797252521111221357 0.33573183698660669094 0.05099120346009686222
C  -1.14242415517087980703 1.06277380264829734990 0.52210165631397631447
C  0.41498109418493289713 -0.99966774014512016500 0.82659424381870849619
C  -2.33574835043887496511 1.02496785581446991920 -0.47974513083937286861
C  1.57309745039010140388 -1.83499509112988823389 0.19874465369962218686
C  -2.18763573603408145729 1.67720344954672762050 -1.82431373402857199828
C  2.12673805967201090539 -2.90507715769195096200 1.19128630333248808348
C  -1.25224906033176286435 2.96430783093355243452 -1.74237647526586947322
H  -3.17685554263432390343 1.97401012540167397624 -2.17038499203985679742
H  -1.72960282142313381826 0.97280542055949370539 -2.51608191672681691387
25
-88.1193153523 converged=true
F  0.59948023541341866061 1.70888909042436143437 0.23352642788708916077
F  1.34817018876140659600 0.30787921422866554311 -1.23769228707199241413
F  0.04589023145589171682 -0.59107630503590358195 1.90097079255688372612
F  2.02281376089577324962 0.15993300335099677745 1.55382087943525259988
F  -1.27130631237646163356 -1.12648221571215145786 -0.11660161731295652643
F  -0.97037104836969967359 -0.18111216237990465650 -1.99860303303730546531
F  -3.17822795025425142157 0.28441231371414471552 0.03470913613050910507
F  -1.77676350817302708407 1.65599524925474339554 0.89324015153731362027
F  2.82074327614930187025 -1.74690057763968953353 0.19573573498819674121
F  0.90739940705092969608 -2.29394905809022953136 -0.62645776244877071637
F  0.08162355866326442833 -3.27620123244691940911 1.77300885057394008726
F  1.84367378733378295408 -2.52466782488905838733 2.75510144290428726777
F  2.01499356495556769531 -4.04405307914007483561 1.25112268620048405765
O  -1.49912819104479044796 4.16767679618154662791 -1.94557183860972893186
O  -0.23075882311115369916 2.33799213336583955325 -2.06638171538551107531
C  0.48451994081733873454 0.45132067734704445217 -0.21834605008376659074
C  -0.96356098672557932705 0.07915691009614794771 -0.68464015405583511509
C  0.99133854454005754242 -0.46179365661570509483 0.95279446930726663378
C  -2.10358650339903885396 1.07429905788780399867 -0.29418293223817859605
C  1.51321093720802468674 -1.85814882474738296558 0.48917144098490794590
C  -2.49976901111101401654 2.07525527364690409726 -1.34033207746874793997
C  1.35328523466832306710 -2.94562655823737129523 1.59474302422868063900
C  -1.27558295300520363469 2.96150637876169131602 -1.83192328609204846401
H  -3.26555908739908806737 2.72958735004147490244 -0.92618725221631725830
H  -2.88732629294366205386 1.53866904663303194489 -2.20596303061364062970
25
-88.1193044888 converged=true
F  -1.38646249580847347183 0.20054081418558861172 2.45006671439688705760
F  -0.38180647928790867329 1.67063023011709854693 1.29364413049856930016
F  0.66026300268019244566 -0.77986331242225293003 2.80012049063127976822
F  1.69551125899713972522 0.38316493808792734255 1.35543226886121037644
F  -2.85260508780882915403 -0.39247839561330433167 0.76035233204409058416
F  -1.38992467724753021585 -0.96078655356525177744 -0.66228401094815603223
F  -3.11377821611701577353 0.82400868290143103323 -1.54046373740870756741
F  -2.86948016367350167144 2.08892990359677499512 0.18379518518826659657
F  -0.17041814284767159426 -2.55567330006673465448 0.76121683505139148274
F  1.81001294732085837857 -2.42967632804562638782 1.57219573813038859811
F  0.79652845681295225688 -1.81457579667900548159 -1.67956466020015082741
F  2.17354047326959598507 -3.09486772415003441594 -0.70901030445423263160
F  2.61195694457974880720 -1.01447710209275632209 -0.78800184052263144707
O  0.70652322369213371722 1.42694318153764942991 -2.82764502937761186274
O  0.53332204588753118202 0.52066868121461784558 -0.80108345679057091360
C  -0.69507270011793775844 0.36242299580779618884 1.28534909747449788142
C  -1.71885055017827448332 0.05827401892036377512 0.14602657466893148586
C  0.64741608939089589914 -0.43842445372160743222 1.48012131793480627984
C  -2.16331974643308067030 1.30365893963818391121 -0.68839302540545710407
C  0.93420080943037708820 -1.78855305633303229840 0.75608102969680390792
C  -1.12688703867728134966 2.10323086795582803177 -1.43539483403848389109
C  1.61541631092425608252 -1.87005416104986110781 -0.64749143987298429792
C  0.16860289871232964076 1.26918051333254733315 -1.73745865813589661641
H  -0.82482374841220007511 2.95151761557638891986 -0.82073347826069342759
H  -1.55466341508831384921 2.45881980086720997036 -2.37181523906160807158
25
-88.1192654540 converged=true
F  -1.56884344815811171969 -1.50840622415681280266 0.53452543628907323026
F  -0.74206604439939927165 -0.38441084050436652442 2.17417368523521226109
F  1.49889585820955373308 0.20799819772219871328 0.34792017219686766083
F  0.65422318166093618164 -1.35769281219616599898 -0.88729971001144181120
F  -0.56922014807520526780 1.84689617861134958154 0.75328238784709466991
F  -2.55319967069497177903 0.96750304323233626835 0.76613013538112362255
F  -0.09142670423917007017 1.06866908942143590266 -1.74342655430626214397
F  -1.73882463181809665542 -0.31600379482873430792 -1.76234609231142580477
F  0.45664988789676419501 -2.86385585397153219489 1.67450420454063397813
F  1.78759544978233786416 -1.33207825004682334225 2.41990936524337918456
F  3.24331978221794869910 -3.33478308965505165773 1.53082756812595111029
F  3.37752314046651669344 -1.80054965567455860231 0.03628269081834918641
F  2.12847348499869681859 -3.52236996890749987088 -0.29153407575784540118
O  -0.85789720528237045638 3.93937577926546600438 -1.76397330376650174344
O  -2.49472574710285410760 3.80858432806192226394 -0.25356708451609227817
C  -0.74186407686936339800 -0.48929347969416620012 0.82779349898976584132
C  -1.31355078855138529548 0.84342247517543078583 0.24833165165941184505
C  0.69601666631881276004 -0.86823451911655769031 0.36352407543149528601
C  -1.37028687743366450746 0.93148374482589579859 -1.30335583776359542618
C  1.34957281459377909094 -1.93227551937558805761 1.30173821122179300680
C  -2.28066713829329525964 2.00110582945967374613 -1.82302737667273095923
C  2.55139528096913625888 -2.65766922292954221874 0.62155773074777054266
C  -1.82872540678266171099 3.41208472108404903267 -1.21459599728723044443
H  -3.30255825398573854557 1.78899970904603078381 -1.51547349942511755394
H  -2.18460740542821296728 2.03406113515162845218 -2.90683928180968154109
25
-88.1192407978 converged=true
F  -0.45066355674781949370 1.15557171946836412246 2.01285739360193982606
F  0.88938782736073584978 1.33039367695164534311 0.31873681792989244643
F  -0.08028313342437273792 -1.60544747038106128123 1.97947004084290645309
F  1.61139389011846434485 -0.34097024965209227210 2.33742323853206190876
F  -2.38295880232715751035 0.54252319836362150607 0.66119676426803697389
F  -1.34786180610897798893 -1.15882333316277685853 -0.08349758046309242732
F  -0.06769532004853981433 1.06671085706056123499 -1.90259775221949412050
F  -1.64701487473256791283 -0.32777847154579331512 -2.25878781539764750264
F  2.79616947551086969526 -0.84663200816458905607 0.21073029464311143766
F  1.03476771532077060911 -1.28907209002333322800 -0.95025630523580506548
F  0.66165473769646521163 -3.62826408370883290999 0.36951180690710871968
F  2.21672751076260476921 -3.15987458379101004979 1.78105824233572795912
F  2.69492541480467995285 -3.44881296137128590118 -0.28969178483328272833
O  -1.17543913319063975109 2.87205940473256848833 0.16999133386714659899
O  -2.40762472992616549661 4.20203775867631268426 -1.12909840713974940485
C  -0.03029219461754928400 0.54201788000669814949 0.89449813277462675298
C  -1.26823496673157065651 0.20483767803030428212 -0.00729879404092029227
C  0.74735553335139282005 -0.73176651650405155625 1.38046451141743542479
C  -1.31697323609385819054 0.75039562065147480396 -1.47752933405024666769
C  1.58641131304627225340 -1.42906541816459697891 0.26680594301516086242
C  -2.28721088158805940793 1.87824699793571392448 -1.70052783499904358600
C  1.78804389413282383003 -2.95038553426386762624 0.54135003171062368033
C  -1.91775372408111266509 3.12311616872898412112 -0.79193060656963898403
H  -3.29623851325164896053 1.55359446542707835270 -1.45120356675946848846
H  -2.24539043923500614142 2.17794829469999751126 -2.74661277003736570279
25
-88.1191500563 converged=true
F  -1.69621141386298823761 -0.94520577933911853474 -0.81751366902395616876
F  -1.47915441766520072697 -0.96170363146717630087 1.29693689441892145986
F  1.14174452932217374013 -0.99273399130136319446 -1.08050274880742658290
F  0.15653050106928662055 -2.63226537021143247586 -0.08826246077072642804
F  0.38719495045413387935 1.45555698479112560761 -0.33906542510638454369
F  -0.50925066566399701529 1.25200256949930754935 1.58458808860898492377
F  -2.95766515832046206214 1.45701647261901334751 0.73908098886871720357
F  -1.69073283736431245750 3.11244461528923643812 0.18846590027707021964
F  0.78131309123156356122 -1.24161762274079667812 2.41318323304739790203
F  2.03178350316859734903 0.04132285596437929032 1.20579659067220212876
F  2.05143249373601044283 -3.43015335080359751174 1.62872021224627760994
F  3.49890849088598709926 -1.92634924281280395242 2.11667632402090966082
F  3.11474302228937105497 -2.41150911193311090486 0.06290211288516879551
O  -1.13801121013247286129 2.64378773097493358080 -3.35713637556022126418
O  -0.58447040704116037801 0.63919768807780286135 -2.54800358027471629541
C  -0.87475177503362022691 -0.54201067023841886794 0.15834631029536067048
C  -0.72489177538325755279 1.00333221095349345298 0.25988621264445960213
C  0.46948466199878180483 -1.32211129330611143473 0.02788026302132201595
C  -1.97992831632346555359 1.82602963106587545816 -0.15669190142485392436
C  1.43653258442141629203 -1.16133326754035404171 1.24190983141513733301
C  -2.47251418876800954649 1.74021089170069442886 -1.57185754578528324998
C  2.54742698933681310791 -2.25818991050296435930 1.25131052135758502608
C  -1.26480138860559443437 1.67308899219057871655 -2.60957928460045529562
H  -3.07131371939117325809 2.62640001876428863525 -1.77901578928530579304
H  -3.06819554435839325635 0.83735358030653483929 -1.69299270304017079880
25
-88.1191389890 converged=true
F  -1.77174848544411411844 -0.60863220210647084318 0.75978891607114118489
F  -0.02497924418514196887 -0.16397913126597701838 1.87302406759554451732
F  0.94415347765978285821 -1.13680532916908805241 -1.19724188006849585619
F  -0.61020032023100745366 -2.41008243394665200299 -0.39759071273503820976
F  0.44477824746465605132 1.22940201476738342201 -1.11155165742288986053
F  0.40007937246439190249 1.88697282111830544338 0.90716158376974509459
F  -2.54043835851386523572 1.71876711740581100685 0.70613010405096177102
F  -1.29541782597383070552 3.31446120173954428267 0.01061296349707638309
F  1.81465196812034479379 -3.18582788068622102529 0.24491935367125655665
F  0.69397238580729503354 -2.59436583259770658927 1.97973248064174867089
F  2.43015190357663524168 0.00601053748777705121 0.73034266961172589205
F  3.65171263015880143143 -1.73742217789407726869 0.95234958253057222510
F  2.51975223826798933047 -1.01364311905591764074 2.61910218206541101083
O  -1.50645087118112419589 -0.36139827963942183775 -1.69903939971646389395
O  -3.31422056105944218274 0.18186351541003720200 -2.88394892888673259890
C  -0.49579470062850344858 -0.24854264110846888136 0.58754307473242139981
C  -0.32757901506008035852 1.19151238953497129458 -0.01528818129890793104
C  0.26820069617175751331 -1.44580439548899497559 -0.08283662514947306987
C  -1.63613714344004379520 2.01323201707900878432 -0.26459234139578713396
C  1.30464536609827264080 -2.11592168527866908434 0.88430991316971452321
C  -2.22087081917513495810 1.91593106671127766383 -1.64623177759329730740
C  2.49436060590155284089 -1.19251015219150668933 1.30631235073664120350
C  -2.37481868265866946643 0.42086878111283987369 -2.12687387014709328170
H  -1.54796442204892747974 2.41516088784755922347 -2.34388577706761180863
H  -3.19463644209155983589 2.40331391021466966862 -1.65718609056216359399
25
-88.1191179513 converged=true
F  -1.49645052649567711356 -1.14701433850206524490 1.24130336986378431163
F  -0.34593144052488727924 0.14822548961431983305 2.50408394055415506330
F  1.76687992933316539990 0.00719122945317308276 1.22011208405517534992
F  0.86867970963615814828 -0.35324222691618112346 -0.70036125609889088306
F  -0.12543715094927812559 1.95803444515069768883 0.32711096966623148807
F  -2.00822588023072201580 1.67757474347209001309 1.36723839330226937250
F  -1.61729128732886495712 -0.52742759629272562005 -1.16629675686130829249
F  -3.21350437283702072833 0.78837804396734922907 -0.60962270997692091790
F  0.18927434177948601612 -2.85764139128404615064 -0.06109388139785897065
F  0.65010955828120375877 -2.55723023385776793148 2.03334005939006345898
F  2.54244481563818514047 -3.92905462423206719436 0.42927521724254241731
F  3.24059103527585534721 -2.23118268316144385821 1.53856571032620115247
F  2.94287162258480394783 -2.08130930795503354958 -0.58614685179356162958
O  -2.23696318093579815667 3.49830838715126946070 -0.60146689770314032408
O  -1.76647592855576451853 3.94022473558995356413 -2.73530177745177160986
C  -0.58668443275307413654 -0.15876757612969016886 1.21329673076086241856
C  -1.16008247487045323965 1.10723974017639603673 0.49558289042983832973
C  0.76634334482303445579 -0.65036170693488959405 0.60553200947767038542
C  -1.88164141676195395547 0.79246763206202253116 -0.85599357619885285686
C  0.98154395533383576034 -2.18303086319300509999 0.78545571265493918656
C  -1.50596847236126407665 1.67982580062126740650 -2.00814713104123576670
C  2.46160109588014774928 -2.60837374425008761136 0.53268941007653569653
C  -1.87977660757685760551 3.20799805646589986097 -1.74880886796805090633
H  -2.04604513252040298710 1.34709658988031089066 -2.89363885549998878233
H  -0.43465910386381156894 1.61463239910424127821 -2.19164593570872234807
25
-88.1190972422 converged=true
F  -1.52690285639909939519 -0.87476315808277360642 1.22332127663542911122
F  -0.81837169861263214798 0.90645596050394627863 2.20187493608255024924
F  1.06696121733762061545 -0.60564093944609231901 2.73036570089480257195
F  1.80035409050296668632 0.14493282365208642881 0.85605380196642477664
F  0.03296113773149686454 0.22386347961933047990 -1.10939481894941072149
F  0.00212038279730275558 2.05010204994623368435 0.06608893407245106100
F  -2.59438162043254827438 -0.02050626224937424080 -1.09423115307351226377
F  -2.85506111339333212840 1.39538723416571008862 0.50692285276780801873
F  0.24334208956002847946 -2.24050407212514635091 -0.25415130691118326123
F  0.31017677700962065224 -2.85707801179169962325 1.81410158100511265111
F  2.92445260996920630703 -1.98647731191732890288 -0.35758443873779505173
F  2.40947163209767767356 -3.85525190654063232287 0.56517876247475284934
F  3.11640050804992574385 -2.22947205115369762041 1.77140175348242556730
O  -1.80632476709140732396 1.22308824299609208985 -3.73545767075989942896
O  -0.19720469912496854659 2.49549159980252621693 -2.85885890575989387585
C  -0.57694228732397223602 0.07564575740488391209 1.17214333808855242225
C  -0.64909393946038485002 0.89295980659254914347 -0.15759523344469994477
C  0.81932966271287055449 -0.58852507183205649000 1.40683793507924548294
C  -2.10872058229800840579 1.15948609770159971610 -0.62867403301316637787
C  0.89911633682518909971 -2.06216614733778458302 0.90284943917995330587
C  -2.24309000830634852619 2.27599913953345778239 -1.61775242516690798134
C  2.37228866713102837238 -2.53726662973550798341 0.71448030754692992694
C  -1.31300557947530949221 1.96640307125307201019 -2.88299394059220448483
H  -1.92169883395780871638 3.20777927966772757884 -1.15701786135564899105
H  -3.28097512584915529388 2.32261801937287870601 -1.94284683141209901791
25
-88.1190439357 converged=true
F  -0.56595532071668597229 -0.20711402646148988071 2.19950429361894261859
F  -0.00351514064176386420 1.56383762775401558009 1.17588734036331987731
F  1.90083760259832112993 0.18801009135105387071 0.25296100341062371930
F  0.46195067323664495973 -0.88163194743837469680 -0.98595780035162283728
F  -2.64337938317651399700 0.67856868466186659461 1.20741139798164875963
F  -2.06094397028316000942 -1.09948861550956866751 0.12984441757013781560
F  -1.65605245619762531106 0.24806158424483124025 -2.10092432661206629518
F  -3.50040821636126553429 0.75571624110101032201 -1.14378784349470863368
F  -0.02629673366624052377 -2.54549185307861280947 1.32342512988479388270
F  1.67041570623510060578 -1.55178154995439321340 2.22722320480891911032
F  3.10936299222505052597 -2.14099515300229015224 -0.21287694316193428445
F  1.42062843687246265212 -3.35552360416685413469 -0.76605340574774438700
F  2.48375357389506890016 -3.75405086099472207195 1.05084793867560288838
O  -0.01575292517570886508 3.75007372686641948789 -1.97740499421050519580
O  0.45748587678638386045 1.67578532514827682753 -1.30746723532215636254
C  -0.37497853540460979183 0.30058255485194562695 0.94793089792690554685
C  -1.77455699703548064328 0.21788015107302971529 0.27290665494734978047
C  0.76711768509859146192 -0.52734855003138847440 0.27161644976234494697
C  -2.13925650994101967939 0.95256908548292940075 -1.04937290977672237346
C  1.08914525797668892970 -1.84616777496557737948 1.05184370751343458927
C  -1.81376284242887275688 2.41891050860682677026 -1.12012916865679557077
C  2.04652524159492177347 -2.78223002650281303616 0.25359347051351810443
C  -0.29042880778131552333 2.64335137085187632522 -1.51463507219191217956
H  -2.00484062803659401908 2.90004371531249161009 -0.16221685060976370751
H  -2.43189257967236782676 2.88099429479952151567 -1.88910735674160412678
25
-88.1190387682 converged=true
F  -1.22891786514849687961 0.49652129734675892747 2.05105591159532973933
F  0.61631537707787609204 1.38857304040068441076 1.37724036989463649583
F  -0.40794390351009918172 -1.97439727560074329560 1.36882447832360831796
F  0.94262461004021980138 -0.91811841645578184945 2.67097187122705514994
F  -1.36982548004481996529 -0.63364901719848221173 -0.67869829953720273163
F  0.21352986742830798450 0.78679302410300921977 -1.12651777838974775925
F  -3.02240643949722986861 1.21664933409536479836 0.17937605067775375112
F  -1.47890706191223331167 2.69931258214227565162 0.40686300551787329960
F  2.39757060567038848831 -0.20297168242027871510 0.19784020312728639590
F  1.19035584342290312598 -1.75509901960014014222 -0.71998501664367231534
F  1.92509612524010065293 -3.39966187113987627910 1.56786991933364627805
F  3.36194732099407289638 -1.86640927121189492688 2.01828009327250024185
F  3.41219957066798329492 -2.85857796379987316726 0.11778190524931021754
O  -1.62234799040914912105 0.39846575157699820613 -3.37172667016132976414
O  -3.73637383635309738850 0.59025757870376560632 -2.68508468259015176116
C  -0.25191327112906153340 0.38930319965327930820 1.13205644588024800790
C  -0.82987025988704765656 0.54458249069066444470 -0.30852522767666945569
C  0.47497556386075057144 -0.96401422089717503372 1.40491921700381916516
C  -1.89381029222435093295 1.67697018084631555013 -0.41968364802346486142
C  1.65941586937268592550 -1.29692742012431483367 0.45100961769676983781
C  -2.13288610033402692423 2.15879371725335156285 -1.81741711258784843785
C  2.60615785006716738081 -2.38192114969800483593 1.05658177970782962696
C  -2.54599157292492961346 0.91138303672132781053 -2.73222604305177663164
H  -1.21993471319411295184 2.60329097842866685752 -2.20824306829904770666
H  -2.95385781727381058204 2.87341209618413939708 -1.79750132144672813972
25
-88.1190183435 converged=true
F  -2.24880192357504737899 -0.87138689218896059341 0.26683830548607273547
F  -1.79488399436292422884 -0.40537996005120285892 2.28265469177695567993
F  -0.44347497885787046101 -2.49152718405503836863 0.22089257698112613193
F  -0.21727115432259386241 -2.06816493881891805273 2.29556559819903016617
F  0.35866262020821049195 1.35497533522912072534 0.49053986306590346977
F  -1.18328255209720012431 1.78076146257630307801 1.88469153570552938604
F  -3.09423098242507377265 1.37605804419265309591 -0.24835657667642346835
F  -1.85500244943458936220 3.10866623825183152618 -0.03042480976753105665
F  1.99132380119597707235 -2.31071487354810756187 1.46053950357388195869
F  1.75119593340103985035 -0.20224872338696045504 1.76432731539436771229
F  1.79849131159420405623 -1.92789443709235031044 -1.32226452722848852872
F  3.44446473908862937918 -1.24153327068270291633 -0.16001812796302650188
F  2.10116297885805458634 0.18997828012730461067 -0.94921112029802368060
O  -0.29096496526916582059 -0.42246425664714376547 -1.16916004102041659607
O  -0.99599555253244353992 -0.21644556110930554538 -3.27199093148006703302
C  -1.25098303259717513747 -0.39828382659170025182 1.03084693932376758596
C  -0.94029566848253631761 1.10481738957903918852 0.72576023030607661468
C  -0.12188296411605796521 -1.49948648300069287131 1.05960973279559000915
C  -1.80529066944182692289 1.78409118117170018003 -0.38385704628613437350
C  1.40397605457636642790 -1.20281084518867120714 0.93622936921815214095
C  -1.30030197337654573886 1.64406004067379485356 -1.79468126923559090358
C  2.14268099627415153918 -1.02132513984837225429 -0.42599078624144143257
C  -0.82874632798946312739 0.18340782744169981111 -2.12512836068522137367
H  -0.43082712438535264443 2.29224986785616779983 -1.91379798479632734498
H  -2.08452012193079072588 1.94316172511054796601 -2.48855208004772521235
25
-88.1190108213 converged=true
F  0.08759690292042249249 -0.27515797590352264468 -1.06244331561534788300
F  -1.28392532499827316528 -1.66564388257979389962 -0.21297506857587558682
F  -0.36916857925593216105 -0.99902908254328559590 2.35770976729974091057
F  1.23189582065089564544 0.15138796282423061523 1.48046336572696279887
F  -1.24274758940375851246 1.38487948026842744298 1.38800337290876152352
F  -2.69495627221267586293 -0.11852229747396862691 0.97866430940243920311
F  -2.90099087178529080333 0.38653658974850974017 -1.54388669757716945341
F  -3.25816192767388868035 2.09538596413887967529 -0.27753214283469473944
F  0.37621304405476513333 -3.22149267341668199549 1.08447223805980685896
F  2.01402685754745336411 -2.26913671190641652586 2.10985614430542733899
F  2.96195241787154950330 -3.21145128443694938269 -0.09118218837380853703
F  2.71814944190029983417 -1.11963207415183974014 -0.48792552010515521932
F  1.32131395087253977749 -2.55201251884824742433 -1.29691209767987314372
O  0.57500332684915811399 2.10253060060595631242 -0.22767056567569421421
O  -0.21281718933398133253 4.11420291947207950045 -0.78788745619472488890
C  -0.59990689743467662254 -0.52522010115818318354 0.05744981348193728410
C  -1.65791204347848930567 0.56306050317904743352 0.41316437327588545481
C  0.36847637699252028254 -0.83857007969625263488 1.23659684955576221199
C  -2.24847098889655860887 1.34307369112755958795 -0.79960137163733380206
C  1.19100040531381234921 -2.15262346386277325649 1.04976580416478904034
C  -1.33968622306182560955 2.17577280369482251032 -1.65691068340596503461
C  2.06109028304405361709 -2.24324547939391827356 -0.23818463707857459588
C  -0.20325727076440869290 2.88290018574587403322 -0.79561812707057399940
H  -1.93920990564948181323 2.93822128937402959892 -2.15280737273188016445
H  -0.85030574406820602640 1.53634663519243952479 -2.38954679352482779464
25
-88.1190001846 converged=true
F  -1.76292870651763378120 -0.65821687436230358337 0.31978417620473348348
F  -0.21935245346528361998 -0.38438507300380519993 1.74805094522328685613
F  1.28411585527221672187 -0.81904335363377045454 -1.19662655793195660259
F  -0.36692746594096470325 -2.20409105136068550479 -0.97494738345188691753
F  0.55701267989134262137 1.50393328388245461902 -0.92241895982845967250
F  0.28804784094603241851 1.80775284006028469364 1.15917409648688640722
F  -2.25239690050488983175 1.99536673159601862793 1.10522122330459793282
F  -1.26263339360343485041 3.32944341120070896878 -0.26626648553067905345
F  1.87311392744770932595 -3.15414891475498215812 -0.01983822353225608154
F  0.45798908395860649101 -2.82125132378755916207 1.56166956479283891568
F  2.16505323023892870538 -1.46083567195093544377 2.77265529667255528068
F  2.35989575878478508031 -0.09326869952732767810 1.12741391155233094956
F  3.55835482126483526599 -1.86600177599518701754 1.19830670235411695934
O  -2.19001748333143941849 1.23486807988267210945 -3.55134919802057380522
O  -1.06491112566140722073 0.01104583512345457333 -2.06524039821074634204
C  -0.48343328788084211078 -0.27233924162979211703 0.40952151591601687608
C  -0.30783423889316452460 1.24307088659763964600 0.06569196098194986233
C  0.41316446846586329933 -1.33315417472264274856 -0.31784567233334609648
C  -1.64598908159768897441 2.02805437851903258561 -0.12571182749619985719
C  1.25764827555095659584 -2.18900161945880533665 0.68811268930563784796
C  -2.59873439316352383699 1.62780263829412819021 -1.21941930736639636557
C  2.35139641499374540956 -1.38165099906382238260 1.46289973780949766891
C  -1.87406131842714240854 0.88908362519864425622 -2.41430523500472293819
H  -3.09967920243543648695 2.51832436789812508238 -1.59659597262938102169
H  -3.33169130539218283360 0.93120369499843824723 -0.81287459916781257263
25
-88.1189791198 converged=true
F  0.85364410223708298009 1.38845469778094932067 -0.49556170798379467479
F  1.08281061859412597315 -0.51277915710023225238 -1.39374139421970189012
F  -0.18247431525922896967 -0.32720273036075148143 1.89367300127067150761
F  1.85791692600971747318 0.08255699281158296321 1.35847076866616456314
F  -1.92423740566021672649 -0.42433477311362299833 0.11208491875143146432
F  -1.17466049189179022605 -0.99096803025826518674 -1.79325927408707963551
F  -0.82976005463209601132 1.98127826982646415566 -2.21334787816559996898
F  -2.54514876305910586751 0.76431035889231768721 -2.61011594962654402963
F  0.25435492147538296681 -2.59659818132242792288 -0.17761037728860018525
F  0.55774343765111844551 -2.63547228239628328339 1.94805682685544678812
F  2.57290764473217148378 -3.69849358752173351661 0.25957462738611725150
F  3.12011166706697729012 -2.29905899175674122148 1.78922360869309504672
F  3.10680897135376765661 -1.69159594582696448661 -0.26991562972655375185
O  -1.00292707716537976559 1.87257357729950024705 1.00869534039091113264
O  -2.18449124567828212307 3.76370414132701114340 0.99744325167771852314
C  0.35221858798077210206 0.15202995343450165233 -0.45146773597630912578
C  -1.14673158112941409037 0.02701166874634545328 -0.88735048790753157100
C  0.71906319679111652121 -0.50087981455845920209 0.92666594297258364499
C  -1.79858988087800875100 1.27176001746524702796 -1.57628830218507887118
C  0.97423925112593690034 -2.04449212200125662875 0.81266692765248094155
C  -2.65675821142793866514 2.13573980182619616031 -0.69547061953478006568
C  2.47665053706125082300 -2.42747683459217711288 0.63451362418782086827
C  -1.86281300148099870917 2.65477032948753555175 0.57058314484230332475
H  -3.50363191986556765656 1.54911568171689251194 -0.33995988761103851372
H  -3.01104391395140158494 2.98860796019441865568 -1.27250073893411297377
25
-88.1189694380 converged=true
F  0.72140112780996512587 0.72668982577232199560 -1.07006103836346078140
F  0.23027705933291228724 -1.32115079387400213839 -1.25975247967694725659
F  -0.12415559829403975678 -0.31457645151841662212 1.98481156892967858241
F  1.76849054035271002761 0.19016391964576831453 1.08533503347976312270
F  -2.12263925530314301326 0.03816874896253238947 0.70036225499383220061
F  -2.06609947086161005458 -1.10715943887968815140 -1.08374721020257380744
F  -1.22498401356220076863 1.37528206846613865189 -2.43803989570388868202
F  -3.22608062901441439152 0.83915884134841123299 -1.89694547497183130247
F  0.01415408107851509611 -2.84514488683511279632 0.78726228490518357361
F  1.41782755488168543678 -2.29097894033074167552 2.31755388777960780189
F  2.73432928959438514838 -1.51208811934004461186 -0.63859419035883779880
F  1.92551924102994309607 -3.49961783519888491867 -0.65801935736551653289
F  3.28668674558684204001 -2.90675917755439083834 0.88539000756748131860
O  -0.70755840885244980498 4.09613834312051583453 0.40643044057497662580
O  -0.34271605645210106994 1.92900533902554238708 0.77562047823052426843
C  0.00636946092103235495 -0.22620273318959296938 -0.46401429616505140974
C  -1.54216886571088429569 0.01419165575622272427 -0.50907669426061430418
C  0.65839466373231647633 -0.55017922957584441956 0.92629237566838706908
C  -2.03016043969516335466 1.23670356047592222559 -1.35167971655313534640
C  1.07387515492149021590 -2.05641713201670572886 1.03787746813632342224
C  -2.20940410698807099266 2.52394909101350073399 -0.59597822850332882183
C  2.27468398855064801722 -2.49252971985430171742 0.13098270094282413178
C  -0.94919492834848284701 2.89651759563885091708 0.28143871791369190483
H  -3.05407228420381793299 2.41105769151430449071 0.08435277685051079111
H  -2.40757285050602387599 3.32833877742771910846 -1.30273941374758184253
25
-88.1189617085 converged=true
F  -0.69528033787069587479 0.33240627349810314417 1.80276584098634362618
F  1.10730778598320322992 0.74422747963787361236 0.68637380914901580109
F  0.62146031227352627191 -1.89845798147143929313 -0.56370202083109921531
F  -0.83765082687888947621 -2.15458166342336676635 1.00727234549413324771
F  -1.77814336233348280203 -0.48425319964833818398 -0.85216414813520990901
F  -0.01307601640004232846 0.52088570674632195256 -1.62648981000921555307
F  -2.61958619039135509610 1.64391059214546686462 0.45234233116468447466
F  -0.72395204642854582566 2.65388234877669715317 0.31049426533063773093
F  1.09665777213509074706 -3.03190305925278691390 2.26260007543589036771
F  1.51287358737620847293 -0.95740979852871577194 2.65885900041688305606
F  3.09116957800292668779 -1.02556200548714371301 0.18071869823581371284
F  2.84415579163675591445 -3.16063275680281696722 0.29297250715446898628
F  3.75012976322891189440 -2.09626949341098267610 1.91956027809739637746
O  -2.40176727789555233272 0.81280287559201203074 -3.35444348989812679562
O  -4.14680409598305299568 1.48662943022222537870 -2.13907974089230812353
C  -0.04474137417312165632 0.04667586590477454389 0.66287827679647237655
C  -0.87245657575584967258 0.47781644116165616909 -0.58990189600760589705
C  0.27269619376269194078 -1.48156045442118955435 0.66690365335165568972
C  -1.58570309928350727802 1.84935477571172413036 -0.40462748884657728787
C  1.40830266383176305744 -1.86439579716126613285 1.67440953946841530886
C  -2.01204885770326180605 2.49762323877927316929 -1.68569135491258981219
C  2.80170839505858770835 -2.03436289993172358948 0.99309777038452906606
C  -2.96273061333191600752 1.48911435749879683677 -2.48644524091604246507
H  -1.13436372657634421124 2.71789721014600749172 -2.28972583824700981481
H  -2.57295544228401507070 3.39872351371881942228 -1.44391536267055053955
25
-88.1189360303 converged=true
F  -1.57279254585767191976 -0.04246495654225971444 2.31621691570128662718
F  0.54157143745804980917 0.34391236869528274411 2.25131180544030851109
F  -1.33191101008635048863 -1.73556767645638232445 0.10618687925591253907
F  -0.48505064572272049706 -2.12040427860971059104 2.01237883893407154545
F  0.23404668109486859162 2.00393043364832079689 0.16585769408553080462
F  -1.21378832959193250218 2.25575189495824934838 1.69036816256637600908
F  -2.80815492979141279051 0.29562947679411555324 -0.09665705743395366922
F  -2.83795710057385974778 2.43394395938687679859 -0.02883401841577206554
F  0.75100243145644696163 -2.62954475480151383948 -0.77736097480692478712
F  1.57555895873399021134 -2.69651028523944713555 1.18968727371972837759
F  3.33556717885846065741 -1.36087296111873601312 0.43864901013522500373
F  2.11035657632118223148 0.35620842346500908304 0.26394255973096597545
F  2.44271212706386631197 -0.92845551128099090832 -1.43740258203049231511
O  0.03373767237082170301 -0.12399948341598990287 -1.12804156000390642944
O  -0.37021294662297915545 0.07849892582614004244 -3.30976181177949380086
C  -0.52596097956788667727 0.09063452978332472987 1.46023227965394153394
C  -0.84994562685586527717 1.40650820175278368218 0.67925844412714375675
C  -0.32236058450247578877 -1.35128267417719838406 0.89276160856214092920
C  -2.02685298352442355707 1.37957478296150570785 -0.34805098440379095281
C  1.03785415270767344964 -1.84767384958902525227 0.27301531944187668044
C  -1.61360600108574003819 1.45836972748491233709 -1.79490106085157297144
C  2.21146799015481398953 -0.89846646513234773579 -0.13738286173845648541
C  -0.54858733259587499909 0.35862780004482563978 -2.13068714189566366102
H  -1.17132866326601980944 2.43539171629490924786 -1.98926924756637735214
H  -2.49016352657493467149 1.32082165526734551797 -2.42645549032808194312
25
-88.1188708265 converged=true
F  -2.09574925445611803809 -0.65519689748842624422 0.35190155857319721511
F  -1.13818679596525451636 -0.10471541580007789896 2.16879057421136067774
F  -0.19897593085467837892 -2.17531762745780188339 -0.30615310979978727079
F  0.12308426691885657189 -2.02520574588385127157 1.79108681946443448751
F  0.44862866748006535733 1.50983030999282408224 -0.31275215717190796294
F  -0.51701571824567171820 2.02448922172681378129 1.49957830637677957952
F  -2.89667880225499274616 2.02097117636408052377 0.57256358037512533610
F  -1.53461560986044909249 3.25357180889966324244 -0.55207597680123843276
F  1.90880102162488674011 0.16827349819551734589 1.27052736045840841683
F  1.93360197445412396178 -0.50355060942053730955 -0.79630352365126866321
F  2.22965672868008057961 -3.20005623043452303023 0.35013395388521428853
F  2.71517893957271594374 -2.15027332006539806386 2.16000881729937344033
F  3.82590753441910580435 -1.76883593057754118227 0.37055209005525507893
O  -0.60050214897630049826 -0.18683781867973758839 -1.69543226508777999939
O  -1.24927249109719595843 0.67832909343893876830 -3.64580275398082820359
C  -0.93238438350034380520 -0.17793073565603037545 0.82433856119286286201
C  -0.69276466238742440140 1.29442045496019764173 0.35626726121155560811
C  0.15228389853517906860 -1.30040082134370815758 0.63745603972469355725
C  -1.90647863744704060274 1.95320437151560888367 -0.37458943184695236983
C  1.63421586124005036034 -0.87092661272155746932 0.45261170832814301423
C  -2.41340994201594361002 1.35994644884741866520 -1.66158981708172293068
C  2.61134911323004015316 -2.02837386885101400580 0.84149776742006499042
C  -1.30130032922211946733 0.53932201441001070830 -2.42571624222183990227
H  -2.77642483552132546265 2.16151719396924013594 -2.30335319563694085332
H  -3.22374646435017897517 0.66630704205983204425 -1.43848392519620293939
25
-88.1188421162 converged=true
F  0.41634237465256784816 0.25249076987283985973 -1.48459170231288406505
F  -0.28213059629134484840 -1.65952446294596245302 -0.92102677722143333483
F  0.45841988063379146556 0.26799273122917816048 1.82804543896761773070
F  2.02019298666983759816 0.10345724041579103247 0.35086377490511067023
F  -1.80867001001678651129 0.54772802292347444464 1.09044741934919997561
F  -2.38899096193296589519 -1.03376809811556924501 -0.19732349191336323591
F  -1.79091592571415092472 0.82237891833594434221 -2.42527958137948518313
F  -3.57960055345500016699 0.77139405534363936212 -1.24939778842227666722
F  -0.01080466239709182430 -2.58051307634280124859 1.36054805791811816995
F  1.64282892128151347677 -1.80276081184810665903 2.48461925120773674536
F  2.16910570825039972220 -2.28446241147330830756 -0.90576681827013194592
F  1.89672186374583784385 -3.96160681719309781812 0.40181280808371327984
F  3.38282243875347710116 -2.48038414306211008054 0.84692788634153481908
O  -0.27298589630056818711 4.10328737061554971177 -0.78116965069995003557
O  0.04921848710451062758 2.07906454235375015571 0.09333653848279031828
C  -0.16356685984931401689 -0.37691147116199447131 -0.45732624624129508684
C  -1.62805531630419730860 0.09824472356632907299 -0.16111788897657136621
C  0.84426437662235942483 -0.41708200493393260411 0.74750398766946324347
C  -2.25023080288061816390 1.10850158677243726402 -1.17855140015138615261
C  1.12722845376666613859 -1.87675762752818009460 1.24260489516726280179
C  -2.10484912168945825783 2.56336488801325090847 -0.82799871172477268466
C  2.15743803676909662315 -2.66049125194988755894 0.36707247849564883513
C  -0.61626257275462115182 2.96158699380011558588 -0.47735060984518923322
H  -2.71209314955061886465 2.76972043474116524919 0.05378298189091028358
H  -2.45022509911332342369 3.16761089857147526416 -1.66560285122037554650
25
-88.1188240986 converged=true
F  -1.31484114380453998017 -1.24118254491078694457 -0.01308983264555914350
F  -0.83412434174789051866 -0.05751897684694939894 1.73896551310751878994
F  1.92306657653918633422 -0.03809148595533816406 0.61089188553742457266
F  1.15663475544147109630 -1.55351225093176692482 -0.72424358803862565193
F  -0.12109112125308379992 0.66596466452704183858 -1.62130390107123689702
F  0.31362824262560023980 1.87426062092600487219 0.13246943487730480915
F  -2.84340682542390110754 0.73407198727610856182 0.23011797068072889494
F  -1.99087645716551286945 2.68809505379171342909 0.39352500152369773723
F  0.01501521935978450406 -2.74622673891845403560 1.75862938046415773208
F  1.34218798813064599251 -1.36930506863282297481 2.76682712397765184775
F  2.01187642594978211008 -3.85658906054628669580 0.39337904762636988210
F  2.60969560594646310392 -3.65439745542222560459 2.44381360654525670029
F  3.41083499402926237920 -2.32399743309548512116 0.96298340136539428702
O  -0.58985534102773473641 3.34546415770497151954 -1.98535623720628406907
O  -2.13374058549070078072 3.43884556084669990028 -3.59124408935753525185
C  -0.46719472602881884082 -0.31263362657313342741 0.47137255483767215303
C  -0.55606931212806687270 0.99000653403494409677 -0.38640376076996352239
C  0.95581036798026386414 -0.95575761908737422168 0.46446480961176661584
C  -1.99737362048198341391 1.60304730525324057311 -0.41994836747153951872
C  1.12642023574224370286 -2.00824543606820693498 1.60528433243998569502
C  -2.52091989925764048408 1.91349525791961849741 -1.79402151544375687564
C  2.31907029256739916079 -2.97781921634403090593 1.33936797432362375559
C  -1.64927130887077688648 3.02205989437510647022 -2.53539542601435075042
H  -3.53862615681891323760 2.29106139254983309783 -1.70210558370166875619
H  -2.52164786481252223282 1.01146548412763648273 -2.40391773509803785558
25
-88.1188092508 converged=true
F  0.56516791504797336820 1.29427185002308897666 0.52809623183247389466
F  0.37419400941418062834 0.04964078379374559091 -1.21718400808618021358
F  -0.31630899371361381744 -2.09103877027537832234 0.76470925436175185563
F  0.49499560886461252407 -0.68858782021264886009 2.19173533353055427497
F  -1.94075669855622501281 0.07181621508518939989 1.42811885873481969611
F  -2.15908930524334863321 -0.64261459945964216622 -0.58659464887421008950
F  -3.47275061996003353570 1.67659372366566628010 -0.04906287747980930813
F  -1.70081691823365499516 2.57058774801554346112 0.77524524300936670240
F  2.69812258054020270848 -0.38499943857422630478 0.21221719104740496831
F  1.86910629873863665118 -2.18649336318879816687 -0.65735759707287400033
F  3.71320324303502147245 -2.89721222540188838579 1.07447269493232777648
F  1.83460436734761755950 -3.25050928399481220410 2.05010478273859497733
F  3.02206730630780784352 -1.53846460154166186918 2.58329062153390731638
O  -3.53423940771172651054 1.52552014583171047235 -3.04161584695422959612
O  -1.60701006664457968220 0.40440039370098634919 -3.10946517020788171237
C  -0.03416940276671392995 0.18343525287427234205 0.05109004077978698821
C  -1.58100863754422293894 0.32631061374510184070 0.14138749722939963904
C  0.49139263480509659532 -1.02670448833813821032 0.88893644326842702341
C  -2.12632276463916181086 1.73331382196047911748 -0.23536680263672993263
C  1.92993331353402752804 -1.45724715743547017510 0.46759502090643423333
C  -1.76578615628823776262 2.26256299553095052701 -1.58829806230112113852
C  2.63477163711050543782 -2.30556316225590895996 1.57200244591296223184
C  -2.37063061855559009672 1.28856517287206395750 -2.71063988697624846935
H  -0.68576014276815233650 2.32230349767810162476 -1.69941348382714574328
H  -2.22770718212042684314 3.24267369590167975346 -1.69894127530177474483
25
-88.1187792016 converged=true
F  0.31701988711230799645 1.75206249466100194567 0.35192606639198387164
F  1.34081082158831410567 0.50449786104405081044 -1.09398001625414464932
F  -0.05268493519961098270 -0.63846893922099201557 1.92400513884597645919
F  1.86282611326883396075 0.29204308204840695451 1.69006804066235094552
F  -1.27147774209002739632 -1.18297996267868388287 -0.17561083572513597195
F  -0.86398996925134285974 -0.22304341814859043880 -2.03567078318545569005
F  -3.28103360631419427307 0.25382304207884581748 -0.85799978489049433250
F  -2.32184685063012441475 0.89768410527559583389 0.96252825025847910112
F  2.87321178406854738085 -1.49328680234827837481 0.28925147808870954602
F  1.03521202301312431615 -2.17769057482635552958 -0.60433746313338254641
F  1.89370079898726917378 -2.42819017940694692470 2.79602467274077914894
F  2.24275913345346822325 -3.88244209097213399673 1.25829604633076641562
F  0.23472984481938513612 -3.30131588439031009585 1.73845632819429174454
O  -2.19110170968727313578 2.74088074560660066581 -3.28754878423305108015
O  -0.25071411141122823540 2.32453142576446225576 -2.26717212866022332918
C  0.39229430850820545817 0.50632337339370803164 -0.14423837807019776469
C  -0.97729496244561542273 0.03393631433433830225 -0.72608685265348560378
C  0.91622770663367902877 -0.39652082046630449108 1.02506852952450722150
C  -2.19936615382792854945 0.94943998146048069753 -0.40913417688305497855
C  1.57294540214421574298 -1.72647574484039512122 0.54000048021479041260
C  -2.21707701057882466955 2.36403860687391498274 -0.91073438845895893223
C  1.47712557970618529879 -2.85684337094842621951 1.60978116533034021352
C  -1.47675323947446757167 2.49220303056854008972 -2.31512169873782358565
H  -1.69522306927350552286 3.00343161615097020700 -0.20111808824097399118
H  -3.25509804311927108955 2.67492310898650620388 -1.02159081735657930601
25
-88.1187195154 converged=true
F  -1.37391423738538431820 -0.65072610058944713174 1.62523902229389571872
F  0.51998984227693889615 0.30110162061946516010 2.00043483955971579391
F  1.29904465327792428830 -0.40481840041440542155 -0.66919777862851992367
F  -0.49535026674655024959 -1.64144546120722778504 -0.73885176502287164269
F  0.11904577894649867598 1.92143258954372142533 -0.27300058282847344815
F  -1.05433235297294602972 2.13430612575930878094 1.48968127387629611924
F  -2.56671123417716939841 -0.03999968770372938631 -0.57754385227312055040
F  -3.17362468389631402488 1.68369051611803843826 0.52666591022206610262
F  0.92408670132936798769 -3.33772905994117108364 0.28246012831112682351
F  0.58243258543299070151 -2.29456625767147892603 2.13034388793297013720
F  3.13588606240801492930 -2.77514779279534229417 1.93236005683853617754
F  2.94356648685131983001 -0.70096875878911901747 1.43133570267151233324
F  3.25552569427799687318 -2.16231275760059915569 -0.11777981193457710829
O  -0.59216374020858453253 0.47302913501726467915 -2.32583647444850871722
O  -1.37491185551978412072 1.89948776850325673493 -3.85259662218478249329
C  -0.35242229197021901488 -0.02261251407753899975 1.01471598840950494314
C  -0.86444639017016067228 1.32107760094804405071 0.41488827265564992564
C  0.37246909189796406636 -1.03229021263473774717 0.07400237888236314843
C  -2.22009372212091049548 1.25566021033712393873 -0.36220725587250840460
C  1.10265453449859074375 -2.15663655193512138197 0.89889248628468720881
C  -2.24685638989864022719 2.06620678959833892208 -1.62741763446036857843
C  2.63966526988589800240 -1.92992904067326964679 1.03351102951530693375
C  -1.30056548750441658413 1.40870370272147571455 -2.72482803422737784871
H  -1.91006126461427783170 3.08289895087537502150 -1.43331182125331935140
H  -3.26371078389816782206 2.08414858599182339916 -2.01689734421915467522
25
-88.1186687660 converged=true
F  0.24438198373021408072 0.20650705494614177149 -1.37541574371845221059
F  -0.45644391959584829088 -1.65771323036619477875 -0.65756758468933196315
F  0.46312630099867924116 0.21350746448622762164 1.99025959080974246262
F  1.94344817492639365675 0.24071637906473475343 0.41512948822067152754
F  -1.78915800190152163296 0.76784286922329547664 1.28514482138860430815
F  -2.49404549443614786952 -0.89481176410878104921 0.17618626624581901208
F  -2.47651387013011259342 0.27758698548374960424 -2.11083513273429179691
F  -3.57882853764679609299 1.34365307869393779683 -0.59771858049244519506
F  0.16113044106197038641 -2.51853534169064552373 1.66981641945121683790
F  2.06625213055894008107 -1.75318474666505763615 2.30758208461733405059
F  1.31393919821511628854 -3.77718807823948976576 -0.13896022660972873197
F  3.19008131493655877620 -2.99929699941148886211 0.54054271825246213989
F  2.11358154482530657958 -1.98260585439072611891 -1.00261428101547278580
O  0.05140503530870255133 2.11807519176177727616 0.27273855993189699554
O  -0.78830207525672879587 4.16104900925968834713 -0.02894323258903463286
C  -0.26162416033563962170 -0.35776011729324413979 -0.27175503230255465548
C  -1.67941568949545105838 0.19822186653625739616 0.07796208419573373571
C  0.83353344798506290303 -0.37850623001030109238 0.84887314221584686535
C  -2.30685850526612767908 1.10400405899101428098 -1.02819029082939139563
C  1.24109338412704728327 -1.83811994424093061440 1.24792404616062557743
C  -1.61823150392445103130 2.38575777248581788470 -1.41348787429784961134
C  1.97290483498222424252 -2.65916246488362828515 0.13275043655162899192
C  -0.69444165872493823777 2.95737270959070608356 -0.26289316479100427459
H  -2.37203810014015825658 3.12895738748938612162 -1.66980561804953708815
H  -0.97377427480232248147 2.19619394328778350101 -2.27166089582247554546
25
-88.1186656064 converged=true
F  -0.87439379687425011767 -0.36495601722142212431 2.16970476350116880937
F  0.37954637022200077290 1.10665313345629190422 1.24117718491104578327
F  0.67319235397040577684 -1.19957507677134112001 -0.83610082703612775834
F  -0.04283449680906489809 -2.32444799363133602910 0.85398489555033163523
F  -2.38278055300346691681 1.10498448947541128007 0.74481335009412596992
F  -2.16252152802505115403 -0.80919231856075035658 -0.25343381412022120136
F  0.24691921186002460664 1.31934941014122508740 -1.22200266646489530409
F  -1.20901807266394412110 0.19006450992966636426 -2.31552493169219797409
F  1.90842752442601426566 -0.80074389172618920529 2.42893710996051659379
F  2.69641259712214953481 -0.15594380971329180330 0.51911211331573081651
F  2.24921736806008354392 -3.36658513765544098462 1.84239859507162595520
F  4.02045395614220257841 -2.30014918167510629132 1.27095632587800366764
F  2.64511594318568077355 -2.97004279862690090397 -0.23418237478243877914
O  -3.81392190234367234325 0.95498275107486829683 -1.58937633649196152774
O  -4.04784295503194346821 3.09543838319595199238 -2.16927838382165072417
C  -0.35309989580804290732 0.00938463668753058630 0.98238941391645506762
C  -1.53478833477600451474 0.35005556265402754113 0.01700104605181208817
C  0.54854735344317795409 -1.16865953317588155969 0.49872931308076795531
C  -1.11053900422906015599 1.08103745183630461923 -1.30027833551039884163
C  1.97598234419431451059 -1.11326366839751256244 1.12347018557730238264
C  -1.85155782939286739364 2.35720209399386515514 -1.58144922685034972076
C  2.73384418722932620582 -2.47052202009758614665 0.99179142089163296880
C  -3.41083848786437782152 2.10410699386046307069 -1.80399369852208124598
H  -1.44941963061308953797 2.80110083805420462255 -2.49114071150353222350
H  -1.72890072242054682050 3.05228219289293178917 -0.75264241090466676987
25
-88.1186514212 converged=true
F  0.63340974686742546051 1.19632298467083519888 0.38087585245385846555
F  0.15466700226561594378 -0.15686395823393131654 -1.26649939672340239305
F  -0.50096935143420773251 -2.07444228338430836089 0.87775420047638263998
F  0.50256988704081284602 -0.67112544199465484773 2.17408437756505446004
F  -1.91822826934022105938 0.17357185032546829095 1.51809560723052716646
F  -2.28042318799587784284 -0.58637624372994701094 -0.46523297746063674296
F  -3.42463737576112103866 1.82189146951981428835 0.43776055817599923703
F  -1.48621524550162931178 2.73780755940513742530 0.41510097784443189539
F  2.60142585725221708870 -0.64847415543317710185 0.06067968557792383089
F  1.56264462978599327769 -2.40204339940578792678 -0.67701532990873192208
F  2.95920860775487337690 -1.73817040363577302031 2.46571117970159736643
F  3.45545417484824213261 -3.19309192822507403875 0.96947274425156859667
F  1.61378251448734233442 -3.36410305815425347831 2.05584901189854063475
O  -1.10536973840127727975 1.62531486335508557062 -3.66033964782785581349
O  -0.04232185699888024732 2.50309121575382809155 -1.90798379550845553787
C  -0.10081091458454191634 0.13515490851494840752 0.02058265039813975128
C  -1.62511498509381402400 0.38227324890591812823 0.21037233959415826967
C  0.39046745788015868595 -1.06928833984506921340 0.89424368561010103562
C  -2.20171394611497683869 1.76839501452068859066 -0.20154264466262458710
C  1.75908764179014620588 -1.63412939553296454598 0.40798754245218338266
C  -2.38616750704290403462 1.98624007924353596088 -1.67615284182233748034
C  2.45726628219545872867 -2.50034464125203736984 1.50283157369122055691
C  -1.02409649349333098378 2.04218562023777483461 -2.50165831365795376939
H  -2.87631171631781246134 2.95140068147363976436 -1.81011514311014543033
H  -3.01240121408770322731 1.19736475290035349062 -2.08979989613946903759
25
-88.1186443400 converged=true
F  0.92668888546951144747 0.68732899834664329397 0.75374865738623675337
F  1.10623371164067418881 -0.24779122923709501203 -1.18522567968932612814
F  -0.59560160361659231221 -2.37448385336671874413 -0.01052609964088137284
F  -0.15807277301759112276 -1.40532735446314727135 1.87340102073098813129
F  -1.95949635908794395078 0.01488568820329811901 0.46938798732988562534
F  -1.44066544664859996772 -0.35078390886764898582 -1.60994285591689534343
F  -1.04964163105988728120 2.48482861237518193320 0.43409119634929527187
F  0.06510179873535365536 2.19837952984460072159 -1.38505932380298113493
F  2.02859316892391872145 -2.65111145807573800326 -0.58404610719395710916
F  1.46701824925171453451 -3.45756290671097810119 1.33675428383187511194
F  2.44315980063954407697 -0.99380495163830306904 2.49329581662906818451
F  3.28104538532979495002 -0.57124093138069942377 0.55377259817389590246
F  3.81636471905610941135 -2.37032784391898410092 1.58780402590971947419
O  -4.04152708577531250000 2.61652573497758611509 0.05424795645234903319
O  -4.13559921789016993188 0.80552325699770532808 -1.24496304033129301381
C  0.32710944459126151118 -0.17260436952107871544 -0.09033650528583243855
C  -1.08963277166751182357 0.33741592085353167008 -0.50703208940996513654
C  0.27760154638517470227 -1.56385263390132656092 0.61119801020212605192
C  -1.12740023394679989011 1.87083056442284112464 -0.77524513360098390446
C  1.64787538810683997781 -2.30899184392025924595 0.65775518231833218774
C  -2.30417404977546480538 2.32426313628651293186 -1.58317268924115572837
C  2.81521095505574736606 -1.53382884776721728493 1.33940310697582520838
C  -3.64845658664538019522 1.86721600723862257709 -0.84381546870431123342
H  -2.26451138799160744952 1.86601841876182428237 -2.56918381729487066423
H  -2.28202190606273580542 3.41105726446084700498 -1.64124903207712624642
25
-88.1185971039 converged=true
F  -1.56985645491336356372 -1.31815291694013558832 0.80235034213253697555
F  -0.55870578102849699498 -0.25433592325265164114 2.37414590142947590223
F  1.63046610202400388268 0.10130385273919256806 1.00696509894526231577
F  0.78000965119067722231 -0.57514576951870466370 -0.86785900571356389133
F  -0.26107192548797020226 1.93115780119727853403 0.47057443347160876623
F  -2.07839773089641166592 1.50153742848949156574 1.50729106559181524894
F  -1.68259008928014375250 -0.08605034602701636115 -1.53955229802236304160
F  -3.34813695993218640723 0.51015084956208356370 -0.33713615256550955035
F  0.42659928450394557498 -3.01119074950981158167 -0.05693771128033065648
F  0.68347642514689521676 -2.53296784604367175575 2.03258995015530352646
F  3.25182406359636333448 -1.93365238258868843424 1.70974050066848537455
F  3.11950609840759662816 -1.97153728163289221342 -0.43804039488559654014
F  2.83392595401718327963 -3.77310801037199139429 0.69129034653868737248
O  -0.93117930340194277061 3.69536355711936126411 -2.89823629065399135385
O  0.08419997856139485592 1.86440479402624248451 -2.12968317076757340800
C  -0.69163781430875126421 -0.32626820799393585482 1.03132795642433583438
C  -1.25933174747723164444 1.03584433423276700559 0.52991740505955109430
C  0.70654052222095609093 -0.71200331310572695376 0.45965283693403913290
C  -2.11472836069950576032 0.94386248016193285970 -0.76931644112766328636
C  1.07237465864774406121 -2.19487210475123761810 0.79097437821878557873
C  -2.22671129080461449590 2.23760753677596779809 -1.52255744974500339950
C  2.60386946748198289114 -2.46440764166952996916 0.67943771405844943789
C  -0.86959184191033445099 2.63921610755817992455 -2.26299178032176895314
H  -2.49962597560358723570 3.04249409480579613430 -0.84193721478182448337
H  -2.99602493005421655070 2.13331065673765385426 -2.28694801966320682141
25
-88.1185740134 converged=true
F  0.28107086639172124132 0.37609290109004883673 1.63863425140988883122
F  0.57352910353247565922 1.11924854504986370785 -0.32062983745954387604
F  1.38732141057152280617 -1.07914553144579028476 -1.04761854057620973357
F  -0.47241025569227124148 -2.07234525130793567627 -0.55925965309851344287
F  -2.04856349070699117476 0.37985667293076763595 1.60980654708007442366
F  -2.35726104770084576856 -0.58821723166921358050 -0.24955836677829390524
F  -3.41615772736035649970 1.84612835004217079593 -0.05145470746152001895
F  -1.55970805013703817110 2.70562836018795227488 0.62355182725307067848
F  1.31328213706540153360 -3.28483316171051376031 0.71260588562973914417
F  0.38737293239050968330 -2.02936347487100787745 2.18606204157685590772
F  3.50361764137841813493 -2.11283392785844048589 0.75160459161035386710
F  2.83831266896230660635 -1.63263320194284600184 2.73341672070673036288
F  2.73080009723262762122 -0.16201260699920508324 1.17695857616858567951
O  -0.80487551309190097371 -0.01517192925288998392 -2.11691233249333432553
O  -2.07221798885166785809 0.90004910458327569422 -3.70625911952578412922
C  -0.09510049986996649274 0.16558176899414184247 0.34136563133003416937
C  -1.64071827860905683494 0.39772978391242952423 0.30555333523133526574
C  0.45950851086794780587 -1.23798060635906304050 -0.08689603048981056621
C  -2.06927627468656094578 1.78818063871508647900 -0.26079837625444524107
C  1.16089413714587941229 -2.00030285596984036545 1.08912938802923520143
C  -1.72991558317545890411 2.14377925515048417537 -1.68351450579728822987
C  2.58122308231168462456 -1.45417869367725316465 1.44365108468328862124
C  -1.52471114888454728487 0.87405258488674886230 -2.60518417506065746991
H  -0.79105742754084862334 2.69709504289368462437 -1.69452237988761877929
H  -2.52975730154300260111 2.75815646462733177202 -2.09466985572622599321
25
-88.1185738759 converged=true
F  -1.40479108226265325676 -1.31354009348870959251 1.22018307445259543975
F  -0.92032637405815165277 0.72064804663833514908 1.69927781475828854063
F  1.32314395800183604024 -0.13954659761251914096 2.06407483132963998074
F  1.54013392601980148022 0.02360531837456907381 -0.06701451943814529244
F  -2.40694641852660984327 -0.24058465926084615649 -0.82306004505372554192
F  -0.45202150470460755738 -0.77420157204774564530 -1.46220755456691753338
F  -0.14127163464647479740 2.22019415725458912902 -0.16894468118194516659
F  0.12649005807184968142 1.42271030181921043223 -2.13513816448090976152
F  0.37352981337277102458 -2.78238980240950395384 -0.03333023004906569137
F  0.86756535364204390159 -2.65474313359964719794 2.06433118740836674121
F  3.45842749437280305713 -1.66361559890530430472 1.21991084824643136741
F  2.87331386439327340909 -2.21498835397020066296 -0.77573141019521540951
F  2.91893441588466151515 -3.69189529054349341308 0.77933511934049171099
O  -2.91552331535047981603 1.90333364192611065313 0.54823233306359531181
O  -3.88482303131536932383 3.47212189475428179009 -0.70674762124673495833
C  -0.68711772263045467479 -0.24537944265306660396 0.80823468363433426109
C  -1.12112214803482301839 0.09757039499126070325 -0.65254347462531681057
C  0.83971682733273256272 -0.60054329542373496853 0.89704555749306491563
C  -0.81365243033235756798 1.55082166176726410356 -1.14465668855552005212
C  1.13839190366481335381 -2.13154203292555610716 0.85621628280560779789
C  -2.00722542831790784490 2.31878399141739732769 -1.63880174401012457253
C  2.63188756534103918128 -2.42358510467214260942 0.51196558463413222029
C  -3.04969891988822183748 2.59691333145076130862 -0.46893512260834691041
H  -2.51202653524972330246 1.75641671476914873473 -2.42258302648552792391
H  -1.66978663477981359442 3.27599652234952243290 -2.03405103456905678172
25
-88.1185491445 converged=true
F  -0.70856184159801016698 0.96698194722636565679 2.11241999307535888164
F  0.78478048709735781507 1.33297170153024113759 0.59637380872251777308
F  -0.29075687959028018170 -1.67350251012727224698 2.04387477101426817683
F  1.48737334015690469968 -0.50390027161763006891 2.35949383369539988919
F  -2.11947169820240421956 -0.68208667406476541917 0.44900878950914790977
F  -0.79067981279026622321 -0.30253595232136698545 -1.17429693653133759845
F  -3.27577115726411349783 1.40627845450746358225 0.37894537234707892370
F  -1.52482004356541400725 2.62324530412035539229 0.23546760385556939066
F  1.85009115840920146390 -0.85282860207783550699 -0.61328334215270885466
F  0.39561579828279780369 -2.44106316004770551586 -0.32194459773769490418
F  1.99555304733234151193 -3.25042177441974899921 1.94591866636494326137
F  3.48186982843617265360 -1.87377652679052997264 1.22735890345344134111
F  2.78874353009042597051 -3.46447489445938128227 -0.03459936403127603782
O  -1.24606537515110882275 2.50239047757487531598 -3.76648721521336726781
O  -0.02046612775436301712 2.05781147889702120679 -1.95567344672614495948
C  -0.15007684609934573983 0.46056928356354231990 0.98850542650976969128
C  -1.28130215435945871150 0.26049874234272585305 -0.05856372041777983817
C  0.57582067867389696847 -0.85197285500095654154 1.42686991784868166810
C  -2.11930495341431779366 1.55079950125367993508 -0.34628809468149723827
C  1.29142451433025251539 -1.65708433867369686610 0.30334175981143485235
C  -2.40850012283995962292 1.78453457005927629275 -1.80175042149018338478
C  2.41385209013464319128 -2.57879314227071043675 0.87914583070518637076
C  -1.07623936543164555601 2.15621526754910108892 -2.59505945167869356283
H  -3.10216294327873942649 2.61908959629533333313 -1.89497727666522175483
H  -2.84574315160450463935 0.89361537695167914119 -2.24873880948689341963
25
-88.1185282556 converged=true
F  -1.98618257468879755301 -0.60249461688804351045 0.92500280915213184407
F  -0.73125635934028732077 0.33404680616244075697 2.35828082108231251723
F  -0.21883081701760309645 -2.22706746982868120099 0.27827115382171141444
F  0.57885839408519590421 -1.57402982121867540677 2.14220083602571120807
F  0.29926500212949092017 1.37481107764477239463 -0.66361394375153326397
F  -0.28295854044179624687 2.25865696971681240157 1.17163812606608841449
F  -3.04539267773918709281 1.55706613342529043287 0.44354879555310589012
F  -1.92777369122057828932 3.22404509706178110662 -0.30110738200507813911
F  2.12184067277640986404 0.36710931823210601888 0.74140322272043612806
F  1.64758380490241695959 -0.71002436622026710022 -1.08530383531624230464
F  2.28972669906832582143 -3.12564472747302612987 0.49229148945849532382
F  3.18467874266952621909 -1.72870086097561359573 1.85601138705892609870
F  3.79650914890542612312 -1.76477582414750711060 -0.19479196649351443460
O  -2.67843044643370209457 -0.64398349028375578840 -2.91043314797849506093
O  -1.05912984411098398674 -0.58307434506817068520 -1.37997805013104413163
C  -0.78412914475065598197 -0.01950646122142423236 1.04255534602384991594
C  -0.68101154787706430493 1.33138272540009161560 0.25238092584980187372
C  0.29771058592727950298 -1.15215878984367869897 0.87720938502157619343
C  -2.00910399349716417561 1.85590512230442605812 -0.38345342549345445837
C  1.67519721247137187703 -0.80752472819412923766 0.24678440016797165146
C  -2.26371187759417491492 1.43817393410328286940 -1.80586094025183419021
C  2.74735959002441187948 -1.88678687021672564228 0.61164256909188829958
C  -1.98213931320535707847 -0.09449676424118913509 -2.05914503717944219474
H  -1.58718119479594599319 1.99682056678701425056 -2.45370328203190135596
H  -3.29629583024652905721 1.66481238498290484706 -2.06676825636143579601
25
-88.1185019671 converged=true
F  1.33026290259968305030 0.34446065073719550620 -0.75440961086840219174
F  -0.35222826205425028512 -0.55538934237702586305 -1.77506565157340645555
F  0.89408296099167550164 -2.40164366286645858395 -0.61531056164455955049
F  -0.89099053691688623324 -2.06418341283084583182 0.52467396215600736742
F  -0.17203270322213132237 1.97696698242329915729 0.39121399666164530240
F  -1.00639370724086263387 0.32289690068583992710 1.44057124613900588983
F  -2.65310297521117899322 -0.05835092286248368121 -1.05460223200288072398
F  -3.08616121024256173655 1.14695569031743027644 0.65972460007190236730
F  0.43069696637745935597 -1.80941985102032165678 2.58017159355154346301
F  1.52371629310344580688 -0.13399291947352057197 1.77199005735103387593
F  2.17308599916603517599 -3.55932842131899018767 1.37109660301361158119
F  3.13828453771039939113 -2.10226733377688290716 2.61070375095084328265
F  3.24616509353096027723 -1.91881635546763495981 0.47629859694994358676
O  -1.83340661999738041565 2.72345768394976861515 -3.56789373264639086969
O  -0.23049562583414553996 1.92587563447362852820 -2.23866738665899989158
C  0.10902787515454739897 -0.18565384872574219877 -0.57100446434914753358
C  -0.82113536641489703882 0.82375221140954624222 0.18049313298597330357
C  0.30100414536298181201 -1.52581986896677257448 0.22237666705211728280
C  -2.24236948259807311601 1.07459371878911458253 -0.42161351022384829790
C  1.15803294271364642931 -1.40440386869156141891 1.52580593374487971658
C  -2.39228235096147168193 2.29942984854314591558 -1.27665122495302529870
C  2.45640000476088582460 -2.26760465072298700306 1.48330582989761872170
C  -1.37866642069183908959 2.31310821982482828219 -2.49880719367452686086
H  -2.18546654229563097616 3.18016408376414982939 -0.66906115566620860680
H  -3.41082591779040544822 2.33777383418327344700 -1.66027724616471283881
25
-88.1184026623 converged=true
F  -1.15820466252733678125 0.52487107067248350845 2.15679001376057444261
F  0.61387704346586646764 1.27549357946208741232 1.19140560042736454172
F  -0.54108456880921318444 -2.05284937224106256437 1.29281006580851931531
F  0.78915120318984866010 -1.06294095846705927144 2.66175569461989436348
F  -2.27307743160230035784 -0.31526484034301477388 0.00655829384581455010
F  -0.44690067627231155889 -0.26138123849427657985 -1.16479640133299677807
F  -1.71603233018579670599 2.55746143562764016721 0.49700470704292071256
F  -0.28879251320873766673 2.36891353425075390504 -1.10383174043566500977
F  2.06443269706335241764 -0.32894950668776529179 -0.16687742947677591809
F  1.15737470821151178235 -2.26774933488466956533 -0.51130206983462156423
F  3.65080240107061770871 -2.54349280445566350295 0.35993564000209793408
F  2.30409869266814570921 -3.14812163460272520510 1.91645920220642551612
F  3.33133534240059381304 -1.26092194460499862352 2.04836263121507888840
O  -2.72240597005954487742 -0.08263305581975424752 -2.91514910005926353165
O  -1.48204554021117718143 1.57223621846320860129 -3.75164488345450841678
C  -0.31943280461113887636 0.31094149916042829185 1.12416174930282419808
C  -1.13886131117157574089 0.37985042528556878239 -0.20158186447901255134
C  0.36580417601523906868 -1.06794531023456662489 1.37937185601402068080
C  -1.45324738487123372721 1.83758415713608513897 -0.64889652988808577128
C  1.56793113929724614586 -1.41849548721438800669 0.44346083909432426617
C  -2.57060654343050742909 1.94855380886245743710 -1.63998751720868218840
C  2.73721064735219732356 -2.10691870081027987638 1.21623430909910079656
C  -2.22255985961862645439 1.04680880027864842141 -2.91610655664525975084
H  -2.65082973894523776792 2.98869233907407316764 -1.95067310162872864510
H  -3.49273471520985889782 1.58881832058680316777 -1.18840140789533998955
25
-88.1183975301 converged=true
F  -0.88000663120501165793 -0.07206770182142932524 1.67490736479038759832
F  0.44471863137119682641 1.52972805133332645511 1.10529049254681588366
F  2.21041921512631578395 -0.12955511417276571740 1.41773467851732615230
F  1.67744041765198748095 -0.83703706710464009788 -0.54255660753351153680
F  -0.97619709878179838913 -0.86014520902911073552 -1.06218563556917855450
F  0.09578996200997907939 0.91639234523076495975 -1.56741337349124609801
F  -3.05916283790823539945 0.17550068419756942317 -0.45526193161205252835
F  -2.21707376697460745163 1.85060181402025447639 0.57237359421288813710
F  -0.31225205132299022059 -2.52241030924750964104 0.91943327793151308214
F  0.82198176820890134220 -1.93455923457700729173 2.66408803968529639405
F  1.81031959032805067622 -4.19316833505078268018 1.74122462553796175655
F  3.18990834691503177822 -2.65845261712029978796 1.15689880262724442694
F  1.84817634306196509897 -3.51104181490331201942 -0.29233931976321381185
O  -1.67336384712624397508 4.11547035112656889311 -2.71228702188068915291
O  -0.57941739136337344629 3.36732401257919988780 -0.91804823426632098382
C  -0.01115685762112803014 0.33183688961159829578 0.72349249238902479942
C  -0.74218390224652397436 0.41364234672171451557 -0.64783946389343793903
C  1.20380507989566654103 -0.66279944784244859690 0.70333940851357346080
C  -2.11334439031410203924 1.16287472854402618161 -0.59273628495409047545
C  0.87844206140594727206 -2.05539159641670821088 1.32718953712666487554
C  -2.38670217345385671237 2.02751010792835728580 -1.78991948251895660604
C  1.96021539328898120047 -3.12232213325935425985 0.97112400487349370692
C  -1.43901576219284477176 3.31169987460557946335 -1.80654649670671219042
H  -3.41812488878454834307 2.37511699793213360010 -1.74752866092147463029
H  -2.22801320996870888536 1.46381337671424982538 -2.70737180554130674182
25
-88.1183799425 converged=true
F  0.91094281643645236279 -0.02942495922539258707 -1.10687353904755747536
F  -0.52849252160191950711 -1.49246327935748812621 -1.79892590136733931949
F  1.28230700633855221326 -2.53956716603172649727 -0.27497340210681281425
F  -0.63586559839458156596 -2.61896443934048894775 0.67755482646771292288
F  -1.64223614651584481905 -0.30969714102860951277 1.03755222443935002374
F  -2.47586450578200656381 -0.31431375415445400590 -0.91928286625301969259
F  -1.71470034598269749360 2.03582792751933627784 1.02438296579396159736
F  -0.00635881893223436134 2.06375713403285843128 -0.25829795260756388542
F  0.28012995603653556564 -1.54502361142184785336 2.69470068859806755057
F  0.86453656727479399891 0.21125490919054248917 1.58486102550548091372
F  2.91276777306041312343 -0.89856174859008031142 2.92480413601379884980
F  3.21334865683358383848 -1.09214696505228459067 0.80921005354354491601
F  2.62355401085533168626 -2.80047383510233238724 1.98187231691490794994
O  -0.90984403061299923277 0.89353709969529693247 -2.75050797793414414372
O  -2.04839969137362309937 2.57712875597886004186 -3.67026440426168454323
C  -0.16200481973669111913 -0.74739717770604663372 -0.74355543031273030330
C  -1.38719730051673439952 0.09205803767228382117 -0.24504267324243417248
C  0.34738042282156800233 -1.77573280594279214739 0.32850311675209648010
C  -1.30001418758422393473 1.65902178907394004526 -0.22796595827438703719
C  0.96018874546934518399 -1.13090266239176795438 1.61315416241020814780
C  -2.12346969652205697088 2.34185545122632632342 -1.28598562933612603487
C  2.46168695581342245049 -1.49218939646943171695 1.82624684552929261727
C  -1.64369051262842869043 1.89424915608088406671 -2.72833543565706726497
H  -1.99939513831982562664 3.41936743549441457546 -1.18935604019221652372
H  -3.17410759643606432689 2.08136224584997853171 -1.16841315127536415908
25
-88.1183548038 converged=true
F  -1.54412913287427655540 -1.26375454575802503854 -0.74944852544491069590
F  -2.24844216154043996525 -1.55764188390236646420 1.22032192841163977803
F  0.10500887214683637949 -2.63476981230774010001 0.79492714411545406517
F  -0.20628719791924304827 -1.30776051630155287775 2.45429402675107599663
F  -1.36026635401254392121 1.00561490346160109510 1.96238529198306177470
F  -3.13754873476137063903 0.58595588824047206700 0.81233524961995007274
F  -2.45833903234275208405 2.75832260021330633037 0.06625705414166324636
F  -0.34662929733299407964 2.44706881648041107979 0.14728060223948691299
F  2.12294292342632573423 -1.15047501178573940983 2.00923208647637530078
F  1.44433156592777245386 0.62033016625684278544 1.05583395939730761981
F  3.21746456975685868329 -2.01167651167629069064 0.12389556741207471968
F  2.85864397876984321911 -0.20538039026321955327 -0.93519014432317559837
F  1.56218218077639825481 -1.92784248309974626245 -1.19016160437988305354
O  0.22877520272697951520 0.76970665027543161418 -3.21687164019554439065
O  0.34480628018969960991 0.20830974492899706485 -1.06139256546421623106
C  -1.33754866998132393441 -0.82794194061307690991 0.49633173987655687664
C  -1.78269127176599440077 0.65010538597439038178 0.72661322233657876790
C  0.00844452667699555071 -1.32608903326924520982 1.11620908962113407625
C  -1.49051101728707191540 1.83592501034487320943 -0.24839921091397221264
C  1.42527726644190599892 -0.70688680077177179495 0.92500459221863762238
C  -1.49600667314373425576 1.54132357043249856865 -1.72391192611391264045
C  2.24104426462702210898 -1.19801723052582942408 -0.32006322505239714893
C  -0.17104315196034070024 0.76504999042465549053 -2.05939500636417838209
H  -1.51609054436542955990 2.47930538022451329994 -2.27741165937203904335
H  -2.35818639217914016726 0.93377905301659669401 -1.99361404687674270697
25
-88.1182923870 converged=true
F  0.31081364018105450686 -0.84743417349663119342 -1.59873352549214708951
F  -0.90839475145833348257 -2.16756279888241687459 -0.40669404299311745499
F  -0.00879955100521542799 -0.58309810602156952886 1.89648340938197224048
F  1.44424503604042975269 0.25864243108238710311 0.53548655150197332908
F  -2.27450194527303128922 -0.11154120346232149208 0.68904028725020294299
F  -2.37027616951548836255 -0.25776890932075313678 -1.44601412586066646604
F  -0.74476502482880169165 1.87567701106927753330 0.81431907071357945149
F  -0.00269390846833461595 1.74392629945609245468 -1.19187401548294769071
F  1.87451753588051839294 -2.58333318388868704574 -0.28021029568927396936
F  0.77796138457684993472 -3.02387069425477461593 1.53032454298680509197
F  2.52548658327070363327 -1.11610295415053006884 2.84482632635208210203
F  3.69119249226873158420 -1.14366821329325962786 1.03598412825977348461
F  3.33844121017324724221 -2.96301250038778896112 2.11668997918870704922
O  -3.69984613403494400075 2.83996744749572638256 -2.78278663977126816675
O  -1.78790488951990123034 1.75980096446425715584 -3.16984262551805606734
C  -0.37378412904136737449 -0.92634362369939371451 -0.44675290582883503410
C  -1.55129447789365482180 0.09339487283816262642 -0.43943090673966350712
C  0.63454667003399300995 -0.79412132965501225357 0.73614295018725894870
C  -1.14370970623905110486 1.59418018916883075242 -0.47769310792481561867
C  1.50353455934975399622 -2.08022981697241604593 0.90763428410912860844
C  -2.24647960355719034098 2.51168582120001016023 -0.91626596767400381172
C  2.79131985804812110530 -1.81142347803675729523 1.74600665953738509728
C  -2.61575211347486158431 2.34458846821663424720 -2.46351062363419792689
H  -1.91759323092819933265 3.54093959172222172427 -0.77470389368088643511
H  -3.14106133458495762056 2.32926888880866167497 -0.32336351307901189944
25
-88.1182832411 converged=true
F  -0.95276193140634746204 -1.65166545875546932898 -0.17548643171479461067
F  -0.82045080369989520364 -1.02669365182045391194 1.87806561119280512884
F  1.25755620257491118608 0.79107881624318832081 1.08655580812462893014
F  1.26051988440793327761 -0.24531459894382351417 -0.83879385719259091925
F  -1.24089676022903017127 1.64309727235921054778 1.05468570049960708168
F  -2.77080548898323675289 0.16798246909440198160 0.94652532303801661939
F  -1.07740431240054679307 0.20004552472193218304 -1.95358055478342196309
F  -3.13757764822166240748 0.25274860779929325671 -1.39444545926678964420
F  1.67641938047537197853 -1.47116274296319615722 2.41657887015997951963
F  3.08209659828793247627 -1.16967832590583342700 0.81094513313993277226
F  2.57073798843761158750 -3.69262161268203170650 0.89456771351876196441
F  1.40252514565109698275 -2.97404311678956956300 -0.75250443552213941434
F  0.45702908612906212316 -3.44579667819302271070 1.12497466235525456213
O  -0.45532166070793339552 4.14151091908054969082 -1.79249622290553878301
O  0.33895416064738603801 2.23904849058480381885 -0.93908604738136525203
C  -0.61358642055016154870 -0.60761517617701288341 0.60683567495006085490
C  -1.61144924242995513097 0.56188238250538813379 0.35243175512393487558
C  0.91177891612537464994 -0.33881385615051601290 0.45067450645748924343
C  -1.93858645964731435285 0.87135074692477887393 -1.14529885229343664221
C  1.79685074598882543739 -1.47082501840237611646 1.07751207009351657184
C  -1.99851116958009655811 2.33652956369162723149 -1.47484708772095940432
C  1.54043288394449562340 -2.91929339484749794664 0.56570383024485948464
C  -0.54533124917181030611 2.97911569418489152739 -1.39369517091696604183
H  -2.65597767510677762459 2.85529133552302782917 -0.77955785069200889126
H  -2.37103817053519083657 2.45640280891772855298 -2.49120268840881120553
25
-88.1182766632 converged=true
F  -0.67331588027425237630 -0.04281879354778493629 1.64321392910598240711
F  0.94097386983121555915 0.95749457900086432094 0.60928415162836702113
F  1.77316900789770226510 -1.21422973798203948093 -0.57494475649381981963
F  -0.02341066106861114382 -2.32958558620550348905 -0.13364727003959570029
F  -2.03436782922031689225 -0.53271024798275157242 -0.49941050113670470978
F  -0.38895775247114577899 -0.15619492387748792894 -1.84316488303586956121
F  -1.65488654857164951828 2.20528359608044555173 0.42267581108103036147
F  -0.27231792254299191924 2.42341478113485297996 -1.22669629688533632361
F  0.43546968799977303632 -2.42217036679825836742 2.42553577756860638814
F  1.92580608899847272042 -0.85381996303993168418 2.38122438832149407872
F  2.81036254317045663953 -3.54293464869639329606 2.60098693001046221696
F  3.63877677577178415547 -2.36625553171904501326 1.00884063819088565239
F  2.15312943512968457682 -3.86293833788396501205 0.58292307287038469532
O  -2.29114506133130468868 4.06738327184419734550 -2.84938283016441262774
O  -3.59251796945903167924 3.95992477634305029000 -1.04099045107705112656
C  0.02680356856075644112 -0.02011448271044587871 0.49433921143612880034
C  -0.95212829661259079650 0.25070164410112677489 -0.68689745994789841443
C  0.79447273540943719183 -1.37179044420671503168 0.33308638638864612735
C  -1.38753905016583245491 1.74761276384492303393 -0.83117123049966801229
C  1.40605627830396162636 -1.87241128822080704630 1.67743621052198976784
C  -2.53755223979508004462 1.92781138980292676699 -1.77790635723365131327
C  2.52675498387411812118 -2.93524857300868147192 1.45599073606556128624
C  -2.84344889781164145148 3.49614397040883106982 -1.90528904771155693787
H  -3.41590916163644742198 1.42845378027210956340 -1.37450347123324334575
H  -2.25907570398642576492 1.54155937304648982256 -2.75647068763072189412
25
-88.1182629187 converged=true
F  -1.38257166541305709373 0.21354402308866643478 2.48193905388372293430
F  -0.30117011332305826388 1.63997814386893536742 1.34506305134779879928
F  0.56914328964619453899 -0.95236826187265721799 2.80295534091514708663
F  1.70149107911773933566 0.25849754409896119611 1.46971454482778018935
F  -2.84697785602548014694 -0.36521747314352492886 0.78806840472705086409
F  -1.40576565055456725872 -0.90430982075254118246 -0.66860365288055689792
F  -3.31589031786972476823 1.01948160569553958332 -1.21823335222715134485
F  -2.51773251199439096482 2.29147859563089939527 0.31453883733356580166
F  -0.22182514133747205376 -2.59021716786190125958 0.66511193141402802365
F  1.75154172118290674121 -2.53062042817731391864 1.49908765000437993464
F  0.78358236350997423347 -1.70065540791375036100 -1.72401504126661242466
F  2.10576877604121470711 -3.08382668196849385467 -0.82066569225093100037
F  2.60745870489880626764 -1.01646221207378939511 -0.76136845704529154677
O  0.54777612517959928251 0.56024003434687752456 -0.70964765225183901176
O  1.06919882201726412774 1.91489117949368270466 -2.39469907594603226286
C  -0.67924869134258791803 0.34940231188804216078 1.31929316086756176496
C  -1.71320743181599244309 0.09121020067110187368 0.17666893268015104734
C  0.61698825718207483959 -0.52476943105537954271 1.50956331117215647453
C  -2.13712891123121373482 1.36824025240433955197 -0.61492490648325015545
C  0.88992296382438096369 -1.83582114618438763110 0.71181437918030832090
C  -1.18319450834338901757 1.94928866901491093522 -1.63264819035977537531
C  1.58509085700004259678 -1.84887655826051156005 -0.68638081530025873978
C  0.29609652068035052785 1.42956918687550249558 -1.57444515313217170416
H  -1.15777556082387245162 3.03237647575570390401 -1.51241962239976035498
H  -1.55636912020568241033 1.71750736643117818403 -2.63070498671006003377
25
-88.1182081820 converged=true
F  1.18817725746955060728 0.71625114304125603315 0.55333342149067099580
F  0.17748340411223018087 -0.36321721848203081251 -1.03274478400722879989
F  -1.18136760361115022988 -1.82747976978312576257 1.03703901392508246460
F  0.20360656526641202069 -0.90485923575209947778 2.42005341832755149767
F  -0.75717784597634230082 2.22112868800107587930 0.78940226207625574517
F  -1.75390228117527513518 0.56319681657976228273 1.66321194895296686767
F  -2.28143624305751213655 -0.22364570091511587480 -1.22195827316085270375
F  -3.47429752046338036209 0.99180249119927987866 0.07590642118600317290
F  0.81631143197431454972 -2.84322257038903503101 -0.44626248473741708667
F  0.98085211104382064029 -3.30850472290852337665 1.65157962502418764750
F  3.37256548397665545380 -2.89550408068563047692 0.80627110144986369189
F  2.85035086225522604764 -1.08251418913184127568 1.82017217702473788066
F  2.87576012192333818618 -1.15304043037333570076 -0.33654031013427787578
O  -0.91192732577736790311 2.44789439973025491071 -3.54895146972305175481
O  0.16790804448825086270 2.07096640591479497218 -1.63517560341226664278
C  0.06184772155663231796 0.05184721847541785833 0.23853372452802518167
C  -1.17399910273487328993 0.97934847989949114222 0.50222106770445040791
C  0.02357676941835157303 -1.23404509239122894826 1.12876413869441694082
C  -2.28000540429958409305 0.98961487353016619473 -0.60171199698096211606
C  1.08978850294076612393 -2.30726652578165269958 0.75373549473101097984
C  -2.22999244522785433631 2.13323844911452020767 -1.57307656368173476302
C  2.57378033939411077213 -1.83305484864973444736 0.76047379299904172001
C  -0.84012860589346782803 2.22147142529971786118 -2.33988891530440579203
H  -2.36545855102597490927 3.06526028145467854813 -1.02498441824939079403
H  -3.02711368657684376515 2.00689471300294952627 -2.30434078862267144316
25
-88.1181831749 converged=true
F  -1.31373816385387032213 -0.53661501956257606771 1.49024955624679811272
F  -0.16188725558678768168 1.24796163656272329767 1.84295555193451732201
F  1.58342377497064168423 -0.43566228138694246264 2.34519524774989562843
F  1.93515665066833486563 -0.27735839369007908584 0.22911097555962534056
F  -0.21925210914885445712 -0.27010142772447692794 -1.31177872021231634037
F  0.31652491028607465662 1.70587743053920504188 -0.65001334749825367965
F  -2.70582988333905882783 -0.10795457368426855660 -0.72440857161658733787
F  -2.52482150775394442732 1.69008011643315692041 0.43666137065608862100
F  -0.13927411595860830773 -2.49010478850647754001 0.09065069325025923441
F  0.29902639602650149531 -2.64636122720947186693 2.20009830015065155351
F  1.90033306449560068785 -4.27929920425077803259 0.89131258783233557885
F  3.09439465527507673315 -2.59137678422244821519 1.46206236916273168980
F  2.43460328698323813512 -2.80630768457567780771 -0.57493044042505370150
O  -1.52929667333257235384 3.89951333410837541749 -0.80493046296809267481
O  -0.96035356431271079458 3.63590380355208120378 -2.94524653737434283229
C  -0.28119449927609396767 0.18982828940039539467 1.02416362069830801929
C  -0.54671787700312057812 0.70074284216683713211 -0.42525860926941083662
C  1.02677607124045344733 -0.66223390416887795151 1.14183038140158732432
C  -2.03139467836375331444 1.09507608896364394546 -0.67488019866747661624
C  0.77697852055328697762 -2.19797606577803339434 1.02697798390674699398
C  -2.24561433095517326564 1.88868353401309430062 -1.92862900507824752694
C  2.08475908627652595229 -2.98029756408422885627 0.69248832081914213354
C  -1.49112816060735386969 3.29852239936599112013 -1.88351053809853130616
H  -3.31228269195864299945 2.08750807365479351674 -2.02854169381268967243
H  -1.88398890532516016805 1.32451237008400202200 -2.78656683424768436552
25
-88.1181370840 converged=true
F  -0.79531005269303389760 -0.43319533530141440814 2.32974065905175597990
F  0.54395879759022558453 1.04980984290825274385 1.62029017947346543060
F  0.12030935846802121025 -0.79633530928135654037 -1.01952285578104673291
F  -0.58475447617530063038 -2.02784990545446897059 0.56992655304775596825
F  -1.42965469650034804339 2.36733914256833255507 0.99732374450048100201
F  -2.65722384973109626571 0.73980109624954581982 1.63161913275155323610
F  -2.28666243203675678686 -0.40140463225245948120 -1.01028839726585895065
F  -3.64521336414177943297 1.16150932123669048401 -0.48164156717558914700
F  1.78099960681558799891 -1.24195100775253708392 2.04889374404997237633
F  2.47221714347039789317 -0.30868005645006690862 0.22420969368313153902
F  3.41937950023985415271 -2.74670119642333121490 0.32626354580575434028
F  1.80890010819881830173 -2.82693181639387924875 -1.08728852487794069859
F  1.54396040621315133734 -3.61178794182531603951 0.89446279495532821091
O  0.37118755473971559722 1.60402742216626448268 -0.74035834000136946376
O  0.26300395896999501089 2.48271279732627991876 -2.78583583426091863089
C  -0.42130370000496536464 0.22828307065237257723 1.19059767227931945222
C  -1.67217583940937286613 1.06877896292166352232 0.74506978761910158671
C  0.16168075777655072089 -0.92678243699920870302 0.30834138118485826530
C  -2.30722899062238218093 0.91653731617953793087 -0.67150182438531680340
C  1.63636168163844475387 -1.23651519631119266585 0.70993778028258047730
C  -1.78553377366175181074 1.81992268181123839632 -1.75721228576470789307
C  2.10229722453342704469 -2.63185754656347592473 0.19173319888052725579
C  -0.21747777063808060305 1.98342706754783315581 -1.76963340908661614925
H  -2.20744343147597321675 2.81436290939697908442 -1.60628299510069472156
H  -2.10907172156337319180 1.43604175004372591751 -2.72378183376551374906
25
-88.1181175005 converged=true
F  -1.02095099757325669110 0.74624083393492079974 2.09780992292927681575
F  1.06871232041338326546 0.99701393189847742349 1.70320690976242117287
F  -0.57931739826405304061 -1.63163940455474665292 0.11526667810506287248
F  -0.41139245764858101140 -1.63192642823371691918 2.25868633048785971695
F  0.27194135680315967285 0.41634534025443636907 -1.13564579329156645215
F  0.17006854471816554297 2.34840860025522424337 -0.16043651130484848366
F  -2.49689601393128102202 0.09853263906042865339 0.04762732726624384350
F  -2.38023410973557014714 2.23250273440521640467 0.28080092854939786573
F  2.16968583680311644102 -1.41036063506096143172 2.25778097656077125777
F  2.29621177833426326487 -0.78354767749184528469 0.19177979724320465271
F  1.46247188351261958594 -3.17586732464118970398 -0.68819860002598198800
F  0.92604103410896110304 -3.82747320950738822987 1.29043248156363965506
F  2.98068690174042361107 -3.45320187254827759560 0.80324664909631993126
O  -0.39548468895159416547 2.54956188831684338325 -2.97376917824759567921
O  -2.15596923117440208983 3.75845986907444018499 -2.32981558571364244514
C  -0.06183103292780062210 0.45823302542759042355 1.20315160772294005298
C  -0.37384988705460492353 1.11779636412764826758 -0.18162726900695991272
C  0.10720489734939500637 -1.09750840872503063750 1.13937168467045712994
C  -1.89800499029084002167 1.22164526065425849133 -0.48800372610282044539
C  1.59889776651731874146 -1.54582029926386588237 1.04862146590765825671
C  -2.22840775551006142763 1.38648800271270555839 -1.93824064343504365304
C  1.73775044636098963124 -3.03402017989074312965 0.60116132957279666549
C  -1.51464947843156849672 2.71548438149328852376 -2.47959626914951325460
H  -3.30664195273503791483 1.50046839434811496439 -2.03431562422419665026
H  -1.86084077243300738402 0.52674517395417352894 -2.49423288883585714260
25
-88.1180881916 converged=true
F  0.19034413043887685180 -0.74908005129830168567 -1.70647042362065493037
F  -0.83692057738326885996 -2.10966286989531015550 -0.40215068369220485778
F  0.32387954621797010457 0.08741200049220861079 1.61751330662799541749
F  1.77506891445907766247 0.05659915724928549219 0.02207981839777373168
F  -2.13745950667314854599 -0.26006572558075363721 0.90151554538223721558
F  -2.55036491071759563454 -0.29878710644474132385 -1.18890062805934126899
F  -1.49662993871420413328 2.04496245060215775524 0.97499305607551600694
F  -0.05624987883593304816 1.85966923778833126413 -0.59775961581812242507
F  1.61076967083758448851 -2.81806389350842989572 0.10428465630043701196
F  0.40455746413797322170 -2.57863594268971541013 1.88933533659752428413
F  3.65697950205331556717 -1.49316118285255261533 1.17129375868645002612
F  2.91410667613116425301 -2.90700907761963422971 2.60268855878711757867
F  2.49921712684769881108 -0.81825477382361311296 2.85335232371984082178
O  -2.61889147524580412352 2.76640041345762188740 -3.56926257742146013641
O  -1.20535844886007281751 1.14529204890105873460 -2.97510664766667298764
C  -0.36916592865086539366 -0.84040210744574961321 -0.49845904157020964886
C  -1.61174092918117395357 0.08259331849335037334 -0.30621701742026835591
C  0.76054052073632982811 -0.63270138998493197224 0.56929357982618378209
C  -1.36854073281515509208 1.62463363797293891544 -0.32470565560410918904
C  1.32429850050535113937 -1.98043606214860212766 1.11465071222512901450
C  -2.28580786598857654823 2.39806501753290612911 -1.22944233370409294892
C  2.62559394628374631608 -1.78466605591114890750 1.95321137477662265525
C  -2.00520491120825328224 2.06570290137016687737 -2.76099251955200797326
H  -2.11415887774188693271 3.46266291218190724877 -1.07567777431966171697
H  -3.32366001663316623649 2.15949414316154442162 -1.00400510885399363303
25
-88.1180855618 converged=true
F  -0.76185832978656831127 -1.27512090480979822793 -0.58418264602802660868
F  -1.99133391683001503836 -1.20069995962638143006 1.16550076943189040435
F  0.09555580607527827675 -2.15043332783216367687 2.09248400823386804248
F  0.40940121291696041084 -0.06798705110082899072 2.49534616021333022218
F  -0.06524423814249963316 1.60281765330676506665 0.41984492821282248798
F  -1.71383020915584394217 1.21381689851146545855 1.70924784493264603213
F  -2.74480616860755599618 0.20476634739914495453 -1.19968266314044469389
F  -3.32562091800118864171 1.80710199729434739524 0.08961341173923315084
F  2.65152764936523244188 -0.70197974837377175028 1.68154313302548619191
F  1.82285125375456114050 -0.16498263421740588797 -0.22617356244420452893
F  2.48857187018266223788 -3.21418793086669074555 1.29137881079816496666
F  3.04380401931900301804 -2.41100181608533192801 -0.61592167038799083834
F  1.03975442958160457785 -3.10840626605232506208 -0.28209988633254790003
O  -0.04657125038493054037 0.67910797593227811841 -2.01879901646360959688
O  -0.29134095220548983374 2.33081227265945845062 -3.49947531948787782241
C  -0.90715265953462109749 -0.63846591127563756540 0.58082419318734990199
C  -1.20222647044121555560 0.89057325585162960824 0.48962562157178513012
C  0.32101337882113034627 -0.95989864461168294962 1.49522075681870014741
C  -2.24530344890114497147 1.31572196811352992718 -0.59785242981854158639
C  1.70428913557903860543 -1.03761837301799930700 0.77719742052756068951
C  -1.74261689456633939166 2.32212684137925773342 -1.59490389384927100380
C  2.06152337287662312804 -2.47183070324363862724 0.27211114122208224231
C  -0.56479965726456760056 1.71136716260316590343 -2.46966745238720530864
H  -1.37057994496623192227 3.20503935432434028385 -1.07791990886786814841
H  -2.55980506968391363642 2.60192254373827713820 -2.25819775060731098293
25
-88.1180335812 converged=true
F  -0.35675581981628579076 0.71091704692731971793 1.86604523648332953911
F  0.89566787646462475703 0.60879916709322912105 0.10553767078909398469
F  -0.04051396835193699086 -2.21582293377926653477 -0.04708821159150371194
F  -0.78542585771187867216 -1.84843592671977119402 1.93768369188781330870
F  -2.46606003578266763654 -0.41513622287177209813 0.48183124047046843597
F  -1.34293770091928310606 -0.40955636728646255262 -1.33157885587875712829
F  -2.92401886297568447404 1.92913788099084060335 0.56124817034491969459
F  -0.93604437647079619111 2.56277557574008474361 0.09706285250654145269
F  1.47516997308275676914 -2.56437983206071384856 2.59718154316569282969
F  2.01385231041306500543 -0.52161575125702153155 2.19400413956867179621
F  2.34982477035553749545 -3.42586825457060895062 0.28136016580333628179
F  3.80368462519794503507 -2.06080808695983463963 1.06807965042688590707
F  2.54155837089535685536 -1.45540207247989084038 -0.56086063345017489468
O  -1.37126498285106990238 2.50484090309477247516 -3.88101332565759538085
O  -0.05260278351024333388 1.64558085256218511461 -2.29966424653766576824
C  -0.18244483707216305191 0.07124733111981214340 0.68916420123872879078
C  -1.47067825513037431229 0.24469748046870276603 -0.16700744222931401817
C  0.11130889756191683637 -1.42582945818208761679 1.03008616500544247785
C  -1.91469595834034089776 1.73433293408187783058 -0.34925849328364871882
C  1.54377439815312378357 -1.64007551763360215347 1.62122494936368721774
C  -2.35649857156641973077 2.08044514508533584518 -1.74261237424319359590
C  2.57628354744190257719 -2.14873808137613586666 0.56861681860364643448
C  -1.12183104069471140107 2.07582117397970744577 -2.75176179636652129545
H  -2.78674490644665207029 3.08097517350564853444 -1.73929875820125223740
H  -3.09740481192567607138 1.36465884052762387313 -2.09392035811862253780
25
-88.1180057259 converged=true
F  -1.49512452918436133942 -0.11687056313175780975 2.09055733715402070061
F  0.53191849685316550111 0.56038934718617772202 2.23484647975667183317
F  0.05439794719521395816 -1.06512806088514921932 -0.67804324941898985735
F  -0.77380460792964966821 -2.16950436803328905455 0.97662968229144531129
F  0.43635213888164081641 1.47017225874102619443 -0.38406360277250356505
F  -0.80152873350459297175 2.42149083256337638304 1.12017075866033843923
F  -2.36150526448592046336 -0.19911276566887467498 -0.33093952940505344529
F  -2.95654861611746921923 1.82425825362171090127 0.04253150050010193195
F  1.53287273987153271904 -1.86198492125865433522 2.41187504946316666476
F  2.38782537715343723406 -0.61639188516843168575 0.85512423536898407583
F  2.17028301741446805195 -2.64548759302761560264 -0.95423294448047102367
F  1.17213815603671545063 -3.89667831425123267763 0.48234207430721864895
F  3.18675747919159180199 -3.25333322641891076188 0.83504788304824173473
O  -1.10444370527314350561 3.59890982129378755872 -1.28175213637218043949
O  -1.51821278355372113467 3.26398493529679978309 -3.44653175304159953285
C  -0.40303063644053160886 0.14503879914861861344 1.35528137445486751567
C  -0.67994523287584363036 1.32006532875260762516 0.36050259226698955217
C  0.07560832317476545716 -1.17810837850602445620 0.66348907640602372560
C  -1.95374440034844898406 1.10724896714304121836 -0.51925769045238656663
C  1.51146204417946572462 -1.60616795534830414383 1.09317503076551969521
C  -1.78429097408334458308 1.39392974460602769859 -1.98381490474821053915
C  2.01175636558711401491 -2.87908457338595358266 0.34240813940900366452
C  -1.43000360940831150458 2.92284277681418380723 -2.26423251905156064367
H  -2.71886397174202176785 1.16509218131429892473 -2.49432126619015370750
H  -0.98512302059164991164 0.77699035860256748798 -2.39172961781944293236
25
-88.1179856162 converged=true
F  1.18061687771431822469 0.69749869386853768916 1.16598068507019259066
F  0.78340418111103993226 0.05967519576956605010 -0.85162463226876095046
F  -1.15422496821022368962 -1.81633370658294057698 0.49075846103477305249
F  -0.02217647437184841475 -1.30043853830805655747 2.25131504959190165138
F  -0.73179325778033343930 2.26166015918331986256 0.67485101099300071059
F  -1.67531022393074580101 0.61037166801222375589 1.62002548415581681951
F  -1.60879103806759449213 -0.12932217031744844271 -1.58213303258331494661
F  -3.17848901042605325173 0.19376176334757511110 -0.16603900608017768681
F  1.10888208024102352667 -2.54341839859581630989 -0.84080353790606232600
F  0.83231451987715665553 -3.52404407510835238071 1.05929671336248421021
F  2.63625433799700337190 -1.60086024315304364940 2.19012742379352598476
F  3.08792491102909627543 -0.99362928996342791965 0.17508007511239814802
F  3.36816223606468678753 -3.03277098949555190543 0.77267520749812124148
O  -1.50689585292400263228 3.56879210899722210115 -3.01857142466275885084
O  -0.10775499856869624749 2.29165232867175072684 -1.84088822747891578402
C  0.24767836846781365878 0.12582487718415535927 0.37097921567562086587
C  -1.05799446777336703107 0.97812464656313014011 0.46272859860906823126
C  0.02635058241331211804 -1.32585476758711151568 0.90664959082479046337
C  -2.07899751094682105901 0.80522148130078174955 -0.71127962379988274311
C  1.13141106748413511340 -2.34053556146232066837 0.48540135275197970888
C  -2.46303906413619211335 2.08091808117551169133 -1.40672690641461528571
C  2.58265737119346994177 -1.97011520876421752924 0.91538527342833819755
C  -1.22247358544969797478 2.71602955844283355802 -2.17480798190145208082
H  -2.82756143393746040005 2.80513528201485451419 -0.67991910028986290992
H  -3.24495264706990749204 1.86521810480682015410 -2.13339866841622338711
25
-88.1179715974 converged=true
F  0.97300235797846634789 0.34980259217730480525 -0.41922768880455563156
F  -0.20936921612581951835 -1.36727699280846892727 -0.99153775454205905771
F  -0.55924663258121642961 -2.18516562932644564654 1.43636950369800531213
F  0.06757926283596768502 -0.33494706134343682491 2.34607195247251931747
F  -1.31076723912733239530 1.34293756660709640016 0.98375347227325904420
F  -2.34628388532099974029 -0.45465749881250694386 0.48823056374072204555
F  -0.90353275291112122858 0.80916955612669017039 -2.27619391044171637262
F  -2.86230049435033695460 0.11639769317811132776 -1.77300540115140981001
F  1.85733815213663344679 -2.32306777442741596573 2.54277649808395667108
F  2.60036821079852531469 -0.63554575710163729863 1.42370621266332664234
F  1.26494713218699827983 -3.57357480094917612234 0.01661141902286077110
F  3.30242553951015382907 -3.24329192239646957319 0.59440182446291156548
F  2.40664986258776192329 -1.99313230541651997818 -0.89834328741531033202
O  -1.46341300465377432971 4.59739335093798739962 -1.10645180763607475782
O  -0.08135980577074830578 2.88801376583552515953 -0.72468346392924665178
C  -0.06833900928433514488 -0.40428453397435321071 -0.05108811093112593238
C  -1.39654251479051416673 0.40345969551336341441 0.03043908525477985461
C  0.27043848275410575788 -1.13508636765194270701 1.28667559022948840841
C  -1.87815683932973898074 0.97315886925221428694 -1.34536737678770057514
C  1.73592827179411535177 -1.66059923188248736992 1.37417192258348119793
C  -2.37080751239682818721 2.39132199664832212349 -1.28741921272397275011
C  2.17636285958368125293 -2.63356855202347617251 0.23965985961584182484
C  -1.17094044139315744957 3.40331257582300761300 -1.00827253281855555578
H  -3.11311235766088278965 2.50138035494943578030 -0.49896798138636910824
H  -2.81566642646959319762 2.65041141106526012550 -2.24724737543305641552
25
-88.1179554716 converged=true
F  1.24034421364813396416 0.10141373352148783105 -0.93438196287283570296
F  -0.69407580346919794945 -0.51621415472775344924 -1.68728214238903406752
F  0.46052990138702942780 -2.51361468406899568606 -0.60662377245132126369
F  -1.14275174172535898265 -1.91376233943365114953 0.68313658931276299846
F  0.15145678996155811924 1.99132397777568281860 0.32574843669572772775
F  -0.85955104083034417073 0.52995057294924141633 1.50792427188996347454
F  -2.89542183592667035086 0.28212027062987382608 -0.06137928423440676406
F  -2.53135743842807592330 2.28418742943605401763 0.65057549287868254861
F  0.38795535388404789323 -1.74696429742180714406 2.59827690372455011314
F  1.62980104037586404075 -0.29091792860329135362 1.59962471087600643926
F  2.94463511079618989186 -2.36377434942449715649 0.26473091782832325336
F  1.72738899165655745982 -3.78939551860957868357 1.32636798434445446482
F  3.00808032602280039924 -2.45371040728822720212 2.40725613847183872451
O  0.03217655075332578885 2.06359153460610089681 -2.30914241236226924769
O  -1.12842749716836432405 3.96796458255725603692 -2.22681168948596575063
C  -0.01202516341475229344 -0.21405248713400532035 -0.56954597372573245728
C  -0.68572692156625714155 0.95151767666534381451 0.21804174387464481111
C  0.07229053696142376251 -1.54656331546463921001 0.25061817445364925616
C  -2.09958831703589776652 1.38528853773631954738 -0.27783502086025924083
C  1.06111703938511947598 -1.50203404238275228799 1.46223916169144674271
C  -2.26450463058384476867 1.92023818075959740170 -1.67003319768840552406
C  2.20881020330181598865 -2.55277071213065021027 1.35206440952026074598
C  -0.98146557908471576681 2.74948136384145280786 -2.11960858753876379978
H  -3.13867760190948263954 2.56973764632529855234 -1.68630276014939339824
H  -2.38581048699092335141 1.08951972988615497506 -2.36259613170391968850
25
-88.1178598505 converged=true
F  -0.42900332627719439671 0.45227636021491679497 1.78357043664369419034
F  1.22889116514539376013 0.57394661152156845052 0.40969921176528206752
F  0.29700199333254162504 -2.14025069671861167819 -0.46510749537815848642
F  -0.86174251896706210996 -2.06182838927340617019 1.35412362994580592890
F  -1.94107673617898024432 -0.50138914959685365602 -0.59541997474800023582
F  -0.22201063461494485729 0.23345192606065998109 -1.70547541070553232423
F  -2.39175112309072490646 1.82514165302475661612 0.56143056434351712447
F  -0.45318282180821384264 2.61002083790938499419 0.05145375642979653497
F  1.38442249256285343506 -3.25774738639004501906 1.85149752603623563019
F  1.43910349876314702655 -1.30433495785084541119 2.76240129268219014591
F  2.77417868439653370061 -1.48855199569335927556 -0.40404622770051168423
F  3.66666653464485925440 -2.70624902382893273156 1.11497028028425204660
F  3.43296227399966680238 -0.60185665696855161766 1.43966969933509858492
O  -4.28763949815608569338 1.57042930908630773423 -1.76274354447874470608
O  -2.80776160301913790818 0.60161474897095545966 -3.12213693838662331714
C  0.02747785349374193276 -0.00574875088453048744 0.60685327385818921275
C  -0.92597068815740635195 0.38346559981612970969 -0.56696655924156735828
C  0.21750801295033450611 -1.54796345548248148738 0.73726696074087583188
C  -1.47942607907825962599 1.83370036372477418496 -0.44495822317307626159
C  1.47007271352130919340 -1.94351261942706465824 1.58112979098154493585
C  -2.02729467770909321800 2.39202925497837082247 -1.72194636531434186466
C  2.85998507297260884386 -1.67265462051614544059 0.90804182359313379003
C  -3.17227985770738429849 1.41465836067336026005 -2.26692254852901120543
H  -1.23124098354688249479 2.45678905156187710190 -2.46072445336990686116
H  -2.46268774747160801297 3.36712462508773446856 -1.51059850551413776820
25
-88.1178567304 converged=true
F  -1.13431348402497800265 -1.38350847536671950344 -1.12647803890312081521
F  -0.84940270287698405038 -1.82145139705130132413 0.92863851470403502297
F  1.00586280353539780918 0.87841248344068867393 -0.07463478748049706679
F  1.36682806493062147801 -0.97499976827889922593 -1.14784729350647163315
F  -0.99840915193786272663 1.06828836815884375966 1.41272764745161549804
F  -2.63868620735147096923 -0.29982402611308073270 1.21728043653257334000
F  -2.99651081977720457061 0.50417342283992105934 -1.44485772776429666209
F  -3.43518505182698197231 1.77461664620406001092 0.22671158280272835084
F  0.92814223975506904285 -0.83806477960699421459 2.32869053479272558604
F  2.72037376977054856653 -0.24072594521553239422 1.31088374775246108150
F  2.25870517282678129334 -3.02001069734243543508 2.21943305674314439457
F  3.22455218670485299626 -2.52005837141691424463 0.37102120793665022136
F  1.20138660477852510233 -3.22902818067670871471 0.36657305710956172851
O  -0.46793838525448017140 2.72397500155788918619 -3.18869380042004957332
O  -0.30849527415481520221 0.71952381114182339950 -2.22400592949918962660
C  -0.72127107244056731794 -0.81967737219823655348 0.00727633974690460039
C  -1.66591750894334134081 0.32073060090088362228 0.50461528801592969717
C  0.80071311602840744559 -0.44809581182858737591 -0.05166735296888613771
C  -2.38460932179710649592 1.26807722682686030424 -0.50397027286445827965
C  1.60786309434742946678 -0.98802551513680370032 1.18063311691786121393
C  -1.58356408068792187116 2.39702375465674233368 -1.09304242395905526486
C  2.07014241294656509140 -2.47199636869952055207 1.02484624128754653327
C  -0.69201102575279394014 1.89654466194371496002 -2.30540669786749763404
H  -0.93062866710123937075 2.83218593298070597797 -0.33809079664217905892
H  -2.27242471169642623607 3.15447579827963409116 -1.46557364981802340509
25
-88.1177371573 converged=true
F  0.54432448494111240755 0.95561604031146074600 1.61829967053529788501
F  0.69264623994746310487 0.22149067750572387636 -0.41396625684077664742
F  -0.81661116896318342029 -2.07852158295166500324 0.47491700025023120268
F  -0.49886830188342790038 -1.33000303866023417143 2.47506894340329175463
F  -1.70712627268267502778 1.86379259567328459113 1.12019893342799381486
F  -2.35519242234114623002 -0.15817577029254065168 1.15118680301778297803
F  -1.36112959624255647206 -0.17519246205872782141 -1.71933286118379546892
F  -3.31297573875000361809 0.30646575331282355226 -0.98140923835164484146
F  1.32650785504791168812 -3.06985805960122704050 1.90551826174290939164
F  2.23143785560820884228 -1.11599211767295081188 1.96308622915921437979
F  1.19596483089735050598 -2.33925928245594683119 -1.12036092939471210173
F  2.78956792809384612752 -3.29946656628103562880 -0.06516476752241948112
F  2.91083787913725755558 -1.20276143165567250826 -0.47254003320587945058
O  -0.12061919073891452792 3.22540882291842256890 -2.70975617817937086684
O  0.11442759787885106726 2.65967687851209433347 -0.56617989503646493077
C  -0.06329007269997838359 0.19087281356769256191 0.69778882992225998994
C  -1.53027243519772637725 0.69717415987709885350 0.48396693476364738284
C  -0.02476840715129369208 -1.28437846906722374918 1.21691631339696471059
C  -2.02184874163372407807 0.77361354854131281211 -0.99719830712748414037
C  1.40879956546044615706 -1.89752436132846535877 1.24532743649648391937
C  -1.96458812137201155323 2.12930304308069562325 -1.63949671663614049422
C  2.07718889606421397431 -2.17808742668688015698 -0.14171667396996850963
C  -0.49382646374592642502 2.73400746525236160167 -1.64311229397413560704
H  -2.60351061159680208235 2.81097414245874954730 -1.07881786278154567782
H  -2.31187358807728626786 2.04338562770079912312 -2.66816134181171804585
25
-88.1177355078 converged=true
F  -1.57505040556992126355 0.00309177313372020757 2.11519154748664650612
F  0.35823669487478276841 0.90280794428971455901 2.30813604781435710578
F  -0.58972644081928160542 -1.77661665256308665128 0.23142449781726479041
F  0.36849787913330639411 -1.70436402219092664190 2.14491769317675595730
F  0.19903802899239836366 1.51111831410050378999 -0.52662276467031932103
F  -0.86644422386480179910 2.57481762737987018852 0.97898126607943380950
F  -2.66344810289696320993 -0.07587337340423955245 -0.16698693096230346478
F  -3.09030551289162502826 1.94724347110943285522 0.36886185397542270437
F  2.28679094259164816805 0.16457407575550425660 0.82425458851425670304
F  1.56822425641675033958 -0.73846977849383643733 -0.99732524393947064034
F  1.79926743024714208552 -3.29026585570898921773 0.42268070040366401141
F  2.93402150603605882395 -2.17151310638182071244 1.86473397126976214722
F  3.53826290368941664966 -2.19186285197142316505 -0.18885347597421547894
O  -1.47305869526330446284 0.65783574751086160148 -3.89863722130593659543
O  -0.81963785743915207327 -0.36293313993458081734 -2.02411505041066686061
C  -0.47106936168807778120 0.32009535681864054180 1.41165014950689160500
C  -0.82679934742788030455 1.38091673447918350526 0.33209817809583153103
C  0.20760144024647164684 -1.01661613357488844755 0.98103691294298800418
C  -2.21252791394049364015 1.18933415502545725140 -0.36555264764386574683
C  1.62030659550136912905 -0.89790871003442940257 0.32711230954164161044
C  -2.22539599184877445737 1.57510203218194355657 -1.81715076853180268479
C  2.48234987378678084724 -2.16954143719196057560 0.61510194133780138337
C  -1.41584782098079031698 0.50508917874675995918 -2.67733198691686702375
H  -1.77370096327594128915 2.55559389033583927997 -1.95538039433353016960
H  -3.25438291360909426331 1.59090576058274391080 -2.17316317317370577555
25
-88.1177208561 converged=true
F  -1.20631226622396692250 -1.47114905382530314348 -0.86463024515091890798
F  -0.69685371896138370573 -1.63188784720553980989 1.19111162809451998079
F  1.07549152656735502731 0.86692692393331483025 -0.28543625378437215145
F  1.28785174201078578271 -1.07766675883525908652 -1.22667498244338357694
F  -0.80268569883788987163 1.28583294935646152979 1.31034294323712097174
F  -2.45295447159600321640 -0.07683670125437072618 1.44885695913865153450
F  -3.07178888469009825357 0.40761191424975351527 -1.24954677972523908736
F  -3.35463788799974471644 1.86193078641607456802 0.30116584324832790243
F  1.28931727560090347851 -0.41535569500616698058 2.22366706487122112179
F  2.96649075197332656728 -0.35374846035483425988 0.88208478819978464180
F  1.62925276547557817963 -2.86207868332966386404 2.41145446720017586628
F  3.20860077732933435257 -2.77961636074619855563 0.96570542387244540095
F  1.19942115895376111290 -3.14783335384894469300 0.33037550808280641279
O  -0.63815426043831779968 2.38484938355110731578 -3.42750848988874379231
O  -0.47240994085340204389 0.49485217969241401814 -2.25455822006404282831
C  -0.66928143704482045973 -0.76600790486730663265 0.12857565453347941098
C  -1.55674747767097221285 0.44143465039119733628 0.57162532678698041444
C  0.84235196127560474366 -0.44687277564835831134 -0.13148147844302360276
C  -2.37664659282851742361 1.26935792423782611849 -0.46455509569646064039
C  1.75208053548558861934 -0.90416773446082054910 1.06060206023735914549
C  -1.64129378298473560527 2.31953186056384241809 -1.25176475885748650363
C  1.94051669378986701986 -2.45528556144237120051 1.18787741072663655117
C  -0.83202271531075788769 1.66726031180819456168 -2.44658179827534905115
H  -0.94585062347762205448 2.85551592155342959245 -0.60768953461397612337
H  -2.36853342954384205044 3.01596308507153798573 -1.66795544118648719767
25
-88.1177136230 converged=true
F  -0.46943141524589598879 0.56576223805909420239 1.85497122471111630659
F  1.07661268940909460312 0.56778938103206044730 0.34401466619200382624
F  0.08589116902078600124 -2.16857530334945991513 -0.26888832101607185177
F  -0.99850194032145056511 -1.96827190392840289945 1.58219163310551591550
F  -2.19651222239937116143 -0.50885286344135838288 -0.32132212089530853838
F  -0.57730381349804527069 0.06276615975470123399 -1.61565252800728798022
F  -2.58303597244604699057 1.76411994290015594622 0.72439772407804647880
F  -0.73421938470051772985 2.63288918542600036687 0.06473992067131639772
F  1.07771377748132857199 -2.87269586049687353224 2.55876972993469298245
F  1.75711936021751569115 -0.83254242489298768692 2.47208368009480095040
F  2.74082474274445564433 -1.50801704353548338133 -0.21805078519243734081
F  2.31998664684049327178 -3.54414881814860116549 0.33838893312420803561
F  3.66139265196963137328 -2.36295490750449665995 1.52343585045292950753
O  -0.25547102398194032613 2.68317276389424819172 -2.59419178622907820042
O  -1.93578769131527494984 2.08975032983843256318 -3.93500501866391161343
C  -0.10767417943353632670 0.02537413615461776503 0.67785720384932779403
C  -1.15226966881155967748 0.34573854917106611184 -0.43415781798381547496
C  0.06629546164644220529 -1.51032272355449315171 0.90394028259993841612
C  -1.71416559959356651355 1.79496922101799016858 -0.34770435358609708132
C  1.35703829675171272484 -1.86468698762866913476 1.71347951703081147201
C  -2.41029021587197478382 2.25165412218930960364 -1.59484695726280234496
C  2.54300012929413510321 -2.32321234033345946912 0.80980672836245193302
C  -1.41817409159061780244 2.34902917252299525686 -2.84509526293038206290
H  -2.81028544167188076841 3.24977248140845720314 -1.41720542270250593475
H  -3.21755026449386871690 1.56405449344513702847 -1.84089471963747275396
25
-88.1176999487 converged=true
F  0.00164632374161030604 -0.93704754115114641255 -0.85440531177074829916
F  -1.75603424761659443476 -1.44323601426455994101 0.28444983900127973619
F  -0.61703037522069958953 -1.42564034042838017058 2.50510295556744022605
F  0.96183361110039211628 -0.07041316937935360176 1.97742879209303401566
F  -0.06818538035911878015 1.65395367123642467178 0.40964510984313051711
F  -1.72634890773026405952 0.97071288078224859941 1.56604156993704690670
F  -2.28813465033502350110 0.23412748241005346128 -1.65102284357722561836
F  -3.37700077633102679897 1.27414613225730244395 -0.13280623736949617730
F  0.38920727340240490744 -3.27986026779592743097 0.64156145712758450017
F  1.59110597057090430440 -2.77194168911528526777 2.35417266434483574145
F  3.45382038618516240547 -2.48956872499014503219 0.79558753493166978199
F  2.54545143920820304828 -0.69425518796529961385 0.06760419863650285466
F  2.18688992066894716260 -2.57288996371564060439 -0.92796614711696445710
O  0.12942277152962156084 1.40135627597635936681 -2.17668254135264493954
O  -0.30013289130266951332 3.41525797539690323390 -3.03528370814925985144
C  -0.66327218910570795440 -0.65006241555245092290 0.27249184701407780373
C  -1.12698845400319136445 0.83255236515925268304 0.35264789532379803294
C  0.20780373917008798657 -1.07298576042590543267 1.50085425530722038623
C  -2.15384869784763521849 1.24512639068177177748 -0.75415888736934000303
C  1.12261307256072306870 -2.29537726870890335107 1.18618155469287822612
C  -1.84670719523674220497 2.55402638314272412146 -1.42501625391251462993
C  2.34585936496257874140 -1.99330020042358002641 0.25221040490362867104
C  -0.52598214788670882847 2.44401563321015879993 -2.30996205845237501109
H  -1.70622957899034100038 3.33651872522684378453 -0.68156949921385046043
H  -2.67455638113486626750 2.81734562843653524311 -2.08204459033969380144
25
-88.1176974095 converged=true
F  0.31619074582152451036 -0.10160390821050693799 -0.93499832429973772641
F  -1.11393010233111189322 -1.72679643421992090602 -0.75128473731422418247
F  -0.67219631221517495145 -1.96033781628529490959 1.85929455359481266008
F  0.52557404278062880287 -0.16740372986488963325 1.93669924345312272074
F  -1.94582246548097348438 0.29991044135342975752 1.58318225726244632412
F  -2.90981300532385178670 -0.07984389777610070849 -0.27632770881493012860
F  -2.48708776697354938534 2.53374033033315582131 0.45103951105155687396
F  -0.36952274480306823712 2.17646841044532513010 0.64932068267602716105
F  1.36351576323403156366 -2.51582245036906693159 -0.47252550833774786820
F  1.49921576767850561751 -3.08290612924895501834 1.59898606512162366755
F  3.03957213913035806385 -1.02521338940314743482 2.20850967577662871122
F  2.70133772771208890973 -0.03343640050529744778 0.32938726609459118011
F  3.75638215953447884843 -1.90127887393068939481 0.38874651327938009038
O  -1.77151675355663362765 0.15997436447051641140 -2.64363583178749328439
O  -3.12720650974715441706 1.88544491501337008188 -3.04751894464933936746
C  -0.60306492707911418805 -0.65654451071419861474 -0.12533790695598948095
C  -1.74620513380444353224 0.34631902972784656125 0.23524670295153454758
C  0.15375247397731739429 -1.18602307167848719516 1.13906527676975377616
C  -1.46331567156716535472 1.83797068977491218078 -0.11785229452727927213
C  1.42546051309580112942 -2.02271227711473455813 0.77347240249855719885
C  -1.27108836817821768683 2.22940538567260881919 -1.55465902461426930259
C  2.75368700305896219049 -1.21735860812549567811 0.92633350575636252966
C  -2.15893294127961610229 1.33028071905268641117 -2.52539185788379105801
H  -0.22727195346734166415 2.08734488302198339937 -1.82820191770554574262
H  -1.56251168021624864402 3.27298332858091045594 -1.66648759929601864016
25
-88.1176968609 converged=true
F  0.84090096809230685526 1.10904690209368839149 0.12714858980807236533
F  -0.10684173929847634588 -0.27121929781487719158 -1.26952797747037005038
F  -0.37868030643246530786 -2.13947305054583880590 0.61927610306885372271
F  0.23226707562079648706 -0.78049929439236553907 2.18723773187892600589
F  -1.24356142146613390942 1.71439387519101371637 1.32316820494242803896
F  -2.09218824157021510146 -0.25675408861367188251 1.20816492941640207803
F  -2.65878020075532761624 0.09705040287711103053 -1.47400259697181623686
F  -3.67345107945399718119 1.25010442438570712476 0.02666347194609147708
F  2.65559919493575868898 -0.53873288678725639311 1.30421979413308464224
F  2.21526246719100816662 -1.36377626336189972100 -0.64891286162686945271
F  3.54367388778065128818 -3.01523839286055705955 1.22421845767275727646
F  1.73546646075916388696 -3.78605823873750058084 0.36467379600017402197
F  1.74340766457430684788 -3.06143443510833312970 2.38909011013763850073
O  -1.33448207820811215463 1.80929908357961943821 -3.51817667363569341887
O  0.16066809841900617228 2.48410597172441027780 -2.00759493694114876661
C  -0.08467372927403363225 0.14500610616458825541 0.00727483484882435194
C  -1.47004190038297410936 0.69658629875976429968 0.46990409378480391123
C  0.38438612408046257674 -1.06418614235073016872 0.88177845950464706082
C  -2.46709635919472658472 1.15077797358721434229 -0.63634468602398486237
C  1.88371225095501437785 -1.42278019828185131601 0.64998950713769942933
C  -2.14806015143176409765 2.43279009734830165002 -1.34443774190715936712
C  2.22762017302388493079 -2.85384087144036158179 1.17022601727160857621
C  -0.97643388440797429517 2.21743630587265361243 -2.41133324194408826813
H  -1.84350165785710773392 3.18618349250799370864 -0.62032299989773731497
H  -3.03996961569908874523 2.74377322620319574753 -1.88731838503313675837
25
-88.1176147582 converged=true
F  -1.14838884831895127192 0.45341255122739604344 2.67485893093069471149
F  -0.10776257696229657457 1.68088367420820872233 1.29570349296910514170
F  0.27794558047671991119 -1.33171825098103058238 2.58840463673384357790
F  1.64358020788095404718 0.01671054203855264209 1.66919155972901012142
F  -2.79152216577210143811 1.22205173164213576342 1.14809108776022572584
F  -2.47399828174661173819 -0.86373597487144959661 0.71538470643122542558
F  -1.82364744672162015782 -0.33738003479817474384 -1.75961824293874391500
F  -3.35830340489945999849 1.02257488654687134222 -1.17006154756206015577
F  -0.42023794004583248096 -1.89735581425471133699 -0.40071153671646164707
F  0.81935101449179659205 -2.90094678353931323400 0.99925348950422665517
F  1.55091170635059150129 -1.58848277362909295896 -1.88947634221408744537
F  2.61905527727480968991 -2.77840041422329608878 -0.49145834011875699776
F  2.79611851080356821342 -0.67388036450886301676 -0.37660444812828819394
O  1.10798272181218537824 2.08255704639203864659 -2.15493746458582879910
O  0.55393495881945320480 0.44529838270038601955 -0.74744897246057084850
C  -0.64733272952062237415 0.45707971541861880382 1.39907360930593238635
C  -1.93696327389061595525 0.36183166223714702259 0.52649585462565640093
C  0.49156352852181262048 -0.63131946856772791499 1.44270108197251389903
C  -2.02377419091909338533 0.75406218547964309895 -0.98333289688042158083
C  0.68085229755678156049 -1.72304782072235718182 0.33659084519279192094
C  -1.17872789389852350439 1.91812979345341250159 -1.42853439275704174882
C  1.92409844431361531925 -1.63328629863513508091 -0.62042204340026541054
C  0.32096108778808662976 1.45248397203709012082 -1.46107685886325633362
H  -1.28853761672083000356 2.75892406414489288480 -0.74543533046664978148
H  -1.48195696667378928879 2.21611479120476184690 -2.43156887796278908809
25
-88.1175806334 converged=true
F  -0.41343948764203508617 -2.05010083942369414345 -0.52327998743357484468
F  -1.69841155720452441358 -1.21342582074836635719 0.98810867597672724649
F  0.20304506937801333755 0.33819398505215719775 1.96507046694350595573
F  1.50421234979202900206 0.05247411300553139063 0.26342355822047702762
F  -2.21616532226439577613 -0.36183588619597234493 -1.49822741203998655024
F  -0.15738905053026594483 0.25585303357823363513 -1.80051808511656252776
F  -2.12186411997710289157 1.34808852762679198811 0.90413706125143533665
F  -0.30407197815839487332 2.13991314936435728100 0.06554677363231189990
F  0.29650245731203883626 -2.76802130798950463131 1.89182251780945520636
F  1.59557221803716187125 -1.42675731576353759245 2.96005682046961782206
F  2.75677733892251453085 -3.54475126391062422826 1.47528040771442436885
F  3.48691583911968683296 -1.55701968508549826176 1.13712594151621892991
F  2.22142881268879310852 -2.50565869859888579185 -0.32346708394748835413
O  -0.59866245474307977492 3.42709593342442797592 -2.59682757901566674263
O  -1.89205644401577099956 1.85830065916637554579 -3.51522865938797846042
C  -0.68354234591474283267 -0.91536961598781851901 0.15910408444142917772
C  -1.13675452805789500843 0.15925596432686436876 -0.87981815941239727152
C  0.56160241154591994395 -0.54113659973648642332 1.01773782091849263054
C  -1.47852971294529633717 1.56033856489487376962 -0.29754565285074430214
C  1.19638185489404302864 -1.78566960331376201054 1.72815030774877653741
C  -2.29068620868663286316 2.42334865313891212324 -1.21324316377429730629
C  2.43965423938938696935 -2.35560645166586990484 0.97690069687368619178
C  -1.50761485549872475964 2.59265776489579247155 -2.60013031087940538200
H  -2.40491856751482302457 3.40107270432189867648 -0.74852461744252596354
H  -3.25278395792590568902 1.95132103562380354589 -1.40059242211593582006
25
-88.1175687872 converged=true
F  0.44649160180590652391 0.52186994703350020330 -0.87192216649767639858
F  -0.90420602029847485515 -1.20410627178595075470 -0.76790466861263773080
F  -0.12297679538708410074 -1.31145089402549319679 2.06014668976436743364
F  1.36294396055452327055 0.15585208575419812194 1.52817074261478191843
F  -0.83449007273739606028 1.67126868798269390126 1.26674483520832992234
F  -2.17415294672434900036 -0.01490858939999334040 1.42219325587340428285
F  -3.24159079396515847904 0.46036911895186094501 -0.98366381524287205274
F  -3.31007802470048506649 2.07506250197817898595 0.42443254199770591439
F  1.93192967863378295412 -1.68121567882594780130 -0.76133766968380256479
F  0.72908582214164086022 -3.08428915751903609532 0.36801385937301173135
F  3.25071475024169531665 -3.41436226078472504497 1.04778958643016140151
F  2.33788894088317311670 -2.33957698428724381046 2.66399777857065345188
F  3.61215128275633379218 -1.31098859597015282574 1.27125544001716317410
O  -1.31907720587025090175 0.47351482168761571678 -2.82095628565865963466
O  -1.21517086475716329375 2.51227259840072525421 -3.71555691702286905453
C  -0.35801486502186430361 -0.20003388772162561393 -0.07051481249849558819
C  -1.45513071405495675315 0.71455876706276788557 0.53761469171134612655
C  0.57668014043865944984 -0.81464421652631657800 1.02741672434834541150
C  -2.45210675905980979294 1.41379794177530948573 -0.43096948586760830402
C  1.46647870287716575177 -1.96531211565158336896 0.46488834462290390404
C  -1.86704402139155534179 2.37742199984103352861 -1.42673474988805693009
C  2.69144270896034942808 -2.25961518367331004598 1.38661413278273037974
C  -1.41881508015510870990 1.70458860104469356322 -2.80598060975195373601
H  -1.00156978577459820912 2.88392400727634479196 -1.00224243709045657269
H  -2.62618163939495952164 3.11856375738246471840 -1.67643300539981732200
25
-88.1175208534 converged=true
F  -1.22711454661915997377 -0.54827711823659019963 1.66646577125520334306
F  -0.20132072985677262889 1.35643167572517864272 1.72422375065363242541
F  1.33318952376166310891 -0.60732417770873758922 2.49140748372971954083
F  2.04448829280826016586 0.27300051378211909192 0.66084842520407582889
F  -0.77148022552049111411 -0.65365435745438149606 -1.09805491518926734429
F  0.20581591948914501611 1.28249316172736649300 -0.97208164900405058528
F  -3.05656295742725392373 0.25010525036268033139 -0.86063369754356655594
F  -2.54238287954728825468 1.52189583345383550039 0.78185521773673083423
F  1.55667609661159977996 -1.80102840064164859690 -0.76296284923814927659
F  0.04301081448396187890 -2.59585887149377514405 0.57710781860461979331
F  1.86637702043855346901 -3.20137845897140138618 2.42896843694093744759
F  3.41572755708720121604 -2.10288266257817735294 1.41941061622687048072
F  2.57336327023160604810 -3.85645757560453672497 0.51367493729325830465
O  -2.14108477182502499048 3.00581974798835993568 -3.69383997158938326422
O  -1.46924795636130123277 0.95346863945567872367 -3.13869595075373686299
C  -0.30743497111485601492 0.20233656335200322918 1.03522459873032746103
C  -0.75700641122188327969 0.51173220078411996159 -0.42669912201621373882
C  1.07695890716272124621 -0.50689199883297975102 1.16823594268972796861
C  -2.16110366619167004743 1.20265895869561312281 -0.50035697920619548462
C  1.20326433943457455911 -1.92153178394286694441 0.52647267674648867697
C  -2.22423207230132158330 2.41984307787063279704 -1.37970923194682359991
C  2.29075238798772984339 -2.78520889956043404823 1.24243733848028914402
C  -1.90987600291699788357 2.08523127498682736558 -2.90522161444385673690
H  -1.50575879759030395455 3.16256543675635937163 -1.03646633172184787774
H  -3.22981614100270286727 2.83547297008474474822 -1.32654870153884996142
25
-88.1174487635 converged=true
F  0.95967742660262644883 0.71528240568648804310 0.82318349213467822967
F  0.95235443512251505283 -0.36318781575443442877 -1.05558425465202532223
F  -0.72932317961604309353 -2.32645725676105330493 0.42982390741813153445
F  -0.08544348505492699308 -1.22960256330641493072 2.17758225550363659906
F  -1.88828344865089392535 0.28098330377962554838 0.88210533849250183369
F  -1.69528851194475937980 -0.46971484369439081563 -1.15133022024304754183
F  -1.34167953351746449542 2.65723570516323537305 0.27947035953487775473
F  0.16106676356464919020 2.11833318108574397698 -1.15547567180351773430
F  1.82500203716102271656 -2.75424341190220367537 -0.35282546053603147662
F  1.40257285393798269979 -3.39093467649861235458 1.66492450868065744451
F  3.80478745935453011029 -2.39472118152615065512 1.62927758791765797675
F  2.57084951914971293618 -0.89740368370825718269 2.54334218943464440699
F  3.24834741827582362816 -0.65147611903306634762 0.51332668363492461872
O  -3.85197497129918620118 1.24058471708845741155 -0.57280983971167009905
O  -4.38535963829851915818 2.55754580518419460944 -2.29005462070340337633
C  0.26678746124680885465 -0.17460284664663053289 0.08671245941597489904
C  -1.16086183788969399266 0.37162118780197461732 -0.24395509114099611647
C  0.22545334854596107976 -1.50592350693362653224 0.89865386296925153786
C  -1.13497261523386816506 1.83932906738105272915 -0.78377857901909775418
C  1.56643126962450818240 -2.30454171142698660546 0.88670869190500101187
C  -2.06502667073291723554 2.12857917549905151233 -1.92844886590471187304
C  2.81780402014086339690 -1.53423005150090485671 1.40574322189047928866
C  -3.60217498138050151724 1.95678273787411893814 -1.54890925520370292823
H  -1.84572752959917285587 1.45454157392415828198 -2.75541389637062561491
H  -1.90981560950899131868 3.15878180822461640531 -2.24720680354359414466
25
-88.1174383326 converged=true
F  0.56531580297499128829 0.72380953026199335021 -0.21711415555345917050
F  0.14589206486755426639 -1.24072512670645984656 -1.04223538588411090977
F  -0.44675666378890177555 -2.23732280249919446291 1.35868466106936813809
F  -0.36146728815733741857 -0.29076456244069748269 2.29861278804809243681
F  -2.39852077204513491893 -0.59662436253963146982 0.80695200403798139632
F  -2.24083791603087245647 -0.62106213492524575681 -1.31581224492943471560
F  -3.44390312116560570743 1.54223802245986729709 -0.14757542272362464408
F  -1.70362624212796531786 1.90842910628979445242 1.07209289720964862092
F  1.79215840205844156863 -1.83392318273791521399 2.72647343388446339318
F  2.23160481688627188035 0.01225818921124002120 1.70332873427614361894
F  1.81670334825202428597 -3.07758174507748050175 0.07833472753284298484
F  3.61594360210044163395 -2.39151962735073242428 1.01653295690128198103
F  2.75352075476325053316 -1.24276290347046458606 -0.57172731538090959535
O  -2.19771923100384825034 2.02038625103211444411 -3.53065101620249066627
O  -0.52194072715294648201 0.80690360347651490791 -2.69481464950715432494
C  -0.21383397767567313696 -0.36354588585899194619 -0.09047057621795553950
C  -1.73163103939585094615 -0.01862234660662066832 -0.23187456274684437041
C  0.12919184489098387014 -1.02497865679790134408 1.28413806019535958747
C  -2.08282241141317925326 1.49978493573319737742 -0.18791366558457928138
C  1.65727780825681203503 -1.19187280755737368132 1.54852874509896332178
C  -1.54164160437188324515 2.41413650889622122264 -1.24883569893480128599
C  2.46489351787965693674 -1.99211336703337305032 0.48263161495333523066
C  -1.41088038605534005221 1.66822536158509859838 -2.65041692868938616456
H  -0.54862297168217188936 2.75237171594498741811 -0.95878764671044547363
H  -2.22309561086370033323 3.25743728671105081673 -1.35301935404226458814
25
-88.1174359106 converged=true
F  -1.18239838387291662514 -0.09525865845427025635 2.69598356976618580561
F  -0.23987420477514870276 1.54305764824124147516 1.73172697685075460683
F  0.55648994433648080182 -1.52970484820777774537 2.27269587789926275079
F  1.67100548744861576722 0.05637478485126485445 1.41343777088700672806
F  -3.00576414594326513097 0.36112441114613186288 1.35097721020824024230
F  -2.03230618986723099439 -0.87615279327431061507 -0.09084238351322485028
F  -3.47308486284707607084 1.47976353044401176540 -0.72592795907769214203
F  -1.90379290964055880586 2.65100007187696551370 0.15206992856595744068
F  0.10757612372423638880 -1.24576376801852739540 -1.16532267074799822382
F  0.10810352009612364532 -2.76906714923034513731 0.31900660516818235557
F  2.82404973615171872581 -2.29229244568417378503 0.79132421588073054153
F  2.84059096365422592001 -0.84792491053141383350 -0.80061784053389728477
F  2.26945600240608769127 -2.87336898429770259966 -1.19276193903092853077
O  0.77228497227287040694 2.26558506493336553334 -2.41374852050756460997
O  0.61300374486870945479 1.04626683449919277713 -0.55453619532829900862
C  -0.68527382615132714783 0.30540111125556418381 1.48948410120526086864
C  -1.92099682694631601620 0.31443823730661141225 0.53243873616139381078
C  0.54566588009000649429 -0.64725655296745621126 1.23195014996329699208
C  -2.11833490448231209768 1.47495963461666845795 -0.49387583634217457895
C  0.68539361343174098895 -1.58880563715082767651 -0.01127872921614565815
C  -1.38162227041610741196 1.40384316270663411785 -1.80171570925816681985
C  2.18726608939574784785 -1.88367344655911650442 -0.30339920069264320057
C  0.16419637958394497912 1.60609610538451219597 -1.57654789637562453564
H  -1.75426571772647021952 2.19386675710941192463 -2.45285861818207484575
H  -1.54216621479168547459 0.43005284000432725255 -2.26259964364985233232
25
-88.1174187331 converged=true
F  0.59785308061951336622 1.70164597356770652681 0.53711257984813243205
F  0.77302624524798968508 0.48789980815887590282 -1.22668952866010094738
F  0.40231516595965011174 -0.95219186488447116190 1.94845130456684212383
F  2.22317121168582554347 0.01376862370511212387 1.34108093349144263939
F  -1.71924762710698542101 0.78200937165003980844 1.20874181033604677360
F  -1.45895529995103179211 -1.08429926245020413766 0.17985913621828578113
F  -1.57215307698968320693 -0.03763903222107104624 -2.21713120225363269356
F  -3.29410185932693311273 0.40402664972822482925 -1.00981567989348786085
F  2.65993561966240177341 -1.48928892616448504960 -0.64709355627162612468
F  0.62539094488092650259 -2.17208636401417143347 -0.86781797516854697339
F  0.74368841820280584543 -3.57437233006957910675 1.42231824090130709592
F  2.63659932191571400040 -2.70625703310946708058 1.96484943175524118253
F  2.48955238825434710392 -3.97330502169371024834 0.24031507817227390489
O  -3.59588591947476610144 3.16717562660648921380 -0.14145120749988188136
O  -1.48535912882368847932 3.58975732445870576726 0.44467215007152627315
C  0.30567233658015702247 0.49369357135398961312 0.03879832834155645671
C  -1.23345548844808372557 0.25330651563491030087 0.07379613847341701116
C  1.10448550457299110583 -0.56554282738170202904 0.87016234736982389641
C  -1.99645375887896459055 0.76795297488796943064 -1.17942684236676553766
C  1.54783692940667561011 -1.80869706210628167220 0.03661419615656746895
C  -1.84962514366664354526 2.22268949823739925264 -1.50037786931874528307
C  1.85856619099621878100 -3.04040543597581924828 0.94204189175985897364
C  -2.37055756705274722762 3.09544778167523615409 -0.25879330047781334834
H  -2.47807937226080587934 2.44170658111212590669 -2.36245737523405718861
H  -0.80901711600479009334 2.46556585929412230840 -1.70269703021764295947
25
-88.1173682358 converged=true
F  -0.46012210844281320465 -0.12922638554517176801 2.32012996367156265620
F  0.70071523973227056725 1.20927200950823476866 1.14759305815891488045
F  0.77974346990476772756 -0.76056015233977725121 -0.91835370152886097728
F  -0.73341242290274011317 -1.86508600530509127680 0.16447058313693085907
F  -1.63886562309140915161 2.15604620420280124193 1.02681453117398358010
F  -2.54790652001437933905 0.23790787892280179650 1.32980192870530622429
F  -1.59720672048395195830 -0.18770451598251045033 -1.57592803286292548748
F  -3.46599255643993142684 0.50187711821489855435 -0.80540588451252170810
F  0.80817379819745449598 -2.42690769142829143590 2.12641432806176844394
F  2.22231836133158688895 -0.84283141069065337092 1.73761440603511840841
F  3.10172967453380232783 -2.03240202086051446884 -0.48753798027017219985
F  1.47515624752036123013 -3.44437279143472929732 -0.50271584286409887188
F  2.93564689886137930586 -3.50081298189596523684 1.06433143213024794527
O  0.29552121538384024113 1.77922355674241750023 -1.18208642969164956504
O  -0.21959939356815313949 3.51741170219962429044 -2.48523835209408483493
C  -0.24619042753345907193 0.27709253240846992705 1.03235358726128034768
C  -1.61934261964174286419 0.88547763423761371993 0.57415188661739890996
C  0.28683994735308993018 -0.98956657640169654044 0.30167565857486294822
C  -2.14326529569559953714 0.85417698870740066397 -0.90261855770589194403
C  1.38856808933890096824 -1.71172596547306055115 1.14602205458915351599
C  -2.00777815861162300948 2.14853922920753870329 -1.65952363695157933954
C  2.23842574867069288302 -2.68736518198599583229 0.27638031858074119107
C  -0.48058469765257838535 2.53068072898166018803 -1.79616592045378409281
H  -2.53672645330382673379 2.94699129803389636706 -1.14239839817927979482
H  -2.43064369344593078637 2.01642579797612198078 -2.65471899948239631328
25
-88.1173547874 converged=true
F  -1.08134560570350424236 0.39637354568155336310 1.83879599460032827629
F  0.95441165858311638459 1.01184531385150977556 1.58837736677367424853
F  0.27027231687013009154 -1.44463939549477293767 -0.58671689609963362244
F  -0.51306083277005987142 -1.93006697831792584097 1.36203202725875538448
F  0.66289053633446470837 1.14433219794690477222 -1.11961077345727222365
F  -0.55952692723619490422 2.44926755973874676897 0.10634957475777633007
F  -1.31350828893712612278 0.09426686021629826495 -2.21766600624237675277
F  -2.18562565345229931069 -0.39752282474092415221 -0.32407514362059880453
F  1.87232371714746625990 -1.26520619091335717599 2.53744704496272310834
F  2.68621375784879035109 -0.64565460743232050422 0.62431240809148824678
F  1.34728387506689606390 -3.80361211528336040644 1.40529397098985175951
F  3.39651924733167298598 -3.17545970458175030871 1.45305879845857588428
F  2.31433419682988095190 -3.14509310017627807810 -0.39919622608317090195
O  -3.14196838773076425610 3.68200142911014083325 -2.54903211000252616358
O  -1.07158305684239762989 2.85332067162042868347 -2.53244130954826340840
C  -0.05581844940877936367 0.36439490786997336125 0.97098169833350245206
C  -0.41637887960864528036 1.17664512176764679552 -0.31588301735540352810
C  0.35013690782194450968 -1.12752956989256514220 0.71721718068313722316
C  -1.69794986690627158765 0.66954136593966373514 -1.05384926422970948146
C  1.79134303663457106204 -1.45826915744084883997 1.20998839887205122956
C  -2.76480464069370235336 1.70733651197050639858 -1.25350473946541840498
C  2.21133127025304698776 -2.92949081752971851600 0.90538530553510354615
C  -2.26764301072220320066 2.87687109615992397949 -2.21924385381410704809
H  -3.05137477883179997207 2.14345774805593825008 -0.29824715040990862347
H  -3.63127014187822538815 1.23545113187459221216 -1.71471127888858698718
25
-88.1173360957 converged=true
F  -1.37490473413320035689 0.14116669703463699537 1.77110564347056254064
F  0.65964400952044577320 0.79337935919355251357 1.88237139226208682885
F  0.20377984777173588360 -1.46581269370908517935 -0.61603247193960997130
F  -0.60372019278420974153 -2.12182430527538112841 1.27071432195853928349
F  0.73746096466244592804 1.16378766067862038369 -0.84838665207247465627
F  -0.60337445270982148493 2.38090258901018714255 0.34391804644717260953
F  -1.10500568027859369380 0.28651836821430498592 -2.27187178832584590893
F  -2.19876410652850928784 -0.38146144721131169941 -0.55611241541238387587
F  1.69372432226216163009 -1.55018973108184554555 2.55986905942034592698
F  2.54333320372910476337 -0.60446624705671814226 0.80361637128806373553
F  3.32951039979912888356 -3.23637172825633223638 1.35577962021595133102
F  2.47396869913176464806 -2.89903527989404352638 -0.58278719710772286522
F  1.33423026764972174618 -3.90234181934703006078 0.93984978666801144431
O  -2.84077289892660544979 3.96513785079352798491 -2.35783064424777943913
O  -0.80992647596870392945 3.04605597235362024477 -2.28834350549152132359
C  -0.23727641020239936820 0.21099178648515018453 1.05935423368424697088
C  -0.42936868392764915292 1.14947062672472011258 -0.17621894899908296939
C  0.23924948442746948873 -1.23935830150137760164 0.70889457183068427248
C  -1.61987716420545857510 0.74537176193706622396 -1.10681492929763147792
C  1.68043053489180360671 -1.54727080187486576435 1.21639919225010539883
C  -2.64684564844648972937 1.82055358893890906202 -1.31803106334820707701
C  2.20711341558101903360 -2.92811046622151316399 0.71582076278837813987
C  -2.02680693793889332710 3.08352070470608108366 -2.07174445702928178292
H  -3.05054306870964975218 2.15038991580682115057 -0.36245517832347706744
H  -3.45005669466655584543 1.42155693955235551407 -1.93600175058909096393
25
-88.1173276584 converged=true
F  -1.40456751861212003618 -1.76067432828553949165 0.79238979372134277224
F  -1.45700556412935333661 0.15405084304916111249 1.74410739706772055513
F  0.92254159782550138047 -0.09431923988163430639 2.25014321611130396761
F  1.39206064971567666788 0.09131887003298744254 0.15577480947134697553
F  -2.53982344423832095970 -0.12929151280484477149 -0.79319986751099280653
F  -0.57267719450897547340 -0.59908385376084105634 -1.57566741872505122757
F  -0.35929174309137335008 2.02211601151169562129 0.47096488016586768310
F  0.14014460197950098785 1.78291005794923695937 -1.59755334484977673526
F  0.82393878151106925145 -2.72915676752793023851 -0.08741781580864253776
F  0.70001924691512817933 -2.75905531873924569908 2.07610279975580880318
F  3.24599705108006419962 -1.37359046298614773107 2.06693640388408939046
F  3.31601029973930661043 -1.78564639337000241603 -0.04264274750588660512
F  3.14949461762302140855 -3.39690879670494583209 1.36487997340841249461
O  -2.10208700872088494194 1.19718991062851465301 -3.12859677708848016309
O  -3.50559473971542656656 2.92283085374146978097 -2.96740682451075921122
C  -0.86138902238239400955 -0.52580955098280701687 0.75008643177052825024
C  -1.22283079708751718506 0.10877076438232455291 -0.63225213545494418632
C  0.67428125316934484079 -0.62308988999133296804 1.03989940570065342307
C  -0.89783568591408136061 1.63557688568976766774 -0.74065935026616336323
C  1.20713025953040098415 -2.08814223487865868734 1.02843108020549123260
C  -2.06810521264512647832 2.50469407101010110850 -1.10242876684819157695
C  2.76445429473500858819 -2.15253995449023527442 1.10618528400948235024
C  -2.61802522965756034878 2.16795415044801353943 -2.56255580512340763732
H  -1.74614534079095173880 3.54516639361256880036 -1.09501041354438921616
H  -2.87549215232993793379 2.36729049234832800153 -0.38544820793535988779
25
-88.1173248781 converged=true
F  -1.16619314474106783308 -0.89854449839920891296 2.19809330450061368722
F  -0.53575876733576244249 1.13078039915037575902 2.23091182759847006523
F  1.44649453270925465453 -0.46374059834393704937 2.20027005055204227801
F  1.49171128584145185059 0.30597404927666987939 0.20792361481173407545
F  -2.49827059366655390704 1.42661243007762106316 0.78681528349341944839
F  -2.64197765035693077351 -0.66872000153702626513 0.41785914981371974353
F  -0.26158330908656413083 0.00944278501585363826 -1.48382323637098911817
F  -2.35201557453940068854 -0.21245940833418133775 -1.86304699478933799561
F  -0.39506430109204015988 -2.18412466604566368744 -0.18268876914783599430
F  0.69609774804286295158 -2.74853254570854454997 1.58308698888127996618
F  3.08683182556082069681 -1.94534234819342088940 0.27846535499373203937
F  1.94329755020891314921 -1.72532619622161531581 -1.53249481037460166810
F  1.99834072331445011805 -3.61068570930967513988 -0.51881532598194135542
O  -0.33293569595004407491 4.03483025876525580600 -1.27112887235889449045
O  -0.02406016439701993970 2.32480966895934804128 0.13024356056306204965
C  -0.66243341923157206264 0.09229334794670784881 1.39936545827343894466
C  -1.77969859718444389785 0.38263581622521103398 0.33077483245902239428
C  0.75902252464244857055 -0.44248884469032068179 1.03427605573018266405
C  -1.46209742545608478714 0.57933364066238846046 -1.18978334647469496943
C  0.71765155498184962646 -1.92022492478484774203 0.52293958888739755508
C  -1.53957639136886537123 2.00017927367960757223 -1.67701281293897941360
C  1.96189857504340658956 -2.29323910982815881709 -0.33673227467912991706
C  -0.52297259619769931316 2.89165255377832908223 -0.85788707513819340011
H  -2.54731854364740595287 2.38861555023210270221 -1.53991302959761666713
H  -1.27418814609396502391 2.02883007762713996058 -2.73263652260590594878
25
-88.1173093359 converged=true
F  -0.54872357453102793556 -0.75092492292899282180 1.91763140036704848868
F  0.80258491293598543947 0.77716424303590903033 1.22803838525475339516
F  1.42424255226729967738 -0.55302707202448242452 -0.97413627973453997821
F  -0.23246310337641135080 -1.93209648568029357385 -0.75918395806238947454
F  -1.77743620162276116936 1.44558696905560890578 1.05561907569716262323
F  -2.25786415140167751048 -0.34967230554107886498 -0.06433696578192998894
F  0.24465495536944598109 1.92453126655412454227 -1.03276226088853206875
F  -0.77895393750333030702 0.39250698499786801365 -2.14703856736433706942
F  2.18180884399885766101 -2.95850553050808251498 -0.15988869777876746348
F  0.80258068418766059793 -2.96790401683928140031 1.49966899397055231091
F  3.29883965411366508746 -0.54227172871335649340 0.98342617327587689147
F  3.53677333110448000042 -2.42128565215904067998 1.98951733040624167970
F  2.12232796953614633040 -0.99215035674302332058 2.73049539100005844716
O  -4.19649624693699685452 1.73370857222504382023 -0.72867836439085131861
O  -3.63257016996327308789 0.95903798496432490772 -2.74355567582525416981
C  -0.09276851157708354556 -0.13538354595091728338 0.80546364235216172389
C  -1.30609084360116978196 0.58271977618611991989 0.13266392183010564110
C  0.64888094492172210259 -1.18175600482941756120 -0.07489481934941252805
C  -0.99282603431972038521 1.33515541425238248863 -1.19193933661649387190
C  1.55614579468922409333 -2.16573615727011592469 0.73046960839383290320
C  -2.03385725990461807555 2.33593109772534601731 -1.58863638003102125573
C  2.64806150950097585195 -1.50449994237631767824 1.62478195234793054702
C  -3.45046815387201633030 1.59569803730885073634 -1.70266519386329440167
H  -1.76505790237718307445 2.74046298479324468289 -2.56281839681162759703
H  -2.09612306163811323856 3.11527139046550560764 -0.83217897829726961145
25
-88.1172623929 converged=true
F  -1.20374660946869949107 -0.78113398397068956047 2.22588704858821095911
F  0.22457605575419756216 0.72345608537021377504 1.66048794515724473797
F  0.65962886648499485798 -0.99085193344311084385 -0.75274834859059980285
F  -0.57040721438345098893 -2.41301671625355185213 0.31315303447943115822
F  -2.66366759320241452969 0.88709553403178886821 1.10686671149557991356
F  -2.29334689736788099879 -0.51175488233438215513 -0.46458097174802992502
F  -1.20617918696050452354 2.70857982191343715783 0.34726965231158590797
F  0.10741738468305042642 1.53124001828839473305 -0.86353764142180300389
F  1.62101392311921399525 -3.10912335318064014800 1.22652853764811342607
F  1.29084904632488317588 -1.50734942279492623030 2.62289518097477447611
F  3.22008617417909182024 -1.65105410871454783006 -0.28831747266557261611
F  3.74425037517385739250 -1.31508692344955546716 1.76215266731727648875
F  2.67905964727290868410 0.19768405151211954074 0.67977315751630096319
O  -2.58221243318939785993 1.15992490029876860191 -3.92614217310292135110
O  -1.08397634817604204827 0.00914689721966245248 -2.74096550635851787803
C  -0.59721367254819601733 -0.21642096210014744040 1.15945284089052269572
C  -1.69476548490059730767 0.43997361347346358729 0.26825729664903069649
C  0.22881100674871965306 -1.34225678736941467228 0.46505192229622416278
C  -1.20704611456231680755 1.66947571095999602875 -0.55592304387098578911
C  1.46942589599861550553 -1.77697359822334610691 1.31896988407029946977
C  -2.06300693533540080438 1.98574634309624342698 -1.74809648726301980481
C  2.79973484064009925376 -1.11252524509777273032 0.84810150639914194670
C  -1.88677075548469641575 0.92902422197984146912 -2.93342000226132126883
H  -1.77500620270951903201 2.96155403646685355668 -2.13776257417495774149
H  -3.11230576809046155518 2.00720768232128499164 -1.45829116423598303953
25
-88.1172591838 converged=true
F  0.06666643063989582951 0.32462381656743827252 2.18315405396690742634
F  0.79222745568363839297 1.14190659613728184851 0.32298559997517040099
F  0.46953736335250217948 -1.03664973110229929887 -1.00806880074430482708
F  -0.81921037520852979519 -1.96553357629369584991 0.46055965455019765020
F  -1.74152088748640343496 1.96673684530168091378 1.21964814250622488601
F  -2.39748057494833943792 -0.07469054786273017499 1.22177739487738179491
F  -2.04807084806349726236 -0.39466450348556392225 -1.37870120604712487200
F  -3.35417969499367929487 1.22938281698903884021 -0.85612399916433434832
F  1.06706136692945774413 -2.19560797269104401863 2.24100198638507031035
F  2.40921704154866578307 -0.83259878264933262493 1.23098979511896855499
F  2.72122274698342758725 -2.49593872378602421591 -0.83322954998226439471
F  1.12255012291265110491 -3.78069176582566468525 -0.18325139551988925413
F  2.90831986534404229872 -3.60656831916043918440 0.99267880845196343476
O  -0.25782188747563572484 3.60442398998122870424 -0.53732769158259929831
O  -2.28612975425331743651 3.95551662849939811295 -1.39684082629833761224
C  -0.12005741793043861465 0.31020533889057871901 0.84518456712157630228
C  -1.57429647924155502459 0.79617967856926619152 0.57842764263146750903
C  0.21027621359620210506 -1.11964824553639297200 0.30980809569012857096
C  -2.03576972818850698843 0.90201562120063139005 -0.90182957901155036406
C  1.44436784170547372064 -1.74459554383390869070 1.03359997210455745176
C  -1.26035137582117262589 1.81688304672074818491 -1.79787765662472809325
C  2.05695554905968469583 -2.93314418901772722137 0.22880022072055086757
C  -1.26773321101102753872 3.29679625922624497392 -1.17638935929081633880
H  -1.76609360403049908683 1.84609995591278397420 -2.76203935091773722377
H  -0.23448415910305442367 1.47212230724847437102 -1.90187451881648872387
25
-88.1172436180 converged=true
F  -1.34849372219875496270 -1.55460318293283417113 1.22563581773861507429
F  -0.56902798113752428577 0.34667083901456619000 1.86062439020793779498
F  1.58230302334637196182 0.12827037384433431777 0.27544547491320464649
F  0.72952185601713526175 -1.50595794807344662836 -0.84650546562605299972
F  -2.74606108592023190340 0.42431612008355235055 0.21637364871520126108
F  -1.69509104046769598639 -0.73907894676019891822 -1.27775006058686568799
F  -0.09021802872718776012 2.03721901332674537599 0.04017263048059918629
F  -0.11500386275783118506 1.17961596005440005897 -1.92928355218542879612
F  0.82431786471105461533 -3.16939986088930591990 1.13968093826185090656
F  1.06811350789154246854 -1.63116932320450591654 2.63891968192544990046
F  3.50493046773265382043 -1.00729001187795907946 1.77123312795692822164
F  3.29133101437379549381 -2.17045233015733884940 -0.02710723568078488022
F  3.34437764664596892672 -3.14292749166171248021 1.88511883742931574126
O  -2.90813306958078676701 0.96375939909115249105 -2.81965931306499495435
O  -3.77343035232106371879 3.01719529824195875634 -2.75805425521762259677
C  -0.67220412360266856844 -0.46678816338954559617 0.79561761830035526710
C  -1.53100165194355009035 0.19885739430958149221 -0.32997922522139805368
C  0.75503459106610260054 -0.92633560911086776368 0.36470011904997051699
C  -0.94507898124569866827 1.52226680279200654589 -0.91210660654884634368
C  1.35887936899489991660 -1.95945532525270826874 1.36953137344088693439
C  -1.95121837987033730499 2.57307454811153846208 -1.29177160314114836126
C  2.90951305334758103527 -2.06727953240893347342 1.23953566945513027342
C  -2.98902465978735332186 2.12778151090010680946 -2.41444563990265459452
H  -1.40985709251186275281 3.43950890236625950180 -1.67148214023904895242
H  -2.51927636205451221940 2.86476256358314529393 -0.40938223036063192684
25
-88.1172283182 converged=true
F  -1.09164939688352768954 -1.05811108944220255701 -0.84057575274478446570
F  -2.07202888652412031689 -0.47262178797274256858 0.98020351060887811467
F  -0.34243557046409406341 -2.50200706481145340732 1.23061178228983858496
F  0.16021552173669389996 -0.78197160175948432492 2.42068089533452868167
F  0.53503469332815478676 1.15412280111288945150 -0.74684522662225194534
F  -0.02572600103764408064 1.54205922542063755820 1.28901856474182752166
F  -2.48458197074902908952 2.10516762079256469775 0.77812192725222339984
F  -1.13598802710856716658 3.25043315485980777169 -0.44252623681346392459
F  2.20908385936899742674 -0.12827614969419359747 0.89845745415594868710
F  1.59391976915167288276 -1.42826082633624773521 -0.72919147642125581310
F  3.69855751986937697495 -2.28121788200601782748 0.97453843206379453523
F  2.04181367017351433901 -3.61799538986946034314 0.70503582819781496216
F  2.25275022827380411172 -2.52103418732506368016 2.54039629704202507554
O  -0.84285761392554647831 0.58971456369971064770 -3.02618532403034024014
O  -1.43234618536847801984 2.69976541209922116238 -3.44655273908502834956
C  -0.89602453883237087595 -0.41287403313034853891 0.31629978423641968988
C  -0.50206835304653829599 1.07514987670611139592 0.10243317413767083490
C  0.12779190029972270493 -1.23974074828261549008 1.15817208364913915020
C  -1.67285726739326423562 2.00444421677404216453 -0.33157018408190708225
C  1.58147561514489654044 -1.27979220323523601444 0.60442232268674322970
C  -2.44507875116036288432 1.61640645698316043344 -1.55364429862724495734
C  2.40717214851847272072 -2.45306439962616851247 1.22328400829948291673
C  -1.46420366504387389206 1.63702081973942559223 -2.82283435204429489218
H  -3.22354986459414316613 2.36230752373338237504 -1.70887106990593617972
H  -2.87121683373371228143 0.62293669157030973071 -1.43781740421981441003
25
-88.1172190098 converged=true
F  -1.84741562877425868905 -0.21059299309021417557 1.91153329174991926109
F  0.04692765175342930584 0.62875235112575911245 2.45154994971056616748
F  -0.19274459336842331147 -1.48918891544595721754 -0.33270905017357527145
F  -0.42921835609861247463 -2.22121840040714113584 1.67345990915224707152
F  0.31812170263733585696 1.18431864837753098030 -0.46817244085402698328
F  -0.75394909735579840326 2.40869494981846310466 0.92349591757841065220
F  -2.49067124056118016640 -0.16436183202169918349 -0.64467875604453028782
F  -3.06155367274248213505 1.63906736611554171290 0.36172330839309174699
F  1.84432452340126618040 -1.46081505664135335998 2.48351472549261886869
F  2.15354180897585312238 0.02172250214833002999 0.95127434480440931086
F  1.72917113930695598434 -3.41287145623453191945 0.34085121888032476889
F  3.57936444691180755129 -2.43021673251939640537 0.79089319691016612968
F  2.46220382362642364882 -1.84390443248150304179 -0.94299775067907853909
O  -0.73187711932468246800 0.09353259855156353941 -2.66547151482688837731
O  -0.93056349359010892552 1.95738521719820157685 -3.87437624118498247228
C  -0.64319528099045863989 0.11210408841181382367 1.41182378270415109789
C  -0.78148462788379846611 1.20358927684699468230 0.30551595218101940121
C  0.06876793280729345814 -1.19880289850956933684 0.94697291249544301994
C  -2.11363741669816729285 1.12939603640701680121 -0.49875858739707984446
C  1.61057767823103148430 -1.18190142445647383695 1.18782932811307850862
C  -2.08931976930448737306 1.89477036278948940407 -1.78931748935932843914
C  2.35179765251576533558 -2.24013703782963347066 0.31567355077824293952
C  -1.14060538404481337516 1.23688572394045248615 -2.89456345569824113895
H  -1.75520386431768882218 2.91511864092983197239 -1.60860217278491601789
H  -3.09815681511215101906 1.91123441697654095073 -2.20140192984101812357
25
-88.1171967603 converged=true
F  -0.99821032613121674082 -1.84092192538210897013 -0.27902569294541290645
F  -1.66029385184656197438 -1.36739698749499560826 1.70503545675330681064
F  0.42435921007677418482 -0.18301070106860553577 2.43543883417812656589
F  1.15182029518801054557 0.27529489115551247780 0.46646124042048581204
F  -1.33269868400641433581 1.39516125199240770272 1.05619043416557834014
F  -2.96042152071344633057 0.21246275102994058304 0.24623359920370413434
F  -0.17078698795404329003 0.05316547933382441415 -1.66933277867208951228
F  -2.23077921112259591752 0.43746456768420849404 -2.11526493878198440513
F  0.58014442767916896138 -3.04147806237881113134 1.43276397306760339134
F  2.20310831064806134094 -1.89793295752946566957 2.26596107050773420966
F  2.78942688879105515909 -3.41104255203224360216 0.01922279739147665645
F  3.19501194431848700717 -1.31163677941349265943 -0.14139615738128491484
F  1.50967803097244002153 -2.16815428341355032060 -1.17115129457195532581
O  -1.91037882245079848609 4.45279534437864654706 -1.42906651288399633160
O  -3.09870558431569165236 2.74821713817795876267 -0.62123476177002534548
C  -0.95207573204174367199 -0.88454061172599840468 0.66426873265822083958
C  -1.63775598391336840720 0.43087190271854541868 0.16242726669205675982
C  0.50400021715525089583 -0.66140116033614493318 1.18158824496475234334
C  -1.23653367868289043585 0.84553415448304714008 -1.29164277750041089909
C  1.35931432770207671901 -1.96894866647069899379 1.22045835712926264982
C  -0.88703925060740407282 2.29563527936474498503 -1.47235294616976308824
C  2.22301824608074793943 -2.21123215694275065957 -0.05550355523940109226
C  -2.10335197612045554649 3.27001904365627371618 -1.13579329310651133689
H  -0.60597681844605721935 2.45721103262630702346 -2.51227362391621911186
H  -0.04967147025935922389 2.55642500758751678447 -0.82694967409327291286
25
-88.1171876771 converged=true
F  -1.60232478213819651280 -1.17686397981676527102 -0.21487365136073086069
F  -1.17691852493030291171 -1.06865046376855987731 1.88996625943001173020
F  1.31661501533445846057 0.35805993836801114361 0.99163797797644415155
F  0.76503332803766288528 -0.52594167006902214911 -0.93297642387876611458
F  -0.70661669911484514817 1.87627462277794765377 1.27822808749690719488
F  -2.52633664164476723357 0.88471753028229238591 1.77815294127940926039
F  -3.46036743998880025330 0.70445430081224935659 -0.53333281185958125725
F  -2.79187046294198060181 2.71378903558206818758 -0.14882160900422974903
F  0.26337864436059266193 -2.95968979402801402045 0.61807552186798497829
F  1.29716702877781675518 -1.93948124178724179423 2.21975698218035466525
F  2.32739063328485107363 -2.68025458341019584552 -1.04490003135760289865
F  3.03709604643902997267 -3.36335780791743088614 0.85818742362920108491
F  3.35698280379948155172 -1.32495880741552674031 0.27559092750978975150
O  -0.38908084979076207333 3.47761698773599414736 -2.39000229626300741970
O  0.56618369042795380075 2.05447238437181356474 -0.96265267870421022955
C  -0.94494581348223971595 -0.45033288327714277033 0.71169533229324777324
C  -1.57630169440062983810 0.97531772337420219454 0.80426261475605231865
C  0.57999868068660709319 -0.58434762980812837707 0.39606183695688385038
C  -2.32140735729897240702 1.47578149500631750080 -0.47217509714967276224
C  1.12892703714252862213 -1.96670446457049696853 0.88774439844649744025
C  -1.60980695036120802222 1.49387026992921811974 -1.79037558978421551537
C  2.49246091446317930007 -2.32842423595151348792 0.22426428767731809710
C  -0.33639060442287499475 2.45304756501721232809 -1.70900223425492781004
H  -2.29754581277147806873 1.89191484503490348068 -2.53591545692079067820
H  -1.28611818946707034961 0.49225186352780081478 -2.06353471086239004251
25
-88.1171612313 converged=true
F  -0.08947559784247874348 1.24210499542078967039 1.94865387306510395860
F  0.70443402025070267491 1.18345159531751398241 -0.06452612814480411518
F  0.00065697506624126656 -1.50253101141345379865 2.09149844234680992727
F  1.83589845824710717892 -0.41963561031809804014 1.80121148718963897117
F  -2.38267089522186115147 0.98552529407632205594 1.08295199223135685251
F  -1.86226501806454214361 -0.98620845516513655493 0.46566000967913695474
F  -1.01771150429212098310 -0.30382550709985933768 -1.88638008942589907591
F  -3.05195958569564940177 0.25877774706111633662 -1.44751872691900862478
F  1.52051222747802738944 -1.03993288156423879798 -1.05614932525665450314
F  0.03772329830633586178 -2.47145284566292122719 -0.39434295456093770849
F  2.00793537853771608681 -3.27575141312692563744 1.60446872667402051782
F  3.40325152671373531987 -2.10570180885247593139 0.46153280855849071473
F  2.32437102328099465254 -3.70619327056127101372 -0.47223873595460841290
O  -1.12213386729222008853 3.18418661619371823335 0.32327979374597792805
O  -2.91225661630504673028 3.77474557981477865098 -0.87117490033469779931
C  -0.06591706804709335232 0.52208032668080384120 0.81519847394151701003
C  -1.52395817224342100538 0.32424501761005153355 0.29383405502111376029
C  0.69583644809373867979 -0.79904984583030758127 1.18394746779855020158
C  -1.76564969287801765141 0.63958158468458259360 -1.21371528152697449876
C  1.08928421928215124481 -1.74063204284000350164 0.00560293184679223899
C  -1.50393978807624550953 2.02288940151581098092 -1.73129432895619017607
C  2.23153473005154534548 -2.72615854141901525765 0.41738087602105172769
C  -1.89407315814950050203 3.11971210466773918313 -0.64243456276784938197
H  -2.10957347840041942177 2.17292711498138224613 -2.62408265465175283282
H  -0.44465186279963320182 2.12940685582914079887 -1.95630124952016637430
25
-88.1171570127 converged=true
F  -0.42030081440832423034 -0.22148254312522197562 1.79371980209151526964
F  1.45134432565324411613 0.72404435673282074859 1.34320158340435669153
F  2.01329819412820398838 -0.64429036402130190897 -0.64072451823517373448
F  -0.00805875196541327998 -1.10204630715845830480 -1.20837008266701384507
F  0.33331598248553884201 1.58820419999545170420 -1.12396591299393433516
F  -0.29367246387761541948 2.45513157608352061700 0.76223531329084104335
F  -2.10191907407170130995 -0.28844718463078478088 -0.03733908603800478038
F  -2.64583484663400536618 1.68989089300541994731 0.57728591769196246908
F  1.24943194673429358588 -3.25440705824360332343 -0.36736626658622262287
F  -0.28978446126542373174 -2.71727649118915914883 1.04576104708261441445
F  1.64321891355950966407 -1.64575960902601625691 2.73345474420068645927
F  3.16718297633799927837 -2.07452138697667720635 1.27877363221190343268
F  2.03372602797882517933 -3.67236428609174803128 2.15271348656929584209
O  -2.64510604514962466283 3.17537422319220441480 -3.22680341713536122938
O  -1.58732652204051905009 3.58718571376478267965 -1.30802785314343528178
C  0.33762278800401146484 0.21580251379552087276 0.77422302971744483280
C  -0.39015585304329258864 1.35927176533998861352 -0.00806907043283737468
C  0.80198039214607852454 -0.95762810396426101267 -0.14475589545305170280
C  -1.88617540974075170723 1.04209263486886061223 -0.33782236268803356172
C  0.90449309418675738481 -2.34273197943021926903 0.56279233317286758709
C  -2.30656128437805385545 1.32770814517551904999 -1.75155832942189881862
C  1.96034370003978786201 -2.42405879678639424313 1.70682481431068744371
C  -2.16207702950562907773 2.86878714327477535306 -2.13373861428454913991
H  -3.35372254303478722903 1.05015432385787566005 -1.86519104715530059657
H  -1.70006124213906950615 0.74392762155711689154 -2.44219124740935322748
25
-88.1171369236 converged=true
F  1.31223409345843444740 0.67689361024677707768 0.17221736325330616602
F  0.62396867476600759161 -0.32662302822199984487 -1.62223170169339092617
F  -0.22772889581600372355 -2.42447746053627088969 -0.36462003283216110061
F  -0.08769515295411933753 -1.53602304236044839847 1.59445902402434591671
F  -1.25016292787822624888 0.68653057447551590897 1.17790080593161028411
F  -1.95055000586318705302 -0.37322247025430688172 -0.58611895106438560710
F  -1.11232368058488795270 2.86961033235731255431 0.05788406216417667227
F  -0.02448976975644651111 2.09441288551610949042 -1.61171491673811217993
F  2.73095503677584838798 -1.46936800664722921894 -0.43862424740577493631
F  1.97263972576307722306 -3.36478147326913301640 0.24334418941628116473
F  2.05231353356901990992 -2.65277598889106425162 2.77967756344490402043
F  2.35545264674022369888 -0.56888599949725460192 2.33457514017283118690
F  3.87385108424388358017 -2.00632357581809506186 1.85062588136301342523
O  -3.64890386605290206745 1.61223716945735606743 0.24232075026544036556
O  -4.76091798758471096420 2.18262341926892045052 -1.60405605685036878327
C  0.35935315998137956628 -0.13752570148678916473 -0.31576670384001570557
C  -1.04624891838212863426 0.52276536134419460122 -0.14104459243992756301
C  0.46437777366644444887 -1.53773036161717202575 0.36924335018866910607
C  -1.17512898411033872570 1.89625493064269212695 -0.88401163685019101823
C  1.94265170080890348103 -2.04278026740087614854 0.48452143659431018419
C  -2.38303545548199702253 2.02432878117938130913 -1.76906137002288543769
C  2.56247521873248640389 -1.80448149328504281463 1.89627280603453018948
C  -3.74610123627709645788 1.92870384697516716876 -0.94923760679766033821
H  -2.37813339808242973916 1.23702882970411920383 -2.52117888453593330667
H  -2.35365036968123275685 2.99617012811809813044 -2.26031367168265839851
25
-88.1170926198 converged=true
F  0.49063498428320773126 0.54917313208292328763 1.50716691698665083976
F  0.67532865413764364693 1.54707821940212375544 -0.35664884406605934508
F  2.47056381354636434011 -0.27281193453755703260 -0.28275544648088929423
F  0.97505686393138357726 -1.15107623478095089098 -1.55432990480058630389
F  -1.65533947524534097440 -0.44813753434188452474 1.18000903546490643059
F  -1.53512054700856448441 -0.80463651638220656803 -0.91585634350352906896
F  -3.42761661708915932323 0.94887984596399199688 -0.11976008689338318858
F  -1.99177858422556242068 2.09256870709708753253 1.01203942612683994717
F  1.97372860034867714241 -2.94855579165569547939 -0.01546468624610758402
F  -0.05800978193924696824 -2.57066903782858302563 0.60089637081688340725
F  0.64913553358185227538 -1.64397962001736264170 2.88094789742754642248
F  2.58942026355596777165 -0.97692358478611962536 2.22922045545870428640
F  2.19068627279517702533 -3.06627765135942098595 2.45769113495580837636
O  -2.25510028267895723531 1.58116046339294169520 -3.62711773122770742006
O  -0.46507517142893095574 0.82398641990620169473 -2.53063822333488896987
C  0.26485285180121909132 0.39151901369527097874 0.17394338923310220801
C  -1.26142038654321586577 0.12890404277341066530 0.00643983630482786173
C  1.20863237321035232874 -0.75517523798273433755 -0.29936970208084989764
C  -2.14345859435426033812 1.40296669777812077484 -0.16869518847108982973
C  1.17786242444246624927 -2.04298780157805648372 0.58614420552481460991
C  -1.93121235552008418956 2.29876144348111388638 -1.35535250670830786923
C  1.66173976677767587518 -1.91076886668272161174 2.06761233811532685323
C  -1.51242396362089270845 1.47748058206916277335 -2.65079899226555992797
H  -1.12645937772611670624 2.99881995027499170803 -1.13683324397660800997
H  -2.85942526503168137353 2.83326229401600837576 -1.55342810625978300365
25
-88.1170834793 converged=true
F  -1.99925754955790435652 -0.13466801603367847817 1.32130597634574020738
F  -0.31988300027106142398 0.55249351517148048707 2.41360229653065960775
F  -0.92846780845939380633 -2.28917693316925108249 0.97126029052420292942
F  0.57932680535459524229 -1.57885251745649046740 2.29864700462496784894
F  0.57574228808111005407 0.82904331139556219910 -0.73818762951524075078
F  0.30617782692132627931 2.16891660814831732651 0.88781182292918559007
F  -2.56998427868795742413 2.04097422260946315120 0.32387835882555160438
F  -1.11743524848279518480 3.22058122177338157499 -0.71629434094164434743
F  0.95127842208128421397 -1.57429925053901076382 -1.20599871305217987150
F  1.43771581102214973669 -2.99656164784697676140 0.31116751793052543906
F  3.14926178304473669556 -0.54452913042861694759 -0.62652589003489433939
F  3.29644270978136200156 -1.66434468644851896180 1.19277962277811444558
F  2.24972026527165480658 0.19931359853847060992 1.17398802517237466070
O  -3.03470992740268208365 -0.69902851617476224888 -2.50737109807100155834
O  -1.41149786313213909672 -0.79837504731689779014 -0.98271534829274509448
C  -0.68125707353879683126 0.06925052930653245731 1.19027880959437659669
C  -0.34327491699776824241 1.20935643909361267845 0.17129558365975663947
C  0.01023107917160573366 -1.34473075610868386676 1.07788083639008247516
C  -1.53496878574179063115 1.92423169270472005365 -0.54777222969524652640
C  1.18031995511632969986 -1.68326086810628750001 0.10113557698729894185
C  -1.95787491473509511763 1.34390736215373030049 -1.86864266330986183995
C  2.48873533332240004512 -0.90247786771930127436 0.46491353459622875022
C  -2.17094933287997582383 -0.21402644857927527466 -1.78119085847791436272
H  -1.16908992644082165846 1.52598784659283737142 -2.59899991351994419375
H  -2.88109965284034963418 1.82283633843969572474 -2.19118457187836002120
25
-88.1170786708 converged=true
F  -1.34849607366788815099 -1.34303112795984569416 1.78563066354772725930
F  -0.27491858167713284500 0.51583445096894742221 1.97273061566506457964
F  1.42224752918108388045 -0.08144610411546919504 0.05640713066562963451
F  0.20199041213163404507 -1.70299058857160789948 -0.71112849039019843111
F  -2.71157085233147476799 0.76212376368157508377 0.88332188008856160621
F  -2.29453690818770894566 -0.71584158938638475789 -0.62948933529966888401
F  -0.38602511927181204499 2.18709580200971309694 -0.09450774354504470898
F  -0.34681184793226671470 0.75987640258911359759 -1.71863654258700182531
F  0.57347002151907444656 -3.20853882196762008050 1.36978449275207903035
F  1.29888965190145899697 -1.59781202197406813070 2.61492228801321147102
F  3.52673275143569497914 -1.33534300099752800683 1.17171017464743565384
F  2.79287001066261142412 -2.61296811787625005152 -0.39935844641298534619
F  3.18863297732868966605 -3.41946741169798418269 1.54926559062200563943
O  -1.34264402228038060017 4.28323373322145428688 -2.04056237835105136469
O  -1.44818849348480704897 2.78756557497531431977 -3.69210296276903582324
C  -0.69731923130657347265 -0.39311581320064176159 1.07770759626671308595
C  -1.72569299454625513235 0.26030775087195828776 0.10757624717084030008
C  0.54948163500552560379 -1.04159311443271085373 0.40493073141735236309
C  -1.18802656383262372763 1.38010676809748344951 -0.84277632167120120066
C  1.26337069314876360160 -2.05642909403103102406 1.35350772026011867410
C  -2.28761458063833122978 2.12879894669704627930 -1.53625403838731489081
C  2.72515712939517129598 -2.35713596294465155268 0.90097666610581783608
C  -1.61860653254962150172 3.18804074363758793709 -2.53748083017099324010
H  -2.87839699572927631976 2.66598435628450092238 -0.79738453519300067640
H  -2.88879201427351040010 1.42930547612108882483 -2.11372817234509158268
25
-88.1170743060 converged=true
F  -1.39143796410915365769 -1.55823413798447485412 1.54925836117156201510
F  -1.29222602844470357830 0.46487560438533220841 2.26145690572839708210
F  0.94631872100463398922 -0.85053382811348443582 2.61589813360120393426
F  1.23530179604972101259 0.76051800925153112409 1.22336892435818334057
F  -2.84603785817336030206 0.05738417774340939803 0.09550323997415711974
F  -1.17978340402769443784 -0.77372649607698562590 -1.02264143565916665324
F  -0.98470628017341166327 2.34901965181080463196 0.56610405090000193162
F  0.15112426210607679544 1.48675806601248594596 -1.04348998575891327434
F  1.51766951354349477477 -0.85268367090502839023 -0.83176836474322479731
F  0.59492620237352022983 -2.53520088533278586951 0.17863734095450040096
F  2.62371077853570255911 -2.77016892626439314995 1.87463643105292976365
F  3.46968315539957661287 -0.87451461801354801739 1.31820271776877318004
F  3.42216313749474965178 -2.48932908287348020338 -0.09491727979269756754
O  -3.13942597774605047789 0.41259101764550387692 -2.79807457395771885800
O  -1.29275308331488059110 1.32059159567480177699 -3.65919046690647986608
C  -0.88385743840248465197 -0.33960263286456959797 1.26219975493847047510
C  -1.51249238643276706640 0.13655711691729208179 -0.08398323049847236654
C  0.66703279793161751599 -0.44640366547804177788 1.35643360045755922982
C  -1.11709554000100386162 1.56541964186838677975 -0.56011554912371575021
C  1.34686179393466387566 -1.43695012814748812602 0.36333477584989093412
C  -2.07133450943731922678 2.16562299378241851500 -1.54579267170879752769
C  2.74710111524135536243 -1.89868178606194248914 0.88134843978670274200
C  -2.18269605928469934142 1.19291260433077739300 -2.81455433401012999894
H  -1.67055507702796846026 3.12460124428142727027 -1.86911755809533408623
H  -3.05228966703952764306 2.27173913441198838115 -1.08767522618768519571
25
-88.1170526061 converged=true
F  -1.24892445969042098497 -1.01929768759574645998 -0.67665439810992011882
F  -2.07808644840812739574 -0.53951315259833987348 1.24329489258692804654
F  -0.28729501484818525947 -2.46351890216468127903 1.33317384728070242872
F  0.31959858708276478456 -0.72763061100243908719 2.44960625253167041393
F  0.46132546458527523559 1.32671182787042063467 -0.34008727399826244042
F  -0.48457890693354171985 1.60682112257796161359 1.56399657107188949645
F  -2.88646722190056026491 1.88782817073755526671 0.58940315237463658526
F  -1.45152155749302314014 3.24418219889044001647 -0.26406444501544207304
F  2.24075824183644378707 -0.12043578892196549202 0.85519791197278616224
F  1.45340261288046823651 -1.25194746489731167927 -0.82697238869144484852
F  3.65886738413256473734 -2.30938189652274417085 0.60156391441949774723
F  1.94054118823974341979 -3.57622527385826582957 0.38761256970665769472
F  2.35393050117460989057 -2.62955403196322690107 2.27244701043081009928
O  -0.40544769961242854706 0.55380090774581425261 -2.75166276037009449595
O  -0.89467188373865313977 2.65835933586441841570 -3.30757762048047920800
C  -0.97239076890586895185 -0.39793114640379445568 0.47599077872731143657
C  -0.69541136057972763318 1.12110739397277536789 0.30978866235014546060
C  0.15757434195538261301 -1.19590994095549896237 1.20074212597221263721
C  -1.85553763439258267987 1.94514085031429950767 -0.32299468265267822220
C  1.55255805226531529151 -1.22281621615019364668 0.50859135200133254173
C  -2.31214289907026815385 1.56990833088543091378 -1.69877185594959478898
C  2.38996094255855995314 -2.46462657702047005515 0.95464762721305673754
C  -1.06547381934772578127 1.59721080089866007690 -2.70349048663506286161
H  -3.03618673077110390324 2.31584715542276509126 -2.02464241031999803155
H  -2.74917891101892175598 0.57443159487416028952 -1.69407634631664127944
25
-88.1170238877 converged=true
F  -1.14738926378665140327 0.41532544271386084844 2.21966477274350282300
F  0.52978564220051160838 1.22144002991836431171 1.12649169679394578480
F  -0.20725703494986877362 -2.13979315029760908118 0.65996808596270428726
F  0.36015125454788216031 -1.47073796370285481139 2.62243159250632240642
F  -2.18193557639764978973 -0.70354794017704724851 -0.02601387345351529462
F  -0.45012871199804560529 -0.07457112557615352966 -1.17898174011996559329
F  -3.26826106080228306894 1.48979286989052606138 -0.09658997568512847631
F  -1.52581718455751635943 2.50969145763415157901 0.60134420048744963161
F  2.57877571106313974170 -0.39288153908745604426 1.83462393699032522143
F  2.05084912340409797338 -0.39327095105589832125 -0.26144505662289035941
F  2.22680117829004986518 -3.26573644462868095673 1.75439423054735832430
F  3.84251030189024289641 -2.37907877193914885083 0.65844130247999210770
F  2.09568862925241683470 -3.06351102253653406748 -0.38366486299091673295
O  -2.31180671083471356297 1.85578935972662439902 -4.02541598464720618011
O  -2.77431941042660623609 0.23651985150652155010 -2.56391424845880955274
C  -0.37451455508481346079 0.22282775459199874457 1.13861552827866563398
C  -1.25650379014741209183 0.26374530926905481731 -0.15052431307303365537
C  0.39066843682208435284 -1.13448853588873710407 1.31924218879053212206
C  -1.95245906993826290332 1.64847124030463243471 -0.38257815646677906241
C  1.88952285552247767342 -1.05944721543303299605 0.89262569662911517288
C  -1.72408185693130411309 2.24617573810789217248 -1.74222368988836739945
C  2.52041616968287662814 -2.47695903825987073787 0.72730063228009100840
C  -2.33933306373640848008 1.34345113538386295993 -2.90313076213648058044
H  -0.65700008768146156424 2.36256855474955074214 -1.92426932848103926510
H  -2.20915992540278205425 3.22078595478595319790 -1.78132987236586726176
