25
-88.1265397601
F  -0.90163079430426629202 0.53065000970119191592 2.61154863038934914599
F  0.37803954518525706430 1.29564219963280313763 1.11369781316799820736
F  -0.79411424433865906991 -1.92156376142257467876 1.86434103800048434074
F  1.08627959099224802308 -1.00051467696940044050 2.37781779864714026829
F  -2.84594467516048998945 0.36958424925571481401 1.33795528967797827669
F  -1.99523357764141251458 -0.71698699251178121816 -0.27685517639574563908
F  -3.34084960279269393979 1.93418187980425693162 -0.41626796553337103157
F  -1.45850810342976111578 2.73601871242593253086 0.21843006473799153611
F  0.07875726985095371502 -2.21117055662406425398 -0.76417034393940641568
F  1.20033334518083423248 -3.04641821930248024586 0.83169994417897874506
F  3.22917116625188294066 -2.01140900005815748131 0.20268947872111101050
F  2.47947930837393659687 -0.02947370554293907846 0.18961590035525527353
F  2.32460215502680789257 -1.27887340027082907490 -1.57679551921528871006
O  0.26158845139606062835 0.20447880361277548378 -1.01511320187985143448
O  0.69229601486338920857 1.45703098413492271312 -2.80514487890612596033
C  -0.50967279917985730542 0.31865044530038910686 1.31731512391487926017
C  -1.80956289063174424747 0.39800762245175452803 0.45324114015668498512
C  0.16057609825240784507 -1.08767983441839999337 1.39277323687481957570
C  -1.99595027664719926186 1.67046230046191146457 -0.43307645336528988178
C  0.87586847720011318241 -1.85855929027758470795 0.24375804797637906640
C  -1.50609839897919450813 1.56085660476412302344 -1.85163314128473022180
C  2.22393353418798955801 -1.24782255672045416794 -0.26056261535054253686
C  -0.02835012244226182629 1.03479013384703999456 -1.90738586921905972638
H  -1.56706491774425171748 2.53787572959092821989 -2.32879955182253661761
H  -2.13274255347009944472 0.84480331913486406137 -2.38401678978715336754
