84
-179.4099993384
N  6.89666334690109739114 -0.54143962755047991831 -2.70150075991302518474
C  2.41694747346100990981 -3.98533110699467618687 0.54305113374569025098
C  1.51655348513613796868 -4.46984169184742263781 -0.60672143531852651410
C  1.42037764818724987492 -3.49591875963532405791 -1.79146327623102985527
C  3.67654443715634426937 -3.33290747448495272565 0.04974272666910085905
C  2.72076876784845200774 -5.15041490254476030941 1.49704422699141770359
C  7.17506737718813702998 -1.32678902884414418040 -1.45954878233184426328
C  5.96691918172249025076 -2.03930078482809884477 -0.91001938661296355448
C  1.27780344566941583828 -2.05516103461709498390 -1.37086345335225123776
C  3.98512424961068578710 -2.04050950153334698101 0.45544825348874418136
C  4.54983466863982233264 -3.98497500820842098790 -0.81312315444612970339
C  0.24236518328767489572 -3.88402827760012447911 -2.69070092027153062730
C  8.15419935805072526591 0.08064173309233331477 -3.14762683630488959707
C  5.90478944991577581192 0.51194375709853578993 -2.43683513071854251919
C  6.39273890977268521851 -1.42475285190988332218 -3.76379352080020934679
C  5.11824987359888172733 -1.40170574355802357580 -0.01138972844236991327
C  5.67922122143367502645 -3.34581917924328164915 -1.28965029785047291533
C  3.42210398220830391836 -4.67397120090968343220 2.76326749421419304298
C  2.06554457337910113424 -1.07821853165401471131 -1.96957532281401492824
C  0.34549980133661273296 -1.65888273973114097615 -0.41943288649954485470
C  1.93628210507239284510 0.25475661557977746785 -1.62552246366672625832
C  0.21824989461019880799 -0.32670572853432106042 -0.06539263511796175599
C  1.01144728399009542485 0.63490924593444952873 -0.66813701000495140381
H  1.85016267833900305284 -3.24481103928375080869 1.11938772757941484848
H  0.52390362542582125105 -4.63761024606228566824 -0.17985800700149393028
H  1.87846153317683550732 -5.43074451206088060218 -0.97966822182407620190
H  2.34002751212028270444 -3.58316917439493742847 -2.37926817079687769052
H  3.33651337404257875008 -5.89669462591656134975 0.99041860678403337293
H  1.76836640431459146683 -5.61339992343546079212 1.76898531660061797410
H  7.55659571125923790191 -0.63726198961447322322 -0.70587463755789037201
H  7.94785970507036587662 -2.05941134074353104921 -1.69527097341041210754
H  3.31287681382705434530 -1.53993441519958795816 1.13889307863189315206
H  4.33671675115941646084 -4.99760617240820614882 -1.11771142146731206068
H  0.19678732465640624838 -3.23321909410173891075 -3.55998803594766854985
H  -0.69169135937045622686 -3.78920333797165120870 -2.13951459170649327390
H  0.34328945973261842939 -4.91450739714663953350 -3.02135263099144291132
H  7.97910148842728883523 0.66062349470044079425 -4.05035808101945793425
H  8.89743575604261138778 -0.68349245860357299431 -3.36099508006759739587
H  8.54114009439155807968 0.74192980682350384569 -2.37644946203211793190
H  6.26636944957179231608 1.18349142844472843272 -1.66205620118707453337
H  4.96739663447544277375 0.07289977251194326713 -2.10309919554531532526
H  5.72651909708861328596 1.08288103577573213698 -3.34452694382765614023
H  6.21143648168546125277 -0.84803127964314761744 -4.66719439721348017258
H  5.46262316845952966560 -1.89122428244831208843 -3.44946681616305195206
H  7.12153799721044578064 -2.20126833481886174937 -3.98140750644926333379
H  5.33193865016324775041 -0.40253139510396496181 0.33389685743756919445
H  6.33886747716390086538 -3.87813753184685472419 -1.95726024269056853022
H  2.80896544097831402098 -3.92406895993213433727 3.26315284074823486193
H  4.38376809005043543976 -4.22637273911464816933 2.52477961529802730212
H  3.57736796737677176239 -5.50327549402112126131 3.44830632035909134814
H  2.77867027914409758793 -1.37761784769546458129 -2.72263104790702259450
H  -0.29005996762291247348 -2.38078987417448439956 0.07805195030081667207
H  2.54521370846500349927 1.00614191754624338060 -2.10301380674662485859
H  -0.50542248906027398281 -0.06466354161158870129 0.69558610367156370469
H  0.90278824311286565152 1.67137976958015710416 -0.38685783417880759139
S  -0.70916492732156910517 -2.72475747058157358182 2.50619233013264297583
F  -0.01020283349080093951 0.06396256072138607751 3.54903413743256868074
F  0.47898177244538325814 0.80700211605032423634 5.48262591585405889560
F  0.65430355463877298838 -1.24435276636393044036 6.67708488543963074591
F  1.32455341601991372080 -2.49663169393416950470 5.10101847149827225536
F  2.82972056895897949857 -1.10149679201769212789 3.68620703648932313001
F  2.93609823433765093625 0.17420753623906906626 5.40727045412027784721
F  -1.44836231286152572473 -2.38365257590855650349 6.46392605908182193986
F  -1.83224170188019530592 -1.02223046364489134064 4.85388922823490531755
F  2.26482707226516799537 0.79021935281931454664 2.02836063869543226090
F  1.65657169399932535647 2.18879820418846859909 3.56241724054390473952
F  -2.47477909114842686833 -3.59006389480328635955 4.23732342800242278713
F  -0.46040472697966500215 -4.25864340878970359938 4.64396392220661091699
F  4.85528095287649641421 0.74682641480446854132 3.41126273259290702100
F  4.09798199584376998672 2.45917367838722444873 4.49586516072163711044
F  5.33984413741067065473 3.42693701557744523356 2.43624985043417519037
F  3.28790932085186726752 3.43699701289411541083 1.80513329908468778129
F  4.63373192364273833732 1.92109686575005333964 1.09279510567175774938
O  -0.73852833575371024111 -3.98860872371879970899 1.81601559115405009059
O  0.60528590919243474566 -2.14887685770885950021 2.71391245804281711074
O  -1.73533046848774308302 -1.78250665368750449424 2.13554205362860516360
C  0.76133556955875525407 -0.19058908174413627390 4.60959897440215282671
C  0.44478023095628915762 -1.52336750529247377806 5.36781665413268083142
C  2.27246755937461974995 -0.02800226878291411231 4.25004239984001852548
C  -1.02215615116323244038 -2.03169505617546519716 5.22319259786076273144
C  2.50203034233623311522 1.18251982096756669272 3.28838077701476150239
C  -1.18453817508141412418 -3.19136153199384597912 4.25011318613657085308
C  3.95664160480152471422 1.74310431729384118782 3.37042775802947991437
C  4.30077354059227179306 2.65338849364794171493 2.14638463314573968432
