25
Coordinates from ORCA-job PFOA_0.15M E -1953.066502525915
  F          -1.00336625688412      1.97295452455812     -0.13854887087126
  F           0.51459815137814      1.20878916090453     -1.52153450353867
  F           1.36869019386507      1.68085853885177      0.94845569039488
  F          -0.18600037521708      0.39806859721707      1.82119766387630
  F          -1.90031700975696      0.43796218083625     -2.10114758910603
  F          -0.61228986594904     -1.23506631605943     -1.51648218205954
  F           2.16031940502824     -0.65209245494112      2.01120890285047
  F           0.90895057129124     -1.79522822495819      0.62562077031238
  F          -3.16544733967013     -1.56677568191551     -0.95690738981609
  F          -1.90194732009746     -1.50174724994218      0.83703356754220
  F           2.25377975920296     -0.90073855906164     -1.48949292377131
  F           3.55205430232647     -1.75200511804336      0.05810743676207
  F          -3.93629493865839      1.10302570637061     -0.39285969176600
  F          -2.89411207457528      0.91570128396741      1.51290562236504
  F          -4.48388324307285     -0.47278078426801      1.00669118584605
  O           4.42234337914384      0.74440729049845      0.75568946472761
  O           3.63458736491648      1.35059718057066     -1.27810975046698
  C          -0.28349783451663      0.87523028991597     -0.48531601008466
  C           0.63050330915171      0.55860148454574      0.75283909119076
  C          -1.30413846817003     -0.17376641706881     -1.04913389207838
  C           1.62603347213070     -0.65000261196234      0.76358451015549
  C          -2.44793037496730     -0.75466889191210     -0.14475163781821
  C           2.79572730404929     -0.65417827894781     -0.26342517009006
  C          -3.46238288311511      0.23796852865729      0.51117421358675
  C           3.71412077196623      0.62488582218663     -0.26699850834282
