19
Coordinates from ORCA-job PFHxA_0.15M E -1477.499356306281
  F           0.90105506984105     -0.18151571705343     -2.12792717039079
  F          -0.44102960907384     -1.57948402214454     -1.09104259783510
  F           0.00529220723839      1.87571214189930     -0.57713950157275
  F          -1.44711648662774      0.83115662584135     -1.84422024188354
  F           2.14828544257159     -1.75882264266319     -0.48471977413000
  F           0.86132460624699     -1.26148737264606      1.21895221093110
  F          -0.96913967479419      0.75782661880467      1.63193581293312
  F          -2.51711592714276      1.71215537643293      0.40675975968005
  F           1.83685264275278      1.22691121481691      1.33281663742832
  F           3.46060229670539     -0.19622498331059      1.11049086603780
  F           2.84757844814416      1.01890329493164     -0.58884333448806
  O          -3.47293167817393     -0.72859879271153     -0.35572867182788
  O          -2.31009685178434     -1.51315211731018      1.42152131631753
  C           0.28441511599409     -0.44181106772715     -0.94942409498312
  C          -0.71926330592865      0.73038873660573     -0.70447090515014
  C           1.41378987659327     -0.77436774310810      0.08951163519225
  C          -1.70452623256638      0.61194821570296      0.49306685609015
  C           2.41027209369883      0.36096638470397      0.49194036795176
  C          -2.58854803389470     -0.69060415116470      0.52652082969929
