56
Coordinates from ORCA-job R4N+Cl-_r2 E -1372.331833711507
  N          -2.19286070285779     -0.28178980159827     -4.05406718745407
  C           1.24634632087050      1.10560140535813      1.45131728343085
  C           2.09541527307530      0.04941586733749      2.17556694765528
  C           1.30027072269732     -1.13602451859572      2.74607567651080
  C           0.42110998826142      0.50614915947407      0.33460400465000
  C           2.13948318053365      2.24772252294076      0.93355977771799
  C          -1.94870977971229     -1.19977566946652     -2.84838218967392
  C          -1.12087991899787     -0.59108572196134     -1.75805796072234
  C           0.19804120952589     -0.68938252596702      3.68401395867691
  C           1.02939754402396     -0.19125031390739     -0.71546054186854
  C          -0.96931169181450      0.63863038942439      0.32148465824481
  C           2.24651091952741     -2.12297428373574      3.44112891648994
  C          -2.89701874577941      0.97427368898181     -3.63499832017311
  C          -3.07440853209308     -1.03386518534913     -5.00964927383738
  C          -0.90670161336067      0.06795189391499     -4.73511762975809
  C           0.27069108835188     -0.73464289097170     -1.74446221132160
  C          -1.73311549658599      0.09440520885752     -0.70605208709026
  C           1.35481221224950      3.38920828204076      0.29456294193554
  C          -1.13097292569301     -1.04738967919215      3.44427949912124
  C           0.48343778789678      0.08591465796214      4.81432223291774
  C          -2.15086883471240     -0.64166245863555      4.30391738916828
  C          -0.53150060838521      0.49365394774741      5.67494990378993
  C          -1.85471382250961      0.13245376636318      5.42244317089841
  H           0.54435063105093      1.53735306877525      2.17952794971233
  H           2.64191074587571      0.54460184241642      2.98984619653115
  H           2.85477780048340     -0.34424889432539      1.48610559983214
  H           0.82076729057086     -1.65814275166279      1.90657615891372
  H           2.86024261154524      1.83886302931016      0.21189029522551
  H           2.72527332890889      2.63068338343344      1.77971347503647
  H          -1.46622317011010     -2.09101461059854     -3.26010057002989
  H          -2.95067473613082     -1.45383878142235     -2.48270859414366
  H           2.10908806416695     -0.31877295017525     -0.72605192069287
  H          -1.46112517438255      1.16700189529486      1.13515415408934
  H           1.69943621243001     -2.99125679936337      3.82399799523640
  H           2.75754430457617     -1.64476504331464      4.28488475569126
  H           3.01038728205756     -2.48062085885334      2.74128614999911
  H          -3.81679000344402      0.69317141327247     -3.11276773668257
  H          -3.12505535741217      1.54931560271687     -4.53516378937248
  H          -2.23980054297420      1.55140488675080     -2.98291080652050
  H          -4.01359719733414     -1.26353085740843     -4.49837897539249
  H          -2.56308717566943     -1.95177919591065     -5.30768362697351
  H          -3.25649812553468     -0.40317161088691     -5.88199271343706
  H          -1.14017297706099      0.66615942687502     -5.61859765457209
  H          -0.39992863597460     -0.85464620836947     -5.02625244911934
  H          -0.28391100218777      0.64513983048132     -4.05011090297771
  H           0.76019997638160     -1.28476826871984     -2.54473230184364
  H          -2.81586427109545      0.19618882852111     -0.69202150244950
  H           0.61601167905149      3.79752000397898      0.99461965707504
  H           0.81673186616776      3.05427290190229     -0.59950256376327
  H           2.02125655793080      4.20539911939609     -0.00410120597856
  H          -1.36980267082653     -1.64738276896615      2.56856558024850
  H           1.51022096838856      0.37751085063128      5.02324654529008
  H          -3.17821825657127     -0.92976374198289      4.09675612895274
  H          -0.28993316707773      1.09710767245596      6.54609507468345
  H          -2.64716975081637      0.45228483224533      6.09345985114088
  Cl         -5.56767039039476     -1.15272029811956     -2.08922174631710
