25
Coordinates from ORCA-job PFOA_0.15M E -1953.024876720456
  F      -1.035335      1.954845     -0.269576
  F       0.534116      1.226168     -1.552725
  F       1.205960      1.694224      1.155089
  F      -0.332420      0.323974      1.753546
  F      -1.825352      0.199105     -2.123259
  F      -0.442549     -1.313982     -1.436105
  F       2.068181     -0.786427      1.955321
  F       0.764239     -1.754636      0.535317
  F      -2.968137     -1.743211     -0.702628
  F      -1.697205     -1.415104      1.017754
  F       2.069836     -0.631180     -1.594293
  F       3.343805     -1.794433     -0.268192
  F      -3.786807      0.970020     -0.604863
  F      -2.638662      1.217510      1.229372
  F      -4.233903     -0.242564      1.142435
  O       4.538940      0.429715      0.590477
  O       3.098788      1.652210     -0.673039
  C      -0.252405      0.851967     -0.509852
  C       0.575193      0.562253      0.739630
  C      -1.182677     -0.254476     -0.993600
  C       1.534328     -0.623398      0.703656
  C      -2.249414     -0.770499     -0.045021
  C       2.615843     -0.638923     -0.342892
  C      -3.216585      0.302328      0.423689
  C       3.512322      0.584514     -0.130442
25
Coordinates from ORCA-job PFOA_0.15M E -1953.054084904630
  F      -0.981547      1.998293     -0.179254
  F       0.454417      1.220926     -1.572392
  F       1.316499      1.768668      1.012750
  F      -0.144558      0.417327      1.806747
  F      -1.929308      0.423807     -2.058815
  F      -0.643046     -1.225655     -1.521292
  F       2.255806     -0.553417      2.004559
  F       0.962835     -1.723481      0.733904
  F      -3.149348     -1.604028     -0.953776
  F      -1.974449     -1.553922      0.857873
  F       2.291256     -0.857815     -1.524468
  F       3.514284     -1.830035     -0.011126
  F      -4.016995      1.014097     -0.484519
  F      -3.003620      0.993806      1.440477
  F      -4.516008     -0.485174      1.000412
  O       4.753997      0.439569      0.532130
  O       3.401838      1.511830     -0.930840
  C      -0.269321      0.870915     -0.483938
  C       0.677588      0.607680      0.722371
  C      -1.311738     -0.168446     -0.987743
  C       1.695394     -0.560268      0.759173
  C      -2.455782     -0.760173     -0.126928
  C       2.809566     -0.690071     -0.275449
  C      -3.488453      0.212938      0.461269
  C       3.750793      0.532628     -0.221325
25
Coordinates from ORCA-job PFOA_0.15M E -1953.063717131751
  F      -1.014112      2.013650     -0.207580
  F       0.466563      1.211496     -1.603140
  F       1.289999      1.787203      0.949642
  F      -0.218826      0.424564      1.753394
  F      -1.960494      0.450249     -2.091850
  F      -0.639797     -1.210689     -1.541720
  F       2.196143     -0.494721      1.997776
  F       0.906892     -1.699805      0.695310
  F      -3.178558     -1.575335     -0.976379
  F      -1.921413     -1.543231      0.811464
  F       2.312230     -0.839998     -1.502485
  F       3.449325     -1.838926      0.067461
  F      -4.051051      1.000560     -0.375243
  F      -2.923595      0.922809      1.489985
  F      -4.452750     -0.565319      1.086882
  O       4.788650      0.388310      0.604990
  O       3.586924      1.469667     -0.968719
  C      -0.294819      0.901278     -0.532094
  C       0.631027      0.632891      0.700143
  C      -1.332382     -0.156166     -1.044886
  C       1.652226     -0.547956      0.753244
  C      -2.462699     -0.766433     -0.148807
  C       2.821938     -0.669775     -0.251275
  C      -3.485875      0.184993      0.526686
  C       3.834553      0.520683     -0.192998
25
Coordinates from ORCA-job PFOA_0.15M E -1953.064455528625
  F      -0.989270      1.985621     -0.173638
  F       0.508975      1.168308     -1.552603
  F       1.319202      1.731252      0.966805
  F      -0.197273      0.372887      1.797915
  F      -1.907360      0.420445     -2.088352
  F      -0.622035     -1.254566     -1.481699
  F       2.237503     -0.533092      1.991835
  F       0.940529     -1.748939      0.689779
  F      -3.179787     -1.564326     -0.971773
  F      -1.959532     -1.509600      0.851751
  F       2.269006     -0.832179     -1.506162
  F       3.486239     -1.817214      0.024290
  F      -4.020278      1.037429     -0.442138
  F      -2.947698      0.966453      1.454438
  F      -4.497216     -0.496492      1.030404
  O       4.743098      0.482208      0.569483
  O       3.462897      1.528305     -0.969563
  C      -0.278394      0.873136     -0.498831
  C       0.637556      0.587781      0.742085
  C      -1.313996     -0.184318     -1.028649
  C       1.664971     -0.593339      0.762786
  C      -2.476521     -0.757976     -0.139801
  C       2.822848     -0.659981     -0.273144
  C      -3.507428      0.229979      0.492589
  C       3.804062      0.568220     -0.248006
25
Coordinates from ORCA-job PFOA_0.15M E -1953.063996659365
  F      -1.012537      1.976197     -0.142840
  F       0.526350      1.196142     -1.497921
  F       1.311557      1.704521      1.004016
  F      -0.219796      0.357068      1.833292
  F      -1.872136      0.409085     -2.096028
  F      -0.579663     -1.252199     -1.467331
  F       2.213311     -0.559674      2.009922
  F       0.926457     -1.767841      0.690234
  F      -3.150587     -1.569143     -0.978780
  F      -1.930834     -1.501626      0.852907
  F       2.221809     -0.824858     -1.492458
  F       3.477667     -1.790032      0.031570
  F      -3.974757      1.053303     -0.462008
  F      -2.920559      0.964645      1.442423
  F      -4.487838     -0.473587      1.001707
  O       4.722217      0.511711      0.516958
  O       3.486841      1.472854     -1.119238
  C      -0.285460      0.880603     -0.471561
  C       0.609540      0.574030      0.783437
  C      -1.290393     -0.190425     -1.034323
  C       1.632887     -0.614694      0.784735
  C      -2.455209     -0.764236     -0.145647
  C       2.790050     -0.642743     -0.265067
  C      -3.487996      0.240155      0.478083
  C       3.749176      0.610745     -0.256282
25
Coordinates from ORCA-job PFOA_0.15M E -1953.065500078069
  F      -1.048937      2.003699     -0.181658
  F       0.476646      1.260650     -1.562403
  F       1.308721      1.750567      0.945507
  F      -0.233803      0.433765      1.776989
  F      -1.932129      0.437049     -2.117285
  F      -0.590503     -1.201875     -1.544373
  F       2.149927     -0.534020      2.005058
  F       0.872003     -1.728420      0.679934
  F      -3.146977     -1.578615     -0.974881
  F      -1.853263     -1.530654      0.799941
  F       2.271160     -0.880081     -1.493674
  F       3.441282     -1.826658      0.097197
  F      -3.976444      1.037053     -0.357627
  F      -2.848066      0.900817      1.502333
  F      -4.416646     -0.539181      1.077369
  O       4.671516      0.484937      0.647132
  O       3.563478      1.422233     -1.090767
  C      -0.308005      0.918387     -0.522133
  C       0.601229      0.619943      0.723286
  C      -1.307405     -0.159221     -1.072712
  C       1.602492     -0.586540      0.761960
  C      -2.425718     -0.773647     -0.158040
  C       2.787333     -0.674462     -0.247795
  C      -3.439309      0.196808      0.533592
  C       3.781518      0.547465     -0.227148
25
Coordinates from ORCA-job PFOA_0.15M E -1953.065763026809
  F      -1.020577      1.972542     -0.137636
  F       0.484756      1.209636     -1.532682
  F       1.337884      1.713920      0.965956
  F      -0.180571      0.376722      1.815174
  F      -1.901179      0.402061     -2.094197
  F      -0.607892     -1.254255     -1.467185
  F       2.219710     -0.579350      1.988202
  F       0.940241     -1.767438      0.657763
  F      -3.172068     -1.581599     -0.948333
  F      -1.949601     -1.495415      0.870187
  F       2.281851     -0.841446     -1.518964
  F       3.507759     -1.797743      0.020263
  F      -3.988140      1.060089     -0.454522
  F      -2.957237      0.966018      1.464056
  F      -4.514969     -0.473147      0.999457
  O       4.671477      0.541156      0.632887
  O       3.531846      1.480900     -1.080215
  C      -0.293076      0.877536     -0.482232
  C       0.635488      0.576996      0.747206
  C      -1.310008     -0.187590     -1.024227
  C       1.653829     -0.613216      0.751290
  C      -2.469332     -0.758054     -0.131732
  C       2.818202     -0.654631     -0.279610
  C      -3.501986      0.238692      0.484359
  C       3.783695      0.587615     -0.245464
25
Coordinates from ORCA-job PFOA_0.15M E -1953.066120621067
  F      -1.016829      1.981896     -0.150315
  F       0.505217      1.216704     -1.526459
  F       1.346644      1.710477      0.956546
  F      -0.195236      0.404558      1.818043
  F      -1.894442      0.416418     -2.103975
  F      -0.592309     -1.237769     -1.492979
  F       2.195198     -0.580533      2.002971
  F       0.913336     -1.767489      0.674095
  F      -3.158644     -1.572723     -0.964815
  F      -1.913220     -1.510412      0.840787
  F       2.247620     -0.864726     -1.501461
  F       3.493202     -1.795892      0.041772
  F      -3.950642      1.079920     -0.414093
  F      -2.917441      0.919662      1.499311
  F      -4.490333     -0.489145      0.995886
  O       4.606531      0.583836      0.652538
  O       3.531732      1.436837     -1.147545
  C      -0.288765      0.886672     -0.487695
  C       0.625161      0.582546      0.752348
  C      -1.298736     -0.178712     -1.041820
  C       1.630331     -0.618579      0.765845
  C      -2.448407     -0.761701     -0.144443
  C       2.793199     -0.660549     -0.268631
  C      -3.473002      0.227955      0.500620
  C       3.749936      0.590747     -0.256731
25
Coordinates from ORCA-job PFOA_0.15M E -1953.066246572662
  F      -1.031222      1.971628     -0.157885
  F       0.484838      1.218443     -1.545899
  F       1.341387      1.700892      0.933584
  F      -0.200838      0.399408      1.798354
  F      -1.917300      0.409462     -2.112799
  F      -0.612979     -1.244981     -1.508954
  F       2.163141     -0.601086      1.997295
  F       0.912517     -1.777309      0.634934
  F      -3.172407     -1.577264     -0.944639
  F      -1.896590     -1.502889      0.841379
  F       2.281706     -0.855957     -1.507363
  F       3.510079     -1.782981      0.053275
  F      -3.942744      1.091488     -0.390396
  F      -2.882154      0.922287      1.506866
  F      -4.474994     -0.472343      1.028529
  O       4.563237      0.611443      0.725056
  O       3.600688      1.421948     -1.157281
  C      -0.302329      0.880923     -0.504704
  C       0.616501      0.573548      0.732459
  C      -1.313567     -0.183998     -1.055555
  C       1.622003     -0.628080      0.749743
  C      -2.450257     -0.762058     -0.140036
  C       2.804668     -0.651938     -0.264805
  C      -3.460183      0.235730      0.517576
  C       3.756899      0.603682     -0.228935
25
Coordinates from ORCA-job PFOA_0.15M E -1953.066410196963
  F      -1.028255      1.979972     -0.134465
  F       0.495981      1.245138     -1.524507
  F       1.365372      1.700513      0.939826
  F      -0.191167      0.423421      1.816823
  F      -1.901292      0.431678     -2.108127
  F      -0.591642     -1.221407     -1.515504
  F       2.162959     -0.610487      2.009294
  F       0.894753     -1.775253      0.655890
  F      -3.143844     -1.581591     -0.957024
  F      -1.877052     -1.500736      0.834250
  F       2.240726     -0.889545     -1.493649
  F       3.505306     -1.783741      0.057097
  F      -3.933615      1.088262     -0.391909
  F      -2.897529      0.898316      1.517079
  F      -4.476549     -0.497226      0.998833
  O       4.496303      0.658498      0.724271
  O       3.611377      1.364624     -1.236547
  C      -0.294169      0.894780     -0.488747
  C       0.623930      0.580372      0.747380
  C      -1.298799     -0.168143     -1.053642
  C       1.615087     -0.632075      0.764556
  C      -2.434231     -0.761053     -0.146555
  C       2.783916     -0.663131     -0.264044
  C      -3.458193      0.222152      0.510350
  C       3.730727      0.596664     -0.261131
25
Coordinates from ORCA-job PFOA_0.15M E -1953.066474448485
  F      -1.009322      1.971165     -0.145786
  F       0.509676      1.209771     -1.528376
  F       1.370213      1.683226      0.935047
  F      -0.187712      0.409621      1.817182
  F      -1.900991      0.427071     -2.108623
  F      -0.610455     -1.239986     -1.515391
  F       2.162662     -0.635965      2.011792
  F       0.911586     -1.794198      0.638303
  F      -3.168333     -1.568636     -0.954975
  F      -1.899086     -1.505349      0.834113
  F       2.247976     -0.885272     -1.491578
  F       3.539327     -1.759837      0.048922
  F      -3.918898      1.116389     -0.381603
  F      -2.889800      0.897602      1.528420
  F      -4.488167     -0.470462      0.996829
  O       4.438587      0.722054      0.757583
  O       3.627335      1.363683     -1.256006
  C      -0.287143      0.874603     -0.491489
  C       0.628130      0.561353      0.747027
  C      -1.304696     -0.177846     -1.052993
  C       1.623917     -0.646343      0.763636
  C      -2.447009     -0.756922     -0.145524
  C       2.792233     -0.653459     -0.263736
  C      -3.457435      0.236591      0.514995
  C       3.717504      0.621148     -0.257966
25
Coordinates from ORCA-job PFOA_0.15M E -1953.066495629885
  F      -1.009311      1.969881     -0.132056
  F       0.508959      1.216273     -1.520396
  F       1.371785      1.680986      0.944297
  F      -0.183065      0.401563      1.822367
  F      -1.897978      0.432339     -2.103274
  F      -0.608930     -1.237179     -1.510735
  F       2.164728     -0.645888      2.011631
  F       0.912924     -1.795926      0.632650
  F      -3.163228     -1.570524     -0.954887
  F      -1.902193     -1.498588      0.840450
  F       2.249354     -0.895637     -1.490225
  F       3.548252     -1.755741      0.051716
  F      -3.928107      1.109705     -0.394967
  F      -2.901720      0.908431      1.518027
  F      -4.492828     -0.470920      0.992353
  O       4.431755      0.735869      0.750881
  O       3.631228      1.354022     -1.274123
  C      -0.285933      0.875995     -0.483800
  C       0.631467      0.558814      0.752259
  C      -1.303444     -0.175266     -1.048283
  C       1.627418     -0.649317      0.764014
  C      -2.448126     -0.754954     -0.144087
  C       2.795075     -0.654608     -0.264712
  C      -3.464663      0.238070      0.508254
  C       3.716681      0.622601     -0.267556
25
Coordinates from ORCA-job PFOA_0.15M E -1953.066500448131
  F      -1.007342      1.971329     -0.135145
  F       0.510382      1.213355     -1.521622
  F       1.369393      1.681683      0.946243
  F      -0.184683      0.399578      1.821149
  F      -1.899551      0.434415     -2.102535
  F      -0.610731     -1.236371     -1.512898
  F       2.162033     -0.648434      2.011358
  F       0.911068     -1.795099      0.628642
  F      -3.164137     -1.569238     -0.955383
  F      -1.901836     -1.499790      0.839210
  F       2.251952     -0.897264     -1.489976
  F       3.549957     -1.753928      0.054958
  F      -3.931845      1.106964     -0.393504
  F      -2.898662      0.911153      1.516305
  F      -4.489330     -0.471895      0.998591
  O       4.429943      0.738031      0.752993
  O       3.634657      1.352224     -1.275364
  C      -0.285350      0.875874     -0.484920
  C       0.630820      0.559052      0.751981
  C      -1.304185     -0.174588     -1.048732
  C       1.626881     -0.649080      0.763565
  C      -2.448218     -0.754888     -0.144163
  C       2.795848     -0.654111     -0.263921
  C      -3.463970      0.237894      0.509820
  C       3.717008      0.623134     -0.266851
25
Coordinates from ORCA-job PFOA_0.15M E -1953.066502170640
  F      -1.004787      1.972063     -0.137551
  F       0.512923      1.210044     -1.521903
  F       1.368562      1.681017      0.947497
  F      -0.185666      0.398114      1.820980
  F      -1.900395      0.436980     -2.101622
  F      -0.612322     -1.235722     -1.515929
  F       2.160302     -0.651230      2.011329
  F       0.909624     -1.795428      0.625961
  F      -3.165901     -1.566900     -0.956952
  F      -1.902307     -1.501991      0.836972
  F       2.253716     -0.900260     -1.489218
  F       3.552381     -1.751768      0.058248
  F      -3.934173      1.105132     -0.392086
  F      -2.893968      0.913771      1.514313
  F      -4.485286     -0.471802      1.004803
  O       4.423479      0.744089      0.755562
  O       3.635422      1.350324     -1.278106
  C      -0.284215      0.875115     -0.485493
  C       0.630506      0.558509      0.752341
  C      -1.304437     -0.174211     -1.049331
  C       1.626346     -0.649854      0.763652
  C      -2.448332     -0.754894     -0.144870
  C       2.796106     -0.654005     -0.263111
  C      -3.462391      0.238177      0.511193
  C       3.714913      0.624729     -0.266878
25
Coordinates from ORCA-job PFOA_0.15M E -1953.066502435927
  F      -1.003661      1.972967     -0.138708
  F       0.514064      1.208959     -1.522002
  F       1.368510      1.681158      0.947992
  F      -0.185995      0.398205      1.820890
  F      -1.900654      0.437611     -2.101218
  F      -0.612435     -1.235218     -1.516331
  F       2.160109     -0.651783      2.011107
  F       0.908925     -1.795012      0.625378
  F      -3.165419     -1.567041     -0.956582
  F      -1.901798     -1.501668      0.837258
  F       2.253829     -0.900069     -1.489556
  F       3.551847     -1.752115      0.057982
  F      -3.935855      1.103420     -0.392503
  F      -2.894367      0.915038      1.513540
  F      -4.484355     -0.472796      1.006172
  O       4.423241      0.743558      0.755987
  O       3.635422      1.350623     -1.277533
  C      -0.283715      0.875304     -0.485632
  C       0.630467      0.558792      0.752475
  C      -1.304336     -0.173845     -1.049176
  C       1.626074     -0.649755      0.763466
  C      -2.447988     -0.754762     -0.144580
  C       2.795883     -0.654044     -0.263340
  C      -3.462502      0.237872      0.511332
  C       3.714809      0.624601     -0.266617
25
Coordinates from ORCA-job PFOA_0.15M E -1953.066502525915
  F      -1.003366      1.972955     -0.138549
  F       0.514598      1.208789     -1.521535
  F       1.368690      1.680859      0.948456
  F      -0.186000      0.398069      1.821198
  F      -1.900317      0.437962     -2.101148
  F      -0.612290     -1.235066     -1.516482
  F       2.160319     -0.652092      2.011209
  F       0.908951     -1.795228      0.625621
  F      -3.165447     -1.566776     -0.956907
  F      -1.901947     -1.501747      0.837034
  F       2.253780     -0.900739     -1.489493
  F       3.552054     -1.752005      0.058107
  F      -3.936295      1.103026     -0.392860
  F      -2.894112      0.915701      1.512906
  F      -4.483883     -0.472781      1.006691
  O       4.422343      0.744407      0.755689
  O       3.634587      1.350597     -1.278110
  C      -0.283498      0.875230     -0.485316
  C       0.630503      0.558601      0.752839
  C      -1.304138     -0.173766     -1.049134
  C       1.626033     -0.650003      0.763585
  C      -2.447930     -0.754669     -0.144752
  C       2.795727     -0.654178     -0.263425
  C      -3.462383      0.237969      0.511174
  C       3.714121      0.624886     -0.266999
