80
-154.1934301004
N  7.00759013241325856569 -2.01170519172869077806 -1.57239788317818351970
C  1.73445063547520450520 -5.09444565072397104188 -4.17425568433652038891
C  0.37498301444754661427 -4.95358768399258675430 -3.47350402670597135923
C  0.39812329086252584709 -5.41476947396922092537 -2.00908059722072218634
C  2.84140161972488414222 -4.47752970034170960645 -3.36171424251155537277
C  1.67574705473193397154 -4.47027047495519624931 -5.57730835131938551541
C  5.93376339142428221862 -2.78582924049626434737 -0.88340659234472840300
C  4.88546929791434436652 -3.36498257570991210486 -1.79543197963570633213
C  0.97546569665311955166 -6.79960456711103677918 -1.86125433767656156547
C  3.96458862969975012192 -5.22078246127460587900 -3.02232990421661762426
C  2.76366719389883108704 -3.16196359178112018640 -2.91888146077965604519
C  -1.01210017250612271944 -5.36147960777525334208 -1.41404458272186106527
C  7.75642323912647313477 -2.87918366390367541641 -2.49323923964081828331
C  7.91509319440752001640 -1.48010588941143805819 -0.54351554869819995730
C  6.42760879848104860201 -0.88425614994536183566 -2.31598354029510300478
C  4.97439547212460464465 -4.67470721091227581212 -2.25124375311525692922
C  3.76487183710395756364 -2.61703201112305450238 -2.13999418617409054022
C  2.94445251231329452324 -4.73726303882624844022 -6.37805885164685992805
C  2.06458164864796822613 -7.01441454100308003916 -1.02663509130433139305
C  0.43527357367819502487 -7.88655056862805459161 -2.53903815531212906365
C  2.60471862087619498993 -8.27937729437409686284 -0.87296042452689570634
C  0.97378402057624169341 -9.15217307625790077452 -2.39031672900192448949
C  2.06123204689592176564 -9.35315192971363806862 -1.55686623909142696220
H  1.94903640931748944887 -6.16316941532540951698 -4.28380901134888958381
H  -0.36288072676303623210 -5.53653120613591731569 -4.02769503684046714653
H  0.05182775664465761462 -3.91090166411626727339 -3.49672425201834924380
H  1.02956365385802972590 -4.72175799802275353301 -1.44017685681732343639
H  1.52122895065350816068 -3.39343934197842589384 -5.48447659876791782096
H  0.81684719016978846184 -4.88488781370232771906 -6.10893534894133782842
H  5.44336659057544647311 -2.10579349854260211572 -0.18200054930322714930
H  6.40989199411186572064 -3.59051193352064190734 -0.32130785653030774496
H  4.03772327277424381009 -6.24760028721786753181 -3.34872810072477511412
H  1.90081817720892076728 -2.55704020496821904374 -3.15283095525756662525
H  -0.98985780276704238290 -5.66307432539173838393 -0.36902284933834239578
H  -1.68525587818048738775 -6.02377535301692557113 -1.95227531846607482713
H  -1.40556868394413347900 -4.34809302413866216597 -1.46575913685207059878
H  8.21850897401291291544 -3.69431208267510857723 -1.94205012489912220985
H  8.53115716389078571069 -2.30222400197814769385 -2.99185271022002163832
H  7.08252040310528396816 -3.29319998375630174081 -3.23931767491070665699
H  8.34948198421525056290 -2.29370672536646624806 0.03192872761909840151
H  7.35738375753464080020 -0.83160120079890587075 0.12964674204758025455
H  8.71107095483338156328 -0.90821728716219818356 -1.01379683904541262329
H  5.82846449554577183960 -0.27818334444828901608 -1.63800602406107276288
H  5.78930842848227733555 -1.25216730425321687292 -3.11505410906668922522
H  7.22197570095594532091 -0.27476246691427397284 -2.73874050555520875960
H  5.82209494399734950321 -5.28696595468489682901 -1.98312690167732297297
H  3.64906702521669634720 -1.61211120593643575383 -1.76337467650899148985
H  2.86670651295083489529 -4.29416251490523137591 -7.36756909147657346182
H  3.10343275886437819366 -5.80702722386373526575 -6.49062768477374518739
H  3.80769454389011707818 -4.31170988072009464531 -5.87294365917802174692
H  2.49248433920132361763 -6.17572925042535292306 -0.49558004717714626564
H  -0.41385064842907692828 -7.74513185550860594475 -3.19070181440450895138
H  3.44924714913233998459 -8.42448427487341255926 -0.21603359484922196598
H  0.54223505066040533773 -9.98502979747095942287 -2.92546126949527574013
H  2.48065268292105800541 -10.34094744121202325005 -1.44002664899578847191
F  1.06266723263051221515 -2.16225723120236512642 -0.26438277696225170876
F  -0.91191962506745860573 -2.20859281037639565426 0.48576342579499776075
F  0.35833032700328548703 -4.15730423874718635346 1.46032902009280274314
F  -0.26232210880747952597 -2.71070461177796273589 2.93685480842793733558
F  0.85578423181622031990 -0.28218437522760703162 2.55430903132235220809
F  -0.95418968176377894075 -0.08432022758415236297 1.45249854544644341203
F  0.85267472881452421873 0.21641191589023411890 -0.93112338660410653990
F  0.20789330200985553510 1.74524609448355771946 0.42720369082942272199
F  1.70267526550059100643 -4.11479566840609400913 3.65225051918561982589
F  2.43530234009239521242 -2.13079420134779651264 3.44485330961595259680
F  3.32508059763131935682 -5.06281765654511239916 2.20409601613805428144
F  4.32512950454478861673 -3.19276727460808151804 2.06120650044366904297
F  2.90550187744144494673 -3.79653860546705290702 0.55635423893985935795
O  2.76801355707640217574 -1.30552834019509189645 1.18312593144543765078
O  4.48405969443937646446 -0.19248920094067509257 0.31520581534123137679
C  0.37003144569196477764 -1.91086771397331034450 0.84812101397956141113
C  0.35753066522975829322 -0.41689520827564463534 1.31028575183918549740
C  0.66270472324637019756 -2.94499612214398709398 1.97945198521059118058
C  1.00482579467335697565 0.63555156787943289931 0.35380709018369693730
C  2.01367811941380292495 -3.16858265730755306322 2.72303251872246976362
C  2.43403848759760821352 0.99645736232311565850 0.66126452971305926809
C  3.15925150692542588970 -3.77906644804332980669 1.85473595340777719365
C  3.32876486252525483067 -0.28790628606012919066 0.72232061298416572193
H  2.47223205469607520968 1.48367725577237696832 1.63599624765153195405
H  2.80053414803095490626 1.67686098889812584822 -0.10716027547094646166
