74
-139.4310306187
N  1.12767836091088824446 -7.70921555942857317234 0.98558623110161081016
C  3.10838600081472726799 -3.66816774392430389184 -3.89263221156797056821
C  4.58482349715091519471 -3.24714570753590292540 -3.97885174433516830561
C  5.17258021582569949004 -2.76250721183245850909 -2.64415469370184963438
C  2.84458200282085238442 -4.50995943347214645058 -2.67346585440485595697
C  2.68541729464134792948 -4.39845866264736784501 -5.17599079088649371982
C  2.21684692689213758143 -6.68820396280798945554 0.98925548500972326771
C  2.40740287961595056387 -5.96981034475055238886 -0.32002125212479731742
C  4.27436895739049305121 -1.78752193232434675174 -1.92471559405979109059
C  1.91382541320576060606 -4.08496665057213004246 -1.73365079654555453992
C  3.53485418049200950108 -5.69197654326088198218 -2.43109581967027210680
C  6.54993364788073595406 -2.13246825597594336088 -2.87389605356690491789
C  1.02275438690300779498 -8.26813929066476482888 2.34253092915642247007
C  1.43692434978578376104 -8.78540392432676142676 0.03233896567470789796
C  -0.15679117888314925144 -7.09002851384648202782 0.62843872219699470349
C  1.70168992079293901476 -4.79918800268557532718 -0.57094629273991370777
C  3.32205053252750515114 -6.41221496393088852273 -1.26967924261893783111
C  1.18682948545287514364 -4.67358467359602336444 -5.20507677510302979584
C  3.91543686811300650774 -2.01996134322801212946 -0.60242932337061838588
C  3.80217241436555530854 -0.63735218246872193948 -2.54512828427136472698
C  3.10390285782753316823 -1.13534841329914426566 0.08550175512083262042
C  2.99201062521609051359 0.25213255848089766165 -1.86213257524555042544
C  2.64110439123218121438 0.00703856108226253146 -0.54490174813797387365
H  2.50014937974543505206 -2.76129392669436724006 -3.80092095258816042858
H  4.67087668204768835523 -2.45544031475357549255 -4.72480880913433054502
H  5.18585560404013534708 -4.08916573159238616597 -4.32665846439890966479
H  5.30121864298473877142 -3.63125958617205224499 -1.99066142598901030247
H  3.22917136330927956323 -5.34105587081428012652 -5.25520430701241991756
H  2.95685572595626133818 -3.78198316119280031344 -6.03517923082982932215
H  3.14371412787576698378 -7.19117083108783550216 1.26864413160281142012
H  1.96513078431256404954 -5.94559963381134082283 1.75022537904235586659
H  1.36806324898436360016 -3.16723261412649126356 -1.89626490776113199033
H  4.26269088654940553340 -6.04295840954481455753 -3.14615185124803486971
H  7.21359225691890149079 -2.84341093925775911799 -3.35945209924046039873
H  6.98976115301777944921 -1.83565368775804182988 -1.92475016744207971797
H  6.46715964131063003606 -1.24900075301918045412 -3.50186730242858024198
H  1.96860453787013689464 -8.71425164248391936894 2.63970809000546235978
H  0.24465949120485652735 -9.02684404279137986293 2.37079751741424926692
H  0.76886067308474836945 -7.47515930874011846896 3.04337336592225637943
H  0.63859536766194524571 -9.52316588693527599219 0.04051535636284828851
H  2.37041808345723081786 -9.26881379844680353131 0.30929259351766852371
H  1.53068885187932424152 -8.37425062886593885025 -0.96963636341321524093
H  -0.12207904578525503869 -6.70753724419245056509 -0.38821533943846869841
H  -0.36534203003387449860 -6.25872197546298192350 1.30025913682011617922
H  -0.95516314832733195672 -7.82255348787518833831 0.71066488992013843173
H  1.00762590586426137307 -4.41919274756868230014 0.16305152656244806253
H  3.89580645374053124996 -7.30933356385745192085 -1.09356206302799829899
H  0.90944425413629115251 -5.17495054371715923480 -6.12879714427932587029
H  0.62744725794106215311 -3.74261231054613441316 -5.13663768750838922728
H  0.89829297876728797512 -5.30249820656386461337 -4.36634214948151555546
H  4.26932156422350761460 -2.90893153202657561707 -0.10014573211023690413
H  4.06589217789306545114 -0.43032018964359286528 -3.57146368244267264913
H  2.81700776095255678300 -1.34213140827644794584 1.10756430820380669111
H  2.62961528512352860076 1.14260035628856382317 -2.35573592849524127146
H  2.00722876377460712760 0.70009562063122088293 -0.00914028091975219864
F  0.11294394007179119066 -2.00499029800647621258 0.15730994164284697878
F  -0.78300233821381182153 -0.37346815945634492806 1.26571436832573502862
F  -3.13061523778136452378 -2.22565666281302121376 1.44558786985925613600
F  -1.73396275687567769097 -3.71772363509544145899 0.75366377260138150973
F  -2.88422238905953243204 -0.25193393995584278944 -0.33394523466202435946
F  -2.40990867306138500936 -2.12866779532737915304 -1.30365228362666218942
F  -1.37912695311814315069 -1.55806850402418617385 3.51657622936435343419
F  -2.01911756036980127860 -3.63148357557635659276 3.46598113788922379541
F  -1.79522503654838327947 0.16270466775173403340 -2.72624751782060092964
F  -0.38475628843971765303 0.74342910090430203152 -1.21795598852124209444
F  -0.10916559052811503072 -1.09197342887062531780 -2.31263677365090147831
O  1.13607535494513811614 -2.31560683945479750534 2.84527550332376444331
O  0.42876037254746762750 -4.43248391949083231367 2.63691097861647927303
C  -1.05850984544186421665 -1.47992969971481125313 0.55750740860051983816
C  -1.81082875666578058116 -2.53932720107187126501 1.40966059441869950852
C  -1.87042210485236903850 -1.05390317415941048296 -0.70253061138068395586
C  -1.23407400466552652496 -2.71836235790592972705 2.82156566876841763403
C  -1.01008475782017637101 -0.29460829962532825155 -1.75434507187240162907
C  0.32908290372049664452 -3.22410378389469354232 2.77406424356192138347
