56
-70.9558939697
N  -2.19671611696544344383 -0.31010885413598587856 -3.95372370883858748059
C  1.28650151581613392260 1.12261972085914085717 1.45089317100261783189
C  2.13795131355045198163 0.05504434540444378549 2.15323572152234810062
C  1.30485918540155965140 -1.12693756876404971301 2.66788070391660969705
C  0.46182816441094487470 0.52315927389581695639 0.34214727719481430324
C  2.17939883045480131685 2.25442016338152662058 0.91992184978414881513
C  -1.94089244863120313767 -1.20962931923739391848 -2.78919889342394444753
C  -1.09508385151827902781 -0.59506613884538750447 -1.70726902609496611340
C  0.18373710019657921166 -0.67011319317892281688 3.56737627808131607665
C  1.05675300932962445977 -0.15213500952341235672 -0.71737138598799732314
C  -0.92436536974916561071 0.62406506842367126531 0.36257378666076406359
C  2.19923448626736073308 -2.13181348463261732817 3.39928375218110767619
C  -2.88744807366658928771 0.90789733559629137716 -3.50788623579613068060
C  -3.07001754932942461096 -1.02735669473962842879 -4.89515166552268876643
C  -0.93903330700344822546 0.05070770791854223303 -4.62347102387782538102
C  0.29106171617465342871 -0.70680709090681914653 -1.72582029331785702375
C  -1.69418723088062184168 0.06999019205542802990 -0.64366997959743377233
C  1.36277530537989854942 3.40436142004861785892 0.34299359765282866341
C  -1.13339878351312539628 -0.98916291694024716108 3.26178241689648862334
C  0.43529658031836332421 0.06818778837167449591 4.71827228410561172467
C  -2.17331617475160809860 -0.57589322416538113458 4.07632620680441970507
C  -0.60084369218591138218 0.48251631702418312786 5.53541729799614401486
C  -1.91021380611859692422 0.16373831204052913257 5.21627355483833010652
H  0.60029759373357827190 1.54916567212550648769 2.19142386927769372562
H  2.66215550387903343577 0.52277759716878013929 2.98831539576586280305
H  2.89282218908645338828 -0.32676758083372203778 1.46393053725892907657
H  0.85756844283592448264 -1.63196194894659662999 1.80456312529931972577
H  2.84735041772560260043 1.86196273268983158999 0.15149321834351361926
H  2.79710378727304220803 2.62664268566503222857 1.73984060331197731841
H  -1.45806025280407047795 -2.11199467798838735888 -3.16716679972441461643
H  -2.91794941281624931051 -1.47521924748138610894 -2.37688393758492733099
H  2.13029275705064824464 -0.25578277415260969319 -0.75302504617601084824
H  -1.40895172542293201090 1.13173701042509922132 1.18458963676162620793
H  1.60929880046152518069 -2.97702982487381717647 3.74655598742051720862
H  2.67424833082041990551 -1.66960494793890013021 4.26092378477093092215
H  2.97507245649209117744 -2.50059870976303022516 2.73287998907425411232
H  -3.81687818718072824353 0.62782183509094202645 -3.01251088258325383507
H  -3.11840990194539813274 1.53595412604513348320 -4.36396992739730738009
H  -2.26403583500192118194 1.45858796480937491502 -2.80860087951207626489
H  -4.00520593534439672823 -1.27731266319982816881 -4.39460393518793956957
H  -2.59172956645726326741 -1.94407926870151026577 -5.22988146642463291869
H  -3.28723637571538862545 -0.39701822935402047987 -5.75336714234462842654
H  -1.15160956759333110710 0.68627844453318997964 -5.47948499382431375437
H  -0.43148841917570052162 -0.84775968545217772476 -4.96572685064259466969
H  -0.29398451541465198122 0.58749583893833190462 -3.93234408319220829497
H  0.78026352721231462262 -1.24592576387517661729 -2.52286517852757086189
H  -2.77213986460542782808 0.13467706928177411441 -0.59674443929724940716
H  0.70378224382039222817 3.82141484202760439715 1.10161624697601845391
H  0.75024129837624242700 3.05925909994233657940 -0.48650999646720871628
H  2.01842486586996372466 4.19454370269934351256 -0.01418631353932115965
H  -1.35121797458741088604 -1.56302852619780208165 2.37150366946897461773
H  1.44998952817768200774 0.32676283783514065151 4.98180640057968027179
H  -3.19131795789163108523 -0.83024375615483492208 3.81690784319211307007
H  -0.38803198396169236162 1.05733134329256706074 6.42490325409929052825
H  -2.72056307441933675761 0.48892264717840933086 5.85201730353596172307
Cl -5.47685170636423190871 -1.19959930538445425086 -2.12080921219086881990
