56
Coordinates from ORCA-job R4N+Cl-_r2 E -1372.325753022966
  N      -2.196716     -0.310109     -3.953724
  C       1.286502      1.122620      1.450893
  C       2.137951      0.055044      2.153236
  C       1.304859     -1.126938      2.667881
  C       0.461828      0.523159      0.342147
  C       2.179399      2.254420      0.919922
  C      -1.940892     -1.209629     -2.789199
  C      -1.095084     -0.595066     -1.707269
  C       0.183737     -0.670113      3.567376
  C       1.056753     -0.152135     -0.717371
  C      -0.924365      0.624065      0.362574
  C       2.199234     -2.131813      3.399284
  C      -2.887448      0.907897     -3.507886
  C      -3.070018     -1.027357     -4.895152
  C      -0.939033      0.050708     -4.623471
  C       0.291062     -0.706807     -1.725820
  C      -1.694187      0.069990     -0.643670
  C       1.362775      3.404361      0.342994
  C      -1.133399     -0.989163      3.261782
  C       0.435297      0.068188      4.718272
  C      -2.173316     -0.575893      4.076326
  C      -0.600844      0.482516      5.535417
  C      -1.910214      0.163738      5.216274
  H       0.600298      1.549166      2.191424
  H       2.662156      0.522778      2.988315
  H       2.892822     -0.326768      1.463931
  H       0.857568     -1.631962      1.804563
  H       2.847350      1.861963      0.151493
  H       2.797104      2.626643      1.739841
  H      -1.458060     -2.111995     -3.167167
  H      -2.917949     -1.475219     -2.376884
  H       2.130293     -0.255783     -0.753025
  H      -1.408952      1.131737      1.184590
  H       1.609299     -2.977030      3.746556
  H       2.674248     -1.669605      4.260924
  H       2.975072     -2.500599      2.732880
  H      -3.816878      0.627822     -3.012511
  H      -3.118410      1.535954     -4.363970
  H      -2.264036      1.458588     -2.808601
  H      -4.005206     -1.277313     -4.394604
  H      -2.591730     -1.944079     -5.229881
  H      -3.287236     -0.397018     -5.753367
  H      -1.151610      0.686278     -5.479485
  H      -0.431488     -0.847760     -4.965727
  H      -0.293985      0.587496     -3.932344
  H       0.780264     -1.245926     -2.522865
  H      -2.772140      0.134677     -0.596744
  H       0.703782      3.821415      1.101616
  H       0.750241      3.059259     -0.486510
  H       2.018425      4.194544     -0.014186
  H      -1.351218     -1.563029      2.371504
  H       1.449990      0.326763      4.981806
  H      -3.191318     -0.830244      3.816908
  H      -0.388032      1.057331      6.424903
  H      -2.720563      0.488923      5.852017
  Cl     -5.476852     -1.199599     -2.120809
56
Coordinates from ORCA-job R4N+Cl-_r2 E -1372.330655023669
  N      -2.186038     -0.283064     -4.082746
  C       1.225400      1.107379      1.444740
  C       2.081864      0.053130      2.175110
  C       1.296135     -1.135405      2.763067
  C       0.403241      0.503473      0.328717
  C       2.120311      2.241136      0.910706
  C      -1.971516     -1.178652     -2.872357
  C      -1.136192     -0.581070     -1.770540
  C       0.210492     -0.693039      3.722087
  C       1.008742     -0.200816     -0.714828
  C      -0.984793      0.647994      0.307450
  C       2.257765     -2.111336      3.456492
  C      -2.873470      0.980006     -3.690497
  C      -3.061391     -1.023878     -5.035791
  C      -0.894571      0.040133     -4.750895
  C       0.251159     -0.740973     -1.745635
  C      -1.746322      0.108950     -0.721967
  C       1.318993      3.395737      0.307614
  C      -1.115776     -1.079709      3.520638
  C       0.508642      0.095911      4.836528
  C      -2.120257     -0.683358      4.399224
  C      -0.491470      0.495387      5.716196
  C      -1.811677      0.109198      5.499679
  H       0.531214      1.546065      2.174288
  H       2.627257      0.553695      2.985224
  H       2.833389     -0.343291      1.480381
  H       0.810423     -1.667376      1.934956
  H       2.805599      1.835281      0.155714
  H       2.734173      2.617057      1.739007
  H      -1.504994     -2.098767     -3.237227
  H      -2.971476     -1.410714     -2.486044
  H       2.087188     -0.337070     -0.721262
  H      -1.477850      1.185631      1.113328
  H       1.712295     -2.973930      3.853148
  H       2.774917     -1.621553      4.288262
  H       3.010963     -2.473246      2.748356
  H      -3.824085      0.726786     -3.208975
  H      -3.064520      1.578815     -4.583553
  H      -2.247402      1.546056     -2.999149
  H      -4.015093     -1.241564     -4.544378
  H      -2.579156     -1.958739     -5.330542
  H      -3.239627     -0.408991     -5.920525
  H      -1.093491      0.649566     -5.635002
  H      -0.396795     -0.884758     -5.051378
  H      -0.253868      0.596940     -4.066094
  H       0.747015     -1.300674     -2.534848
  H      -2.828367      0.217289     -0.711473
  H       0.640727      3.825476      1.053072
  H       0.716300      3.052217     -0.540147
  H       1.985770      4.189299     -0.044197
  H      -1.368011     -1.696112      2.661007
  H       1.534069      0.407851      5.020463
  H      -3.146714     -0.992810      4.220410
  H      -0.240910      1.111689      6.575546
  H      -2.594056      0.422260      6.185546
  Cl     -5.557021     -1.070418     -2.291501
56
Coordinates from ORCA-job R4N+Cl-_r2 E -1372.331440583875
  N      -2.204578     -0.282768     -4.039857
  C       1.262353      1.109381      1.451685
  C       2.115694      0.057226      2.180329
  C       1.325406     -1.133725      2.748140
  C       0.428341      0.502165      0.345503
  C       2.154604      2.245089      0.915080
  C      -1.975383     -1.188892     -2.828875
  C      -1.132441     -0.589348     -1.739127
  C       0.206785     -0.694580      3.671257
  C       1.026117     -0.202367     -0.706146
  C      -0.962915      0.636871      0.342950
  C       2.275283     -2.106765      3.462437
  C      -2.896552      0.984206     -3.636187
  C      -3.085682     -1.031228     -4.996072
  C      -0.911617      0.049668     -4.716829
  C       0.258122     -0.742076     -1.731987
  C      -1.735031      0.097390     -0.681610
  C       1.360118      3.397273      0.299104
  C      -1.115275     -1.073406      3.418927
  C       0.467634      0.094331      4.798496
  C      -2.151235     -0.677034      4.264936
  C      -0.563515      0.492874      5.645873
  C      -1.878894      0.109562      5.381989
  H       0.568499      1.549403      2.182891
  H       2.652868      0.556119      2.999105
  H       2.879287     -0.331876      1.491991
  H       0.863607     -1.667095      1.905701
  H       2.849685      1.833545      0.169547
  H       2.764815      2.624037      1.746309
  H      -1.507674     -2.099498     -3.216209
  H      -2.974699     -1.425586     -2.441240
  H       2.106127     -0.335237     -0.724659
  H      -1.449067      1.169320      1.158696
  H       1.728881     -2.977161      3.844239
  H       2.769825     -1.615714      4.309733
  H       3.051319     -2.461793      2.773112
  H      -3.843862      0.723964     -3.149838
  H      -3.085926      1.578774     -4.533524
  H      -2.257860      1.547633     -2.952545
  H      -4.034859     -1.255405     -4.496787
  H      -2.587891     -1.958047     -5.293170
  H      -3.263319     -0.409001     -5.876751
  H      -1.127920      0.656111     -5.599841
  H      -0.413878     -0.876850     -5.014824
  H      -0.275784      0.613871     -4.031829
  H       0.745398     -1.294840     -2.533289
  H      -2.818067      0.205959     -0.661992
  H       0.666555      3.827379      1.032774
  H       0.770804      3.057216     -0.561491
  H       2.028831      4.195680     -0.042384
  H      -1.337639     -1.683240      2.544437
  H       1.487936      0.404166      5.018107
  H      -3.172588     -0.981959      4.048057
  H      -0.340887      1.106720      6.515925
  H      -2.684472      0.422554      6.041996
  Cl     -5.588257     -1.103899     -2.216858
56
Coordinates from ORCA-job R4N+Cl-_r2 E -1372.331694474655
  N      -2.201804     -0.280992     -4.043794
  C       1.254330      1.105998      1.450918
  C       2.105920      0.053617      2.177513
  C       1.316002     -1.134333      2.748877
  C       0.422255      0.502774      0.341499
  C       2.146152      2.244015      0.921767
  C      -1.970010     -1.193380     -2.833597
  C      -1.131855     -0.590062     -1.746629
  C       0.205849     -0.692486      3.679927
  C       1.023449     -0.204450     -0.706899
  C      -0.968012      0.644619      0.330689
  C       2.266909     -2.112477      3.451717
  C      -2.902095      0.982758     -3.636821
  C      -3.076007     -1.033069     -5.007656
  C      -0.906888      0.061479     -4.715582
  C       0.258735     -0.745063     -1.734242
  C      -1.737289      0.103725     -0.695361
  C       1.357538      3.391086      0.294602
  C      -1.119046     -1.067447      3.438826
  C       0.478814      0.095158      4.805519
  C      -2.146792     -0.667378      4.293123
  C      -0.543938      0.497455      5.660875
  C      -1.862866      0.118672      5.407553
  H       0.556725      1.543244      2.180427
  H       2.648733      0.552474      2.992445
  H       2.867476     -0.337977      1.488613
  H       0.843992     -1.663271      1.909230
  H       2.853530      1.832320      0.188152
  H       2.745782      2.624605      1.759514
  H      -1.498169     -2.095240     -3.234739
  H      -2.970605     -1.434676     -2.454279
  H       2.102253     -0.341827     -0.718720
  H      -1.455206      1.179517      1.143280
  H       1.723913     -2.983680      3.834692
  H       2.769735     -1.626732      4.296692
  H       3.037245     -2.466336      2.756500
  H      -3.847998      0.714746     -3.154441
  H      -3.085387      1.573017     -4.537649
  H      -2.260835      1.543807     -2.954648
  H      -4.023097     -1.264828     -4.509902
  H      -2.562397     -1.950747     -5.303560
  H      -3.248152     -0.403932     -5.883693
  H      -1.130744      0.662936     -5.599457
  H      -0.404088     -0.863891     -5.005625
  H      -0.284094      0.633527     -4.025959
  H       0.745269     -1.301206     -2.532563
  H      -2.819227      0.216955     -0.682054
  H       0.645054      3.814430      1.013277
  H       0.789105      3.054213     -0.580365
  H       2.025924      4.196150     -0.029646
  H      -1.349031     -1.676032      2.566319
  H       1.501452      0.401228      5.015634
  H      -3.170226     -0.969039      4.085009
  H      -0.311863      1.110494      6.528162
  H      -2.661194      0.433987      6.074039
  Cl     -5.606098     -1.139362     -2.222102
56
Coordinates from ORCA-job R4N+Cl-_r2 E -1372.331757981833
  N      -2.200746     -0.277543     -4.044678
  C       1.252403      1.102694      1.450993
  C       2.103279      0.049532      2.176443
  C       1.310871     -1.135766      2.749729
  C       0.421707      0.501217      0.339739
  C       2.143608      2.242149      0.924712
  C      -1.963955     -1.194970     -2.837408
  C      -1.128964     -0.591264     -1.749463
  C       0.204780     -0.689740      3.683149
  C       1.024511     -0.203643     -0.708751
  C      -0.967980      0.641633      0.328184
  C       2.258809     -2.117287      3.449969
  C      -2.910177      0.979533     -3.634332
  C      -3.069149     -1.031583     -5.012004
  C      -0.907685      0.075764     -4.713869
  C       0.261516     -0.744866     -1.736006
  C      -1.735853      0.099462     -0.697491
  C       1.356799      3.383851      0.288967
  C      -1.121843     -1.056996      3.443801
  C       0.484027      0.093976      4.809416
  C      -2.145469     -0.652297      4.299774
  C      -0.534587      0.500721      5.666373
  C      -1.855482      0.130151      5.414315
  H       0.553175      1.538174      2.179823
  H       2.649557      0.547685      2.989062
  H       2.863056     -0.344334      1.487488
  H       0.834352     -1.662523      1.911352
  H       2.858520      1.830322      0.198876
  H       2.736049      2.626013      1.765795
  H      -1.488995     -2.090566     -3.248343
  H      -2.964660     -1.441636     -2.463442
  H       2.103205     -0.338599     -0.720073
  H      -1.455745      1.174602      1.141228
  H       1.714663     -2.986885      3.833822
  H       2.765402     -1.634359      4.293766
  H       3.026318     -2.473436      2.753458
  H      -3.852652      0.701719     -3.152625
  H      -3.096382      1.567692     -4.535678
  H      -2.270246      1.542032     -2.952854
  H      -4.012385     -1.272133     -4.512796
  H      -2.545236     -1.942211     -5.310574
  H      -3.244376     -0.397263     -5.883239
  H      -1.136861      0.673255     -5.598746
  H      -0.397216     -0.846291     -4.999717
  H      -0.293964      0.654782     -4.022479
  H       0.747688     -1.299463     -2.535080
  H      -2.817723      0.209247     -0.683180
  H       0.630764      3.801380      0.996855
  H       0.803704      3.046573     -0.595068
  H       2.023605      4.194221     -0.024159
  H      -1.355886     -1.663004      2.570993
  H       1.508570      0.393224      5.018075
  H      -3.170711     -0.947691      4.092869
  H      -0.297624      1.110828      6.534047
  H      -2.650678      0.449025      6.082390
  Cl     -5.610579     -1.176014     -2.218003
56
Coordinates from ORCA-job R4N+Cl-_r2 E -1372.331779728202
  N      -2.199152     -0.274900     -4.047318
  C       1.250103      1.100003      1.450243
  C       2.100215      0.045882      2.175518
  C       1.305667     -1.137233      2.751153
  C       0.420957      0.499131      0.337323
  C       2.142043      2.239892      0.925725
  C      -1.958897     -1.196384     -2.843622
  C      -1.126763     -0.593220     -1.753413
  C       0.203513     -0.687388      3.687502
  C       1.025326     -0.203305     -0.711510
  C      -0.968623      0.637831      0.325026
  C       2.251983     -2.121152      3.449762
  C      -2.915930      0.975515     -3.631787
  C      -3.063499     -1.029086     -5.017470
  C      -0.907715      0.087645     -4.713542
  C       0.263882     -0.744253     -1.739566
  C      -1.735096      0.095627     -0.701323
  C       1.356434      3.379537      0.285648
  C      -1.124889     -1.048961      3.450965
  C       0.488562      0.094278      4.813421
  C      -2.144607     -0.640522      4.309284
  C      -0.526189      0.504802      5.672629
  C      -1.848879      0.139997      5.423254
  H       0.550202      1.534743      2.178695
  H       2.648986      0.543524      2.986667
  H       2.858173     -0.350293      1.486078
  H       0.825570     -1.662715      1.914095
  H       2.860442      1.827907      0.203557
  H       2.730919      2.625160      1.768636
  H      -1.481140     -2.088136     -3.259550
  H      -2.959747     -1.447782     -2.473408
  H       2.104264     -0.336033     -0.722422
  H      -1.457400      1.169583      1.138170
  H       1.706061     -2.988771      3.835389
  H       2.762241     -1.639709      4.292037
  H       3.016590     -2.480276      2.751652
  H      -3.855373      0.688481     -3.149948
  H      -3.107934      1.565203     -4.530856
  H      -2.279063      1.539399     -2.948688
  H      -4.003501     -1.277637     -4.516537
  H      -2.534282     -1.934975     -5.320950
  H      -3.244656     -0.390722     -5.884403
  H      -1.138575      0.683995     -5.598738
  H      -0.390083     -0.830618     -4.998630
  H      -0.299544      0.670461     -4.020414
  H       0.750640     -1.297151     -2.539412
  H      -2.817147      0.203139     -0.686647
  H       0.622776      3.793335      0.987744
  H       0.812130      3.042146     -0.603631
  H       2.022768      4.192850     -0.020708
  H      -1.363223     -1.653811      2.578578
  H       1.514902      0.388806      5.019817
  H      -3.171549     -0.931508      4.104577
  H      -0.284769      1.113330      6.540169
  H      -2.641212      0.461963      6.093245
  Cl     -5.608782     -1.208530     -2.216663
56
Coordinates from ORCA-job R4N+Cl-_r2 E -1372.331795841600
  N      -2.196598     -0.272492     -4.051629
  C       1.247469      1.097799      1.449898
  C       2.096717      0.042264      2.174640
  C       1.299741     -1.138652      2.752243
  C       0.419781      0.497475      0.335397
  C       2.140377      2.238040      0.927230
  C      -1.954472     -1.196810     -2.850278
  C      -1.125628     -0.594215     -1.757244
  C       0.202388     -0.684821      3.692558
  C       1.025632     -0.201688     -0.714564
  C      -0.970060      0.633152      0.323345
  C       2.244584     -2.126071      3.447982
  C      -2.921617      0.971205     -3.632421
  C      -3.056466     -1.027797     -5.024268
  C      -0.906404      0.098669     -4.713967
  C       0.265372     -0.742131     -1.743544
  C      -1.735429      0.091249     -0.703910
  C       1.355612      3.376070      0.283169
  C      -1.128578     -1.038417      3.458569
  C       0.494666      0.092862      4.819232
  C      -2.143722     -0.625946      4.320219
  C      -0.515520      0.507326      5.681792
  C      -1.840763      0.150568      5.434914
  H       0.547260      1.531793      2.178360
  H       2.648008      0.538858      2.984737
  H       2.852510     -0.356170      1.484158
  H       0.815462     -1.661991      1.916300
  H       2.861736      1.826040      0.208054
  H       2.725974      2.624587      1.771859
  H      -1.473920     -2.085994     -3.268498
  H      -2.956243     -1.452008     -2.484870
  H       2.104976     -0.331548     -0.725717
  H      -1.459954      1.162830      1.137202
  H       1.696197     -2.991394      3.835418
  H       2.759603     -1.646836      4.288594
  H       3.005359     -2.488550      2.747321
  H      -3.857651      0.674403     -3.149779
  H      -3.121394      1.561910     -4.529122
  H      -2.289433      1.538370     -2.947715
  H      -3.992988     -1.284759     -4.521018
  H      -2.522711     -1.929320     -5.332805
  H      -3.245479     -0.386485     -5.887306
  H      -1.137268      0.692431     -5.601001
  H      -0.380338     -0.815638     -4.996629
  H      -0.304079      0.686551     -4.019865
  H       0.752834     -1.292397     -2.544848
  H      -2.817726      0.196072     -0.688115
  H       0.614509      3.785768      0.979879
  H       0.819938      3.038287     -0.611211
  H       2.021432      4.192363     -0.016501
  H      -1.372488     -1.640412      2.585700
  H       1.523312      0.380934      5.023549
  H      -3.172876     -0.910660      4.117517
  H      -0.268585      1.112614      6.550104
  H      -2.629617      0.475792      6.107531
  Cl     -5.606312     -1.243988     -2.215240
56
Coordinates from ORCA-job R4N+Cl-_r2 E -1372.331800710780
  N      -2.195280     -0.273096     -4.053644
  C       1.246595      1.098646      1.450138
  C       2.095524      0.042368      2.174376
  C       1.298312     -1.138608      2.751594
  C       0.418918      0.498708      0.335389
  C       2.140082      2.238859      0.928310
  C      -1.955125     -1.195941     -2.850726
  C      -1.126883     -0.592859     -1.757448
  C       0.202318     -0.684802      3.693561
  C       1.024689     -0.200616     -0.714639
  C      -0.971037      0.634695      0.323170
  C       2.243453     -2.127428      3.445272
  C      -2.921374      0.970424     -3.635895
  C      -3.054569     -1.029611     -5.025873
  C      -0.904697      0.097536     -4.714970
  C       0.264204     -0.741046     -1.743615
  C      -1.736584      0.093174     -0.704364
  C       1.355660      3.377627      0.284544
  C      -1.129451     -1.036293      3.460117
  C       0.496593      0.090925      4.821163
  C      -2.143413     -0.623801      4.323373
  C      -0.512408      0.505424      5.685339
  C      -1.838435      0.150662      5.439118
  H       0.546590      1.532499      2.178910
  H       2.647033      0.538269      2.984812
  H       2.850937     -0.355967      1.483335
  H       0.812946     -1.660799      1.915546
  H       2.861342      1.827100      0.208844
  H       2.725582      2.624844      1.773286
  H      -1.474689     -2.086507     -3.266206
  H      -2.958001     -1.449746     -2.487097
  H       2.104041     -0.330842     -0.725693
  H      -1.460986      1.164624      1.136894
  H       1.694558     -2.992459      3.832829
  H       2.760161     -1.649262      4.285526
  H       3.002822     -2.490186      2.743149
  H      -3.856734      0.672896     -3.152192
  H      -3.123307      1.560269     -4.532690
  H      -2.290470      1.539570     -2.951605
  H      -3.990554     -1.287303     -4.521742
  H      -2.520941     -1.931160     -5.334598
  H      -3.245652     -0.389109     -5.889092
  H      -1.134188      0.688988     -5.603986
  H      -0.376977     -0.816698     -4.995025
  H      -0.303279      0.687586     -4.021837
  H       0.751634     -1.291623     -2.544792
  H      -2.818823      0.198918     -0.688632
  H       0.613720      3.786348      0.981018
  H       0.821044      3.040288     -0.610691
  H       2.021729      4.194281     -0.013728
  H      -1.375010     -1.636717      2.586573
  H       1.525827      0.377386      5.025036
  H      -3.173136     -0.906920      4.121165
  H      -0.263985      1.109084      6.554409
  H      -2.626305      0.475842      6.112965
  Cl     -5.606890     -1.249346     -2.213579
56
Coordinates from ORCA-job R4N+Cl-_r2 E -1372.331802942573
  N      -2.195272     -0.274051     -4.053791
  C       1.247458      1.099704      1.450512
  C       2.095862      0.042930      2.174689
  C       1.298583     -1.138463      2.750738
  C       0.419420      0.500337      0.335799
  C       2.141573      2.239567      0.929215
  C      -1.956064     -1.195066     -2.849236
  C      -1.127461     -0.591192     -1.756663
  C       0.202078     -0.685344      3.692365
  C       1.024707     -0.199598     -0.714290
  C      -0.970566      0.637154      0.323584
  C       2.243806     -2.127744      3.443902
  C      -2.921348      0.970086     -3.637309
  C      -3.054921     -1.031912     -5.024830
  C      -0.904862      0.095609     -4.715865
  C       0.263659     -0.740039     -1.743014
  C      -1.736646      0.095776     -0.703834
  C       1.357687      3.379644      0.286624
  C      -1.129727     -1.036374      3.457703
  C       0.495757      0.089504      4.820857
  C      -2.144306     -0.624371      4.320698
  C      -0.513848      0.503496      5.684804
  C      -1.839902      0.149138      5.437440
  H       0.547632      1.533813      2.179380
  H       2.646641      0.538380      2.985937
  H       2.851719     -0.354839      1.483733
  H       0.813704     -1.660236      1.914116
  H       2.861997      1.827890      0.208803
  H       2.727755      2.624517      1.774199
  H      -1.475929     -2.087069     -3.262040
  H      -2.959450     -1.447445     -2.485914
  H       2.103984     -0.330614     -0.725489
  H      -1.460276      1.167451      1.137258
  H       1.694726     -2.992891      3.831041
  H       2.760575     -1.649913      4.284375
  H       3.003104     -2.490180      2.741509
  H      -3.856074      0.673275     -3.151826
  H      -3.124803      1.558844     -4.534485
  H      -2.290303      1.540811     -2.954419
  H      -3.990576     -1.289731     -4.520005
  H      -2.521460     -1.933609     -5.333424
  H      -3.247313     -0.392573     -5.888656
  H      -1.134537      0.685510     -5.605911
  H      -0.376919     -0.818903     -4.994696
  H      -0.303110      0.686938     -4.024090
  H       0.750898     -1.291291     -2.543875
  H      -2.818771      0.202853     -0.688172
  H       0.616926      3.788732      0.984180
  H       0.821862      3.042932     -0.608174
  H       2.024419      4.195646     -0.011992
  H      -1.374939     -1.635960      2.583454
  H       1.524888      0.375713      5.025708
  H      -3.173951     -0.907141      4.117563
  H      -0.265917      1.106426      6.554542
  H      -2.628176      0.473839      6.111064
  Cl     -5.606861     -1.250873     -2.208386
56
Coordinates from ORCA-job R4N+Cl-_r2 E -1372.331804029987
  N      -2.195527     -0.275223     -4.053489
  C       1.248226      1.100867      1.450797
  C       2.096274      0.043669      2.174740
  C       1.299087     -1.138234      2.749699
  C       0.419722      0.502141      0.336155
  C       2.142824      2.240436      0.929871
  C      -1.957375     -1.194274     -2.847300
  C      -1.128172     -0.589496     -1.755676
  C       0.201923     -0.686029      3.690905
  C       1.024452     -0.198535     -0.713850
  C      -0.970186      0.639912      0.323941
  C       2.244415     -2.127654      3.442594
  C      -2.920808      0.970148     -3.638936
  C      -3.055553     -1.034215     -5.023383
  C      -0.904935      0.092651     -4.716241
  C       0.262888     -0.739094     -1.742196
  C      -1.736770      0.098550     -0.703193
  C       1.359430      3.381888      0.288958
  C      -1.129655     -1.037410      3.455315
  C       0.494685      0.088334      4.820019
  C      -2.144914     -0.626211      4.317964
  C      -0.515593      0.501518      5.683633
  C      -1.841428      0.146832      5.435338
  H       0.548594      1.535149      2.179795
  H       2.646435      0.538753      2.986635
  H       2.852568     -0.353466      1.483873
  H       0.814783     -1.659783      1.912585
  H       2.862230      1.828892      0.208346
  H       2.729988      2.624167      1.774721
  H      -1.477765     -2.087589     -3.257907
  H      -2.961117     -1.445047     -2.483872
  H       2.103628     -0.330360     -0.725192
  H      -1.459564      1.170673      1.137517
  H       1.695452     -2.993107      3.829210
  H       2.760877     -1.650005      4.283377
  H       3.003945     -2.489488      2.740158
  H      -3.855282      0.675146     -3.151892
  H      -3.124539      1.557369     -4.537059
  H      -2.288939      1.542032     -2.957781
  H      -3.991339     -1.291369     -4.518472
  H      -2.522232     -1.936318     -5.331029
  H      -3.247841     -0.396113     -5.888161
  H      -1.134612      0.681491     -5.606994
  H      -0.377766     -0.822629     -4.993999
  H      -0.302633      0.684506     -4.025396
  H       0.749890     -1.291079     -2.542698
  H      -2.818792      0.206588     -0.687495
  H       0.620456      3.791651      0.988011
  H       0.821689      3.046098     -0.605030
  H       2.026823      4.197055     -0.010420
  H      -1.374222     -1.636573      2.580598
  H       1.523562      0.374852      5.025691
  H      -3.174334     -0.909248      4.114083
  H      -0.268370      1.104082      6.553822
  H      -2.630207      0.470854      6.108687
  Cl     -5.607245     -1.248663     -2.203975
56
Coordinates from ORCA-job R4N+Cl-_r2 E -1372.331805014277
  N      -2.196376     -0.276297     -4.052562
  C       1.249617      1.101928      1.451012
  C       2.096973      0.044149      2.174884
  C       1.299478     -1.138105      2.748562
  C       0.420717      0.503997      0.336287
  C       2.145021      2.240983      0.930503
  C      -1.957876     -1.193783     -2.845385
  C      -1.127987     -0.587983     -1.754818
  C       0.201294     -0.686584      3.688830
  C       1.024953     -0.197406     -0.713548
  C      -0.969062      0.642707      0.323986
  C       2.244419     -2.127638      3.441817
  C      -2.921411      0.969643     -3.639045
  C      -3.056587     -1.036525     -5.021315
  C      -0.906190      0.091082     -4.716551
  C       0.262997     -0.738168     -1.741501
  C      -1.736047      0.101180     -0.702774
  C       1.362458      3.384049      0.291448
  C      -1.129919     -1.038363      3.451895
  C       0.492687      0.087518      4.818485
  C      -2.146152     -0.627791      4.313680
  C      -0.518561      0.500074      5.681244
  C      -1.844033      0.145019      5.431579
  H       0.550127      1.536529      2.179984
  H       2.646431      0.538793      2.987511
  H       2.853819     -0.352504      1.484349
  H       0.816028     -1.659491      1.910845
  H       2.863293      1.829408      0.207868
  H       2.733319      2.623242      1.775226
  H      -1.478438     -2.087783     -3.254728
  H      -2.961553     -1.443825     -2.481342
  H       2.104030     -0.329958     -0.724990
  H      -1.458139      1.174017      1.137379
  H       1.695372     -2.993327      3.827732
  H       2.760163     -1.650126      4.283119
  H       3.004542     -2.488975      2.739794
  H      -3.854972      0.675849     -3.149622
  H      -3.126380      1.555245     -4.537941
  H      -2.288292      1.542892     -2.960192
  H      -3.992107     -1.294060     -4.516214
  H      -2.522608     -1.938350     -5.328636
  H      -3.249364     -0.399272     -5.886617
  H      -1.136890      0.679470     -5.607329
  H      -0.379565     -0.824507     -4.994243
  H      -0.303384      0.683224     -4.026427
  H       0.749830     -1.290918     -2.541565
  H      -2.817989      0.209943     -0.687053
  H       0.625664      3.794885      0.992148
  H       0.822397      3.049467     -0.601572
  H       2.030775      4.198085     -0.008885
  H      -1.373479     -1.637313      2.576761
  H       1.521224      0.374380      5.025321
  H      -3.175262     -0.911137      4.108709
  H      -0.272367      1.102462      6.551837
  H      -2.633580      0.468535      6.104256
  Cl     -5.605929     -1.249474     -2.196793
56
Coordinates from ORCA-job R4N+Cl-_r2 E -1372.331805693898
  N      -2.197031     -0.277186     -4.051913
  C       1.250470      1.102839      1.451133
  C       2.097353      0.044508      2.174767
  C       1.299552     -1.137979      2.747536
  C       0.421285      0.505523      0.336267
  C       2.146497      2.241543      0.930934
  C      -1.958291     -1.193448     -2.844020
  C      -1.127932     -0.586821     -1.754221
  C       0.200781     -0.686956      3.687354
  C       1.025172     -0.196355     -0.713413
  C      -0.968393      0.644816      0.323948
  C       2.244125     -2.127658      3.441032
  C      -2.921724      0.969336     -3.639617
  C      -3.057225     -1.038297     -5.019895
  C      -0.906890      0.089500     -4.716556
  C       0.262978     -0.737333     -1.741040
  C      -1.735625      0.103095     -0.702482
  C       1.364536      3.385841      0.293474
  C      -1.130146     -1.039244      3.449813
  C       0.491348      0.087029      4.817267
  C      -2.146890     -0.629266      4.311206
  C      -0.520414      0.499005      5.679629
  C      -1.845597      0.143463      5.429330
  H       0.551143      1.537585      2.180161
  H       2.646527      0.538707      2.987837
  H       2.854455     -0.351860      1.484370
  H       0.816591     -1.659134      1.909403
  H       2.863905      1.829956      0.207470
  H       2.735725      2.622600      1.775549
  H      -1.479099     -2.087870     -3.252728
  H      -2.961900     -1.442897     -2.479415
  H       2.104191     -0.329304     -0.724932
  H      -1.457232      1.176555      1.137192
  H       1.695007     -2.993566      3.826301
  H       2.759281     -1.650380      4.282809
  H       3.004742     -2.488585      2.739348
  H      -3.854547      0.676689     -3.148195
  H      -3.127650      1.553272     -4.539370
  H      -2.287505      1.543769     -2.962811
  H      -3.992700     -1.295854     -4.514820
  H      -2.522813     -1.940080     -5.326593
  H      -3.249959     -0.401727     -5.885703
  H      -1.137894      0.677773     -5.607316
  H      -0.380936     -0.826484     -4.994153
  H      -0.303708      0.681524     -4.026681
  H       0.749652     -1.290566     -2.540857
  H      -2.817544      0.211978     -0.686605
  H       0.629359      3.797405      0.995420
  H       0.822729      3.052396     -0.598880
  H       2.033503      4.199116     -0.007443
  H      -1.373076     -1.638159      2.574491
  H       1.519660      0.374277      5.024650
  H      -3.175783     -0.913015      4.105731
  H      -0.274822      1.101330      6.550428
  H      -2.635573      0.466538      6.101705
  Cl     -5.604538     -1.248853     -2.191492
56
Coordinates from ORCA-job R4N+Cl-_r2 E -1372.331806361831
  N      -2.197928     -0.277654     -4.051057
  C       1.251565      1.103416      1.451140
  C       2.097782      0.044511      2.174769
  C       1.299321     -1.137941      2.746747
  C       0.422340      0.506571      0.335988
  C       2.148343      2.241709      0.931269
  C      -1.957647     -1.193546     -2.843311
  C      -1.126994     -0.586265     -1.754063
  C       0.199925     -0.687005      3.685927
  C       1.026126     -0.195467     -0.713576
  C      -0.967292      0.646038      0.323650
  C       2.243149     -2.127821      3.440916
  C      -2.922914      0.968612     -3.638693
  C      -3.058050     -1.039402     -5.018490
  C      -0.908344      0.089687     -4.716625
  C       0.263897     -0.736665     -1.741024
  C      -1.734572      0.104022     -0.702525
  C       1.367085      3.386930      0.294780
  C      -1.130730     -1.039781      3.447788
  C       0.489655      0.087184      4.815871
  C      -2.148001     -0.630086      4.308616
  C      -0.522641      0.498892      5.677665
  C      -1.847536      0.142859      5.426757
  H       0.552302      1.538362      2.180078
  H       2.646789      0.538253      2.988214
  H       2.855080     -0.351890      1.484629
  H       0.816881     -1.658868      1.908193
  H       2.865253      1.829930      0.207446
  H       2.738135      2.621845      1.775909
  H      -1.478340     -2.087664     -3.252533
  H      -2.960825     -1.443426     -2.477799
  H       2.105136     -0.328464     -0.725104
  H      -1.456033      1.178046      1.136770
  H       1.693681     -2.993819      3.825456
  H       2.757513     -1.650800      4.283304
  H       3.004443     -2.488602      2.739888
  H      -3.854432      0.675947     -3.144863
  H      -3.131006      1.551252     -4.538778
  H      -2.287655      1.544263     -2.963901
  H      -3.993119     -1.297753     -4.513139
  H      -2.522987     -1.940754     -5.325327
  H      -3.251486     -0.402976     -5.884237
  H      -1.140215      0.678516     -5.606780
  H      -0.382580     -0.826110     -4.995155
  H      -0.304806      0.681318     -4.026746
  H       0.750501     -1.290119     -2.540725
  H      -2.816524      0.212588     -0.686533
  H       0.632866      3.799083      0.997369
  H       0.824255      3.054456     -0.597294
  H       2.036639      4.199654     -0.006328
  H      -1.372989     -1.638904      2.572427
  H       1.517766      0.374801      5.023725
  H      -3.176690     -0.914223      4.102660
  H      -0.277664      1.101395      6.548510
  H      -2.637956      0.465751      6.098697
  Cl     -5.601343     -1.250793     -2.185142
56
Coordinates from ORCA-job R4N+Cl-_r2 E -1372.331807120702
  N      -2.198690     -0.278166     -4.050320
  C       1.252528      1.104135      1.451145
  C       2.098127      0.044628      2.174699
  C       1.299013     -1.137805      2.745891
  C       0.423326      0.507679      0.335686
  C       2.149998      2.242114      0.931686
  C      -1.957022     -1.193644     -2.842609
  C      -1.126102     -0.585683     -1.753929
  C       0.199065     -0.687050      3.684590
  C       1.027069     -0.194325     -0.713861
  C      -0.966319      0.647063      0.323473
  C       2.242114     -2.127939      3.440648
  C      -2.923598      0.968121     -3.638145
  C      -3.059051     -1.040417     -5.017045
  C      -0.909505      0.089193     -4.716784
  C       0.264804     -0.735769     -1.741136
  C      -1.733635      0.104733     -0.702453
  C       1.369373      3.388049      0.295877
  C      -1.131285     -1.040729      3.446170
  C       0.487997      0.087550      4.814417
  C      -2.149016     -0.631523      4.306635
  C      -0.524769      0.498789      5.675844
  C      -1.849338      0.141841      5.424660
  H       0.553328      1.539179      2.180045
  H       2.647109      0.537836      2.988477
  H       2.855521     -0.351836      1.484715
  H       0.817051     -1.658408      1.906884
  H       2.866667      1.830165      0.207742
  H       2.740101      2.621495      1.776456
  H      -1.477805     -2.087544     -3.252380
  H      -2.959803     -1.443715     -2.476065
  H       2.106099     -0.327167     -0.725437
  H      -1.454963      1.179181      1.136575
  H       1.692275     -2.994109      3.824274
  H       2.755580     -1.651295      4.283785
  H       3.004164     -2.488493      2.740309
  H      -3.853721      0.675612     -3.141591
  H      -3.134214      1.549163     -4.538668
  H      -2.287175      1.545151     -2.965647
  H      -3.993897     -1.298789     -4.511299
  H      -2.524005     -1.941873     -5.323604
  H      -3.252884     -0.404334     -5.882943
  H      -1.141769      0.678631     -5.606428
  H      -0.384251     -0.826634     -4.996177
  H      -0.305293      0.680192     -4.026954
  H       0.751273     -1.289258     -2.540897
  H      -2.815655      0.212659     -0.686254
  H       0.635507      3.800414      0.998707
  H       0.826172      3.056485     -0.596295
  H       2.039343      4.200548     -0.004949
  H      -1.372879     -1.640218      2.570875
  H       1.515889      0.375835      5.022442
  H      -3.177469     -0.916367      4.100465
  H      -0.280390      1.101630      6.546623
  H      -2.640138      0.464387      6.096323
  Cl     -5.597723     -1.250276     -2.178845
56
Coordinates from ORCA-job R4N+Cl-_r2 E -1372.331808150297
  N      -2.199604     -0.278620     -4.049310
  C       1.253907      1.104917      1.451135
  C       2.098651      0.044743      2.174806
  C       1.298658     -1.137599      2.745019
  C       0.424898      0.508815      0.335270
  C       2.152218      2.242556      0.932324
  C      -1.955713     -1.193973     -2.841914
  C      -1.124479     -0.585252     -1.753926
  C       0.197849     -0.687026      3.682875
  C       1.028758     -0.192821     -0.714419
  C      -0.964834      0.647713      0.323319
  C       2.240766     -2.128025      3.440697
  C      -2.924351      0.967485     -3.636527
  C      -3.060838     -1.041234     -5.014918
  C      -0.911303      0.088976     -4.717386
  C       0.266517     -0.734569     -1.741565
  C      -1.732119      0.104958     -0.702367
  C       1.372415      3.389009      0.296577
  C      -1.132057     -1.042140      3.444018
  C       0.485528      0.088429      4.812412
  C      -2.150559     -0.633517      4.303836
  C      -0.528025      0.499106      5.673193
  C      -1.852116      0.140701      5.421599
  H       0.554658      1.540089      2.179881
  H       2.647543      0.537336      2.989020
  H       2.856208     -0.351878      1.485088
  H       0.817453     -1.657861      1.905383
  H       2.869053      1.830351      0.208697
  H       2.742180      2.621370      1.777457
  H      -1.476519     -2.087420     -3.252656
  H      -2.957864     -1.444542     -2.473877
  H       2.107854     -0.325190     -0.726081
  H      -1.453452      1.179675      1.136542
  H       1.690360     -2.994399      3.823081
  H       2.752914     -1.651810      4.284877
  H       3.003902     -2.488344      2.741395
  H      -3.852370      0.674671     -3.136146
  H      -3.138994      1.546804     -4.537201
  H      -2.286333      1.546201     -2.967005
  H      -3.995307     -1.299269     -4.508257
  H      -2.526374     -1.943077     -5.321346
  H      -3.255428     -0.405514     -5.880901
  H      -1.144430      0.679330     -5.606204
  H      -0.386658     -0.826731     -4.998355
  H      -0.305862      0.679108     -4.027886
  H       0.752853     -1.287858     -2.541554
  H      -2.814252      0.211905     -0.685964
  H       0.638062      3.801244      0.998986
  H       0.829804      3.058236     -0.596246
  H       2.042760      4.201568     -0.003309
  H      -1.372614     -1.642301      2.568893
  H       1.513077      0.377796      5.020663
  H      -3.178648     -0.919469      4.097357
  H      -0.284620      1.102637      6.543770
  H      -2.643521      0.462821      6.092766
  Cl     -5.592472     -1.249017     -2.170210
56
Coordinates from ORCA-job R4N+Cl-_r2 E -1372.331809571703
  N      -2.200341     -0.279387     -4.048237
  C       1.255409      1.106109      1.451201
  C       2.099262      0.045231      2.174967
  C       1.298467     -1.137181      2.743919
  C       0.426647      0.510375      0.334919
  C       2.154545      2.243516      0.933340
  C      -1.954444     -1.194280     -2.840750
  C      -1.122720     -0.584584     -1.753751
  C       0.196518     -0.687200      3.680764
  C       1.030684     -0.190584     -0.715130
  C      -0.963237      0.648409      0.323472
  C       2.239634     -2.127882      3.440506
  C      -2.923941      0.967197     -3.634997
  C      -3.063568     -1.042209     -5.011906
  C      -0.913010      0.087130     -4.718616
  C       0.268428     -0.732753     -1.742087
  C      -1.730519      0.105145     -0.701940
  C       1.375625      3.390327      0.297220
  C      -1.132737     -1.044629      3.441493
  C       0.482447      0.089489      4.809898
  C      -2.152304     -0.637075      4.300585
  C      -0.532192      0.499122      5.669955
  C      -1.855595      0.138386      5.417984
  H       0.556038      1.541313      2.179798
  H       2.647971      0.537122      2.989739
  H       2.857050     -0.351394      1.485482
  H       0.818287     -1.657072      1.903473
  H       2.871909      1.831159      0.210318
  H       2.743950      2.621899      1.779064
  H      -1.475571     -2.087618     -3.252051
  H      -2.956018     -1.444733     -2.470952
  H       2.109883     -0.322193     -0.727012
  H      -1.451841      1.179907      1.137014
  H       1.688696     -2.994644      3.821300
  H       2.750113     -1.652155      4.285985
  H       3.004107     -2.487686      2.742375
  H      -3.849412      0.674676     -3.129606
  H      -3.143513      1.544228     -4.535951
  H      -2.283524      1.547896     -2.969517
  H      -3.997947     -1.298126     -4.503904
  H      -2.531033     -1.945495     -5.317416
  H      -3.258327     -0.407455     -5.878552
  H      -1.146897      0.678234     -5.606754
  H      -0.389776     -0.828934     -5.001122
  H      -0.305443      0.676191     -4.030050
  H       0.754587     -1.285638     -2.542479
  H      -2.812797      0.210817     -0.685264
  H       0.639930      3.801883      0.998643
  H       0.834596      3.060247     -0.596823
  H       2.046223      4.203319     -0.000978
  H      -1.371865     -1.645725      2.566610
  H       1.509471      0.380608      5.018333
  H      -3.179847     -0.924802      4.093829
  H      -0.290179      1.103655      6.540230
  H      -2.647814      0.459690      6.088593
  Cl     -5.586937     -1.242755     -2.159760
56
Coordinates from ORCA-job R4N+Cl-_r2 E -1372.331811565147
  N      -2.200839     -0.280376     -4.047064
  C       1.257050      1.107532      1.451335
  C       2.099966      0.046004      2.175298
  C       1.298460     -1.136598      2.742762
  C       0.428672      0.512143      0.334605
  C       2.156961      2.244830      0.934747
  C      -1.952816     -1.194773     -2.839373
  C      -1.120478     -0.583979     -1.753557
  C       0.195013     -0.687537      3.678267
  C       1.033085     -0.187629     -0.716089
  C      -0.961430      0.648707      0.323880
  C       2.238733     -2.127484      3.440368
  C      -2.922289      0.967142     -3.632770
  C      -3.067492     -1.043044     -5.007862
  C      -0.914899      0.084119     -4.720832
  C       0.270904     -0.730355     -1.742873
  C      -1.728619      0.104796     -0.701286
  C       1.378992      3.391735      0.297593
  C      -1.133372     -1.048050      3.438461
  C       0.478601      0.090821      4.806871
  C      -2.154378     -0.641888      4.296563
  C      -0.537497      0.499085      5.665945
  C      -1.859996      0.135259      5.413476
  H       0.557393      1.542700      2.179693
  H       2.648289      0.537224      2.990752
  H       2.858118     -0.350475      1.486093
  H       0.819632     -1.656217      1.901366
  H       2.875318      1.832453      0.212695
  H       2.745262      2.623031      1.781323
  H      -1.474283     -2.088134     -3.250969
  H      -2.953773     -1.444874     -2.467615
  H       2.112442     -0.317999     -0.728345
  H      -1.450157      1.179273      1.137967
  H       1.687305     -2.994740      3.819383
  H       2.747234     -1.652158      4.287290
  H       3.004751     -2.486575      2.743549
  H      -3.844489      0.675240     -3.120903
  H      -3.148023      1.541636     -4.533831
  H      -2.278383      1.549936     -2.972534
  H      -4.002008     -1.294916     -4.497972
  H      -2.538333     -1.948811     -5.311858
  H      -3.261826     -0.409776     -5.875690
  H      -1.149997      0.675924     -5.608214
  H      -0.393841     -0.832630     -5.005226
  H      -0.304195      0.671910     -4.033937
  H       0.757015     -1.282506     -2.543818
  H      -2.811083      0.208835     -0.684351
  H       0.640995      3.802066      0.997341
  H       0.840695      3.062068     -0.598260
  H       2.049725      4.205518      0.001838
  H      -1.370633     -1.650375      2.563904
  H       1.504902      0.384302      5.015591
  H      -3.181189     -0.931971      4.089442
  H      -0.297366      1.104976      6.535802
  H      -2.653305      0.455486      6.083317
  Cl     -5.581392     -1.231786     -2.146885
56
Coordinates from ORCA-job R4N+Cl-_r2 E -1372.331814119123
  N      -2.200541     -0.281463     -4.046488
  C       1.257874      1.108826      1.451519
  C       2.100275      0.046966      2.175608
  C       1.298564     -1.135966      2.741906
  C       0.429939      0.513601      0.334451
  C       2.158094      2.246316      0.936175
  C      -1.951376     -1.195384     -2.838413
  C      -1.118628     -0.583700     -1.753483
  C       0.193925     -0.688003      3.676441
  C       1.034936     -0.184580     -0.717073
  C      -0.960399      0.648210      0.324496
  C       2.238493     -2.126889      3.440028
  C      -2.918835      0.967598     -3.630989
  C      -3.071512     -1.043385     -5.004111
  C      -0.915865      0.079888     -4.723829
  C       0.273015     -0.727899     -1.743792
  C      -1.727323      0.103681     -0.700592
  C       1.380680      3.392924      0.297643
  C      -1.133667     -1.051492      3.436468
  C       0.475527      0.091891      4.804527
  C      -2.155853     -0.646728      4.293892
  C      -0.541762      0.498772      5.662928
  C      -1.863453      0.131992      5.410304
  H       0.557813      1.543772      2.179660
  H       2.648169      0.537812      2.991588
  H       2.858751     -0.349165      1.486526
  H       0.820824     -1.655494      1.899808
  H       2.877659      1.834230      0.215127
  H       2.745014      2.624711      1.783615
  H      -1.472991     -2.088969     -3.249661
  H      -2.951982     -1.444918     -2.465410
  H       2.114485     -0.313351     -0.729803
  H      -1.449464      1.177447      1.139253
  H       1.686909     -2.994612      3.817774
  H       2.745553     -1.651739      4.287943
  H       3.005585     -2.485213      2.744002
  H      -3.837875      0.676945     -3.112640
  H      -3.150165      1.539874     -4.532060
  H      -2.270843      1.551925     -2.976152
  H      -4.006718     -1.289215     -4.492461
  H      -2.546905     -1.952561     -5.305779
  H      -3.264049     -0.412040     -5.873750
  H      -1.152063      0.672119     -5.610664
  H      -0.397623     -0.837996     -5.009781
  H      -0.301633      0.666381     -4.038959
  H       0.759390     -1.278999     -2.545309
  H      -2.809974      0.205993     -0.683479
  H       0.640051      3.801703      0.995531
  H       0.845536      3.063145     -0.600060
  H       2.051292      4.207694      0.004372
  H      -1.369392     -1.654930      2.562259
  H       1.501148      0.387673      5.013337
  H      -3.181999     -0.939075      4.086669
  H      -0.303250      1.105923      6.532353
  H      -2.657651      0.451131      6.079608
  Cl     -5.578581     -1.216286     -2.135664
56
Coordinates from ORCA-job R4N+Cl-_r2 E -1372.331817189302
  N      -2.199242     -0.282050     -4.047082
  C       1.257113      1.109125      1.451625
  C       2.099757      0.047555      2.175814
  C       1.298490     -1.135610      2.742035
  C       0.429688      0.513647      0.334424
  C       2.156872      2.247148      0.936947
  C      -1.950033     -1.196263     -2.839144
  C      -1.117638     -0.584443     -1.754003
  C       0.193722     -0.688239      3.676573
  C       1.035531     -0.182770     -0.717878
  C      -0.960839      0.646099      0.324929
  C       2.238860     -2.126417      3.439837
  C      -2.914567      0.968299     -3.629784
  C      -3.073992     -1.042483     -5.002589
  C      -0.915441      0.076733     -4.727006
  C       0.274223     -0.726486     -1.744850
  C      -1.727180      0.101190     -0.700452
  C       1.379203      3.392948      0.297026
  C      -1.133622     -1.052978      3.437089
  C       0.474906      0.092343      4.804330
  C      -2.155988     -0.648737      4.294573
  C      -0.542557      0.498697      5.662795
  C      -1.864016      0.130711      5.410627
  H       0.556569      1.543692      2.179578
  H       2.647384      0.538650      2.991823
  H       2.858330     -0.348250      1.486639
  H       0.820873     -1.655333      1.899953
  H       2.877505      1.835644      0.216610
  H       2.742543      2.626267      1.784910
  H      -1.470889     -2.089671     -3.249905
  H      -2.950588     -1.446202     -2.466515
  H       2.115272     -0.309837     -0.730994
  H      -1.450575      1.173833      1.140260
  H       1.687529     -2.994238      3.817699
  H       2.745974     -1.651046      4.287612
  H       3.005819     -2.484428      2.743535
  H      -3.831379      0.678641     -3.106952
  H      -3.149302      1.539840     -4.530460
  H      -2.263079      1.552856     -2.978634
  H      -4.010297     -1.282203     -4.490102
  H      -2.553641     -1.954818     -5.302067
  H      -3.263640     -0.412641     -5.873970
  H      -1.152585      0.669435     -5.613288
  H      -0.399618     -0.842113     -5.014255
  H      -0.298524      0.662074     -4.043570
  H       0.761396     -1.276290     -2.546771
  H      -2.809974      0.202098     -0.683382
  H       0.636668      3.800529      0.993578
  H       0.846357      3.062260     -0.601712
  H       2.049402      4.208495      0.005063
  H      -1.369106     -1.656892      2.563145
  H       1.500284      0.389133      5.012872
  H      -3.181933     -0.942021      4.087707
  H      -0.304417      1.106421      6.531918
  H      -2.658347      0.449442      6.079957
  Cl     -5.580127     -1.202252     -2.130714
56
Coordinates from ORCA-job R4N+Cl-_r2 E -1372.331820020250
  N      -2.197455     -0.282247     -4.048593
  C       1.254955      1.108601      1.451643
  C       2.098600      0.047816      2.175771
  C       1.298325     -1.135558      2.742842
  C       0.427944      0.512516      0.334509
  C       2.153599      2.247354      0.936744
  C      -1.949248     -1.197144     -2.841208
  C      -1.117901     -0.585831     -1.754872
  C       0.194458     -0.688257      3.678405
  C       1.034571     -0.182826     -0.718059
  C      -0.962645      0.643515      0.324890
  C       2.239784     -2.126092      3.439611
  C      -2.910373      0.969173     -3.629975
  C      -3.074440     -1.040875     -5.003521
  C      -0.913692      0.074719     -4.729532
  C       0.274022     -0.726710     -1.745467
  C      -1.728261      0.098549     -0.701010
  C       1.374790      3.392373      0.296627
  C      -1.133245     -1.052027      3.439726
  C       0.476868      0.091631      4.806339
  C      -2.154770     -0.647481      4.298030
  C      -0.539732      0.498273      5.665625
  C      -1.861593      0.131308      5.414194
  H       0.554047      1.542679      2.179560
  H       2.646137      0.539637      2.991386
  H       2.857098     -0.347646      1.486341
  H       0.819913     -1.655621      1.901406
  H       2.874450      1.836610      0.216204
  H       2.738992      2.627198      1.784557
  H      -1.468727     -2.090049     -3.251507
  H      -2.949992     -1.448419     -2.470289
  H       2.114421     -0.308844     -0.731244
  H      -1.453146      1.170316      1.140357
  H       1.689108     -2.993716      3.818797
  H       2.748308     -1.650237      4.286259
  H       3.005567     -2.484204      2.742104
  H      -3.826322      0.680671     -3.105141
  H      -3.145597      1.541015     -4.530339
  H      -2.256450      1.552882     -2.980486
  H      -4.012074     -1.275873     -4.491469
  H      -2.557016     -1.955451     -5.301262
  H      -3.260608     -0.411871     -5.876269
  H      -1.151067      0.668196     -5.615214
  H      -0.399821     -0.844921     -5.017680
  H      -0.295320      0.658800     -4.046358
  H       0.762270     -1.275608     -2.547342
  H      -2.811112      0.198788     -0.684169
  H       0.632625      3.799928      0.993556
  H       0.841515      3.060555     -0.601431
  H       2.044488      4.207948      0.003691
  H      -1.369809     -1.655430      2.565729
  H       1.502514      0.387721      5.014500
  H      -3.181032     -0.940019      4.091715
  H      -0.300613      1.105450      6.534855
  H      -2.655297      0.450276      6.084139
  Cl     -5.584881     -1.192448     -2.132272
56
Coordinates from ORCA-job R4N+Cl-_r2 E -1372.331821887665
  N      -2.196302     -0.282423     -4.049771
  C       1.253022      1.108053      1.451623
  C       2.097686      0.048019      2.175670
  C       1.298287     -1.135623      2.743479
  C       0.426385      0.511369      0.334485
  C       2.150626      2.247426      0.936169
  C      -1.948567     -1.197918     -2.843164
  C      -1.118251     -0.587073     -1.755694
  C       0.195204     -0.688242      3.679968
  C       1.033544     -0.183822     -0.717800
  C      -0.964181      0.641913      0.324314
  C       2.240652     -2.125766      3.439549
  C      -2.907233      0.969922     -3.630478
  C      -3.074587     -1.039516     -5.004638
  C      -0.912300      0.073269     -4.731329
  C       0.273620     -0.727788     -1.745594
  C      -1.729176      0.096947     -0.701991
  C       1.370551      3.392165      0.297103
  C      -1.132948     -1.050277      3.441496
  C       0.478855      0.090354      4.808447
  C      -2.153682     -0.645284      4.300459
  C      -0.536934      0.497433      5.668392
  C      -1.859273      0.132221      5.417121
  H       0.551885      1.541666      2.179576
  H       2.645081      0.540484      2.990972
  H       2.856242     -0.347100      1.486145
  H       0.819211     -1.655954      1.902602
  H       2.870998      1.837309      0.214830
  H       2.736584      2.627497      1.783486
  H      -1.466900     -2.090170     -3.253593
  H      -2.949303     -1.450826     -2.473514
  H       2.113413     -0.309609     -0.730713
  H      -1.455254      1.168599      1.139501
  H       1.690610     -2.993241      3.819928
  H       2.750376     -1.649485      4.285208
  H       3.005496     -2.484026      2.741101
  H      -3.822517      0.682800     -3.103870
  H      -3.142650      1.541718     -4.530809
  H      -2.251264      1.552966     -2.982424
  H      -4.013142     -1.271672     -4.493148
  H      -2.558968     -1.955443     -5.301397
  H      -3.258217     -0.410817     -5.878140
  H      -1.149545      0.668138     -5.616077
  H      -0.400327     -0.847019     -5.020701
  H      -0.292759      0.655582     -4.047732
  H       0.762700     -1.276463     -2.547103
  H      -2.812050      0.196951     -0.685441
  H       0.630418      3.800597      0.995648
  H       0.834816      3.059810     -0.599284
  H       2.039906      4.207215      0.001954
  H      -1.370552     -1.652764      2.567158
  H       1.504869      0.385134      5.016633
  H      -3.180332     -0.936512      4.094236
  H      -0.296770      1.103571      6.538055
  H      -2.652405      0.451544      6.087568
  Cl     -5.587522     -1.186745     -2.133065
56
Coordinates from ORCA-job R4N+Cl-_r2 E -1372.331823163301
  N      -2.195559     -0.282443     -4.050755
  C       1.251306      1.107442      1.451588
  C       2.096951      0.048158      2.175605
  C       1.298343     -1.135773      2.744100
  C       0.425113      0.510153      0.334361
  C       2.147923      2.247425      0.935541
  C      -1.947879     -1.198610     -2.845018
  C      -1.118526     -0.588192     -1.756558
  C       0.195907     -0.688210      3.681362
  C       1.032679     -0.185413     -0.717340
  C      -0.965411      0.640907      0.323376
  C       2.241480     -2.125447      3.439705
  C      -2.904804      0.970668     -3.631070
  C      -3.074725     -1.038153     -5.005804
  C      -0.911208      0.072261     -4.732679
  C       0.273259     -0.729326     -1.745531
  C      -1.729886      0.095999     -0.703277
  C       1.366608      3.391964      0.297760
  C      -1.132725     -1.048205      3.442694
  C       0.480711      0.088901      4.810535
  C      -2.152788     -0.642665      4.302149
  C      -0.534397      0.496513      5.670973
  C      -1.857229      0.133335      5.419493
  H       0.549962      1.540556      2.179603
  H       2.644207      0.541190      2.990649
  H       2.855648     -0.346678      1.486097
  H       0.818751     -1.656309      1.903672
  H       2.867763      1.837786      0.213432
  H       2.734565      2.627622      1.782338
  H      -1.465436     -2.090148     -3.256111
  H      -2.948517     -1.453093     -2.476208
  H       2.112519     -0.311474     -0.729715
  H      -1.456894      1.167950      1.138080
  H       1.692010     -2.992854      3.821044
  H       2.752133     -1.648837      4.284593
  H       3.005647     -2.483882      2.740595
  H      -3.819456      0.684852     -3.102730
  H      -3.140759      1.542159     -4.531431
  H      -2.247190      1.553300     -2.984284
  H      -4.013725     -1.268850     -4.494564
  H      -2.560375     -1.954880     -5.302331
  H      -3.256971     -0.409251     -5.879435
  H      -1.147977      0.668859     -5.616358
  H      -0.401009     -0.848541     -5.023494
  H      -0.290554      0.652508     -4.048346
  H       0.762859     -1.278161     -2.546608
  H      -2.812758      0.196097     -0.687131
  H       0.628657      3.801364      0.998034
  H       0.828161      3.059384     -0.596917
  H       2.035563      4.206541      0.000364
  H      -1.371231     -1.649624      2.567871
  H       1.507135      0.382109      5.018928
  H      -3.179840     -0.932347      4.095735
  H      -0.293253      1.101448      6.541203
  H      -2.649867      0.453081      6.090327
  Cl     -5.587779     -1.184075     -2.132708
56
Coordinates from ORCA-job R4N+Cl-_r2 E -1372.331824005545
  N      -2.195065     -0.282260     -4.051535
  C       1.249952      1.106834      1.451584
  C       2.096461      0.048286      2.175647
  C       1.298581     -1.135935      2.744753
  C       0.424198      0.508983      0.334278
  C       2.145681      2.247408      0.935081
  C      -1.947411     -1.199095     -2.846446
  C      -1.118755     -0.589077     -1.757277
  C       0.196550     -0.688225      3.682502
  C       1.032050     -0.187130     -0.716827
  C      -0.966301      0.640252      0.322510
  C       2.242401     -2.125089      3.440072
  C      -2.902885      0.971501     -3.631616
  C      -3.075000     -1.036790     -5.006754
  C      -0.910379      0.071506     -4.733649
  C       0.272955     -0.730875     -1.745369
  C      -1.730429      0.095474     -0.704432
  C       1.363344      3.391555      0.297992
  C      -1.132472     -1.046492      3.443409
  C       0.482162      0.087656      4.812298
  C      -2.152126     -0.640456      4.303118
  C      -0.532535      0.495746      5.672993
  C      -1.855757      0.134284      5.421103
  H       0.548397      1.539475      2.179652
  H       2.643580      0.541817      2.990488
  H       2.855331     -0.346330      1.486208
  H       0.818700     -1.656682      1.904640
  H       2.865344      1.838074      0.212634
  H       2.732618      2.627914      1.781549
  H      -1.464682     -2.090120     -3.258313
  H      -2.948011     -1.454554     -2.478125
  H       2.111843     -0.313671     -0.728605
  H      -1.458011      1.167765      1.136774
  H       1.693430     -2.992531      3.822076
  H       2.753629     -1.648209      4.284447
  H       3.006174     -2.483646      2.740577
  H      -3.817124      0.686806     -3.101954
  H      -3.139540      1.542686     -4.531966
  H      -2.244159      1.553858     -2.985699
  H      -4.014039     -1.266926     -4.495322
  H      -2.561667     -1.953987     -5.303609
  H      -3.256919     -0.407377     -5.880068
  H      -1.146481      0.669638     -5.616454
  H      -0.401659     -0.849707     -5.025740
  H      -0.288661      0.649887     -4.048698
  H       0.762726     -1.280018     -2.546134
  H      -2.813278      0.195909     -0.688745
  H       0.626591      3.801429      0.999257
  H       0.823298      3.058756     -0.595653
  H       2.031780      4.206068     -0.000806
  H      -1.371561     -1.647000      2.568120
  H       1.508923      0.379508      5.020958
  H      -3.179489     -0.928810      4.096373
  H      -0.290719      1.099679      6.543734
  H      -2.648076      0.454399      6.092146
  Cl     -5.586381     -1.183072     -2.131770
56
Coordinates from ORCA-job R4N+Cl-_r2 E -1372.331824658853
  N      -2.194562     -0.281899     -4.052257
  C       1.248726      1.106199      1.451613
  C       2.096093      0.048456      2.175778
  C       1.299024     -1.136078      2.745527
  C       0.423377      0.507785      0.334307
  C       2.143555      2.247392      0.934756
  C      -1.947267     -1.199414     -2.847540
  C      -1.119075     -0.589860     -1.757839
  C       0.197242     -0.688320      3.683576
  C       1.031459     -0.188847     -0.716300
  C      -0.967113      0.639614      0.321862
  C       2.243598     -2.124617      3.440601
  C      -2.900911      0.972561     -3.632137
  C      -3.075414     -1.035275     -5.007552
  C      -0.909551      0.070693     -4.734462
  C       0.272578     -0.732357     -1.745157
  C      -1.731008      0.095032     -0.705352
  C       1.360325      3.390833      0.297590
  C      -1.132076     -1.045259      3.444024
  C       0.483396      0.086641      4.813875
  C      -2.151506     -0.638807      4.303840
  C      -0.531079      0.495125      5.674680
  C      -1.854595      0.134987      5.422352
  H       0.546937      1.538390      2.179720
  H       2.643064      0.542522      2.990409
  H       2.855136     -0.345950      1.486398
  H       0.818994     -1.657135      1.905694
  H       2.863446      1.838279      0.212401
  H       2.730313      2.628521      1.781077
  H      -1.464598     -2.090183     -3.260018
  H      -2.947985     -1.455182     -2.479653
  H       2.111203     -0.315878     -0.727510
  H      -1.458947      1.167516      1.135804
  H       1.695160     -2.992170      3.823162
  H       2.755214     -1.647413      4.284560
  H       3.007105     -2.483215      2.740823
  H      -3.815063      0.689021     -3.101664
  H      -3.138054      1.543644     -4.532411
  H      -2.241367      1.554518     -2.986691
  H      -4.014305     -1.265106     -4.495636
  H      -2.563124     -1.952856     -5.305022
  H      -3.257501     -0.405207     -5.880345
  H      -1.144872      0.670073     -5.616631
  H      -0.402194     -0.850946     -5.027592
  H      -0.286726      0.647440     -4.049124
  H       0.762318     -1.281812     -2.545735
  H      -2.813823      0.195943     -0.690170
  H       0.623660      3.800605      0.999030
  H       0.819968      3.057596     -0.595721
  H       2.028100      4.205707     -0.001753
  H      -1.371524     -1.645058      2.568347
  H       1.510416      0.377430      5.022772
  H      -3.179097     -0.926123      4.096764
  H      -0.288840      1.098308      6.545827
  H      -2.646716      0.455398      6.093495
  Cl     -5.584380     -1.182170     -2.130989
56
Coordinates from ORCA-job R4N+Cl-_r2 E -1372.331825192754
  N      -2.193969     -0.281437     -4.052914
  C       1.247595      1.105590      1.451658
  C       2.095796      0.048669      2.175938
  C       1.299595     -1.136173      2.746351
  C       0.422549      0.506635      0.334460
  C       2.141537      2.247379      0.934506
  C      -1.947475     -1.199593     -2.848300
  C      -1.119521     -0.590587     -1.758196
  C       0.197957     -0.688483      3.684578
  C       1.030825     -0.190335     -0.715830
  C      -0.967940      0.638842      0.321546
  C       2.244985     -2.124043      3.441203
  C      -2.898749      0.973796     -3.632562
  C      -3.075892     -1.033667     -5.008178
  C      -0.908657      0.069753     -4.735153
  C       0.272097     -0.733623     -1.744939
  C      -1.731677      0.094474     -0.705915
  C       1.357540      3.389857      0.296574
  C      -1.131544     -1.044623      3.444709
  C       0.484419      0.085950      4.815187
  C      -2.150874     -0.637884      4.304555
  C      -0.529958      0.494700      5.676022
  C      -1.853658      0.135367      5.423390
  H       0.545579      1.537402      2.179788
  H       2.642626      0.543305      2.990332
  H       2.854968     -0.345531      1.486565
  H       0.819503     -1.657652      1.906805
  H       2.861965      1.838442      0.212565
  H       2.727736      2.629393      1.780817
  H      -1.465072     -2.090366     -3.261071
  H      -2.948491     -1.455036     -2.480933
  H       2.110538     -0.317689     -0.726611
  H      -1.459846      1.166935      1.135325
  H       1.697118     -2.991742      3.824289
  H       2.756874     -1.646427      4.284772
  H       3.008282     -2.482592      2.741167
  H      -3.813175      0.691500     -3.101849
  H      -3.135865      1.545090     -4.532711
  H      -2.238537      1.555101     -2.987218
  H      -4.014614     -1.263136     -4.495696
  H      -2.564654     -1.951609     -5.306334
  H      -3.258213     -0.402948     -5.880446
  H      -1.143217      0.670005     -5.616944
  H      -0.402560     -0.852356     -5.029004
  H      -0.284761      0.645202     -4.049683
  H       0.761738     -1.283283     -2.545446
  H      -2.814457      0.195828     -0.691211
  H       0.620015      3.799036      0.997476
  H       0.818016      3.055916     -0.596994
  H       2.024590      4.205395     -0.002588
  H      -1.371182     -1.643994      2.568791
  H       1.511599      0.376085      5.024220
  H      -3.178601     -0.924561      4.097264
  H      -0.287512      1.097452      6.547412
  H      -2.645671      0.455976      6.094568
  Cl     -5.582570     -1.180614     -2.130705
56
Coordinates from ORCA-job R4N+Cl-_r2 E -1372.331825658355
  N      -2.193304     -0.280932     -4.053467
  C       1.246569      1.105043      1.451686
  C       2.095537      0.048880      2.176064
  C       1.300168     -1.136215      2.747136
  C       0.421699      0.505583      0.334689
  C       2.139692      2.247340      0.934237
  C      -1.947927     -1.199687     -2.848814
  C      -1.120041     -0.591311     -1.758369
  C       0.198621     -0.688660      3.685478
  C       1.030150     -0.191484     -0.715476
  C      -0.968793      0.637872      0.321542
  C       2.246352     -2.123424      3.441819
  C      -2.896494      0.975082     -3.632803
  C      -3.076335     -1.032033     -5.008663
  C      -0.907725      0.068803     -4.735709
  C       0.271559     -0.734617     -1.744767
  C      -1.732398      0.093687     -0.706130
  C       1.355037      3.388728      0.295117
  C      -1.130955     -1.044530      3.445545
  C       0.485226      0.085644      4.816168
  C      -2.150238     -0.637638      4.305405
  C      -0.529102      0.494530      5.677015
  C      -1.852882      0.135479      5.424317
  H       0.544371      1.536585      2.179823
  H       2.642264      0.544087      2.990191
  H       2.854762     -0.345139      1.486639
  H       0.820047     -1.658189      1.907898
  H       2.860789      1.838547      0.212861
  H       2.725152      2.630371      1.780594
  H      -1.465857     -2.090629     -3.261609
  H      -2.949371     -1.454384     -2.482089
  H       2.109858     -0.318905     -0.726010
  H      -1.460763      1.165947      1.135298
  H       1.699049     -2.991255      3.825425
  H       2.758438     -1.645324      4.285002
  H       3.009466     -2.481867      2.741539
  H      -3.811463      0.694063     -3.102322
  H      -3.133005      1.546900     -4.532791
  H      -2.235660      1.555479     -2.987282
  H      -4.014943     -1.261053     -4.495704
  H      -2.566031     -1.950273     -5.307496
  H      -3.258731     -0.400719     -5.880486
  H      -1.141639      0.669602     -5.617315
  H      -0.402755     -0.853789     -5.029999
  H      -0.282900      0.643291     -4.050275
  H       0.761145     -1.284322     -2.545283
  H      -2.815156      0.195304     -0.691818
  H       0.616097      3.797044      0.995042
  H       0.817054      3.053889     -0.599054
  H       2.021392      4.205052     -0.003433
  H      -1.370684     -1.643777      2.569568
  H       1.512473      0.375546      5.025190
  H      -3.178023     -0.924086      4.098091
  H      -0.286592      1.097174      6.548463
  H      -2.644837      0.456194      6.095512
  Cl     -5.581234     -1.178414     -2.130782
56
Coordinates from ORCA-job R4N+Cl-_r2 E -1372.331826063975
  N      -2.192706     -0.280477     -4.053816
  C       1.245802      1.104643      1.451663
  C       2.095338      0.049032      2.176109
  C       1.300580     -1.136199      2.747716
  C       0.420970      0.504769      0.334908
  C       2.138313      2.247259      0.933895
  C      -1.948428     -1.199736     -2.849120
  C      -1.120500     -0.591975     -1.758391
  C       0.199083     -0.688778      3.686128
  C       1.029561     -0.192166     -0.715298
  C      -0.969526      0.636836      0.321767
  C       2.247349     -2.122884      3.442360
  C      -2.894561      0.976171     -3.632785
  C      -3.076636     -1.030612     -5.008985
  C      -0.906923      0.068090     -4.736048
  C       0.271098     -0.735251     -1.744691
  C      -1.733014      0.092753     -0.706049
  C       1.353159      3.387681      0.293582
  C      -1.130461     -1.044895      3.446423
  C       0.485697      0.085779      4.816662
  C      -2.149715     -0.637997      4.306313
  C      -0.528597      0.494667      5.677537
  C      -1.852357      0.135379      5.425050
  H       0.543514      1.536073      2.179794
  H       2.642038      0.544697      2.989976
  H       2.854527     -0.344884      1.486588
  H       0.820443     -1.658631      1.908759
  H       2.859981      1.838557      0.213028
  H       2.723130      2.631200      1.780276
  H      -1.466648     -2.090889     -3.261805
  H      -2.950306     -1.453578     -2.483034
  H       2.109288     -0.319398     -0.725787
  H      -1.461564      1.164738      1.135595
  H       1.700481     -2.990793      3.826395
  H       2.759529     -1.644324      4.285227
  H       3.010343     -2.481214      2.741905
  H      -3.810144      0.696233     -3.102799
  H      -3.130078      1.548685     -4.532609
  H      -2.233176      1.555582     -2.986941
  H      -4.015207     -1.259242     -4.495770
  H      -2.566943     -1.948998     -5.308416
  H      -3.258908     -0.398815     -5.880492
  H      -1.140405      0.669151     -5.617599
  H      -0.402793     -0.854903     -5.030516
  H      -0.281477      0.642004     -4.050701
  H       0.760737     -1.284836     -2.545256
  H      -2.815774      0.194362     -0.691976
  H       0.612811      3.795191      0.992485
  H       0.816781      3.051959     -0.601224
  H       2.018991      4.204662     -0.004300
  H      -1.370211     -1.644324      2.570578
  H       1.512921      0.375872      5.025512
  H      -3.177485     -0.924627      4.099186
  H      -0.286120      1.097510      6.548854
  H      -2.644285      0.456103      6.096266
  Cl     -5.580388     -1.176117     -2.130728
56
Coordinates from ORCA-job R4N+Cl-_r2 E -1372.331826470024
  N      -2.192253     -0.280080     -4.053943
  C       1.245339      1.104386      1.451571
  C       2.095216      0.049097      2.176073
  C       1.300786     -1.136138      2.748061
  C       0.420442      0.504179      0.335062
  C       2.137466      2.247117      0.933442
  C      -1.948835     -1.199771     -2.849310
  C      -1.120821     -0.592576     -1.758328
  C       0.199301     -0.688800      3.686501
  C       1.029131     -0.192483     -0.715283
  C      -0.970062      0.635816      0.322103
  C       2.247862     -2.122467      3.442837
  C      -2.893135      0.976992     -3.632511
  C      -3.076773     -1.029437     -5.009186
  C      -0.906321      0.067750     -4.736152
  C       0.270786     -0.735606     -1.744715
  C      -1.733444      0.091758     -0.705792
  C       1.351948      3.386795      0.292162
  C      -1.130125     -1.045593      3.447259
  C       0.485810      0.086331      4.816667
  C      -2.149364     -0.638808      4.307197
  C      -0.528460      0.495112      5.677588
  C      -1.852113      0.135151      5.425544
  H       0.543055      1.535850      2.179688
  H       2.641971      0.545078      2.989704
  H       2.854300     -0.344813      1.486445
  H       0.820651     -1.658936      1.909329
  H       2.859501      1.838439      0.212932
  H       2.721868      2.631766      1.779779
  H      -1.467277     -2.091086     -3.261914
  H      -2.951073     -1.452876     -2.483762
  H       2.108896     -0.319356     -0.725876
  H      -1.462170      1.163475      1.136044
  H       1.701248     -2.990393      3.827166
  H       2.760007     -1.643522      4.285502
  H       3.010836     -2.480714      2.742331
  H      -3.809270      0.697823     -3.103105
  H      -3.127506      1.550259     -4.532169
  H      -2.231301      1.555457     -2.986270
  H      -4.015348     -1.257886     -4.495928
  H      -2.567336     -1.947785     -5.309183
  H      -3.258827     -0.397232     -5.880452
  H      -1.139565      0.668891     -5.617712
  H      -0.402708     -0.855519     -5.030620
  H      -0.280589      0.641403     -4.050857
  H       0.760579     -1.284953     -2.545344
  H      -2.816226      0.193119     -0.691813
  H       0.610535      3.793754      0.990241
  H       0.816822      3.050309     -0.603104
  H       2.017453      4.204195     -0.005259
  H      -1.369832     -1.645467      2.571708
  H       1.512939      0.376971      5.025210
  H      -3.177055     -0.925966      4.100425
  H      -0.286085      1.098414      6.548613
  H      -2.644041      0.455805      6.096789
  Cl     -5.579703     -1.174135     -2.129978
56
Coordinates from ORCA-job R4N+Cl-_r2 E -1372.331826982961
  N      -2.191939     -0.279678     -4.053859
  C       1.245159      1.104217      1.451389
  C       2.095196      0.049083      2.175972
  C       1.300841     -1.136033      2.748226
  C       0.420121      0.503696      0.335144
  C       2.137072      2.246887      0.932805
  C      -1.949125     -1.199806     -2.849453
  C      -1.121007     -0.593170     -1.758217
  C       0.199295     -0.688726      3.686616
  C       1.028864     -0.192610     -0.715398
  C      -0.970399      0.634766      0.322505
  C       2.247961     -2.122118      3.443361
  C      -2.892143      0.977633     -3.631978
  C      -3.076783     -1.028352     -5.009314
  C      -0.905881      0.067800     -4.736019
  C       0.270615     -0.735825     -1.744825
  C      -1.733690      0.090682     -0.705415
  C       1.351259      3.385988      0.290774
  C      -1.129913     -1.046674      3.448049
  C       0.485542      0.087354      4.816183
  C      -2.149184     -0.640123      4.308022
  C      -0.528750      0.495917      5.677134
  C      -1.852194      0.134792      5.425752
  H       0.542966      1.535848      2.179485
  H       2.642079      0.545270      2.989378
  H       2.854122     -0.344925      1.486246
  H       0.820760     -1.659136      1.909659
  H       2.859283      1.838154      0.212517
  H       2.721289      2.632101      1.779006
  H      -1.467766     -2.091209     -3.262104
  H      -2.951638     -1.452333     -2.484320
  H       2.108678     -0.319025     -0.726203
  H      -1.462572      1.162157      1.136578
  H       1.701432     -2.990015      3.827834
  H       2.759889     -1.642836      4.285956
  H       3.011062     -2.480317      2.742977
  H      -3.808771      0.698946     -3.103217
  H      -3.125261      1.551729     -4.531442
  H      -2.229977      1.555159     -2.985217
  H      -4.015370     -1.256890     -4.496178
  H      -2.567327     -1.946490     -5.309948
  H      -3.258621     -0.395729     -5.880330
  H      -1.139001      0.668906     -5.617629
  H      -0.402508     -0.855634     -5.030349
  H      -0.280151      0.641417     -4.050706
  H       0.760641     -1.284847     -2.545526
  H      -2.816512      0.191618     -0.691425
  H       0.609178      3.792699      0.988268
  H       0.816936      3.048818     -0.604711
  H       2.016581      4.203577     -0.006502
  H      -1.369471     -1.647287      2.572964
  H       1.512492      0.378934      5.024282
  H      -3.176720     -0.928192      4.101758
  H      -0.286579      1.099974      6.547690
  H      -2.644170      0.455289      6.097010
  Cl     -5.578761     -1.172337     -2.127854
56
Coordinates from ORCA-job R4N+Cl-_r2 E -1372.331827752383
  N      -2.191790     -0.279276     -4.053509
  C       1.245344      1.104182      1.451099
  C       2.095342      0.049045      2.175819
  C       1.300799     -1.135846      2.748165
  C       0.420082      0.503342      0.335156
  C       2.137212      2.246594      0.931921
  C      -1.949317     -1.199822     -2.849476
  C      -1.121062     -0.593721     -1.758012
  C       0.199036     -0.688569      3.686355
  C       1.028793     -0.192626     -0.715594
  C      -0.970461      0.633813      0.322962
  C       2.247659     -2.121793      3.443944
  C      -2.891605      0.978125     -3.631207
  C      -3.076689     -1.027367     -5.009314
  C      -0.905598      0.068183     -4.735588
  C       0.270575     -0.735980     -1.744956
  C      -1.733719      0.089657     -0.704908
  C       1.351165      3.385305      0.289409
  C      -1.129811     -1.048316      3.448628
  C       0.484735      0.088903      4.815072
  C      -2.149243     -0.642203      4.308573
  C      -0.529713      0.497050      5.675996
  C      -1.852798      0.134108      5.425450
  H       0.543338      1.536129      2.179166
  H       2.642410      0.545320      2.989033
  H       2.854094     -0.345153      1.486028
  H       0.820899     -1.659178      1.909652
  H       2.859366      1.837695      0.211693
  H       2.721528      2.632224      1.777861
  H      -1.468204     -2.091272     -3.262316
  H      -2.952015     -1.451918     -2.484574
  H       2.108658     -0.318575     -0.726697
  H      -1.462657      1.160977      1.137162
  H       1.701023     -2.989652      3.828310
  H       2.759068     -1.642241      4.286693
  H       3.011137     -2.479945      2.743946
  H      -3.808698      0.699630     -3.103197
  H      -3.123343      1.553108     -4.530459
  H      -2.229295      1.554709     -2.983721
  H      -4.015282     -1.256297     -4.496449
  H      -2.566996     -1.945149     -5.310663
  H      -3.258383     -0.394311     -5.880049
  H      -1.138656      0.669070     -5.617351
  H      -0.402165     -0.855328     -5.029541
  H      -0.280168      0.642040     -4.050213
  H       0.760873     -1.284657     -2.545716
  H      -2.816591      0.190076     -0.690812
  H       0.608969      3.792187      0.986657
  H       0.816996      3.047537     -0.605944
  H       2.016450      4.202797     -0.008204
  H      -1.369003     -1.650012      2.574186
  H       1.511380      0.381946      5.022610
  H      -3.176505     -0.931691      4.102936
  H      -0.287945      1.102219      6.545890
  H      -2.644931      0.454291      6.096670
  Cl     -5.577157     -1.170271     -2.123165
56
Coordinates from ORCA-job R4N+Cl-_r2 E -1372.331828927942
  N      -2.191871     -0.278872     -4.052871
  C       1.245992      1.104261      1.450691
  C       2.095753      0.048995      2.175639
  C       1.300772     -1.135591      2.747881
  C       0.420421      0.503103      0.335095
  C       2.137992      2.246214      0.930781
  C      -1.949437     -1.199785     -2.849321
  C      -1.121013     -0.594147     -1.757697
  C       0.198531     -0.688373      3.685609
  C       1.028958     -0.192677     -0.715825
  C      -0.970150      0.633129      0.323425
  C       2.247057     -2.121451      3.444667
  C      -2.891744      0.978418     -3.630281
  C      -3.076441     -1.026560     -5.009204
  C      -0.905506      0.068968     -4.734744
  C       0.270630     -0.736160     -1.745047
  C      -1.733502      0.088900     -0.704303
  C       1.351797      3.384792      0.288169
  C      -1.129767     -1.050684      3.448789
  C       0.483245      0.091034      4.813197
  C      -2.149597     -0.645243      4.308545
  C      -0.531603      0.498542      5.673933
  C      -1.854129      0.133001      5.424316
  H       0.544270      1.536672      2.178727
  H       2.643031      0.545244      2.988715
  H       2.854360     -0.345480      1.485857
  H       0.821281     -1.659097      1.909264
  H       2.859810      1.837007      0.210415
  H       2.722750      2.632063      1.776320
  H      -1.468644     -2.091241     -3.262514
  H      -2.952188     -1.451682     -2.484392
  H       2.108856     -0.318320     -0.727277
  H      -1.462275      1.160199      1.137724
  H       1.700117     -2.989305      3.828589
  H       2.757518     -1.641697      4.287869
  H       3.011266     -2.479545      2.745425
  H      -3.809379      0.699676     -3.103361
  H      -3.121909      1.554362     -4.529309
  H      -2.229750      1.554061     -2.981598
  H      -4.015050     -1.256236     -4.496803
  H      -2.566330     -1.943882     -5.311272
  H      -3.258146     -0.393078     -5.879625
  H      -1.138523      0.669339     -5.616852
  H      -0.401565     -0.854495     -5.027948
  H      -0.280778      0.643464     -4.049273
  H       0.761143     -1.284572     -2.545848
  H      -2.816420      0.188883     -0.690019
  H       0.610267      3.792414      0.985678
  H       0.816838      3.046583     -0.606554
  H       2.017194      4.201829     -0.010454
  H      -1.368247     -1.653870      2.575175
  H       1.509423      0.386158      5.020103
  H      -3.176424     -0.936752      4.103586
  H      -0.290555      1.105255      6.542949
  H      -2.646604      0.452686      6.095371
  Cl     -5.574592     -1.167362     -2.114704
56
Coordinates from ORCA-job R4N+Cl-_r2 E -1372.331830395422
  N      -2.192224     -0.278710     -4.052148
  C       1.246992      1.104499      1.450314
  C       2.096390      0.049029      2.175503
  C       1.300910     -1.135347      2.747388
  C       0.421106      0.503182      0.334998
  C       2.139288      2.245937      0.929810
  C      -1.949553     -1.199649     -2.848863
  C      -1.120964     -0.594121     -1.757291
  C       0.197968     -0.688298      3.684439
  C       1.029297     -0.192844     -0.715910
  C      -0.969476      0.633332      0.323683
  C       2.246505     -2.121166      3.445225
  C      -2.892785      0.978288     -3.629780
  C      -3.076021     -1.026512     -5.009013
  C      -0.905647      0.069777     -4.733635
  C       0.270656     -0.736366     -1.744917
  C      -1.733120      0.089090     -0.703813
  C       1.353147      3.384840      0.287735
  C      -1.129738     -1.053156      3.448118
  C       0.481423      0.092924      4.811055
  C      -2.150194     -0.648474      4.307487
  C      -0.534068      0.499698      5.671409
  C      -1.855974      0.131576      5.422336
  H       0.545563      1.537355      2.178346
  H       2.643775      0.545125      2.988596
  H       2.855000     -0.345662      1.485836
  H       0.822030     -1.658905      1.908470
  H       2.860502      1.836358      0.209063
  H       2.724788      2.631605      1.774932
  H      -1.469066     -2.091135     -3.262342
  H      -2.952189     -1.451683     -2.483598
  H       2.109176     -0.318674     -0.727592
  H      -1.461381      1.160623      1.137976
  H       1.699186     -2.989123      3.828384
  H       2.755772     -1.641373      4.289131
  H       3.011669     -2.479137      2.746942
  H      -3.811067      0.698831     -3.104324
  H      -3.121483      1.554922     -4.528718
  H      -2.231836      1.553326     -2.979470
  H      -4.014734     -1.256958     -4.497226
  H      -2.565498     -1.943545     -5.311270
  H      -3.257863     -0.392909     -5.879307
  H      -1.138588      0.669284     -5.616337
  H      -0.400739     -0.853517     -5.025698
  H      -0.281930      0.645317     -4.048116
  H       0.761116     -1.284864     -2.545689
  H      -2.816040      0.189106     -0.689330
  H       0.613162      3.793687      0.986171
  H       0.816330      3.046648     -0.605897
  H       2.018806      4.201110     -0.012441
  H      -1.367249     -1.657718      2.575185
  H       1.507093      0.390095      5.017573
  H      -3.176530     -0.941979      4.102902
  H      -0.293945      1.107864      6.539666
  H      -2.648954      0.450675      6.093080
  Cl     -5.571663     -1.163186     -2.103622
56
Coordinates from ORCA-job R4N+Cl-_r2 E -1372.331831821626
  N      -2.192685     -0.279019     -4.051815
  C       1.247795      1.104797      1.450194
  C       2.096927      0.049179      2.175472
  C       1.301228     -1.135276      2.746896
  C       0.421752      0.503631      0.334918
  C       2.140406      2.245968      0.929622
  C      -1.949677     -1.199482     -2.848267
  C      -1.121049     -0.593523     -1.756987
  C       0.197694     -0.688483      3.683384
  C       1.029565     -0.193100     -0.715731
  C      -0.968805      0.634617      0.323509
  C       2.246456     -2.121087      3.445199
  C      -2.894437      0.977610     -3.630304
  C      -3.075464     -1.027613     -5.008945
  C      -0.905923      0.070101     -4.732779
  C       0.270521     -0.736525     -1.744536
  C      -1.732846      0.090447     -0.703771
  C       1.354557      3.385633      0.288651
  C      -1.129710     -1.054368      3.446705
  C       0.480258      0.093314      4.809824
  C      -2.150738     -0.650128      4.305643
  C      -0.535833      0.499650      5.669751
  C      -1.857402      0.130488      5.420369
  H       0.546498      1.537803      2.178268
  H       2.644199      0.545073      2.988775
  H       2.855742     -0.345489      1.485989
  H       0.822880     -1.658729      1.907607
  H       2.860991      1.836161      0.208360
  H       2.726631      2.631010      1.774542
  H      -1.469239     -2.091021     -3.261684
  H      -2.952082     -1.452003     -2.482579
  H       2.109363     -0.319683     -0.727348
  H      -1.460410      1.162429      1.137653
  H       1.698940     -2.989261      3.827639
  H       2.754897     -1.641466      4.289719
  H       3.012312     -2.478877      2.747565
  H      -3.813422      0.697229     -3.106466
  H      -3.122179      1.554349     -4.529400
  H      -2.235118      1.552652     -2.978361
  H      -4.014429     -1.258341     -4.497757
  H      -2.564746     -1.944778     -5.310434
  H      -3.257409     -0.394429     -5.879509
  H      -1.138752      0.668670     -5.616148
  H      -0.399902     -0.852952     -5.023707
  H      -0.283153      0.646735     -4.047307
  H       0.760578     -1.285563     -2.545194
  H      -2.815705      0.191138     -0.689197
  H       0.616395      3.795608      0.988385
  H       0.815541      3.048078     -0.603912
  H       2.020523      4.201173     -0.012873
  H      -1.366472     -1.659334      2.573844
  H       1.505664      0.391286      5.016521
  H      -3.176799     -0.944421      4.100794
  H      -0.296371      1.108283      6.537868
  H      -2.650813      0.449225      6.090783
  Cl     -5.569613     -1.158295     -2.094035
56
Coordinates from ORCA-job R4N+Cl-_r2 E -1372.331832819162
  N      -2.192965     -0.279795     -4.052149
  C       1.247870      1.105075      1.450425
  C       2.096973      0.049406      2.175540
  C       1.301475     -1.135425      2.746575
  C       0.421942      0.504354      0.334871
  C       2.140671      2.246404      0.930457
  C      -1.949676     -1.199435     -2.847862
  C      -1.121182     -0.592627     -1.756996
  C       0.197814     -0.688882      3.682977
  C       1.029606     -0.193110     -0.715420
  C      -0.968563      0.636366      0.322932
  C       2.246896     -2.121307      3.444399
  C      -2.895754      0.976613     -3.631728
  C      -3.075068     -1.029542     -5.009004
  C      -0.906198      0.069555     -4.732821
  C       0.270344     -0.736406     -1.744145
  C      -1.732842      0.092275     -0.704274
  C       1.355231      3.386900      0.290595
  C      -1.129791     -1.053446      3.445165
  C       0.480422      0.091673      4.810301
  C      -2.150991     -0.649081      4.303892
  C      -0.535856      0.498109      5.670020
  C      -1.857609      0.130291      5.419517
  H       0.546445      1.537816      2.178562
  H       2.643925      0.545128      2.989181
  H       2.856105     -0.344952      1.486204
  H       0.823259     -1.658627      1.907036
  H       2.860956      1.836686      0.208815
  H       2.727179      2.630642      1.775552
  H      -1.468877     -2.091004     -3.260806
  H      -2.951857     -1.452534     -2.481945
  H       2.109311     -0.320531     -0.726693
  H      -1.459990      1.164691      1.136864
  H       1.699503     -2.989709      3.826552
  H       2.755399     -1.642020      4.289086
  H       3.012745     -2.478905      2.746657
  H      -3.815214      0.695688     -3.108904
  H      -3.123409      1.552820     -4.531190
  H      -2.237741      1.552246     -2.979035
  H      -4.014317     -1.259789     -4.498075
  H      -2.564461     -1.947226     -5.309034
  H      -3.256969     -0.397222     -5.880198
  H      -1.139007      0.667604     -5.616562
  H      -0.399560     -0.853330     -5.023257
  H      -0.283751      0.646755     -4.047518
  H       0.759894     -1.286144     -2.544648
  H      -2.815619      0.193831     -0.689789
  H       0.618057      3.797158      0.991237
  H       0.815038      3.050332     -0.601628
  H       2.021411      4.202198     -0.011137
  H      -1.366501     -1.657430      2.571610
  H       1.505999      0.388543      5.017750
  H      -3.177186     -0.942316      4.098193
  H      -0.296371      1.105761      6.538821
  H      -2.651118      0.449094      6.089787
  Cl     -5.568894     -1.154127     -2.089349
56
Coordinates from ORCA-job R4N+Cl-_r2 E -1372.331833344689
  N      -2.192996     -0.280663     -4.052865
  C       1.247367      1.105297      1.450810
  C       2.096539      0.049550      2.175608
  C       1.301351     -1.135672      2.746391
  C       0.421701      0.505104      0.334823
  C       2.140269      2.246979      0.931726
  C      -1.949479     -1.199517     -2.847818
  C      -1.121215     -0.591855     -1.757283
  C       0.198041     -0.689235      3.683191
  C       1.029491     -0.192692     -0.715230
  C      -0.968752      0.637728      0.322279
  C       2.247210     -2.121793      3.443179
  C      -2.896422      0.975642     -3.633242
  C      -3.074822     -1.031463     -5.009178
  C      -0.906401      0.068703     -4.733555
  C       0.270300     -0.735947     -1.744007
  C      -1.732994      0.093645     -0.705001
  C       1.355188      3.388032      0.292485
  C      -1.130080     -1.051189      3.444231
  C       0.481488      0.089154      4.811838
  C      -2.150990     -0.646332      4.303096
  C      -0.534496      0.496050      5.671696
  C      -1.856774      0.130879      5.420020
  H       0.545697      1.537608      2.178992
  H       2.643179      0.545117      2.989563
  H       2.855901     -0.344434      1.486304
  H       0.822832     -1.658526      1.906791
  H       2.860621      1.837559      0.209961
  H       2.726615      2.630585      1.777217
  H      -1.468071     -2.091040     -3.260167
  H      -2.951540     -1.453032     -2.481934
  H       2.109147     -0.320534     -0.726130
  H      -1.460208      1.166295      1.136041
  H       1.700055     -2.990289      3.825482
  H       2.756491     -1.642894      4.287622
  H       3.012468     -2.479289      2.744750
  H      -3.816104      0.694605     -3.110805
  H      -3.124363      1.551203     -4.533065
  H      -2.239001      1.551987     -2.980627
  H      -4.014185     -1.261153     -4.498190
  H      -2.564212     -1.949528     -5.307981
  H      -3.256695     -0.399965     -5.880974
  H      -1.139361      0.666685     -5.617317
  H      -0.399644     -0.854085     -5.024119
  H      -0.283818      0.645978     -4.048432
  H       0.759577     -1.286139     -2.544374
  H      -2.815720      0.195700     -0.690707
  H       0.617836      3.797756      0.993265
  H       0.815251      3.052294     -0.600192
  H       2.021481      4.203556     -0.008372
  H      -1.367386     -1.653512      2.569695
  H       1.507509      0.383899      5.020114
  H      -3.177596     -0.937509      4.096531
  H      -0.294396      1.101977      6.541532
  H      -2.650028      0.450042      6.090419
  Cl     -5.568727     -1.152229     -2.088681
56
Coordinates from ORCA-job R4N+Cl-_r2 E -1372.331833600791
  N      -2.192914     -0.281426     -4.053592
  C       1.246746      1.105534      1.451154
  C       2.095910      0.049583      2.175613
  C       1.300853     -1.135872      2.746185
  C       0.421338      0.505809      0.334733
  C       2.139761      2.247517      0.932889
  C      -1.949125     -1.199649     -2.848009
  C      -1.121099     -0.591293     -1.757672
  C       0.198122     -0.689412      3.683619
  C       1.029386     -0.191930     -0.715242
  C      -0.969080      0.638555      0.321753
  C       2.247030     -2.122428      3.441879
  C      -2.896739      0.974806     -3.634456
  C      -3.074610     -1.033061     -5.009384
  C      -0.906555      0.067995     -4.734479
  C       0.270434     -0.735253     -1.744124
  C      -1.733113      0.094402     -0.705658
  C       1.354943      3.388885      0.293892
  C      -1.130548     -1.048805      3.443944
  C       0.482683      0.086890      4.813445
  C      -2.150924     -0.643448      4.303200
  C      -0.532750      0.494259      5.673700
  C      -1.855603      0.131677      5.421269
  H       0.544861      1.537476      2.179361
  H       2.642377      0.544945      2.989811
  H       2.855349     -0.344129      1.486249
  H       0.821811     -1.658295      1.906608
  H       2.860324      1.838430      0.211144
  H       2.725796      2.630689      1.778783
  H      -1.467096     -2.091072     -3.259861
  H      -2.951137     -1.453431     -2.482245
  H       2.109044     -0.319758     -0.725889
  H      -1.460701      1.167122      1.135413
  H       1.700001     -2.990874      3.824465
  H       2.757311     -1.643952      4.285949
  H       3.011504     -2.479928      2.742606
  H      -3.816497      0.693816     -3.112117
  H      -3.124853      1.549904     -4.534555
  H      -2.239469      1.551716     -2.982217
  H      -4.013931     -1.262507     -4.498232
  H      -2.563727     -1.951199     -5.307480
  H      -3.256534     -0.402168     -5.881612
  H      -1.139766      0.666065     -5.618123
  H      -0.399843     -0.854726     -5.025340
  H      -0.283776      0.645212     -4.049486
  H       0.759731     -1.285576     -2.544392
  H      -2.815833      0.196490     -0.691545
  H       0.616853      3.797804      0.994358
  H       0.815955      3.053702     -0.599548
  H       2.021321      4.204787     -0.005725
  H      -1.368706     -1.649547      2.568561
  H       1.509176      0.379577      5.022283
  H      -3.177984     -0.932621      4.096088
  H      -0.291818      1.098522      6.544464
  H      -2.648431      0.451219      6.091989
  Cl     -5.568329     -1.151930     -2.089018
56
Coordinates from ORCA-job R4N+Cl-_r2 E -1372.331833711507
  N      -2.192861     -0.281790     -4.054067
  C       1.246346      1.105601      1.451317
  C       2.095415      0.049416      2.175567
  C       1.300271     -1.136025      2.746076
  C       0.421110      0.506149      0.334604
  C       2.139483      2.247723      0.933560
  C      -1.948710     -1.199776     -2.848382
  C      -1.120880     -0.591086     -1.758058
  C       0.198041     -0.689383      3.684014
  C       1.029398     -0.191250     -0.715461
  C      -0.969312      0.638630      0.321485
  C       2.246511     -2.122974      3.441129
  C      -2.897019      0.974274     -3.634998
  C      -3.074409     -1.033865     -5.009649
  C      -0.906702      0.067952     -4.735118
  C       0.270691     -0.734643     -1.744462
  C      -1.733115      0.094405     -0.706052
  C       1.354812      3.389208      0.294563
  C      -1.130973     -1.047390      3.444279
  C       0.483438      0.085915      4.814322
  C      -2.150869     -0.641662      4.303917
  C      -0.531501      0.493654      5.674950
  C      -1.854714      0.132454      5.422443
  H       0.544351      1.537353      2.179528
  H       2.641911      0.544602      2.989846
  H       2.854778     -0.344249      1.486106
  H       0.820767     -1.658143      1.906576
  H       2.860243      1.838863      0.211890
  H       2.725273      2.630683      1.779713
  H      -1.466223     -2.091015     -3.260101
  H      -2.950675     -1.453839     -2.482709
  H       2.109088     -0.318773     -0.726052
  H      -1.461125      1.167002      1.135154
  H       1.699436     -2.991257      3.823998
  H       2.757544     -1.644765      4.284885
  H       3.010387     -2.480621      2.741286
  H      -3.816790      0.693171     -3.112768
  H      -3.125055      1.549316     -4.535164
  H      -2.239801      1.551405     -2.982911
  H      -4.013597     -1.263531     -4.498379
  H      -2.563087     -1.951779     -5.307684
  H      -3.256498     -0.403172     -5.881993
  H      -1.140173      0.666159     -5.618598
  H      -0.399929     -0.854646     -5.026252
  H      -0.283911      0.645140     -4.050111
  H       0.760200     -1.284768     -2.544732
  H      -2.815864      0.196189     -0.692022
  H       0.616012      3.797520      0.994620
  H       0.816732      3.054273     -0.599503
  H       2.021257      4.205399     -0.004101
  H      -1.369803     -1.647383      2.568566
  H       1.510221      0.377511      5.023247
  H      -3.178218     -0.929764      4.096756
  H      -0.289933      1.097108      6.546095
  H      -2.647170      0.452285      6.093460
  Cl     -5.567670     -1.152720     -2.089222
