80
Final coordinates from ORCA output R4N+PFOA-_wb; final energy evaluation interrupted
N         5.455728000000       0.693403000000       2.476671000000
C         3.421575000000      -4.150803000000      -1.586545000000
C         4.275711000000      -4.621563000000      -2.768734000000
C         4.547317000000      -3.555969000000      -3.838644000000
C         4.036039000000      -2.957279000000      -0.887190000000
C         3.139937000000      -5.302083000000      -0.614360000000
C         5.767268000000       0.511481000000       1.002546000000
C         5.165897000000      -0.706837000000       0.366026000000
C         3.271626000000      -2.957641000000      -4.398081000000
C         3.361546000000      -1.742708000000      -0.848085000000
C         5.293439000000      -3.027638000000      -0.288473000000
C         5.424654000000      -4.129093000000      -4.951510000000
C         3.986262000000       0.747044000000       2.712408000000
C         6.058283000000       1.987009000000       2.900827000000
C         6.044012000000      -0.405501000000       3.285843000000
C         3.917401000000      -0.629354000000      -0.239965000000
C         5.851593000000      -1.919267000000       0.327186000000
C         2.123296000000      -4.946798000000       0.461262000000
C         2.305171000000      -3.756465000000      -5.008729000000
C         3.033854000000      -1.588850000000      -4.314164000000
C         1.139117000000      -3.203419000000      -5.515921000000
C         1.864966000000      -1.029728000000      -4.815159000000
C         0.911747000000      -1.836420000000      -5.417940000000
H         2.456099000000      -3.821799000000      -1.984425000000
H         3.776401000000      -5.478584000000      -3.233051000000
H         5.238125000000      -4.992005000000      -2.399191000000
H         5.101219000000      -2.737998000000      -3.367157000000
H         4.077888000000      -5.627437000000      -0.151381000000
H         2.770478000000      -6.154259000000      -1.193322000000
H         6.854573000000       0.495117000000       0.935608000000
H         5.398591000000       1.414261000000       0.516930000000
H         2.390034000000      -1.663205000000      -1.318916000000
H         5.853098000000      -3.956648000000      -0.311541000000
H         5.658979000000      -3.369345000000      -5.700680000000
H         4.927158000000      -4.959148000000      -5.460502000000
H         6.367871000000      -4.503592000000      -4.545623000000
H         3.555750000000      -0.226044000000       2.493357000000
H         3.552648000000       1.508054000000       2.065974000000
H         3.819052000000       0.995465000000       3.758567000000
H         7.128923000000       1.957485000000       2.708677000000
H         5.872489000000       2.125528000000       3.963711000000
H         5.595668000000       2.791274000000       2.332419000000
H         5.583205000000      -1.347797000000       3.000244000000
H         5.843224000000      -0.202649000000       4.335799000000
H         7.117388000000      -0.439496000000       3.110546000000
H         3.378032000000       0.311960000000      -0.241817000000
H         6.837805000000      -1.995134000000       0.773022000000
H         1.169171000000      -4.654156000000       0.014194000000
H         2.465698000000      -4.116139000000       1.084129000000
H         1.933412000000      -5.796724000000       1.120594000000
H         2.461081000000      -4.827549000000      -5.087024000000
H         3.772148000000      -0.950365000000      -3.839973000000
H         0.400926000000      -3.844133000000      -5.984856000000
H         1.698645000000       0.038210000000      -4.727691000000
H        -0.004561000000      -1.405597000000      -5.804921000000
F        -0.266314000000      -2.095612000000       0.457514000000
F        -2.291245000000      -1.339091000000       0.178645000000
F         0.520353000000       0.127324000000      -1.287419000000
F        -1.494763000000       0.874813000000      -0.908048000000
F        -1.575691000000      -1.227723000000      -2.662159000000
F         0.119449000000      -2.467963000000      -2.077230000000
F        -0.977603000000       0.395232000000       1.864202000000
F         1.091133000000       0.012019000000       1.296285000000
F        -1.835176000000      -4.064072000000      -0.629709000000
F        -3.324834000000      -2.945014000000      -1.766489000000
F         0.746719000000       2.431634000000       2.221749000000
F        -0.909013000000       2.843871000000       0.877910000000
F        -2.780316000000      -5.229476000000      -2.941403000000
F        -0.651928000000      -4.898009000000      -2.899796000000
F        -1.922248000000      -3.623509000000      -4.101626000000
O         2.486108000000       2.536358000000       0.197292000000
O         0.786343000000       3.160140000000      -1.134885000000
C        -1.057259000000      -1.370827000000      -0.346450000000
C        -0.514051000000       0.098294000000      -0.429294000000
C        -1.120263000000      -2.086702000000      -1.739088000000
C        -0.029696000000       0.663248000000       0.941658000000
C        -2.047435000000      -3.345869000000      -1.743031000000
C         0.270073000000       2.191514000000       0.972490000000
C        -1.832765000000      -4.297500000000      -2.961468000000
C         1.294343000000       2.690580000000      -0.110591000000
