80
Coordinates from ORCA-job R4N+PFOA-_wb E -2865.805600468382
  N       5.455728      0.693403      2.476671
  C       3.421575     -4.150803     -1.586545
  C       4.275711     -4.621563     -2.768734
  C       4.547317     -3.555969     -3.838644
  C       4.036039     -2.957279     -0.887190
  C       3.139937     -5.302083     -0.614360
  C       5.767268      0.511481      1.002546
  C       5.165897     -0.706837      0.366026
  C       3.271626     -2.957641     -4.398081
  C       3.361546     -1.742708     -0.848085
  C       5.293439     -3.027638     -0.288473
  C       5.424654     -4.129093     -4.951510
  C       3.986262      0.747044      2.712408
  C       6.058283      1.987009      2.900827
  C       6.044012     -0.405501      3.285843
  C       3.917401     -0.629354     -0.239965
  C       5.851593     -1.919267      0.327186
  C       2.123296     -4.946798      0.461262
  C       2.305171     -3.756465     -5.008729
  C       3.033854     -1.588850     -4.314164
  C       1.139117     -3.203419     -5.515921
  C       1.864966     -1.029728     -4.815159
  C       0.911747     -1.836420     -5.417940
  H       2.456099     -3.821799     -1.984425
  H       3.776401     -5.478584     -3.233051
  H       5.238125     -4.992005     -2.399191
  H       5.101219     -2.737998     -3.367157
  H       4.077888     -5.627437     -0.151381
  H       2.770478     -6.154259     -1.193322
  H       6.854573      0.495117      0.935608
  H       5.398591      1.414261      0.516930
  H       2.390034     -1.663205     -1.318916
  H       5.853098     -3.956648     -0.311541
  H       5.658979     -3.369345     -5.700680
  H       4.927158     -4.959148     -5.460502
  H       6.367871     -4.503592     -4.545623
  H       3.555750     -0.226044      2.493357
  H       3.552648      1.508054      2.065974
  H       3.819052      0.995465      3.758567
  H       7.128923      1.957485      2.708677
  H       5.872489      2.125528      3.963711
  H       5.595668      2.791274      2.332419
  H       5.583205     -1.347797      3.000244
  H       5.843224     -0.202649      4.335799
  H       7.117388     -0.439496      3.110546
  H       3.378032      0.311960     -0.241817
  H       6.837805     -1.995134      0.773022
  H       1.169171     -4.654156      0.014194
  H       2.465698     -4.116139      1.084129
  H       1.933412     -5.796724      1.120594
  H       2.461081     -4.827549     -5.087024
  H       3.772148     -0.950365     -3.839973
  H       0.400926     -3.844133     -5.984856
  H       1.698645      0.038210     -4.727691
  H      -0.004561     -1.405597     -5.804921
  F      -0.266314     -2.095612      0.457514
  F      -2.291245     -1.339091      0.178645
  F       0.520353      0.127324     -1.287419
  F      -1.494763      0.874813     -0.908048
  F      -1.575691     -1.227723     -2.662159
  F       0.119449     -2.467963     -2.077230
  F      -0.977603      0.395232      1.864202
  F       1.091133      0.012019      1.296285
  F      -1.835176     -4.064072     -0.629709
  F      -3.324834     -2.945014     -1.766489
  F       0.746719      2.431634      2.221749
  F      -0.909013      2.843871      0.877910
  F      -2.780316     -5.229476     -2.941403
  F      -0.651928     -4.898009     -2.899796
  F      -1.922248     -3.623509     -4.101626
  O       2.486108      2.536358      0.197292
  O       0.786343      3.160140     -1.134885
  C      -1.057259     -1.370827     -0.346450
  C      -0.514051      0.098294     -0.429294
  C      -1.120263     -2.086702     -1.739088
  C      -0.029696      0.663248      0.941658
  C      -2.047435     -3.345869     -1.743031
  C       0.270073      2.191514      0.972490
  C      -1.832765     -4.297500     -2.961468
  C       1.294343      2.690580     -0.110591
80
Coordinates from ORCA-job R4N+PFOA-_wb E -2865.805595809037
  N       5.455704      0.693504      2.476093
  C       3.421391     -4.151084     -1.586431
  C       4.275657     -4.621761     -2.768558
  C       4.547632     -3.556058     -3.838271
  C       4.035753     -2.957582     -0.887032
  C       3.139760     -5.302386     -0.614248
  C       5.767057      0.511541      1.001928
  C       5.165671     -0.706870      0.365650
  C       3.272174     -2.957401     -4.397830
  C       3.361228     -1.743024     -0.848052
  C       5.293270     -3.027727     -0.288538
  C       5.425029     -4.129249     -4.951056
  C       3.986276      0.747042      2.712054
  C       6.058245      1.987147      2.900143
  C       6.044170     -0.405350      3.285202
  C       3.917089     -0.629542     -0.240169
  C       5.851343     -1.919328      0.327117
  C       2.123244     -4.947049      0.461473
  C       2.305304     -3.755928     -5.008203
  C       3.035106     -1.588454     -4.314375
  C       1.139500     -3.202439     -5.515483
  C       1.866458     -1.028895     -4.815464
  C       0.912776     -1.835310     -5.417867
  H       2.455880     -3.822117     -1.984332
  H       3.776331     -5.478644     -3.233111
  H       5.237958     -4.992384     -2.398887
  H       5.101620     -2.738240     -3.366577
  H       4.077728     -5.627813     -0.151355
  H       2.770183     -6.154511     -1.193208
  H       6.854358      0.495230      0.934867
  H       5.398246      1.414251      0.516283
  H       2.389676     -1.663601     -1.318805
  H       5.853018     -3.956679     -0.311608
  H       5.659612     -3.369476     -5.700123
  H       4.927471     -4.959166     -5.460196
  H       6.368120     -4.503951     -4.545061
  H       3.555806     -0.226094      2.493114
  H       3.552531      1.507998      2.065647
  H       3.819209      0.995490      3.758229
  H       7.128860      1.957673      2.707845
  H       5.872593      2.125667      3.963053
  H       5.595508      2.791382      2.331793
  H       5.583422     -1.347685      2.999641
  H       5.843479     -0.202535      4.335188
  H       7.117533     -0.439252      3.109793
  H       3.377673      0.311735     -0.242045
  H       6.837571     -1.995113      0.772951
  H       1.169067     -4.654353      0.014528
  H       2.465781     -4.116414      1.084295
  H       1.933395     -5.796963      1.120834
  H       2.460693     -4.827106     -5.086232
  H       3.773781     -0.950185     -3.840488
  H       0.401079     -3.842950     -5.984349
  H       1.700658      0.039160     -4.728302
  H      -0.003335     -1.404158     -5.804949
  F      -0.266520     -2.095931      0.457833
  F      -2.291508     -1.339405      0.179133
  F       0.519958      0.126958     -1.287198
  F      -1.495098      0.874487     -0.907661
  F      -1.576142     -1.227835     -2.661692
  F       0.119029     -2.468115     -2.076984
  F      -0.977621      0.394981      1.864587
  F       1.091042      0.011827      1.296420
  F      -1.835247     -4.064606     -0.629753
  F      -3.325175     -2.945272     -1.765966
  F       0.746682      2.431454      2.221862
  F      -0.909279      2.843609      0.878299
  F      -2.780977     -5.229020     -2.942063
  F      -0.652519     -4.898110     -2.900008
  F      -1.922300     -3.622756     -4.101483
  O       2.485739      2.536264      0.197139
  O       0.785745      3.159861     -1.134834
  C      -1.057553     -1.371128     -0.346043
  C      -0.514350      0.097987     -0.428957
  C      -1.120650     -2.086890     -1.738729
  C      -0.029843      0.663016      0.941915
  C      -2.047757     -3.346069     -1.742804
  C       0.269853      2.191302      0.972677
  C      -1.833192     -4.297275     -2.961597
  C       1.293922      2.690407     -0.110577
