55
XYZ file generated by Avogadro.
N     -4.5291079993    1.3324763247    0.1054051868
C      1.3343215825   -1.9005835713   -0.0045680538
C      1.9746418511   -1.4778180339    1.3425826512
C      2.0355811037    0.0486662315    1.5917064173
C     -0.1004869109   -1.4084691382   -0.1423559087
C      1.4366705971   -3.4356765972   -0.1669725268
C     -4.1659336865    0.0209444889   -0.6229808776
C     -2.7526638051   -0.4764817429   -0.4564816343
C      2.7888773722    0.8178863073    0.5194079095
C     -0.4358358261   -0.5401819100   -1.1897281742
C     -1.1089088024   -1.8112720032    0.7420462474
C      2.6501729531    0.3321367745    2.9684477412
C     -4.3546075027    1.1884328478    1.6098587296
C     -5.9922634324    1.6464423956   -0.1910773204
C     -3.6712038897    2.4875902114   -0.3888397874
C     -1.7454581288   -0.0818624623   -1.3481103238
C     -2.4199705295   -1.3541244398    0.5855553138
C      1.0121625583   -3.9256966570   -1.5464576005
C      2.1802314124    1.9181977424   -0.1046619256
C      4.0945065279    0.4711072665    0.1406359239
C      2.8529350514    2.6416447563   -1.0911825118
C      4.7652742368    1.1942374070   -0.8474334473
C      4.1442574940    2.2774913785   -1.4641022139
H      1.9345506513   -1.4611172172   -0.8119836510
H      2.9890750854   -1.8953084829    1.3934542262
H      1.4235897972   -1.9434984198    2.1708728845
H      1.0041429524    0.4225486528    1.6293243834
H      0.8407316043   -3.9512331897    0.5955883821
H      2.4781652704   -3.7426579320   -0.0079943670
H     -4.3799546688    0.1808508452   -1.6878661719
H     -4.8716159192   -0.7423989151   -0.2699225182
H      0.3288250278   -0.2214003802   -1.8981615533
H     -0.8819547642   -2.4981797979    1.5557786264
H      3.6785568598   -0.0392679253    3.0392867116
H      2.0650654914   -0.1496274980    3.7592611370
H      2.6694303577    1.4080009268    3.1760061136
H     -4.9296404410    0.3203508765    1.9450011327
H     -4.7292486673    2.0984312733    2.0889374316
H     -3.2926974987    1.0659497099    1.8380836299
H     -6.6063542766    0.8191886380    0.1772116665
H     -6.1104441622    1.7608386758   -1.2727585628
H     -6.2605132769    2.5756243888    0.3207166998
H     -2.6339040642    2.3189777791   -0.0882851756
H     -4.0392674585    3.4109002961    0.0694304664
H     -3.7588558817    2.5447961947   -1.4776906357
H     -1.9622489591    0.5755477309   -2.1878319521
H     -3.1757134279   -1.7089585528    1.2837773836
H     -0.0512901195   -3.7452437927   -1.7294021047
H      1.1846232277   -5.0035818121   -1.6301734514
H      1.5885970531   -3.4293965464   -2.3336124088
H      1.1760946978    2.2225227774    0.1781412095
H      4.6075951272   -0.3627870863    0.6141426546
H      2.3751121601    3.4948729824   -1.5647597156
H      5.7772272208    0.9150908603   -1.1309745387
H      4.6720567741    2.8422933636   -2.2284057471
