101
XYZ file generated by Avogadro.
C      3.0174773538    0.7154638276   -1.6122291431
C      2.3880123903    0.0866439564   -0.3632813860
C      0.8917511286    0.3676943761   -0.3179376478
C      0.0220543426   -0.0900054488   -1.3176193412
C     -1.3480845662    0.1780928079   -1.2490627561
C     -1.8833796408    0.9089935050   -0.1797430072
C     -3.3666307648    1.2117539550   -0.1155619801
N     -4.2510939814    0.2419556004    0.5961632161
C     -3.9615145709    0.2741948499    2.0557757481
C     -5.6641796667    0.8386784350    0.7445200402
C     -3.8440223973   -1.2312049322    0.4257217713
C     -1.0136025452    1.3707298121    0.8157396623
C      0.3558521683    1.1002982458    0.7502859442
C      2.6560312769   -1.4353597800   -0.2681264308
C      4.1425730667   -1.8177910882   -0.0675693242
C      4.7216569932   -1.2406106591    1.2196609864
C      4.1468982110   -1.5017231688    2.4712039615
C      4.6965356482   -0.9597208301    3.6361899651
C      5.8425109772   -0.1551443578    3.5821484453
C      6.4174030899    0.4614110077    4.8462313614
N      7.6942708234   -0.1686373703    5.4789790024
C      8.2158367058    0.1634303555    6.9048510826
C      7.0853279002   -1.4479251524    5.9130601199
C      8.7826967924   -0.5190632481    4.5447558804
C      6.4128795502    0.1105431732    2.3304624553
C      5.8640102523   -0.4301767636    1.1645602889
C      4.3672577427   -3.3529841900   -0.0815605663
C      4.0156135559   -4.0641505345   -1.4092867770
C      4.7411440397   -3.4827601754   -2.6107512591
C      6.1406950227   -3.4323237098   -2.6732935032
C      6.7856381040   -2.8689335980   -3.7774718345
C      6.0481423831   -2.3443616094   -4.8458101579
C      6.7489563553   -1.7378302088   -6.0470239650
N      7.0543709787   -2.7071549808   -7.1335061241
C      8.2824495272   -3.5803788288   -6.8341001209
C      5.8281739277   -3.0608413719   -7.9884561340
C      7.7272084021   -1.9409092497   -8.2185599225
C      4.6504309133   -2.4002326254   -4.7877916162
C      4.0044714922   -2.9637487157   -3.6846247298
C      4.2933770949   -5.5688062046   -1.2927679061
H      2.7400444057    1.7721038292   -1.7004504427
H      2.6963615680    0.2094094085   -2.5291574773
H      4.1099103760    0.6695780522   -1.5712611450
H      2.8428285348    0.5785183263    0.5052968499
H      0.4022096015   -0.6600475095   -2.1614965077
H     -2.0009913558   -0.1883423516   -2.0373496924
H     -3.7225876110    1.3113818530   -1.1522573438
H     -3.4898583394    2.2199753053    0.3068997162
H     -4.8092285369   -0.1383712699   -0.1805598919
H     -2.9417520136   -0.0464144088    2.3128698790
H     -4.6366817345   -0.3640940868    2.6471131519
H     -4.0323833690    1.2876313892    2.4798967526
H     -5.6604526949    1.8103443652    1.2577369545
H     -6.3322251471    0.1500280165    1.2801743754
H     -6.1276560832    1.0370592740   -0.2371701315
H     -2.8339090453   -1.4557121220    0.7937505508
H     -3.8430056422   -1.5382385427   -0.6343521655
H     -4.5537577442   -1.8916955999    0.9446108130
H     -1.4028724193    1.9441411042    1.6535102947
H      1.0021996418    1.4693791477    1.5436659133
H      2.2833444304   -1.9071037352   -1.1843322060
H      2.0549389473   -1.8589218993    0.5475667493
H      4.7106330064   -1.3946900726   -0.9035286561
H      3.2632341143   -2.1296741741    2.5544490942
H      4.2259354043   -1.1748192397    4.5927368220
H      5.6314100415    0.5379695185    5.6137844440
H      6.6071334328    1.5182348967    4.5754103092
H      7.8609074376    0.8420950391    5.5185886000
H      7.3807978812    0.3486624967    7.5944587825
H      8.8457348788    1.0708971289    6.9153589913
H      8.8630037896   -0.6248190652    7.3141804078
H      6.2345960475   -1.3289738164    6.6013503988
H      7.7986892998   -2.1244023662    6.4104541259
H      6.7291600255   -2.0574185348    5.0719787987
H      8.4524123341   -1.1676204971    3.7260894762
H      9.5985883729   -1.0455050014    5.0560033265
H      9.2178884264    0.3829931303    4.0965490213
H      7.2947553682    0.7423396084    2.2578640520
H      6.3368080490   -0.2096716104    0.2098814148
H      3.7769287966   -3.8140861035    0.7222586503
H      5.4177130211   -3.5581738681    0.1688556178
H      2.9346283813   -3.9671916129   -1.5693579834
H      6.7447006050   -3.8256283331   -1.8588732758
H      7.8724840285   -2.8381374625   -3.7999649981
H      7.6693999803   -1.2518009206   -5.6921576448
H      6.1219198574   -0.9175708427   -6.4257424231
H      6.6838977095   -3.5823087041   -6.7388842610
H      9.1605901115   -2.9846897979   -6.5487925441
H      8.5390678470   -4.2134678044   -7.6949252883
H      8.1162174428   -4.2669998994   -5.9872054126
H      6.1072991151   -3.6981273478   -8.8391296842
H      5.3058895384   -2.1687827031   -8.3610221805
H      5.0660195045   -3.6219694284   -7.4222485412
H      8.0066557635   -2.5554698128   -9.0885279986
H      8.6470959088   -1.4390873847   -7.8797856583
H      7.1098719488   -1.1141189231   -8.6034314297
H      4.0560358575   -2.0006004305   -5.6060847483
H      2.9172097682   -2.9876865409   -3.6699600793
H      5.3493297847   -5.7753427495   -1.0865305665
H      4.0265795839   -6.0895070279   -2.2193702933
H      3.7032546895   -6.0077383946   -0.4809549613
