25
XYZ file generated by Avogadro.
F      0.8265778548    2.4659405255   -0.5341976678
F     -0.5820698815    1.4473625767   -1.8215999740
F      1.8584663142    0.4056127656   -1.8409309414
F      0.3973257796   -0.9929585854   -1.0890980711
F     -1.6705155231    2.4483116242    0.4298585016
F     -0.2350506452    1.4278739120    1.6893343587
F     -1.0712307991   -1.0096421649    0.7656309747
F     -2.6061880185    0.2183368248    1.7007721655
F      1.2059947586   -0.4182462244    1.5426068663
F      2.5635282552    1.0977512458    0.7873845165
F      3.7920451799   -0.7977125001   -0.8632196505
F      2.4183499313   -2.3326233250   -0.1566436002
F      3.7705387182   -1.3510524008    1.2341723477
O     -4.8394819966   -0.8116528308   -0.0589624530
O     -3.2029089623   -2.3252182707   -0.5574965737
C      0.0839718022    1.3105399358   -0.6308837333
C     -0.9205160375    1.3020270137    0.5113694386
C      1.0539415721    0.1450000040   -0.7568903916
C     -1.8483390043    0.0881838600    0.5758514198
C      1.9350149970   -0.0671842981    0.4523287157
C     -2.7148166134   -0.0428259487   -0.6496960926
C      2.9679237546   -1.1391085972    0.1571551212
C     -3.6699866606   -1.1705189085   -0.3641660376
H     -2.1336925930   -0.2946222618   -1.5422385443
H     -3.2736801826    0.8789870283   -0.8453786951
