19
XYZ file generated by Avogadro.
F      0.9867023720   -0.1886395272   -2.0785068038
F     -0.3913069063   -1.6336854895   -1.2818858457
F      0.0509139956    1.8136754606   -0.6734780927
F     -1.4692147461    0.8083610830   -1.8250511081
F      2.0984449155   -1.8295144485   -0.3013115179
F      0.7464565059   -1.2707898923    1.2959658322
F     -0.7772373050    0.5998785283    1.6540032626
F     -2.3049855933    1.7671798228    0.6318964587
F      1.5493499349    1.4075674773    1.0589076992
F      3.1983793010    0.0281709404    1.3080261341
F      2.7967439771    0.8842993761   -0.6456091204
O     -3.6257846198   -0.4573806115    0.0160599763
O     -1.9095862892   -1.6865334022    0.8591073802
C      0.2729845124   -0.4961093474   -0.9311672368
C     -0.6984125631    0.6560339325   -0.7018507335
C      1.2968378173   -0.8015587020    0.1500586323
C     -1.5579416364    0.6263693792    0.5331471845
C      2.1945981527    0.3841496717    0.4601185583
C     -2.4572418254   -0.6115742514    0.4715693405
