25
XYZ file generated by Avogadro.
F     -1.0353346005    1.9548447085   -0.2695763659
F      0.5341157250    1.2261677258   -1.5527248842
F      1.2059596677    1.6942243920    1.1550890968
F     -0.3324198615    0.3239744851    1.7535455738
F     -1.8253523732    0.1991053632   -2.1232591809
F     -0.4425485680   -1.3139823656   -1.4361047770
F      2.0681813392   -0.7864265305    1.9553213286
F      0.7642391449   -1.7546356699    0.5353173314
F     -2.9681371987   -1.7432108367   -0.7026277490
F     -1.6972051442   -1.4151044643    1.0177541671
F      2.0698362859   -0.6311798702   -1.5942928050
F      3.3438051940   -1.7944333909   -0.2681918209
F     -3.7868072812    0.9700204667   -0.6048633454
F     -2.6386616284    1.2175104139    1.2293721755
F     -4.2339028934   -0.2425637922    1.1424345760
O      4.5389403672    0.4297154367    0.5904771747
O      3.0987880270    1.6522099711   -0.6730392241
C     -0.2524051494    0.8519665292   -0.5098522845
C      0.5751928209    0.5622528249    0.7396302818
C     -1.1826774176   -0.2544764642   -0.9935999263
C      1.5343280178   -0.6233983864    0.7036560149
C     -2.2494140573   -0.7704991661   -0.0450206207
C      2.6158426675   -0.6389234470   -0.3428923746
C     -3.2165853241    0.3023283108    0.4236892787
C      3.5123222402    0.5845137561   -0.1304416410
