29
XYZ file generated by Avogadro.
S      4.0109192801   -0.8156171150   -0.1375900996
F     -0.7942242993   -1.6226811931   -0.6713748308
F      0.7535923919   -1.6089558914    0.8384060472
F      0.0540089070    0.7182771773   -1.7234073822
F      1.4880596522   -0.8697159510   -1.7954456162
F     -0.1461617581    0.7692569317    1.8255708623
F     -1.5765866155   -0.8399039415    1.7876321883
F      2.4953441843    1.6745068222   -1.3511204662
F      1.1855940293    1.9290691473    0.3308302291
F     -2.6422209267    1.5526656855    1.3246747800
F     -1.3046689414    1.9593583429   -0.3204475457
F      2.3150630618   -0.0274513263    1.7547658821
F      3.6908188259    1.5194299765    1.0945640086
F     -2.3255673446   -0.1791305344   -1.7405295962
F     -3.7655230863    1.3076417617   -1.1012353437
F     -4.4320616856   -0.3089025994    1.1279572850
F     -3.1031894027   -1.8555167993    0.3663746693
F     -4.7789288541   -1.1847942637   -0.8315738072
O      5.1438288673   -0.9747290442    0.7760481233
O      4.3736024622   -0.2660499414   -1.4422412341
O      3.1503332009   -1.9957353497   -0.2121037295
C      0.0149673097   -0.7830422264    0.0525707681
C      0.9062659814   -0.0109257349   -0.9197617804
C     -0.9019197697    0.0261460247    0.9650450954
C      1.9201715355    0.9617395875   -0.3332773798
C     -1.9405226425    0.9326959014    0.3180110756
C      2.9610986085    0.4425560669    0.6344551355
C     -2.9449519374    0.3088778776   -0.6328315878
C     -3.8072410341   -0.7592693914    0.0161342498
