56
Coordinates from ORCA-job R4N+Cl- E -1372.734163758739
  N          -2.19740961375601     -0.27467503649628     -4.06412788870165
  C           1.24681412063515      1.09717197433134      1.44286760495041
  C           2.08095707550831      0.03978916631506      2.17461886226874
  C           1.28883765889437     -1.13378219856168      2.76280819819226
  C           0.41947873585585      0.50475485157664      0.32250736208799
  C           2.14742728570727      2.23286258594639      0.93842788657258
  C          -1.95745381982578     -1.17343142825194     -2.86541008537001
  C          -1.12914601211823     -0.57242289703008     -1.76760613844501
  C           0.20166262465488     -0.68255972327881      3.71698963263498
  C           1.01605510276812     -0.20068251424143     -0.72167688352377
  C          -0.96352554235229      0.65295356660214      0.30459267409918
  C           2.23437168089184     -2.12908136505634      3.43589968791730
  C          -2.93526686522160      0.95591700894972     -3.67017419025430
  C          -3.03264996519661     -1.04482368309766     -5.02782997711750
  C          -0.92026120941076      0.10373754243511     -4.72323569906221
  C           0.25469763292579     -0.73360276063061     -1.74783847583591
  C          -1.72948892481172      0.11934714949521     -0.72125901250199
  C           1.38631491236902      3.39086723249514      0.30942937639574
  C          -1.12504689283165     -1.04329594438493      3.50077614943894
  C           0.49803992884493      0.09773587805817      4.83456930725611
  C          -2.13088759850336     -0.63602523025181      4.36847379525477
  C          -0.50177427522890      0.50776787119745      5.70377130530170
  C          -1.82273264415905      0.14326602774426      5.47341696707287
  H           0.54462294570239      1.53280916668372      2.16213227537251
  H           2.63608514224763      0.53778798479427      2.97656602921702
  H           2.83403894652680     -0.36507579894608      1.49025422447372
  H           0.79214135355788     -1.65391725440908      1.93767030403724
  H           2.86718024485944      1.82822423776282      0.21843139868620
  H           2.73350212017494      2.60106970362929      1.78622693394922
  H          -1.47864626637253     -2.06615157655871     -3.26604890603635
  H          -2.95307218082340     -1.43477588152828     -2.50347449050251
  H           2.09120154923017     -0.34405096760109     -0.73287578806526
  H          -1.45183325627929      1.18888453271323      1.11171740021930
  H           1.68821719924574     -2.99096354792658      3.82645790068953
  H           2.76920259630969     -1.66479335602220      4.26906229168891
  H           2.97805109876417     -2.49598999270763      2.72398153014910
  H          -3.85866364733782      0.66166989699435     -3.17268464006863
  H          -3.15589001105195      1.52200483359700     -4.57286644917792
  H          -2.31328191655232      1.55173405964296     -3.00704607514924
  H          -3.96840049521137     -1.31085419038217     -4.53758459677460
  H          -2.48921459335678     -1.94001898687537     -5.32357837701700
  H          -3.22426154612290     -0.41894379062376     -5.89661216276672
  H          -1.15561685948349      0.67979395444038     -5.61595573578021
  H          -0.38113819091897     -0.80193026056339     -4.99370249960869
  H          -0.32795921351762      0.70918913058546     -4.04196418272093
  H           0.74082237748078     -1.28903505778460     -2.54283984101483
  H          -2.80742190220910      0.23945558645987     -0.70312766229783
  H           0.65054503796263      3.80409182752108      1.00538256419177
  H           0.85145349210560      3.08141332692211     -0.59223579030731
  H           2.06572612602701      4.19826121304932      0.02688698484051
  H          -1.37569443637565     -1.64876147824638      2.63544590199772
  H           1.52365156803165      0.39473912054508      5.02802775158984
  H          -3.15774350548540     -0.92734773704026      4.17700776581934
  H          -0.24950418969603      1.11663591490210      6.56498223659327
  H          -2.60475873766771      0.46534625517165      6.15155981526713
  Cl         -5.70522395630357     -1.33319625266400     -2.28378110342521
