80
Coordinates from ORCA-job R4N+PFOA-_wb E -2865.788545309556
  N       5.515528      0.635485      2.546780
  C       3.379084     -4.105219     -1.589254
  C       4.231149     -4.566777     -2.781944
  C       4.486387     -3.476098     -3.836448
  C       4.024366     -2.940945     -0.869198
  C       3.077735     -5.272845     -0.635904
  C       5.898370      0.431674      1.075081
  C       5.242878     -0.744881      0.417845
  C       3.196182     -2.893136     -4.378495
  C       3.405890     -1.689875     -0.839879
  C       5.268832     -3.076561     -0.242224
  C       5.359787     -4.028520     -4.969672
  C       4.039478      0.859964      2.689212
  C       6.245863      1.850742      3.039763
  C       5.923067     -0.547456      3.371083
  C       4.008881     -0.602319     -0.218637
  C       5.868832     -1.996157      0.393416
  C       2.068209     -4.904024      0.447130
  C       2.244669     -3.708043     -5.004136
  C       2.928012     -1.525744     -4.272041
  C       1.063957     -3.169871     -5.507587
  C       1.742088     -0.983647     -4.766321
  C       0.804794     -1.804838     -5.387096
  H       2.417183     -3.752068     -1.985679
  H       3.728844     -5.419281     -3.259296
  H       5.200491     -4.935763     -2.419135
  H       5.035253     -2.656642     -3.351918
  H       4.013171     -5.624332     -0.179752
  H       2.686136     -6.107950     -1.231844
  H       6.987272      0.330056      1.071686
  H       5.621733      1.364157      0.574334
  H       2.448348     -1.560067     -1.334244
  H       5.781798     -4.035094     -0.258300
  H       5.574651     -3.255498     -5.715367
  H       4.859460     -4.860851     -5.478122
  H       6.313112     -4.397648     -4.574562
  H       3.514202     -0.049574      2.397183
  H       3.749720      1.696401      2.049582
  H       3.830612      1.091012      3.735982
  H       7.319122      1.683032      2.930370
  H       5.992572      2.003929      4.090468
  H       5.933229      2.712190      2.446076
  H       5.371205     -1.425954      3.033894
  H       5.682426     -0.334167      4.414543
  H       6.997569     -0.703103      3.254563
  H       3.518257      0.367522     -0.233988
  H       6.839366     -2.119515      0.868319
  H       1.118870     -4.588190     -0.002558
  H       2.432665     -4.080405      1.072371
  H       1.861116     -5.756154      1.103435
  H       2.428029     -4.775768     -5.101321
  H       3.655845     -0.878437     -3.787484
  H       0.339721     -3.819525     -5.991710
  H       1.551694      0.081750     -4.663953
  H      -0.121690     -1.387325     -5.772098
  F      -0.105436     -2.053019      0.428984
  F      -2.200679     -1.422812      0.196215
  F       0.480649      0.171224     -1.427695
  F      -1.574820      0.813330     -0.970220
  F      -1.578280     -1.346308     -2.681112
  F       0.211095     -2.491517     -2.116614
  F      -0.890875      0.403170      1.805422
  F       1.187169      0.170206      1.121909
  F      -1.648156     -4.123832     -0.522928
  F      -3.213147     -3.134498     -1.712801
  F       0.748764      2.592014      1.994612
  F      -1.072016      2.836649      0.797808
  F      -2.549596     -5.445771     -2.801227
  F      -0.421219     -5.007093     -2.762275
  F      -1.755095     -3.831183     -4.029288
  O       2.279212      2.711711     -0.217132
  O       0.409130      3.262013     -1.369451
  C      -0.974119     -1.399236     -0.373845
  C      -0.521976      0.098615     -0.516216
  C      -1.044509     -2.161665     -1.743636
  C      -0.010081      0.726248      0.819632
  C      -1.906285     -3.469216     -1.678103
  C       0.169621      2.275501      0.793942
  C      -1.640163     -4.464010     -2.854746
  C       1.046365      2.814566     -0.394152
80
Coordinates from ORCA-job R4N+PFOA-_wb E -2865.791722902308
  N       5.504094      0.631737      2.548012
  C       3.379041     -4.097444     -1.590451
  C       4.223121     -4.557028     -2.786250
  C       4.478912     -3.475315     -3.846265
  C       4.024627     -2.935219     -0.868138
  C       3.078442     -5.265583     -0.643277
  C       5.884910      0.428012      1.088968
  C       5.234032     -0.747127      0.424441
  C       3.192722     -2.891478     -4.395172
  C       3.407842     -1.688843     -0.837377
  C       5.263852     -3.069666     -0.240746
  C       5.354397     -4.031951     -4.970533
  C       4.038354      0.859148      2.694098
  C       6.230977      1.838670      3.032234
  C       5.909114     -0.538580      3.373150
  C       4.006848     -0.605239     -0.214174
  C       5.859160     -1.993276      0.397239
  C       2.074119     -4.905546      0.443449
  C       2.240506     -3.702975     -5.014045
  C       2.928935     -1.527570     -4.294755
  C       1.061430     -3.166669     -5.511036
  C       1.745719     -0.986064     -4.784335
  C       0.806084     -1.805055     -5.394318
  H       2.419504     -3.743621     -1.979498
  H       3.719958     -5.407698     -3.257419
  H       5.189760     -4.926629     -2.428250
  H       5.025727     -2.656473     -3.368510
  H       4.011459     -5.619838     -0.193054
  H       2.686483     -6.094647     -1.240135
  H       6.969335      0.328851      1.088716
  H       5.611402      1.357750      0.591712
  H       2.452616     -1.559822     -1.329761
  H       5.776196     -4.025325     -0.256445
  H       5.572458     -3.265064     -5.716894
  H       4.857989     -4.864248     -5.476150
  H       6.303286     -4.398346     -4.571714
  H       3.509708     -0.046116      2.409280
  H       3.749002      1.691543      2.055779
  H       3.836284      1.093557      3.737021
  H       7.299688      1.669124      2.921750
  H       5.979715      1.994289      4.078875
  H       5.918937      2.694586      2.437748
  H       5.357024     -1.415118      3.044779
  H       5.671869     -0.318096      4.411576
  H       6.979197     -0.694981      3.255436
  H       3.517023      0.361855     -0.229780
  H       6.825561     -2.117004      0.873706
  H       1.125926     -4.587648      0.001732
  H       2.438923     -4.089332      1.072315
  H       1.870104     -5.759696      1.092401
  H       2.418963     -4.769150     -5.104832
  H       3.656523     -0.882248     -3.814088
  H       0.334764     -3.815522     -5.985759
  H       1.556738      0.076565     -4.680964
  H      -0.120521     -1.388898     -5.771672
  F      -0.104167     -2.049423      0.431971
  F      -2.182073     -1.421838      0.202258
  F       0.478845      0.157611     -1.422540
  F      -1.558932      0.798190     -0.970982
  F      -1.565187     -1.357172     -2.663803
  F       0.211019     -2.488797     -2.099920
  F      -0.875873      0.412275      1.794606
  F       1.183961      0.171616      1.119558
  F      -1.638468     -4.121837     -0.520908
  F      -3.191963     -3.137841     -1.697741
  F       0.746415      2.585401      1.980267
  F      -1.049867      2.830479      0.780424
  F      -2.530364     -5.435773     -2.786858
  F      -0.419809     -4.995451     -2.757658
  F      -1.752138     -3.832131     -4.008590
  O       2.288705      2.711015     -0.206898
  O       0.439543      3.253812     -1.366839
  C      -0.965442     -1.400854     -0.367493
  C      -0.514045      0.090530     -0.514403
  C      -1.036654     -2.164488     -1.729723
  C      -0.002353      0.725405      0.812985
  C      -1.893322     -3.468858     -1.666952
  C       0.181172      2.269751      0.784521
  C      -1.631031     -4.457886     -2.841753
  C       1.064763      2.809457     -0.392127
80
Coordinates from ORCA-job R4N+PFOA-_wb E -2865.791850706846
  N       5.502622      0.631322      2.547099
  C       3.379003     -4.096842     -1.590913
  C       4.220685     -4.556688     -2.786413
  C       4.477493     -3.477578     -3.846526
  C       4.024937     -2.933669     -0.869953
  C       3.077693     -5.264362     -0.644763
  C       5.878871      0.430774      1.090027
  C       5.230765     -0.745048      0.422162
  C       3.191851     -2.892378     -4.395434
  C       3.407721     -1.688536     -0.840305
  C       5.263657     -3.065944     -0.243343
  C       5.354508     -4.033803     -4.968507
  C       4.039011      0.855320      2.698076
  C       6.227655      1.838391      3.031243
  C       5.911626     -0.538147      3.369150
  C       4.004403     -0.605223     -0.215940
  C       5.857320     -1.989312      0.394060
  C       2.074590     -4.906657      0.442832
  C       2.239905     -3.701069     -5.016250
  C       2.927618     -1.530000     -4.289666
  C       1.061862     -3.163656     -5.511947
  C       1.745687     -0.986957     -4.778261
  C       0.807158     -1.803130     -5.391570
  H       2.419452     -3.741751     -1.978370
  H       3.716362     -5.407325     -3.256187
  H       5.187145     -4.927618     -2.429467
  H       5.023860     -2.658277     -3.369262
  H       4.010291     -5.620488     -0.195341
  H       2.685201     -6.092648     -1.241988
  H       6.963435      0.334788      1.084920
  H       5.602881      1.359923      0.593225
  H       2.451273     -1.560824     -1.330884
  H       5.777236     -4.021011     -0.258558
  H       5.574738     -3.267001     -5.714065
  H       4.859750     -4.865797     -5.476127
  H       6.302583     -4.400586     -4.568590
  H       3.510066     -0.049776      2.414682
  H       3.745475      1.687484      2.062025
  H       3.838846      1.088596      3.741460
  H       7.296557      1.672546      2.918279
  H       5.979532      1.992576      4.078696
  H       5.913186      2.695433      2.439970
  H       5.359794     -1.415862      3.043665
  H       5.678579     -0.319683      4.408792
  H       6.981337     -0.693887      3.248135
  H       3.512657      0.360870     -0.230323
  H       6.823689     -2.112266      0.870802
  H       1.126070     -4.587176      0.003355
  H       2.439654     -4.092634      1.074174
  H       1.870716     -5.762199      1.089670
  H       2.417867     -4.767148     -5.109748
  H       3.654752     -0.886208     -3.806112
  H       0.334587     -3.811328     -5.987224
  H       1.557066      0.075204     -4.671803
  H      -0.119523     -1.385732     -5.767289
  F      -0.110733     -2.047786      0.431940
  F      -2.184109     -1.416806      0.197081
  F       0.480613      0.155673     -1.424234
  F      -1.554735      0.800130     -0.977088
  F      -1.562979     -1.363964     -2.668268
  F       0.211914     -2.490409     -2.096610
  F      -0.877544      0.416256      1.788305
  F       1.180668      0.168956      1.117877
  F      -1.636905     -4.121792     -0.519892
  F      -3.189591     -3.140697     -1.695934
  F       0.742320      2.582438      1.979435
  F      -1.044208      2.831847      0.769472
  F      -2.525666     -5.440004     -2.779895
  F      -0.418156     -4.994828     -2.755684
  F      -1.753996     -3.838573     -4.005321
  O       2.297143      2.716349     -0.194247
  O       0.457132      3.263332     -1.361413
  C      -0.967806     -1.399804     -0.369447
  C      -0.513050      0.091330     -0.519588
  C      -1.035561     -2.166086     -1.731463
  C      -0.002282      0.724491      0.809631
  C      -1.892358     -3.471013     -1.664856
  C       0.183662      2.269517      0.782825
  C      -1.629471     -4.461677     -2.839420
  C       1.075516      2.808847     -0.388552
80
Coordinates from ORCA-job R4N+PFOA-_wb E -2865.791190093756
  N       5.503970      0.635078      2.543261
  C       3.376962     -4.094299     -1.591904
  C       4.215765     -4.559265     -2.784955
  C       4.479262     -3.489052     -3.849267
  C       4.024516     -2.929551     -0.873615
  C       3.072203     -5.258745     -0.645356
  C       5.871415      0.437373      1.088988
  C       5.226542     -0.740192      0.417923
  C       3.197493     -2.900272     -4.403954
  C       3.405588     -1.686556     -0.842382
  C       5.263886     -3.058405     -0.250330
  C       5.359493     -4.051965     -4.963418
  C       4.042999      0.851657      2.702964
  C       6.224957      1.844655      3.024364
  C       5.922296     -0.531023      3.362621
  C       3.999357     -0.604016     -0.215918
  C       5.855901     -1.981529      0.386186
  C       2.069024     -4.902649      0.441180
  C       2.243310     -3.704751     -5.024060
  C       2.939684     -1.537675     -4.302455
  C       1.069796     -3.163680     -5.523482
  C       1.763156     -0.990161     -4.796094
  C       0.822388     -1.802464     -5.408313
  H       2.418036     -3.736214     -1.978360
  H       3.708434     -5.410473     -3.250519
  H       5.180519     -4.933941     -2.427018
  H       5.026338     -2.668242     -3.375328
  H       4.003315     -5.617303     -0.194658
  H       2.679912     -6.087211     -1.242221
  H       6.956315      0.346560      1.073722
  H       5.590778      1.364672      0.591213
  H       2.445908     -1.560429     -1.327467
  H       5.779978     -4.012272     -0.266832
  H       5.587273     -3.289035     -5.710499
  H       4.866255     -4.884254     -5.472127
  H       6.304439     -4.420546     -4.558166
  H       3.514861     -0.055042      2.424703
  H       3.740240      1.681354      2.068541
  H       3.845905      1.085480      3.746716
  H       7.294431      1.686239      2.906839
  H       5.982661      1.998456      4.073132
  H       5.904897      2.702062      2.436823
  H       5.371753     -1.412290      3.044630
  H       5.697203     -0.314061      4.404233
  H       6.991553     -0.684707      3.235374
  H       3.503233      0.359537     -0.224923
  H       6.823653     -2.103255      0.860598
  H       1.119955     -4.583274      0.003131
  H       2.432524     -4.089759      1.074815
  H       1.865625     -5.758840      1.087046
  H       2.415715     -4.772255     -5.113717
  H       3.669048     -0.895695     -3.819553
  H       0.339365     -3.809547     -5.996394
  H       1.581068      0.073366     -4.695343
  H      -0.101549     -1.381382     -5.786811
  F      -0.126706     -2.045157      0.436299
  F      -2.192888     -1.407127      0.190668
  F       0.481512      0.162883     -1.412352
  F      -1.551136      0.811240     -0.970070
  F      -1.557015     -1.360593     -2.672373
  F       0.213733     -2.483759     -2.088040
  F      -0.882477      0.407238      1.795503
  F       1.173426      0.159474      1.127284
  F      -1.641516     -4.114220     -0.523086
  F      -3.188712     -3.132016     -1.700142
  F       0.730924      2.567903      2.010203
  F      -1.049694      2.823984      0.797147
  F      -2.523583     -5.434726     -2.775587
  F      -0.419089     -4.986488     -2.756223
  F      -1.756840     -3.838742     -4.006850
  O       2.288994      2.699784     -0.174598
  O       0.450633      3.210064     -1.352202
  C      -0.975308     -1.394243     -0.367600
  C      -0.514655      0.097633     -0.514425
  C      -1.034383     -2.159131     -1.733077
  C      -0.005962      0.718814      0.822785
  C      -1.893999     -3.464108     -1.666115
  C       0.177084      2.266608      0.812527
  C      -1.629729     -4.457234     -2.841279
  C       1.069357      2.824435     -0.351935
80
Coordinates from ORCA-job R4N+PFOA-_wb E -2865.791891405711
  N       5.503809      0.633884      2.545226
  C       3.377538     -4.097228     -1.591553
  C       4.218634     -4.558834     -2.786237
  C       4.479209     -3.482722     -3.847756
  C       4.023453     -2.933450     -0.870832
  C       3.075038     -5.263617     -0.645118
  C       5.874844      0.433760      1.088468
  C       5.227479     -0.743524      0.421144
  C       3.195602     -2.894402     -4.398626
  C       3.404431     -1.689341     -0.839472
  C       5.262945     -3.063919     -0.245677
  C       5.356850     -4.041885     -4.967188
  C       4.040577      0.853729      2.701112
  C       6.226939      1.843182      3.026620
  C       5.918925     -0.533547      3.366937
  C       3.999811     -0.605783     -0.214469
  C       5.855721     -1.986793      0.391606
  C       2.071614     -4.906543      0.441976
  C       2.242047     -3.700012     -5.020623
  C       2.935433     -1.531306     -4.293794
  C       1.066023     -3.159362     -5.517495
  C       1.755662     -0.984794     -4.783512
  C       0.815171     -1.798149     -5.397270
  H       2.418099     -3.740869     -1.978649
  H       3.712924     -5.409442     -3.254960
  H       5.184147     -4.932175     -2.428689
  H       5.026783     -2.663382     -3.371545
  H       4.007167     -5.620526     -0.194926
  H       2.682889     -6.092320     -1.242194
  H       6.959744      0.340320      1.077011
  H       5.595832      1.361510      0.590367
  H       2.446827     -1.562406     -1.328012
  H       5.778172     -4.018196     -0.261997
  H       5.581151     -3.276267     -5.712876
  H       4.861861     -4.873097     -5.476116
  H       6.303363     -4.410889     -4.565436
  H       3.512406     -0.052876      2.420867
  H       3.741810      1.684256      2.065220
  H       3.841983      1.087861      3.744701
  H       7.296223      1.681183      2.910845
  H       5.982117      1.997871      4.074841
  H       5.908909      2.699789      2.436454
  H       5.367725     -1.413498      3.046244
  H       5.690611     -0.315044      4.407713
  H       6.988467     -0.687965      3.241980
  H       3.505603      0.359163     -0.226549
  H       6.823208     -2.108833      0.866473
  H       1.122549     -4.587705      0.002989
  H       2.435581     -4.092492      1.074116
  H       1.868337     -5.762298      1.088840
  H       2.417013     -4.766728     -5.114024
  H       3.664103     -0.889311     -3.810034
  H       0.337136     -3.805096     -5.993106
  H       1.570520      0.078109     -4.677969
  H      -0.109954     -1.377951     -5.773938
  F      -0.120006     -2.048609      0.437078
  F      -2.191097     -1.413664      0.194835
  F       0.480484      0.155337     -1.418651
  F      -1.554809      0.802139     -0.975969
  F      -1.561043     -1.364044     -2.668490
  F       0.212598     -2.489393     -2.090427
  F      -0.883624      0.415312      1.791880
  F       1.175193      0.164021      1.123784
  F      -1.639966     -4.122149     -0.520213
  F      -3.190902     -3.139199     -1.696888
  F       0.737663      2.577891      1.989223
  F      -1.045333      2.831184      0.774206
  F      -2.525531     -5.440824     -2.778361
  F      -0.418405     -4.992801     -2.756574
  F      -1.756961     -3.839694     -4.006119
  O       2.298220      2.713069     -0.182875
  O       0.460688      3.250966     -1.357642
  C      -0.973054     -1.399375     -0.366877
  C      -0.515210      0.091968     -0.517067
  C      -1.036051     -2.165370     -1.730343
  C      -0.006059      0.721976      0.815257
  C      -1.894202     -3.470620     -1.664447
  C       0.181447      2.267949      0.791589
  C      -1.630458     -4.461690     -2.840154
  C       1.076927      2.808310     -0.377839
80
Coordinates from ORCA-job R4N+PFOA-_wb E -2865.791895733920
  N       5.504218      0.634336      2.544029
  C       3.376931     -4.098048     -1.591899
  C       4.218518     -4.559637     -2.786127
  C       4.479930     -3.482986     -3.846817
  C       4.022608     -2.934220     -0.871070
  C       3.074252     -5.264196     -0.645215
  C       5.874302      0.433814      1.087261
  C       5.226574     -0.743862      0.420766
  C       3.196477     -2.893826     -4.397163
  C       3.403260     -1.690163     -0.839546
  C       5.262201     -3.064499     -0.245890
  C       5.357376     -4.041715     -4.966583
  C       4.040794      0.853335      2.700663
  C       6.226995      1.844244      3.024595
  C       5.920569     -0.532609      3.365928
  C       3.998554     -0.606393     -0.214618
  C       5.854951     -1.987185      0.391311
  C       2.070685     -4.906769      0.441633
  C       2.242746     -3.698627     -5.020117
  C       2.936303     -1.530733     -4.290458
  C       1.067123     -3.157030     -5.517227
  C       1.756816     -0.983348     -4.780138
  C       0.816485     -1.795816     -5.395533
  H       2.417630     -3.741474     -1.979227
  H       3.712783     -5.409954     -3.255458
  H       5.183711     -4.933549     -2.428226
  H       5.027718     -2.664061     -3.370045
  H       4.006286     -5.621074     -0.194719
  H       2.682190     -6.093147     -1.242084
  H       6.959243      0.340548      1.074450
  H       5.594843      1.361111      0.588518
  H       2.445754     -1.563151     -1.328347
  H       5.777551     -4.018720     -0.262142
  H       5.582445     -3.275568     -5.711538
  H       4.862171     -4.872168     -5.476592
  H       6.303637     -4.411714     -4.565047
  H       3.513024     -0.053829      2.421313
  H       3.740964      1.683282      2.064388
  H       3.842367      1.087998      3.744187
  H       7.296336      1.682798      2.908366
  H       5.982627      1.999322      4.072886
  H       5.908296      2.700493      2.434217
  H       5.369261     -1.412949      3.046360
  H       5.693347     -0.313760      4.406885
  H       6.990034     -0.686870      3.240017
  H       3.503762      0.358295     -0.226386
  H       6.822545     -2.109215      0.865969
  H       1.121651     -4.587901      0.002549
  H       2.434492     -4.092640      1.073808
  H       1.867227     -5.762414      1.088640
  H       2.417592     -4.765261     -5.114776
  H       3.664846     -0.889385     -3.805638
  H       0.338415     -3.802023     -5.994113
  H       1.571927      0.079485     -4.673593
  H      -0.108225     -1.374936     -5.772461
  F      -0.122494     -2.048664      0.437497
  F      -2.192841     -1.412124      0.192622
  F       0.481751      0.154494     -1.418800
  F      -1.553868      0.802541     -0.978571
  F      -1.561164     -1.365238     -2.669915
  F       0.212533     -2.490067     -2.090549
  F      -0.885789      0.415170      1.790499
  F       1.173544      0.162386      1.124238
  F      -1.640502     -4.121997     -0.519662
  F      -3.191295     -3.139869     -1.697661
  F       0.737266      2.576310      1.990551
  F      -1.044779      2.831715      0.774299
  F      -2.524523     -5.443449     -2.776175
  F      -0.417544     -4.993133     -2.755982
  F      -1.758108     -3.842554     -4.005901
  O       2.299397      2.713158     -0.180296
  O       0.462413      3.252686     -1.355766
  C      -0.974166     -1.399154     -0.367854
  C      -0.515059      0.091972     -0.518275
  C      -1.036397     -2.165965     -1.731038
  C      -0.006936      0.721613      0.814735
  C      -1.894478     -3.471287     -1.664501
  C       0.181686      2.267574      0.792187
  C      -1.630341     -4.463294     -2.839336
  C       1.078150      2.808270     -0.376266
80
Coordinates from ORCA-job R4N+PFOA-_wb E -2865.791900549441
  N       5.505108      0.635647      2.542557
  C       3.375355     -4.098868     -1.592717
  C       4.217794     -4.560628     -2.786169
  C       4.481264     -3.483798     -3.846287
  C       4.020491     -2.935034     -0.871256
  C       3.072193     -5.264639     -0.645713
  C       5.871844      0.434814      1.085500
  C       5.223702     -0.744049      0.420989
  C       3.198599     -2.892876     -4.396955
  C       3.399825     -1.691601     -0.838063
  C       5.260562     -3.064673     -0.246709
  C       5.358410     -4.043122     -4.965841
  C       4.041372      0.851431      2.702467
  C       6.226341      1.847489      3.020786
  C       5.925994     -0.529882      3.364270
  C       3.994603     -0.607519     -0.212986
  C       5.853149     -1.986959      0.390401
  C       2.068025     -4.907079      0.440539
  C       2.244142     -3.696415     -5.020660
  C       2.940144     -1.529247     -4.290281
  C       1.069696     -3.152927     -5.519000
  C       1.761478     -0.980162     -4.780360
  C       0.820560     -1.791356     -5.396892
  H       2.416392     -3.741883     -1.980556
  H       3.711861     -5.410490     -3.256279
  H       5.182230     -4.935905     -2.427498
  H       5.029689     -2.665409     -3.369246
  H       4.003984     -5.621327     -0.194457
  H       2.680662     -6.094116     -1.242339
  H       6.956910      0.342812      1.068726
  H       5.590231      1.360965      0.585742
  H       2.442193     -1.564660     -1.326561
  H       5.776673     -4.018481     -0.263713
  H       5.585670     -3.276763     -5.709985
  H       4.862692     -4.872317     -5.477454
  H       6.303866     -4.415118     -4.564090
  H       3.514963     -0.057192      2.425124
  H       3.737896      1.680173      2.066178
  H       3.844284      1.086511      3.746187
  H       7.295829      1.688346      2.902441
  H       5.983856      2.003010      4.069482
  H       5.904736      2.702712      2.430407
  H       5.374881     -1.411470      3.047663
  H       5.702034     -0.310551      4.405863
  H       6.995296     -0.682843      3.235148
  H       3.498045      0.356252     -0.223427
  H       6.821425     -2.108699      0.863753
  H       1.118932     -4.588501      0.001323
  H       2.431056     -4.092786      1.073011
  H       1.864510     -5.762683      1.087676
  H       2.417830     -4.763216     -5.115700
  H       3.669200     -0.888796     -3.805062
  H       0.340907     -3.796707     -5.997436
  H       1.577950      0.082929     -4.673716
  H      -0.103096     -1.369133     -5.774938
  F      -0.130686     -2.049021      0.440778
  F      -2.198749     -1.407982      0.187539
  F       0.484419      0.152569     -1.416432
  F      -1.551437      0.804274     -0.982601
  F      -1.559981     -1.367265     -2.671935
  F       0.213020     -2.490690     -2.087360
  F      -0.892079      0.416187      1.789156
  F       1.168628      0.158057      1.128286
  F      -1.642701     -4.121313     -0.517705
  F      -3.191981     -3.140635     -1.699367
  F       0.735622      2.573129      1.994714
  F      -1.042669      2.832917      0.773256
  F      -2.522052     -5.449043     -2.769191
  F      -0.415783     -4.993552     -2.753802
  F      -1.761500     -3.849815     -4.004863
  O       2.303958      2.712499     -0.170690
  O       0.470280      3.248751     -1.353566
  C      -0.977967     -1.398351     -0.368467
  C      -0.515188      0.092091     -0.518833
  C      -1.036985     -2.166779     -1.730963
  C      -0.009547      0.720680      0.815707
  C      -1.895087     -3.472303     -1.663943
  C       0.182734      2.266240      0.794473
  C      -1.630147     -4.466644     -2.836560
  C       1.083212      2.805520     -0.371493
80
Coordinates from ORCA-job R4N+PFOA-_wb E -2865.791904553031
  N       5.506107      0.637683      2.538738
  C       3.374107     -4.101006     -1.591767
  C       4.217004     -4.563607     -2.784504
  C       4.482737     -3.486550     -3.843768
  C       4.018895     -2.936529     -0.870855
  C       3.070179     -5.266046     -0.644125
  C       5.869715      0.436552      1.081094
  C       5.221741     -0.743553      0.418529
  C       3.201331     -2.892299     -4.393840
  C       3.397334     -1.693546     -0.837867
  C       5.259483     -3.064820     -0.247023
  C       5.358706     -4.046622     -4.963820
  C       4.042391      0.850839      2.702099
  C       6.226133      1.851226      3.014385
  C       5.931161     -0.526488      3.360206
  C       3.991735     -0.608587     -0.213947
  C       5.851982     -1.986041      0.388444
  C       2.063986     -4.908163      0.440090
  C       2.246062     -3.692551     -5.020477
  C       2.945202     -1.528529     -4.283763
  C       1.073236     -3.145527     -5.518804
  C       1.768035     -0.976031     -4.773475
  C       0.826414     -1.783871     -5.393286
  H       2.415433     -3.744142     -1.980409
  H       3.710334     -5.412567     -3.255423
  H       5.180587     -4.940405     -2.425166
  H       5.032854     -2.669727     -3.366053
  H       4.001473     -5.621695     -0.191057
  H       2.680192     -6.096410     -1.240517
  H       6.954848      0.346011      1.061711
  H       5.585727      1.361900      0.581187
  H       2.439335     -1.567394     -1.325808
  H       5.776306     -4.018244     -0.263685
  H       5.588039     -3.279930     -5.706996
  H       4.861251     -4.873997     -5.476657
  H       6.303213     -4.421366     -4.562383
  H       3.517001     -0.059004      2.426816
  H       3.735802      1.678465      2.065885
  H       3.847466      1.086424      3.746101
  H       7.295634      1.693921      2.893754
  H       5.985654      2.007175      4.063462
  H       5.901648      2.705320      2.423953
  H       5.380470     -1.409163      3.045942
  H       5.709903     -0.306643      4.402264
  H       7.000311     -0.677893      3.228121
  H       3.493794      0.354468     -0.224076
  H       6.820793     -2.106841      0.860943
  H       1.115322     -4.590802     -0.000979
  H       2.425235     -4.092974      1.072415
  H       1.860089     -5.763294      1.087724
  H       2.417947     -4.759388     -5.118172
  H       3.674941     -0.890630     -3.796220
  H       0.344035     -3.786622     -6.000220
  H       1.586360      0.087082     -4.664326
  H      -0.095948     -1.358954     -5.771449
  F      -0.136261     -2.050840      0.442021
  F      -2.202959     -1.407247      0.183874
  F       0.485011      0.150169     -1.414653
  F      -1.550688      0.804146     -0.983676
  F      -1.559084     -1.367964     -2.673514
  F       0.212904     -2.491344     -2.086220
  F      -0.895558      0.413473      1.789136
  F       1.165638      0.153802      1.130649
  F      -1.645420     -4.122168     -0.519689
  F      -3.192760     -3.140882     -1.703472
  F       0.734190      2.568121      1.998931
  F      -1.043095      2.830932      0.776832
  F      -2.520853     -5.450468     -2.770358
  F      -0.415049     -4.992784     -2.755550
  F      -1.762250     -3.850903     -4.006786
  O       2.303882      2.710356     -0.165729
  O       0.470863      3.248085     -1.348849
  C      -0.980846     -1.399153     -0.369221
  C      -0.515962      0.090708     -0.518511
  C      -1.037664     -2.167511     -1.731719
  C      -0.011509      0.718063      0.817017
  C      -1.895963     -3.472879     -1.666171
  C       0.181980      2.263421      0.797836
  C      -1.629965     -4.467146     -2.838320
  C       1.083272      2.804128     -0.366777
80
Coordinates from ORCA-job R4N+PFOA-_wb E -2865.791907304936
  N       5.505874      0.638275      2.538741
  C       3.374065     -4.101344     -1.591676
  C       4.216518     -4.564207     -2.784773
  C       4.482682     -3.487367     -3.844243
  C       4.018842     -2.936793     -0.870844
  C       3.070293     -5.266297     -0.643893
  C       5.868797      0.436776      1.080856
  C       5.221004     -0.743558      0.418601
  C       3.201733     -2.891884     -4.393951
  C       3.396923     -1.694056     -0.837598
  C       5.259525     -3.064665     -0.247233
  C       5.357713     -4.048337     -4.964610
  C       4.042241      0.850807      2.703024
  C       6.225603      1.852457      3.013204
  C       5.932019     -0.525276      3.360488
  C       3.991050     -0.608928     -0.213809
  C       5.851566     -1.985792      0.388373
  C       2.063389     -4.908380      0.439649
  C       2.245801     -3.690959     -5.020965
  C       2.946645     -1.528083     -4.282924
  C       1.073249     -3.142765     -5.518576
  C       1.769662     -0.974486     -4.771661
  C       0.827323     -1.781152     -5.391778
  H       2.415247     -3.744759     -1.980139
  H       3.709302     -5.412826     -3.255664
  H       5.179988     -4.941414     -2.425661
  H       5.033813     -2.671171     -3.366711
  H       4.001583     -5.621272     -0.190312
  H       2.680923     -6.096970     -1.240202
  H       6.953937      0.346628      1.061448
  H       5.584240      1.362061      0.581224
  H       2.438739     -1.568282     -1.325224
  H       5.776702     -4.017894     -0.264011
  H       5.587565     -3.281860     -5.707824
  H       4.859077     -4.875146     -5.477183
  H       6.301914     -4.424094     -4.563445
  H       3.517228     -0.059504      2.428605
  H       3.734876      1.677948      2.066598
  H       3.848244      1.086832      3.747080
  H       7.295077      1.695461      2.892035
  H       5.985573      2.008894      4.062290
  H       5.900321      2.705928      2.422340
  H       5.381386     -1.408235      3.047006
  H       5.711477     -0.304842      4.402557
  H       7.001105     -0.676230      3.227526
  H       3.492823      0.353985     -0.224128
  H       6.820500     -2.106265      0.860681
  H       1.114884     -4.591678     -0.002228
  H       2.424010     -4.092689      1.071663
  H       1.859512     -5.763262      1.087583
  H       2.416808     -4.757875     -5.119279
  H       3.676999     -0.891051     -3.795213
  H       0.343639     -3.782932     -6.000590
  H       1.588620      0.088622     -4.661477
  H      -0.094907     -1.355332     -5.769230
  F      -0.137684     -2.051161      0.442367
  F      -2.203856     -1.406815      0.182350
  F       0.486098      0.149151     -1.414109
  F      -1.549593      0.804108     -0.984762
  F      -1.558753     -1.368850     -2.674108
  F       0.213159     -2.491883     -2.085923
  F      -0.897084      0.413587      1.788252
  F       1.164474      0.152665      1.131753
  F      -1.645600     -4.122267     -0.519597
  F      -3.192460     -3.141511     -1.704278
  F       0.733923      2.567239      1.999017
  F      -1.042435      2.830834      0.775881
  F      -2.519546     -5.451779     -2.769106
  F      -0.414170     -4.992920     -2.755394
  F      -1.762438     -3.852511     -4.006669
  O       2.304999      2.708723     -0.164493
  O       0.473216      3.246536     -1.349148
  C      -0.981272     -1.399313     -0.369730
  C      -0.515618      0.090199     -0.518729
  C      -1.037504     -2.168024     -1.731890
  C      -0.012021      0.717583      0.816928
  C      -1.895656     -3.473366     -1.666391
  C       0.182358      2.262711      0.797604
  C      -1.629327     -4.468036     -2.837978
  C       1.084644      2.803069     -0.366343
80
Coordinates from ORCA-job R4N+PFOA-_wb E -2865.791908960182
  N       5.505498      0.638368      2.539161
  C       3.374119     -4.101656     -1.591430
  C       4.216306     -4.564041     -2.784919
  C       4.482500     -3.486932     -3.844113
  C       4.018680     -2.937177     -0.870451
  C       3.070442     -5.266899     -0.643911
  C       5.867222      0.437248      1.080726
  C       5.219819     -0.743390      0.418973
  C       3.201800     -2.890874     -4.393642
  C       3.396125     -1.694878     -0.836825
  C       5.259865     -3.064169     -0.247687
  C       5.357169     -4.048145     -4.964737
  C       4.041953      0.849902      2.704889
  C       6.224976      1.853035      3.012826
  C       5.933202     -0.525055      3.360243
  C       3.989841     -0.609474     -0.213268
  C       5.851187     -1.985134      0.388219
  C       2.062586     -4.909153      0.438844
  C       2.245228     -3.689566     -5.019986
  C       2.947762     -1.526850     -4.283531
  C       1.072932     -3.140904     -5.517455
  C       1.771135     -0.972742     -4.772351
  C       0.827955     -1.779128     -5.391440
  H       2.415131     -3.745447     -1.979886
  H       3.708803     -5.412262     -3.256166
  H       5.179854     -4.941268     -2.426094
  H       5.034063     -2.671233     -3.366292
  H       4.001673     -5.621199     -0.189723
  H       2.681781     -6.097693     -1.240448
  H       6.952401      0.347889      1.061183
  H       5.581417      1.362617      0.582026
  H       2.437732     -1.569713     -1.324136
  H       5.777895     -4.016926     -0.265164
  H       5.587137     -3.281634     -5.707839
  H       4.857758     -4.874596     -5.477101
  H       6.301182     -4.424422     -4.563695
  H       3.517434     -0.060769      2.430788
  H       3.733574      1.676984      2.068923
  H       3.849230      1.085580      3.749234
  H       7.294381      1.696529      2.890576
  H       5.985808      2.009272      4.062124
  H       5.898499      2.706164      2.422172
  H       5.382741     -1.408175      3.046930
  H       5.713561     -0.304805      4.402522
  H       7.002233     -0.675179      3.225981
  H       3.491475      0.353330     -0.224260
  H       6.820439     -2.104907      0.860063
  H       1.114427     -4.592916     -0.004094
  H       2.422573     -4.093091      1.070708
  H       1.858481     -5.763892      1.086857
  H       2.415422     -4.756672     -5.117672
  H       3.678853     -0.890020     -3.796683
  H       0.342898     -3.780810     -5.999160
  H       1.590781      0.090551     -4.662609
  H      -0.094229     -1.352949     -5.768615
  F      -0.138732     -2.051350      0.442936
  F      -2.204562     -1.406410      0.181733
  F       0.486967      0.147833     -1.413490
  F      -1.548577      0.804054     -0.985642
  F      -1.559461     -1.369427     -2.673756
  F       0.212806     -2.492007     -2.085849
  F      -0.898826      0.415551      1.787325
  F       1.163149      0.152025      1.133499
  F      -1.646094     -4.122112     -0.518746
  F      -3.192534     -3.142335     -1.704510
  F       0.734287      2.567973      1.997294
  F      -1.040595      2.831805      0.772185
  F      -2.518757     -5.453113     -2.766966
  F      -0.413739     -4.993764     -2.754009
  F      -1.762370     -3.854768     -4.005962
  O       2.307584      2.706362     -0.163966
  O       0.477958      3.242100     -1.352515
  C      -0.981664     -1.399422     -0.369716
  C      -0.515357      0.089680     -0.518695
  C      -1.037812     -2.168395     -1.731556
  C      -0.012441      0.717689      0.816740
  C      -1.895692     -3.473841     -1.665996
  C       0.183605      2.262475      0.795743
  C      -1.628917     -4.469269     -2.836805
  C       1.087641      2.800677     -0.367834
80
Coordinates from ORCA-job R4N+PFOA-_wb E -2865.791908568051
  N       5.505260      0.638206      2.538758
  C       3.373997     -4.101796     -1.591400
  C       4.216139     -4.564358     -2.784856
  C       4.482823     -3.487210     -3.843920
  C       4.018566     -2.937214     -0.870760
  C       3.070581     -5.266903     -0.643601
  C       5.866970      0.437310      1.080192
  C       5.219675     -0.743340      0.418409
  C       3.202437     -2.890189     -4.393080
  C       3.395764     -1.695040     -0.836847
  C       5.259950     -3.064065     -0.248450
  C       5.356934     -4.048841     -4.964798
  C       4.041605      0.848912      2.704511
  C       6.224086      1.853256      3.012442
  C       5.933607     -0.525020      3.359779
  C       3.989433     -0.609554     -0.213377
  C       5.851373     -1.984933      0.387145
  C       2.062168     -4.909198      0.438667
  C       2.245134     -3.688159     -5.019313
  C       2.949420     -1.525985     -4.282757
  C       1.073039     -3.138627     -5.516217
  C       1.772852     -0.971071     -4.770766
  C       0.828890     -1.776752     -5.389628
  H       2.414909     -3.745815     -1.979833
  H       3.708300     -5.412300     -3.256234
  H       5.179552     -4.941953     -2.426029
  H       5.035033     -2.671965     -3.366024
  H       4.001845     -5.620548     -0.188976
  H       2.682492     -6.098070     -1.239995
  H       6.952173      0.348258      1.060637
  H       5.580787      1.362713      0.581784
  H       2.437119     -1.570169     -1.323711
  H       5.778142     -4.016732     -0.266205
  H       5.587122     -3.282390     -5.707888
  H       4.856829     -4.874959     -5.477021
  H       6.300809     -4.425675     -4.563973
  H       3.517637     -0.061981      2.430137
  H       3.732840      1.675991      2.068733
  H       3.848716      1.084217      3.748925
  H       7.293568      1.697354      2.890124
  H       5.984894      2.009260      4.061777
  H       5.897056      2.706239      2.421883
  H       5.383627     -1.408397      3.046387
  H       5.713857     -0.304927      4.402067
  H       7.002718     -0.674566      3.225466
  H       3.490929      0.353196     -0.224166
  H       6.820811     -2.104527      0.858646
  H       1.114066     -4.593698     -0.004880
  H       2.421547     -4.092603      1.070191
  H       1.858262     -5.763707      1.087043
  H       2.414610     -4.755350     -5.117340
  H       3.681158     -0.889735     -3.796101
  H       0.342475     -3.777956     -5.997885
  H       1.593187      0.092311     -4.660655
  H      -0.093226     -1.349924     -5.766233
  F      -0.139209     -2.051530      0.443192
  F      -2.204997     -1.406432      0.181744
  F       0.487244      0.147044     -1.413188
  F      -1.548385      0.803769     -0.986333
  F      -1.560290     -1.370051     -2.673423
  F       0.212408     -2.492083     -2.085756
  F      -0.900156      0.416701      1.786833
  F       1.162106      0.151715      1.134515
  F      -1.646177     -4.122613     -0.518138
  F      -3.192675     -3.143403     -1.704263
  F       0.734488      2.568399      1.996214
  F      -1.040033      2.832416      0.770592
  F      -2.518431     -5.453955     -2.766421
  F      -0.413422     -4.994501     -2.753117
  F      -1.761864     -3.855655     -4.005440
  O       2.308228      2.705251     -0.164664
  O       0.479064      3.240640     -1.354104
  C      -0.982034     -1.399659     -0.369590
  C      -0.515473      0.089332     -0.518792
  C      -1.038212     -2.168828     -1.731284
  C      -0.013009      0.717755      0.816645
  C      -1.895761     -3.474536     -1.665513
  C       0.183857      2.262463      0.794768
  C      -1.628603     -4.470099     -2.836209
  C       1.088361      2.799572     -0.369025
80
Coordinates from ORCA-job R4N+PFOA-_wb E -2865.791910574116
  N       5.504448      0.638273      2.535799
  C       3.373090     -4.102988     -1.591392
  C       4.215419     -4.566699     -2.784298
  C       4.485133     -3.489712     -3.842848
  C       4.017423     -2.937652     -0.871980
  C       3.070430     -5.267417     -0.642439
  C       5.865205      0.438155      1.076711
  C       5.218392     -0.742912      0.415386
  C       3.206622     -2.887693     -4.390723
  C       3.393465     -1.696001     -0.837116
  C       5.259681     -3.063661     -0.251396
  C       5.356861     -4.053639     -4.964497
  C       4.040440      0.845523      2.702827
  C       6.220825      1.854973      3.008887
  C       5.936261     -0.524019      3.356301
  C       3.987059     -0.609885     -0.214607
  C       5.851063     -1.984120      0.383410
  C       2.059983     -4.909832      0.438041
  C       2.245933     -3.681584     -5.017074
  C       2.958762     -1.522657     -4.278644
  C       1.075039     -3.127252     -5.511568
  C       1.783532     -0.962920     -4.764311
  C       0.835718     -1.764641     -5.382604
  H       2.413767     -3.747776     -1.980018
  H       3.706127     -5.413474     -3.256234
  H       5.177914     -4.946278     -2.425047
  H       5.040393     -2.676645     -3.364655
  H       4.001735     -5.618816     -0.186163
  H       2.684397     -6.100000     -1.238236
  H       6.950512      0.350479      1.056200
  H       5.577247      1.363438      0.579086
  H       2.433811     -1.572364     -1.322272
  H       5.778587     -4.015921     -0.269919
  H       5.588862     -3.287589     -5.707432
  H       4.853641     -4.877990     -5.476520
  H       6.299781     -4.433522     -4.564314
  H       3.518385     -0.066328      2.428109
  H       3.729403      1.672395      2.067898
  H       3.847607      1.079615      3.747566
  H       7.290574      1.701767      2.885432
  H       5.982449      2.010170      4.058547
  H       5.891018      2.707340      2.418948
  H       5.388273     -1.408668      3.043106
  H       5.716750     -0.304724      4.398823
  H       7.005631     -0.671044      3.221132
  H       3.487850      0.352555     -0.224690
  H       6.821171     -2.102847      0.853721
  H       1.111932     -4.597244     -0.007609
  H       2.416993     -4.091196      1.068286
  H       1.857000     -5.763458      1.087869
  H       2.411588     -4.749232     -5.116751
  H       3.693358     -0.889761     -3.791893
  H       0.341619     -3.763430     -5.993124
  H       1.607680      0.100954     -4.652312
  H      -0.085522     -1.334115     -5.757145
  F      -0.141784     -2.052935      0.445191
  F      -2.207582     -1.407495      0.183394
  F       0.486376      0.143687     -1.411364
  F      -1.549456      0.801995     -0.987084
  F      -1.564765     -1.372522     -2.670925
  F       0.209861     -2.492520     -2.084515
  F      -0.905174      0.420142      1.786474
  F       1.157768      0.149998      1.138581
  F      -1.647297     -4.125690     -0.516101
  F      -3.194272     -3.148016     -1.702919
  F       0.734533      2.569353      1.993199
  F      -1.038978      2.833931      0.766099
  F      -2.517751     -5.456567     -2.766577
  F      -0.412706     -4.996720     -2.750134
  F      -1.759575     -3.857254     -4.003666
  O       2.309419      2.701458     -0.166556
  O       0.481457      3.234360     -1.359143
  C      -0.984536     -1.401298     -0.367790
  C      -0.517304      0.087478     -0.517961
  C      -1.040874     -2.170802     -1.729340
  C      -0.015772      0.717331      0.817266
  C      -1.897041     -3.477630     -1.663463
  C       0.183860      2.261892      0.792244
  C      -1.627878     -4.472574     -2.834609
  C       1.089728      2.795195     -0.372532
80
Coordinates from ORCA-job R4N+PFOA-_wb E -2865.791909838591
  N       5.503880      0.637526      2.536655
  C       3.373423     -4.102581     -1.591970
  C       4.215677     -4.565921     -2.785073
  C       4.485016     -3.488804     -3.843578
  C       4.017742     -2.937469     -0.872085
  C       3.070759     -5.267323     -0.643398
  C       5.865807      0.437583      1.077845
  C       5.219032     -0.743162      0.415769
  C       3.206146     -2.887341     -4.391317
  C       3.394190     -1.695612     -0.837473
  C       5.259656     -3.064001     -0.250805
  C       5.356842     -4.052361     -4.965306
  C       4.039833      0.845622      2.702646
  C       6.220611      1.853603      3.010734
  C       5.934304     -0.525233      3.357246
  C       3.987987     -0.609709     -0.214768
  C       5.851371     -1.984528      0.383968
  C       2.061490     -4.909786      0.438187
  C       2.245305     -3.681920     -5.016595
  C       2.957784     -1.522334     -4.279737
  C       1.073997     -3.128281     -5.510933
  C       1.782254     -0.963216     -4.765485
  C       0.834434     -1.765618     -5.382889
  H       2.414165     -3.747125     -1.980436
  H       3.706542     -5.412792     -3.257016
  H       5.178261     -4.945413     -2.425987
  H       5.039970     -2.675520     -3.365449
  H       4.002199     -5.619612     -0.188079
  H       2.683726     -6.099343     -1.239341
  H       6.951088      0.349383      1.058061
  H       5.578821      1.363020      0.579920
  H       2.434842     -1.571595     -1.323201
  H       5.778166     -4.016479     -0.269054
  H       5.588573     -3.286195     -5.708221
  H       4.853971     -4.876871     -5.477435
  H       6.299931     -4.431950     -4.565221
  H       3.517360     -0.065839      2.427339
  H       3.729643      1.672832      2.067705
  H       3.846265      1.079568      3.747274
  H       7.290377      1.699858      2.888044
  H       5.981562      2.008600      4.060275
  H       5.891796      2.706416      2.420890
  H       5.386170     -1.409583      3.043348
  H       5.713915     -0.306169      4.399627
  H       7.003726     -0.672814      3.223140
  H       3.489163      0.352899     -0.224919
  H       6.821239     -2.103570      0.854715
  H       1.113179     -4.596301     -0.006284
  H       2.419540     -4.091819      1.068714
  H       1.858587     -5.763731      1.087627
  H       2.411207     -4.749582     -5.115620
  H       3.692344     -0.888919     -3.793628
  H       0.340343     -3.765032     -5.991351
  H       1.606224      0.100694     -4.654281
  H      -0.087064     -1.335591     -5.757370
  F      -0.139948     -2.052132      0.444689
  F      -2.206162     -1.407494      0.184632
  F       0.486106      0.144110     -1.412716
  F      -1.549848      0.801733     -0.987690
  F      -1.565816     -1.373189     -2.670496
  F       0.209518     -2.492709     -2.085249
  F      -0.904356      0.421381      1.785605
  F       1.158413      0.151424      1.137227
  F      -1.645952     -4.125302     -0.514333
  F      -3.194043     -3.148707     -1.700546
  F       0.734519      2.570954      1.991446
  F      -1.038910      2.834899      0.764103
  F      -2.517658     -5.457127     -2.764797
  F      -0.412540     -4.997389     -2.748030
  F      -1.759126     -3.858034     -4.001926
  O       2.309680      2.702446     -0.168223
  O       0.481743      3.234786     -1.361182
  C      -0.983667     -1.401020     -0.367737
  C      -0.517115      0.087900     -0.518806
  C      -1.040966     -2.170974     -1.729030
  C      -0.015287      0.718460      0.816007
  C      -1.896693     -3.477939     -1.661833
  C       0.184037      2.263082      0.790494
  C      -1.627703     -4.473170     -2.832737
  C       1.089979      2.796184     -0.374271
80
Coordinates from ORCA-job R4N+PFOA-_wb E -2865.791909605381
  N       5.503142      0.637377      2.536683
  C       3.373538     -4.103081     -1.592842
  C       4.215990     -4.565522     -2.786164
  C       4.485543     -3.487818     -3.844007
  C       4.017492     -2.938352     -0.871816
  C       3.070726     -5.268489     -0.645172
  C       5.865971      0.436518      1.078302
  C       5.218886     -0.744226      0.416367
  C       3.206649     -2.885512     -4.390908
  C       3.394367     -1.696292     -0.837733
  C       5.258646     -3.065459     -0.248976
  C       5.356692     -4.050928     -4.966420
  C       4.039131      0.846497      2.701950
  C       6.220515      1.853087      3.010672
  C       5.932252     -0.525274      3.358127
  C       3.988277     -0.610537     -0.214921
  C       5.850508     -1.985918      0.385730
  C       2.062491     -4.911507      0.437540
  C       2.244387     -3.679602     -5.014649
  C       2.959565     -1.520253     -4.280007
  C       1.073064     -3.125287     -5.508285
  C       1.784100     -0.960371     -4.765196
  C       0.834939     -1.762309     -5.381156
  H       2.414394     -3.747347     -1.981237
  H       3.706996     -5.412146     -3.258739
  H       5.178466     -4.945327     -2.427126
  H       5.040976     -2.675088     -3.365564
  H       4.002226     -5.621858     -0.190816
  H       2.682834     -6.099725     -1.241649
  H       6.951194      0.347464      1.059172
  H       5.580276      1.361773      0.579278
  H       2.435624     -1.571797     -1.324605
  H       5.776691     -4.018199     -0.266504
  H       5.588843     -3.284257     -5.708698
  H       4.853325     -4.874659     -5.479348
  H       6.299639     -4.431527     -4.566938
  H       3.516053     -0.064751      2.426989
  H       3.729462      1.673506      2.066468
  H       3.845208      1.081135      3.746335
  H       7.290250      1.698554      2.888622
  H       5.981068      2.008744      4.060024
  H       5.892712      2.705954      2.420352
  H       5.383638     -1.409486      3.044491
  H       5.711453     -0.305577      4.400279
  H       7.001648     -0.673745      3.224807
  H       3.489949      0.352278     -0.225501
  H       6.819973     -2.105220      0.857261
  H       1.113909     -4.596862     -0.005595
  H       2.421487     -4.094560      1.068854
  H       1.859600     -5.766118      1.086117
  H       2.409223     -4.747470     -5.113111
  H       3.695139     -0.887153     -3.795058
  H       0.338152     -3.761742     -5.987095
  H       1.609287      0.103800     -4.654828
  H      -0.086472     -1.331690     -5.755194
  F      -0.137678     -2.052141      0.443997
  F      -2.204419     -1.408469      0.186561
  F       0.485613      0.143745     -1.414207
  F      -1.550582      0.800367     -0.988650
  F      -1.568250     -1.374906     -2.669455
  F       0.208346     -2.493721     -2.086754
  F      -0.904484      0.423309      1.784191
  F       1.158241      0.152426      1.136211
  F      -1.644721     -4.125314     -0.511280
  F      -3.194218     -3.150687     -1.697095
  F       0.734492      2.572699      1.988360
  F      -1.038696      2.835848      0.760518
  F      -2.517572     -5.458877     -2.761906
  F      -0.412387     -4.999341     -2.743668
  F      -1.757901     -3.860227     -3.998837
  O       2.310001      2.702550     -0.171257
  O       0.482120      3.232772     -1.365287
  C      -0.982728     -1.401578     -0.367526
  C      -0.517141      0.087542     -0.519802
  C      -1.041672     -2.172036     -1.728421
  C      -0.015285      0.719424      0.814305
  C      -1.896666     -3.479209     -1.659149
  C       0.184238      2.263958      0.787492
  C      -1.627485     -4.474994     -2.829344
  C       1.090311      2.795944     -0.377534
80
Coordinates from ORCA-job R4N+PFOA-_wb E -2865.791912524462
  N       5.503335      0.637585      2.535759
  C       3.372871     -4.103720     -1.592621
  C       4.215403     -4.565814     -2.785980
  C       4.485721     -3.487586     -3.843084
  C       4.016935     -2.939169     -0.871339
  C       3.069768     -5.269424     -0.645426
  C       5.866353      0.435875      1.077640
  C       5.218975     -0.744943      0.416082
  C       3.207321     -2.884203     -4.389984
  C       3.394195     -1.696917     -0.837726
  C       5.258277     -3.066264     -0.248842
  C       5.356810     -4.050393     -4.965657
  C       4.039358      0.847049      2.700718
  C       6.220830      1.853468      3.009136
  C       5.932132     -0.524662      3.357942
  C       3.988317     -0.611196     -0.215102
  C       5.850394     -1.986697      0.385598
  C       2.061749     -4.912732      0.437538
  C       2.244376     -3.677445     -5.013701
  C       2.961403     -1.518761     -4.279050
  C       1.073470     -3.122180     -5.507223
  C       1.786450     -0.957881     -4.764290
  C       0.836544     -1.759001     -5.380134
  H       2.413877     -3.747649     -1.981078
  H       3.706302     -5.412031     -3.259138
  H       5.177604     -4.946192     -2.426828
  H       5.041447     -2.675449     -3.363978
  H       4.001196     -5.623319     -0.191325
  H       2.681618     -6.100300     -1.242224
  H       6.951540      0.346409      1.058714
  H       5.581184      1.360958      0.578004
  H       2.435559     -1.572259     -1.324739
  H       5.776166     -4.019091     -0.266244
  H       5.589887     -3.283267     -5.707173
  H       4.853040     -4.873258     -5.479571
  H       6.299319     -4.432125     -4.566199
  H       3.516133     -0.064330      2.426440
  H       3.729780      1.673590      2.064580
  H       3.845419      1.082522      3.744905
  H       7.290552      1.698734      2.887257
  H       5.981319      2.009793      4.058370
  H       5.893211      2.706038      2.418286
  H       5.383464     -1.408992      3.044759
  H       5.711160     -0.304329      4.399922
  H       7.001536     -0.673329      3.224953
  H       3.490159      0.351714     -0.225781
  H       6.819932     -2.106055      0.856970
  H       1.113176     -4.597542     -0.005240
  H       2.421002     -4.096291      1.069348
  H       1.858666     -5.767681      1.085609
  H       2.408242     -4.745484     -5.112047
  H       3.697472     -0.886284     -3.794028
  H       0.337779     -3.758053     -5.985614
  H       1.612528      0.106436     -4.653854
  H      -0.084562     -1.327613     -5.754028
  F      -0.137470     -2.052864      0.443834
  F      -2.204446     -1.409525      0.187316
  F       0.484829      0.143106     -1.414195
  F      -1.551360      0.799487     -0.988284
  F      -1.569484     -1.375485     -2.668925
  F       0.207705     -2.493680     -2.087177
  F      -0.904635      0.423486      1.784378
  F       1.158020      0.152444      1.136164
  F      -1.644726     -4.125940     -0.510694
  F      -3.194405     -3.152293     -1.696892
  F       0.734552      2.572964      1.987301
  F      -1.039152      2.835558      0.760069
  F      -2.517085     -5.459951     -2.761848
  F      -0.411930     -5.000716     -2.741967
  F      -1.756334     -3.861558     -3.998346
  O       2.309112      2.702386     -0.172958
  O       0.480663      3.231136     -1.366718
  C      -0.982964     -1.402306     -0.367233
  C      -0.517689      0.086897     -0.519554
  C      -1.042302     -2.172571     -1.728217
  C      -0.015599      0.719265      0.814202
  C      -1.896711     -3.480213     -1.658752
  C       0.183843      2.263753      0.786748
  C      -1.626889     -4.476169     -2.828654
  C       1.089339      2.795258     -0.378852
80
Coordinates from ORCA-job R4N+PFOA-_wb E -2865.791912188821
  N       5.503698      0.638266      2.532572
  C       3.370560     -4.105999     -1.591485
  C       4.212549     -4.567270     -2.785472
  C       4.485854     -3.487565     -3.840162
  C       4.015150     -2.941761     -0.870116
  C       3.067140     -5.272378     -0.645370
  C       5.866867      0.434274      1.075095
  C       5.218844     -0.746914      0.414699
  C       3.209593     -2.879304     -4.386759
  C       3.393452     -1.698963     -0.838183
  C       5.256767     -3.068724     -0.248171
  C       5.355893     -4.050129     -4.963599
  C       4.039811      0.848226      2.697115
  C       6.221216      1.854910      3.004137
  C       5.932260     -0.522857      3.356475
  C       3.988081     -0.613148     -0.216389
  C       5.849313     -1.989112      0.385699
  C       2.059591     -4.916536      0.438165
  C       2.243305     -3.668575     -5.010116
  C       2.969200     -1.512863     -4.276030
  C       1.074499     -3.108760     -5.503278
  C       1.796595     -0.947238     -4.761414
  C       0.843121     -1.744642     -5.376454
  H       2.411707     -3.749086     -1.979575
  H       3.702240     -5.411694     -3.260430
  H       5.173744     -4.950313     -2.426414
  H       5.043519     -2.677970     -3.359032
  H       3.998540     -5.627267     -0.191936
  H       2.678574     -6.102551     -1.242857
  H       6.951988      0.343943      1.056516
  H       5.582690      1.358850      0.573984
  H       2.435142     -1.573984     -1.325580
  H       5.774046     -4.021912     -0.264600
  H       5.592628     -3.281614     -5.702516
  H       4.849708     -4.869466     -5.480743
  H       6.296638     -4.436663     -4.564545
  H       3.516424     -0.063775      2.425057
  H       3.730036      1.673228      2.059066
  H       3.846193      1.086193      3.740800
  H       7.290920      1.700032      2.882370
  H       5.981761      2.012868      4.053136
  H       5.893565      2.706552      2.411954
  H       5.383702     -1.407588      3.044400
  H       5.710940     -0.301035      4.398070
  H       7.001715     -0.671609      3.224098
  H       3.490311      0.349992     -0.227822
  H       6.818741     -2.108731      0.857241
  H       1.110868     -4.600540     -0.003753
  H       2.419170     -4.101051      1.071005
  H       1.856431     -5.772248      1.085216
  H       2.402667     -4.737323     -5.108213
  H       3.707703     -0.883282     -3.790915
  H       0.335594     -3.741837     -5.980461
  H       1.626975      0.117821     -4.650973
  H      -0.076476     -1.309679     -5.749904
  F      -0.136162     -2.055121      0.443872
  F      -2.204311     -1.414049      0.190024
  F       0.481678      0.140482     -1.414724
  F      -1.554762      0.795401     -0.987370
  F      -1.572940     -1.378865     -2.666882
  F       0.206377     -2.494440     -2.087840
  F      -0.905411      0.424215      1.784504
  F       1.156929      0.152410      1.135568
  F      -1.644389     -4.129124     -0.508224
  F      -3.194329     -3.158521     -1.696139
  F       0.733890      2.574137      1.982895
  F      -1.040764      2.834674      0.756607
  F      -2.514634     -5.464692     -2.760792
  F      -0.409570     -5.006077     -2.735744
  F      -1.750532     -3.867174     -3.996228
  O       2.306700      2.701939     -0.178044
  O       0.477310      3.224785     -1.372798
  C      -0.983466     -1.405413     -0.365973
  C      -0.519905      0.084145     -0.519067
  C      -1.043678     -2.175444     -1.727030
  C      -0.016956      0.718592      0.813315
  C      -1.896215     -3.484620     -1.656999
  C       0.182322      2.263001      0.783226
  C      -1.624180     -4.481184     -2.825849
  C       1.086807      2.792483     -0.383887
80
Coordinates from ORCA-job R4N+PFOA-_wb E -2865.791913724528
  N       5.503823      0.638076      2.534546
  C       3.371672     -4.104898     -1.591734
  C       4.213653     -4.566516     -2.785647
  C       4.484837     -3.487486     -3.841614
  C       4.016294     -2.940597     -0.870521
  C       3.068343     -5.270930     -0.645157
  C       5.866855      0.434834      1.076848
  C       5.219007     -0.746178      0.416084
  C       3.207342     -2.881965     -4.388311
  C       3.394256     -1.697963     -0.837928
  C       5.257550     -3.067725     -0.247940
  C       5.355389     -4.049846     -4.964805
  C       4.039954      0.848317      2.699140
  C       6.221670      1.854246      3.006809
  C       5.932128     -0.523623      3.357766
  C       3.988604     -0.612261     -0.215579
  C       5.849674     -1.988319      0.386667
  C       2.060888     -4.914501      0.438342
  C       2.243005     -3.673275     -5.012178
  C       2.964118     -1.516011     -4.277625
  C       1.073375     -3.115731     -5.506074
  C       1.790459     -0.952824     -4.763222
  C       0.839148     -1.752074     -5.379242
  H       2.412709     -3.748200     -1.979803
  H       3.704020     -5.411994     -3.259501
  H       5.175574     -4.947932     -2.426797
  H       5.041361     -2.676431     -3.361585
  H       3.999768     -5.625621     -0.191639
  H       2.679648     -6.101301     -1.242295
  H       6.951994      0.344700      1.058138
  H       5.582326      1.359629      0.576330
  H       2.435908     -1.572941     -1.325324
  H       5.774999     -4.020814     -0.264614
  H       5.590118     -3.281863     -5.704910
  H       4.850483     -4.870917     -5.480449
  H       6.297129     -4.433910     -4.565740
  H       3.516419     -0.063348      2.426418
  H       3.730632      1.673857      2.061594
  H       3.846298      1.085645      3.742961
  H       7.291327      1.699089      2.884981
  H       5.982209      2.011620      4.055887
  H       5.894248      2.706296      2.415092
  H       5.383228     -1.407982      3.045210
  H       5.711007     -0.302288      4.399516
  H       7.001522     -0.672621      3.225094
  H       3.490773      0.350827     -0.227004
  H       6.818956     -2.108040      0.858469
  H       1.112258     -4.598443     -0.003710
  H       2.420716     -4.098810      1.070786
  H       1.857561     -5.769895      1.085760
  H       2.404702     -4.741668     -5.110364
  H       3.701212     -0.884915     -3.792335
  H       0.336327     -3.750169     -5.984314
  H       1.618580      0.111848     -4.652765
  H      -0.081019     -1.318910     -5.753381
  F      -0.136749     -2.053778      0.443440
  F      -2.204294     -1.411780      0.187464
  F       0.483378      0.142210     -1.415040
  F      -1.552941      0.797653     -0.988080
  F      -1.569777     -1.377388     -2.669053
  F       0.208180     -2.494101     -2.087469
  F      -0.904152      0.422674      1.784215
  F       1.158241      0.152520      1.134665
  F      -1.644260     -4.127203     -0.509956
  F      -3.193555     -3.155204     -1.697891
  F       0.733900      2.572975      1.985600
  F      -1.040388      2.834498      0.759031
  F      -2.514775     -5.463053     -2.760683
  F      -0.409765     -5.003587     -2.739050
  F      -1.753024     -3.865792     -3.997932
  O       2.307503      2.703015     -0.175006
  O       0.478415      3.229237     -1.368787
  C      -0.982910     -1.403755     -0.367352
  C      -0.518599      0.085657     -0.519803
  C      -1.042069     -2.174039     -1.728348
  C      -0.015911      0.718654      0.813361
  C      -1.895696     -3.482405     -1.658695
  C       0.182847      2.263174      0.785351
  C      -1.624714     -4.479259     -2.827533
  C       1.087648      2.794561     -0.380751
80
Coordinates from ORCA-job R4N+PFOA-_wb E -2865.791913035235
  N       5.503995      0.638027      2.535710
  C       3.371917     -4.104198     -1.591924
  C       4.213768     -4.566159     -2.785832
  C       4.483888     -3.487552     -3.842513
  C       4.016796     -2.939909     -0.871010
  C       3.069018     -5.269939     -0.644847
  C       5.867266      0.434548      1.078007
  C       5.219238     -0.746256      0.417124
  C       3.205887     -2.883089     -4.389106
  C       3.394732     -1.697284     -0.837759
  C       5.257749     -3.067524     -0.247990
  C       5.354501     -4.050012     -4.965656
  C       4.040078      0.848562      2.699862
  C       6.221952      1.854110      3.008037
  C       5.931931     -0.523640      3.359154
  C       3.989101     -0.611872     -0.214840
  C       5.849971     -1.988440      0.387037
  C       2.061704     -4.913269      0.438759
  C       2.242430     -3.675105     -5.013448
  C       2.961503     -1.517354     -4.278090
  C       1.072620     -3.118235     -5.507846
  C       1.787666     -0.954922     -4.764086
  C       0.837339     -1.754747     -5.380897
  H       2.412800     -3.747752     -1.979778
  H       3.704382     -5.412213     -3.258992
  H       5.176111     -4.946687     -2.427176
  H       5.040068     -2.675870     -3.363152
  H       4.000604     -5.624234     -0.191359
  H       2.680369     -6.100612     -1.241612
  H       6.952389      0.344148      1.059469
  H       5.582978      1.359419      0.577487
  H       2.436318     -1.572029     -1.325006
  H       5.775119     -4.020650     -0.265005
  H       5.588234     -3.282365     -5.706429
  H       4.850003     -4.871903     -5.480406
  H       6.296726     -4.432943     -4.566664
  H       3.516503     -0.063052      2.427166
  H       3.731225      1.674080      2.062064
  H       3.846125      1.086122      3.743576
  H       7.291609      1.698756      2.886415
  H       5.982304      2.011534      4.057062
  H       5.894747      2.706177      2.416225
  H       5.383072     -1.407960      3.046406
  H       5.710491     -0.302230      4.400824
  H       7.001356     -0.672716      3.226794
  H       3.491381      0.351268     -0.226083
  H       6.819223     -2.108447      0.858816
  H       1.112932     -4.597629     -0.003278
  H       2.421535     -4.097157      1.070673
  H       1.858728     -5.768374      1.086667
  H       2.405005     -4.743358     -5.111744
  H       3.698043     -0.885794     -3.792561
  H       0.336380     -3.753050     -5.986838
  H       1.614965      0.109589     -4.653520
  H      -0.082880     -1.322155     -5.755570
  F      -0.137067     -2.053099      0.443524
  F      -2.204324     -1.410885      0.185883
  F       0.484300      0.143005     -1.415213
  F      -1.552063      0.798486     -0.988685
  F      -1.567353     -1.377330     -2.670379
  F       0.209737     -2.494582     -2.086601
  F      -0.903603      0.421688      1.784009
  F       1.158859      0.152548      1.134067
  F      -1.644352     -4.126588     -0.510778
  F      -3.192833     -3.153689     -1.699313
  F       0.733880      2.572314      1.986717
  F      -1.040390      2.834239      0.760189
  F      -2.514263     -5.462864     -2.760267
  F      -0.409297     -5.002678     -2.740456
  F      -1.753820     -3.865958     -3.998871
  O       2.307612      2.703353     -0.174021
  O       0.478457      3.231386     -1.366973
  C      -0.982542     -1.403165     -0.368059
  C      -0.517969      0.086238     -0.520291
  C      -1.040748     -2.173859     -1.728944
  C      -0.015524      0.718512      0.813313
  C      -1.895175     -3.481664     -1.659616
  C       0.182922      2.263109      0.786285
  C      -1.624494     -4.478842     -2.828292
  C       1.087729      2.795403     -0.379522
80
Coordinates from ORCA-job R4N+PFOA-_wb E -2865.791914662329
  N       5.503498      0.637579      2.536032
  C       3.371899     -4.104113     -1.592131
  C       4.213500     -4.566197     -2.786221
  C       4.483701     -3.487661     -3.842977
  C       4.016893     -2.939826     -0.871300
  C       3.069227     -5.269855     -0.644962
  C       5.867135      0.434405      1.078335
  C       5.219211     -0.746230      0.417107
  C       3.205897     -2.882310     -4.389020
  C       3.394815     -1.697195     -0.837981
  C       5.257814     -3.067475     -0.248229
  C       5.353505     -4.050557     -4.966541
  C       4.039526      0.848096      2.699892
  C       6.221357      1.853521      3.008853
  C       5.931236     -0.524342      3.359226
  C       3.989224     -0.611772     -0.215092
  C       5.849978     -1.988401      0.386906
  C       2.062377     -4.913087      0.439057
  C       2.241369     -3.673716     -5.012528
  C       2.962907     -1.516297     -4.278433
  C       1.071837     -3.115927     -5.506557
  C       1.789290     -0.952983     -4.763886
  C       0.837901     -1.752159     -5.379969
  H       2.412687     -3.747675     -1.979776
  H       3.703877     -5.412171     -3.259274
  H       5.175846     -4.946870     -2.427746
  H       5.040584     -2.676354     -3.363811
  H       4.000941     -5.624253     -0.191828
  H       2.680249     -6.100463     -1.241605
  H       6.952256      0.343957      1.060083
  H       5.582979      1.359404      0.577977
  H       2.436370     -1.571945     -1.325207
  H       5.775215     -4.020584     -0.265285
  H       5.587321     -3.282996     -5.707376
  H       4.848269     -4.872131     -5.481077
  H       6.295691     -4.434021     -4.567980
  H       3.516028     -0.063467      2.426915
  H       3.730850      1.673749      2.062167
  H       3.845322      1.085466      3.743604
  H       7.291032      1.698256      2.887271
  H       5.981611      2.010540      4.057917
  H       5.894151      2.705785      2.417329
  H       5.382648     -1.408622      3.045863
  H       5.709308     -0.303373      4.400885
  H       7.000738     -0.673211      3.227260
  H       3.491624      0.351416     -0.226488
  H       6.819149     -2.108439      0.858839
  H       1.113497     -4.597309     -0.002623
  H       2.422589     -4.097023      1.070815
  H       1.859531     -5.768168      1.087036
  H       2.402901     -4.742159     -5.110486
  H       3.700323     -0.885264     -3.793553
  H       0.334832     -3.750196     -5.985085
  H       1.617630      0.111723     -4.653557
  H      -0.082066     -1.318825     -5.754408
  F      -0.136711     -2.052756      0.443566
  F      -2.204112     -1.410957      0.186045
  F       0.484135      0.142526     -1.416115
  F      -1.552296      0.797977     -0.989774
  F      -1.568125     -1.378782     -2.670249
  F       0.209656     -2.495065     -2.086637
  F      -0.903821      0.422604      1.782990
  F       1.158683      0.153200      1.133306
  F      -1.643625     -4.126790     -0.509099
  F      -3.192447     -3.155276     -1.698341
  F       0.733335      2.573324      1.984970
  F      -1.040449      2.834786      0.757635
  F      -2.513063     -5.464694     -2.757983
  F      -0.408161     -5.004028     -2.737934
  F      -1.752575     -3.868368     -3.997343
  O       2.307944      2.703490     -0.175010
  O       0.479336      3.230571     -1.369241
  C      -0.982436     -1.403313     -0.368139
  C      -0.518091      0.086073     -0.521118
  C      -1.040800     -2.174636     -1.728650
  C      -0.015699      0.718974      0.812221
  C      -1.894676     -3.482718     -1.658368
  C       0.182806      2.263576      0.784492
  C      -1.623467     -4.480542     -2.826376
  C       1.088151      2.795279     -0.381201
80
Coordinates from ORCA-job R4N+PFOA-_wb E -2865.791911881899
  N       5.503459      0.637511      2.535659
  C       3.371406     -4.104704     -1.591716
  C       4.212559     -4.566444     -2.786260
  C       4.483184     -3.487505     -3.842483
  C       4.016554     -2.940585     -0.870696
  C       3.068725     -5.270732     -0.644908
  C       5.867196      0.434028      1.078049
  C       5.219232     -0.746650      0.417059
  C       3.205777     -2.880676     -4.387912
  C       3.394820     -1.697783     -0.837945
  C       5.257556     -3.068122     -0.247711
  C       5.352020     -4.050500     -4.966761
  C       4.039503      0.848272      2.699341
  C       6.221486      1.853411      3.008341
  C       5.930942     -0.524384      3.359051
  C       3.989361     -0.612241     -0.215418
  C       5.849600     -1.988988      0.387530
  C       2.062443     -4.914032      0.439651
  C       2.239844     -3.670884     -5.010820
  C       2.964785     -1.514248     -4.277763
  C       1.071161     -3.111477     -5.505051
  C       1.791917     -0.949383     -4.763220
  C       0.839305     -1.747347     -5.378954
  H       2.412127     -3.748089     -1.979008
  H       3.702458     -5.411915     -3.259668
  H       5.174766     -4.947817     -2.428138
  H       5.041008     -2.676960     -3.363072
  H       4.000476     -5.625702     -0.192300
  H       2.679187     -6.100931     -1.241744
  H       6.952307      0.343435      1.059979
  H       5.583175      1.358958      0.577474
  H       2.436541     -1.572437     -1.325432
  H       5.774907     -4.021268     -0.264507
  H       5.586440     -3.282631     -5.707083
  H       4.845710     -4.871115     -5.481769
  H       6.293917     -4.435298     -4.568809
  H       3.515947     -0.063417      2.426804
  H       3.730960      1.673635      2.061177
  H       3.845303      1.086186      3.742930
  H       7.291129      1.698018      2.886649
  H       5.981855      2.010507      4.057422
  H       5.894303      2.705654      2.416781
  H       5.382550     -1.408708      3.045443
  H       5.708577     -0.303418      4.400618
  H       7.000510     -0.673152      3.227509
  H       3.491971      0.351057     -0.227363
  H       6.818578     -2.109117      0.859840
  H       1.113597     -4.597395     -0.001494
  H       2.423328     -4.098580      1.071804
  H       1.859290     -5.769405      1.087147
  H       2.399721     -4.739606     -5.108392
  H       3.703170     -0.884125     -3.793183
  H       0.333184     -3.744753     -5.983376
  H       1.621860      0.115626     -4.653282
  H      -0.080026     -1.312776     -5.753523
  F      -0.136670     -2.052910      0.443467
  F      -2.204178     -1.411579      0.185512
  F       0.483648      0.141696     -1.417436
  F      -1.552755      0.796972     -0.990961
  F      -1.568181     -1.380650     -2.670622
  F       0.210078     -2.495769     -2.086562
  F      -0.903493      0.422600      1.781926
  F       1.158917      0.153759      1.131691
  F      -1.642880     -4.127247     -0.507676
  F      -3.191585     -3.157445     -1.698314
  F       0.732438      2.573927      1.983095
  F      -1.041262      2.834431      0.755445
  F      -2.511027     -5.467421     -2.755667
  F      -0.406258     -5.006231     -2.734918
  F      -1.750209     -3.872174     -3.996160
  O       2.307316      2.703859     -0.176685
  O       0.478726      3.229780     -1.371432
  C      -0.982443     -1.403923     -0.368553
  C      -0.518352      0.085446     -0.522177
  C      -1.040504     -2.175816     -1.728653
  C      -0.015777      0.719020      0.810809
  C      -1.893697     -3.484283     -1.657616
  C       0.182182      2.263629      0.782625
  C      -1.621652     -4.483122     -2.824518
  C       1.087533      2.795188     -0.383088
80
Coordinates from ORCA-job R4N+PFOA-_wb E -2865.791914673180
  N       5.503412      0.637278      2.535669
  C       3.371211     -4.104555     -1.591626
  C       4.212109     -4.566529     -2.786223
  C       4.482952     -3.487729     -3.842500
  C       4.016498     -2.940417     -0.870828
  C       3.068676     -5.270488     -0.644655
  C       5.867368      0.433981      1.078054
  C       5.219441     -0.746569      0.416764
  C       3.205714     -2.880378     -4.387748
  C       3.394857     -1.697560     -0.838070
  C       5.257484     -3.068092     -0.247863
  C       5.351379     -4.051091     -4.966919
  C       4.039461      0.848281      2.699108
  C       6.221590      1.852960      3.008643
  C       5.930524     -0.524794      3.358998
  C       3.989483     -0.612064     -0.215572
  C       5.849693     -1.988958      0.387225
  C       2.062702     -4.913584      0.440115
  C       2.239329     -3.670132     -5.010521
  C       2.965331     -1.513825     -4.277617
  C       1.070946     -3.110153     -5.504839
  C       1.792826     -0.948374     -4.763294
  C       0.839844     -1.745892     -5.379017
  H       2.411898     -3.747936     -1.978776
  H       3.701709     -5.411880     -3.259523
  H       5.174250     -4.948169     -2.428192
  H       5.041180     -2.677399     -3.363206
  H       4.000511     -5.625503     -0.192243
  H       2.678904     -6.100696     -1.241329
  H       6.952487      0.343392      1.060126
  H       5.583402      1.359014      0.577631
  H       2.436515     -1.572180     -1.325432
  H       5.774728     -4.021292     -0.264628
  H       5.585841     -3.283359     -5.707367
  H       4.844691     -4.871610     -5.481706
  H       6.293256     -4.436110     -4.569125
  H       3.515803     -0.063290      2.426395
  H       3.731192      1.673741      2.060940
  H       3.845071      1.086143      3.742679
  H       7.291225      1.697423      2.887052
  H       5.981878      2.009906      4.057732
  H       5.894622      2.705381      2.417214
  H       5.382035     -1.408985      3.045155
  H       5.707965     -0.303945      4.400546
  H       7.000101     -0.673734      3.227662
  H       3.492135      0.351279     -0.227414
  H       6.818656     -2.109168      0.859552
  H       1.113832     -4.596838     -0.000889
  H       2.423857     -4.098133      1.072121
  H       1.859560     -5.768879      1.087716
  H       2.398657     -4.738935     -5.108034
  H       3.703977     -0.884048     -3.793004
  H       0.332665     -3.743092     -5.983127
  H       1.623311      0.116735     -4.653481
  H      -0.079210     -1.310876     -5.753747
  F      -0.136448     -2.052775      0.443533
  F      -2.204036     -1.411807      0.185503
  F       0.483410      0.141746     -1.417878
  F      -1.553006      0.796696     -0.991160
  F      -1.568380     -1.381316     -2.670576
  F       0.210256     -2.495878     -2.086692
  F      -0.903150      0.422295      1.781756
  F       1.159202      0.154076      1.130989
  F      -1.642408     -4.127609     -0.507248
  F      -3.191201     -3.158426     -1.698254
  F       0.732094      2.574148      1.982609
  F      -1.041820      2.834121      0.755146
  F      -2.510062     -5.468431     -2.754997
  F      -0.405362     -5.006916     -2.734034
  F      -1.749245     -3.873438     -3.995840
  O       2.306693      2.704182     -0.177451
  O       0.477819      3.229801     -1.371916
  C      -0.982337     -1.404100     -0.368618
  C      -0.518447      0.085336     -0.522492
  C      -1.040357     -2.176249     -1.728604
  C      -0.015751      0.718990      0.810444
  C      -1.893236     -3.484939     -1.657348
  C       0.181769      2.263650      0.782225
  C      -1.620817     -4.484010     -2.823984
  C       1.086856      2.795309     -0.383668
80
Coordinates from ORCA-job R4N+PFOA-_wb E -2865.791913636684
  N       5.502850      0.636338      2.536339
  C       3.370932     -4.104064     -1.591738
  C       4.210911     -4.566573     -2.786692
  C       4.482028     -3.488074     -3.843122
  C       4.016672     -2.939941     -0.871460
  C       3.068878     -5.269796     -0.644346
  C       5.867681      0.433585      1.078813
  C       5.219882     -0.746543      0.416585
  C       3.205098     -2.879420     -4.387626
  C       3.395267     -1.696927     -0.838635
  C       5.257385     -3.068043     -0.248136
  C       5.349109     -4.052356     -4.968150
  C       4.038936      0.848353      2.698732
  C       6.221628      1.851212      3.010395
  C       5.928497     -0.526383      3.359502
  C       3.990004     -0.611666     -0.215894
  C       5.849954     -1.989034      0.386774
  C       2.064192     -4.912265      0.441425
  C       2.237581     -3.667987     -5.010066
  C       2.966241     -1.512561     -4.277433
  C       1.069830     -3.106600     -5.504332
  C       1.794498     -0.945626     -4.763286
  C       0.840550     -1.742031     -5.378936
  H       2.411457     -3.747372     -1.978300
  H       3.699601     -5.411577     -3.259666
  H       5.172992     -4.948879     -2.429187
  H       5.041417     -2.678296     -3.364273
  H       4.001014     -5.625174     -0.192844
  H       2.678069     -6.099866     -1.240545
  H       6.952803      0.342825      1.061499
  H       5.584157      1.358947      0.578736
  H       2.436874     -1.571379     -1.325846
  H       5.774294     -4.021417     -0.264733
  H       5.583454     -3.284974     -5.708995
  H       4.841316     -4.872639     -5.482222
  H       6.291039     -4.437938     -4.571021
  H       3.514838     -0.062771      2.425345
  H       3.731762      1.674223      2.060574
  H       3.843857      1.086038      3.742211
  H       7.291232      1.694981      2.889398
  H       5.981422      2.007775      4.059432
  H       5.895669      2.704235      2.419261
  H       5.379692     -1.410080      3.044826
  H       5.705172     -0.305880      4.400955
  H       6.998093     -0.675998      3.229013
  H       3.492895      0.351801     -0.227591
  H       6.818820     -2.109530      0.859238
  H       1.115165     -4.594864      0.001231
  H       2.426526     -4.097047      1.073060
  H       1.861085     -5.767413      1.089224
  H       2.395503     -4.737000     -5.107428
  H       3.705685     -0.883657     -3.792907
  H       0.330674     -3.738710     -5.982348
  H       1.626372      0.119718     -4.653781
  H      -0.077911     -1.305915     -5.753845
  F      -0.135460     -2.052000      0.443755
  F      -2.203339     -1.412083      0.185488
  F       0.483091      0.141601     -1.419640
  F      -1.553430      0.795851     -0.992734
  F      -1.569107     -1.383649     -2.670370
  F       0.210878     -2.496305     -2.087085
  F      -0.902105      0.422504      1.780462
  F       1.160049      0.155581      1.128436
  F      -1.640450     -4.128316     -0.505037
  F      -3.189739     -3.161679     -1.697422
  F       0.731200      2.575574      1.980222
  F      -1.042914      2.834152      0.752768
  F      -2.506440     -5.472164     -2.751388
  F      -0.402081     -5.009072     -2.730414
  F      -1.746407     -3.878155     -3.993999
  O       2.305707      2.705093     -0.180135
  O       0.476544      3.230762     -1.374193
  C      -0.981755     -1.404377     -0.368837
  C      -0.518454      0.085186     -0.523969
  C      -1.039776     -2.177590     -1.728286
  C      -0.015505      0.719613      0.808565
  C      -1.891497     -3.487011     -1.655850
  C       0.180993      2.264421      0.779957
  C      -1.617881     -4.487154     -2.821325
  C       1.085811      2.796183     -0.386123
80
Coordinates from ORCA-job R4N+PFOA-_wb E -2865.791912716352
  N       5.503085      0.636756      2.536073
  C       3.370956     -4.104175     -1.591705
  C       4.211187     -4.566689     -2.786517
  C       4.482371     -3.488231     -3.842989
  C       4.016624     -2.940012     -0.871350
  C       3.068681     -5.269898     -0.644343
  C       5.867638      0.433704      1.078541
  C       5.219731     -0.746589      0.416689
  C       3.205445     -2.879921     -4.387864
  C       3.395071     -1.697096     -0.838354
  C       5.257574     -3.067961     -0.248412
  C       5.349957     -4.052392     -4.967679
  C       4.039166      0.848545      2.698766
  C       6.221707      1.851909      3.009706
  C       5.929138     -0.525715      3.359371
  C       3.989779     -0.611789     -0.215662
  C       5.850001     -1.988985      0.386703
  C       2.063525     -4.912516      0.441053
  C       2.238372     -3.668748     -5.010664
  C       2.966058     -1.513198     -4.277407
  C       1.070395     -3.107745     -5.504807
  C       1.793976     -0.946678     -4.762877
  C       0.840384     -1.743318     -5.378775
  H       2.411551     -3.747490     -1.978513
  H       3.700076     -5.411775     -3.259551
  H       5.173233     -4.948873     -2.428802
  H       5.041394     -2.678284     -3.364008
  H       4.000701     -5.625109     -0.192483
  H       2.678254     -6.100066     -1.240653
  H       6.952749      0.342926      1.061026
  H       5.584048      1.358940      0.578286
  H       2.436663     -1.571611     -1.325538
  H       5.774656     -4.021245     -0.265288
  H       5.584445     -3.284999     -5.708470
  H       4.842534     -4.872792     -5.481927
  H       6.291807     -4.437798     -4.570195
  H       3.515156     -0.062730      2.425693
  H       3.731683      1.674236      2.060520
  H       3.844319      1.086406      3.742248
  H       7.291318      1.695832      2.888609
  H       5.981595      2.008719      4.058727
  H       5.895515      2.704697      2.418367
  H       5.380338     -1.409542      3.045100
  H       5.706140     -0.304964      4.400844
  H       6.998695     -0.675247      3.228560
  H       3.492531      0.351604     -0.227246
  H       6.819013     -2.109343      0.858897
  H       1.114541     -4.595427      0.000552
  H       2.425421     -4.097145      1.072738
  H       1.860449     -5.767656      1.088874
  H       2.396798     -4.737667     -5.108350
  H       3.705254     -0.884097     -3.792742
  H       0.331577     -3.740054     -5.983103
  H       1.625348      0.118545     -4.652965
  H      -0.078308     -1.307505     -5.753469
  F      -0.135785     -2.052411      0.443594
  F      -2.203575     -1.412162      0.185382
  F       0.483157      0.141729     -1.418943
  F      -1.553352      0.796118     -0.991981
  F      -1.568846     -1.382705     -2.670464
  F       0.210672     -2.496159     -2.087125
  F      -0.902365      0.422063      1.781109
  F       1.159833      0.154955      1.129338
  F      -1.641198     -4.127972     -0.505942
  F      -3.190233     -3.160452     -1.697984
  F       0.731536      2.574845      1.981315
  F      -1.042767      2.833871      0.754233
  F      -2.507459     -5.470838     -2.752790
  F      -0.403021     -5.008034     -2.731840
  F      -1.747358     -3.876363     -3.994758
  O       2.305651      2.704737     -0.179313
  O       0.476314      3.230874     -1.372884
  C      -0.981922     -1.404358     -0.368809
  C      -0.518476      0.085199     -0.523349
  C      -1.039938     -2.177074     -1.728491
  C      -0.015586      0.719228      0.809376
  C      -1.892090     -3.486196     -1.656530
  C       0.181100      2.264014      0.781069
  C      -1.618766     -4.485928     -2.822392
  C       1.085726      2.796008     -0.385030
80
Coordinates from ORCA-job R4N+PFOA-_wb E -2865.791902035477
  N       5.506253      0.641133      2.534694
  C       3.372228     -4.104199     -1.591818
  C       4.216488     -4.565878     -2.784514
  C       4.486049     -3.487720     -3.842009
  C       4.016622     -2.939818     -0.869812
  C       3.067211     -5.270098     -0.645275
  C       5.867486      0.435378      1.077016
  C       5.218139     -0.746463      0.419193
  C       3.207567     -2.887827     -4.392349
  C       3.393475     -1.697990     -0.834876
  C       5.259725     -3.066264     -0.250360
  C       5.361759     -4.048708     -4.961830
  C       4.042333      0.850383      2.701164
  C       6.223321      1.859059      3.004180
  C       5.936943     -0.519117      3.358637
  C       3.987757     -0.612319     -0.212239
  C       5.850021     -1.988073      0.387994
  C       2.056452     -4.914941      0.435736
  C       2.248626     -3.683662     -5.018916
  C       2.957435     -1.523434     -4.280488
  C       1.076407     -3.131693     -5.512758
  C       1.780011     -0.966260     -4.763357
  C       0.833415     -1.769626     -5.381397
  H       2.413860     -3.747744     -1.982137
  H       3.709561     -5.413209     -3.257910
  H       5.178921     -4.944274     -2.424046
  H       5.038131     -2.673821     -3.361777
  H       3.997837     -5.623489     -0.189251
  H       2.681367     -6.101203     -1.243229
  H       6.952435      0.344207      1.057113
  H       5.583220      1.359412      0.575146
  H       2.435094     -1.572971     -1.322088
  H       5.778615     -4.018601     -0.270136
  H       5.596092     -3.281024     -5.702406
  H       4.861408     -4.872313     -5.477849
  H       6.303568     -4.429005     -4.559450
  H       3.519124     -0.062153      2.430693
  H       3.731388      1.674826      2.062887
  H       3.850381      1.089133      3.744973
  H       7.292977      1.704534      2.881921
  H       5.984183      2.018173      4.053060
  H       5.894683      2.709490      2.410877
  H       5.387869     -1.404095      3.048611
  H       5.718157     -0.296114      4.400548
  H       7.005968     -0.667855      3.223647
  H       3.489058      0.350271     -0.222632
  H       6.820217     -2.107217      0.857988
  H       1.107923     -4.601396     -0.008203
  H       2.413120     -4.098037      1.068356
  H       1.853773     -5.770277      1.083454
  H       2.416520     -4.751048     -5.118927
  H       3.691352     -0.889013     -3.794554
  H       0.343779     -3.769370     -5.993676
  H       1.601944      0.097103     -4.650177
  H      -0.089240     -1.340916     -5.754506
  F      -0.139102     -2.056224      0.441672
  F      -2.205675     -1.411341      0.184442
  F       0.485070      0.144652     -1.409905
  F      -1.551105      0.801037     -0.982222
  F      -1.563452     -1.368885     -2.671843
  F       0.208837     -2.493639     -2.086547
  F      -0.904519      0.417958      1.789482
  F       1.158203      0.148300      1.140859
  F      -1.651167     -4.122415     -0.518342
  F      -3.196629     -3.141834     -1.704888
  F       0.736576      2.566884      1.995680
  F      -1.039233      2.831901      0.772060
  F      -2.522570     -5.451310     -2.771178
  F      -0.417009     -4.993330     -2.751998
  F      -1.761832     -3.851045     -4.005151
  O       2.307313      2.701388     -0.166741
  O       0.476983      3.232938     -1.356148
  C      -0.983227     -1.402603     -0.368244
  C      -0.517648      0.086755     -0.515262
  C      -1.041222     -2.169062     -1.730949
  C      -0.015451      0.715739      0.819845
  C      -1.899999     -3.473835     -1.665617
  C       0.183950      2.260157      0.795329
  C      -1.631778     -4.468101     -2.836943
  C       1.087252      2.794780     -0.370299
80
Coordinates from ORCA-job R4N+PFOA-_wb E -2865.791914196142
  N       5.503523      0.637258      2.536023
  C       3.371120     -4.103994     -1.591837
  C       4.211919     -4.566518     -2.786286
  C       4.482879     -3.488227     -3.843016
  C       4.016612     -2.939801     -0.871273
  C       3.068459     -5.269658     -0.644499
  C       5.867642      0.433952      1.078451
  C       5.219517     -0.746486      0.417035
  C       3.205711     -2.881161     -4.388683
  C       3.394820     -1.697046     -0.837881
  C       5.257807     -3.067624     -0.248738
  C       5.351575     -4.052108     -4.966971
  C       4.039615      0.848784      2.699228
  C       6.222009      1.852692      3.009204
  C       5.930129     -0.525006      3.359316
  C       3.989485     -0.611720     -0.215151
  C       5.849975     -1.988783      0.386815
  C       2.062657     -4.912428      0.440352
  C       2.239853     -3.671002     -5.012103
  C       2.964663     -1.514797     -4.277891
  C       1.071248     -3.111321     -5.506208
  C       1.791852     -0.949618     -4.763117
  C       0.839315     -1.747246     -5.379374
  H       2.411869     -3.747371     -1.979177
  H       3.701380     -5.411962     -3.259283
  H       5.174026     -4.948133     -2.428158
  H       5.040952     -2.677672     -3.363956
  H       4.000303     -5.624646     -0.192107
  H       2.678552     -6.099958     -1.240964
  H       6.952732      0.343088      1.060626
  H       5.583991      1.359081      0.578059
  H       2.436373     -1.571618     -1.324979
  H       5.775115     -4.020786     -0.266054
  H       5.585984     -3.284788     -5.707865
  H       4.845134     -4.873058     -5.481306
  H       6.293447     -4.436709     -4.568771
  H       3.515656     -0.062605      2.426429
  H       3.731733      1.674385      2.061050
  H       3.845157      1.086689      3.742772
  H       7.291620      1.696766      2.887950
  H       5.982030      2.009734      4.058219
  H       5.895549      2.705237      2.417670
  H       5.381243     -1.408938      3.045546
  H       5.707714     -0.304033      4.400868
  H       6.999610     -0.674496      3.227925
  H       3.492036      0.351565     -0.226501
  H       6.819115     -2.109025      0.858767
  H       1.113732     -4.595776     -0.000568
  H       2.423965     -4.096831      1.072076
  H       1.859625     -5.767535      1.088233
  H       2.399684     -4.739690     -5.110168
  H       3.703041     -0.884931     -3.792950
  H       0.333372     -3.744406     -5.984955
  H       1.621804      0.115328     -4.652682
  H      -0.079969     -1.312484     -5.753830
  F      -0.136174     -2.052767      0.443385
  F      -2.203820     -1.411933      0.185313
  F       0.483374      0.142277     -1.417776
  F      -1.553065      0.796882     -0.990598
  F      -1.568132     -1.380782     -2.670604
  F       0.210453     -2.495682     -2.087042
  F      -0.902470      0.421393      1.782286
  F       1.159761      0.154192      1.130723
  F      -1.642509     -4.127204     -0.507580
  F      -3.191039     -3.158032     -1.698977
  F       0.732143      2.573821      1.983362
  F      -1.042414      2.833571      0.756792
  F      -2.509280     -5.468323     -2.755126
  F      -0.404734     -5.006042     -2.734523
  F      -1.749264     -3.873110     -3.996160
  O       2.305764      2.704456     -0.177533
  O       0.476264      3.231559     -1.370398
  C      -0.982067     -1.404022     -0.368701
  C      -0.518356      0.085514     -0.522263
  C      -1.040083     -2.175929     -1.728788
  C      -0.015500      0.718805      0.810788
  C      -1.893086     -3.484532     -1.657745
  C       0.181408      2.263569      0.783095
  C      -1.620374     -4.483580     -2.824303
  C       1.085813      2.796067     -0.382910
80
Coordinates from ORCA-job R4N+PFOA-_wb E -2865.791914102381
  N       5.503286      0.636762      2.535519
  C       3.370625     -4.104179     -1.591469
  C       4.210946     -4.566959     -2.786105
  C       4.482558     -3.488600     -3.842570
  C       4.016360     -2.939946     -0.871302
  C       3.068249     -5.269662     -0.643868
  C       5.867552      0.434015      1.077878
  C       5.219595     -0.746272      0.416124
  C       3.205874     -2.879988     -4.387621
  C       3.394602     -1.697100     -0.838073
  C       5.257613     -3.067625     -0.248937
  C       5.350116     -4.053079     -4.967119
  C       4.039401      0.848474      2.698605
  C       6.221969      1.851816      3.009302
  C       5.929545     -0.525904      3.358432
  C       3.989371     -0.611671     -0.215627
  C       5.850049     -1.988548      0.385911
  C       2.063050     -4.912020      0.441395
  C       2.238821     -3.668577     -5.010833
  C       2.966733     -1.513241     -4.277010
  C       1.071116     -3.107316     -5.505235
  C       1.794917     -0.946451     -4.762802
  C       0.841329     -1.742870     -5.379032
  H       2.411296     -3.747523     -1.978509
  H       3.699672     -5.411908     -3.259206
  H       5.172848     -4.949359     -2.428253
  H       5.041758     -2.678781     -3.363558
  H       4.000266     -5.624766     -0.191895
  H       2.677832     -6.099948     -1.240022
  H       6.952663      0.343343      1.060100
  H       5.583726      1.359305      0.577842
  H       2.435965     -1.571752     -1.324862
  H       5.774895     -4.020792     -0.266064
  H       5.584959     -3.285786     -5.707899
  H       4.842493     -4.873322     -5.481420
  H       6.291776     -4.438790     -4.569490
  H       3.515326     -0.062712      2.425380
  H       3.731764      1.674359      2.060684
  H       3.844819      1.086029      3.742209
  H       7.291562      1.695779      2.887973
  H       5.982034      2.008359      4.058404
  H       5.895651      2.704736      2.418223
  H       5.380669     -1.409670      3.044089
  H       5.706814     -0.305401      4.400011
  H       6.999070     -0.675407      3.227299
  H       3.491967      0.351618     -0.226976
  H       6.819254     -2.108719      0.857757
  H       1.114039     -4.595132      0.000795
  H       2.424896     -4.096447      1.072850
  H       1.860030     -5.766983      1.089468
  H       2.397082     -4.737514     -5.108644
  H       3.705950     -0.884349     -3.792110
  H       0.332345     -3.739417     -5.983865
  H       1.626443      0.118797     -4.652803
  H      -0.077201     -1.306844     -5.753882
  F      -0.136190     -2.052701      0.443797
  F      -2.203968     -1.412463      0.185339
  F       0.482723      0.141730     -1.418639
  F      -1.553723      0.795986     -0.991308
  F      -1.568675     -1.382502     -2.670424
  F       0.210635     -2.496193     -2.086940
  F      -0.902259      0.421340      1.781704
  F       1.159862      0.154825      1.129449
  F      -1.641773     -4.128027     -0.506272
  F      -3.190368     -3.160376     -1.698778
  F       0.731140      2.574542      1.981864
  F      -1.043462      2.833257      0.755143
  F      -2.507160     -5.470763     -2.753416
  F      -0.402774     -5.007856     -2.731845
  F      -1.746820     -3.876193     -3.995108
  O       2.304845      2.704971     -0.178947
  O       0.475257      3.230954     -1.372190
  C      -0.982211     -1.404551     -0.368642
  C      -0.518784      0.085011     -0.522913
  C      -1.039983     -2.177031     -1.728457
  C      -0.015749      0.718876      0.809842
  C      -1.892249     -3.486139     -1.656899
  C       0.180554      2.263709      0.781683
  C      -1.618504     -4.485795     -2.822723
  C       1.084876      2.796057     -0.384484
80
Coordinates from ORCA-job R4N+PFOA-_wb E -2865.791915254611
  N       5.503346      0.636768      2.535019
  C       3.370379     -4.104308     -1.591423
  C       4.210875     -4.567034     -2.785971
  C       4.482858     -3.488631     -3.842311
  C       4.016040     -2.940067     -0.871183
  C       3.067980     -5.269803     -0.643854
  C       5.867561      0.434107      1.077350
  C       5.219556     -0.746223      0.415681
  C       3.206334     -2.879739     -4.387454
  C       3.394284     -1.697229     -0.837969
  C       5.257301     -3.067727     -0.248813
  C       5.350476     -4.053189     -4.966776
  C       4.039448      0.848341      2.698209
  C       6.221941      1.851862      3.008830
  C       5.929744     -0.525892      3.357873
  C       3.989153     -0.611721     -0.215752
  C       5.849965     -1.988536      0.385623
  C       2.062701     -4.912192      0.441339
  C       2.239078     -3.668105     -5.010603
  C       2.967451     -1.512967     -4.276759
  C       1.071394     -3.106588     -5.504834
  C       1.795662     -0.945909     -4.762342
  C       0.841827     -1.742121     -5.378464
  H       2.411080     -3.747710     -1.978587
  H       3.699569     -5.411841     -3.259283
  H       5.172650     -4.949625     -2.427989
  H       5.042151     -2.678957     -3.363160
  H       3.999975     -5.624868     -0.191810
  H       2.677635     -6.100100     -1.240042
  H       6.952669      0.343456      1.059485
  H       5.583679      1.359399      0.577354
  H       2.435573     -1.571940     -1.324610
  H       5.774538     -4.020920     -0.265844
  H       5.585619     -3.285874     -5.707440
  H       4.842764     -4.873270     -5.481253
  H       6.291985     -4.439150     -4.569027
  H       3.515418     -0.062853      2.424923
  H       3.731700      1.674276      2.060416
  H       3.844916      1.085773      3.741850
  H       7.291545      1.695916      2.887491
  H       5.982001      2.008363      4.057937
  H       5.895560      2.704774      2.417776
  H       5.380934     -1.409699      3.043530
  H       5.707052     -0.305447      4.399474
  H       6.999274     -0.675301      3.226695
  H       3.491658      0.351533     -0.226999
  H       6.819236     -2.108648      0.857354
  H       1.113754     -4.595230      0.000676
  H       2.424517     -4.096678      1.072886
  H       1.859580     -5.767195      1.089332
  H       2.397145     -4.737059     -5.108505
  H       3.706843     -0.884253     -3.791887
  H       0.332494     -3.738515     -5.983497
  H       1.627395      0.119361     -4.652239
  H      -0.076670     -1.305910     -5.753183
  F      -0.136564     -2.052777      0.443952
  F      -2.204339     -1.412532      0.185410
  F       0.482437      0.141592     -1.418542
  F      -1.553994      0.795946     -0.991201
  F      -1.569148     -1.382692     -2.670252
  F       0.210459     -2.495901     -2.086782
  F      -0.902526      0.421419      1.781780
  F       1.159585      0.154716      1.129617
  F      -1.641694     -4.128330     -0.506170
  F      -3.190443     -3.160931     -1.698623
  F       0.731107      2.574472      1.981866
  F      -1.043491      2.833304      0.755171
  F      -2.506989     -5.471011     -2.753593
  F      -0.402624     -5.008012     -2.731744
  F      -1.746565     -3.876228     -3.994975
  O       2.304781      2.704801     -0.178980
  O       0.475190      3.230844     -1.372193
  C      -0.982556     -1.404624     -0.368512
  C      -0.519072      0.084936     -0.522811
  C      -1.040259     -2.177130     -1.728316
  C      -0.015970      0.718826      0.809919
  C      -1.892269     -3.486453     -1.656776
  C       0.180477      2.263651      0.781701
  C      -1.618366     -4.485991     -2.822667
  C       1.084810      2.795930     -0.384492
80
Coordinates from ORCA-job R4N+PFOA-_wb E -2865.791913932819
  N       5.503360      0.636706      2.534342
  C       3.369863     -4.104407     -1.591240
  C       4.210328     -4.567309     -2.785751
  C       4.483041     -3.488990     -3.842014
  C       4.015638     -2.940123     -0.871153
  C       3.067515     -5.269816     -0.643546
  C       5.867640      0.434377      1.076612
  C       5.219663     -0.745975      0.414831
  C       3.206942     -2.879196     -4.387175
  C       3.393862     -1.697346     -0.837855
  C       5.257088     -3.067630     -0.249103
  C       5.350404     -4.054043     -4.966433
  C       4.039450      0.848172      2.697596
  C       6.221856      1.851744      3.008442
  C       5.929790     -0.526085      3.356991
  C       3.988895     -0.611705     -0.216013
  C       5.850069     -1.988316      0.384803
  C       2.062221     -4.912211      0.441618
  C       2.238967     -3.666864     -5.010011
  C       2.969159     -1.512229     -4.276661
  C       1.071581     -3.104465     -5.504010
  C       1.797704     -0.944262     -4.762040
  C       0.843000     -1.739836     -5.377654
  H       2.410549     -3.747832     -1.978425
  H       3.698717     -5.411813     -3.259254
  H       5.171873     -4.950383     -2.427673
  H       5.042835     -2.679696     -3.362799
  H       3.999535     -5.624771     -0.191479
  H       2.677238     -6.100198     -1.239666
  H       6.952745      0.343799      1.058726
  H       5.583711      1.359741      0.576796
  H       2.434943     -1.572175     -1.324090
  H       5.774286     -4.020852     -0.266046
  H       5.586199     -3.286816     -5.706981
  H       4.842182     -4.873706     -5.481082
  H       6.291584     -4.440719     -4.568602
  H       3.515414     -0.062901      2.423945
  H       3.731667      1.674365      2.060158
  H       3.844933      1.085179      3.741335
  H       7.291479      1.695873      2.887211
  H       5.981777      2.008077      4.057539
  H       5.895519      2.704736      2.417484
  H       5.381021     -1.409842      3.042486
  H       5.707091     -0.305836      4.398641
  H       6.999324     -0.675434      3.225797
  H       3.491149      0.351439     -0.226969
  H       6.819484     -2.108322      0.856274
  H       1.113333     -4.595126      0.000946
  H       2.424055     -4.096797      1.073271
  H       1.858993     -5.767266      1.089511
  H       2.396228     -4.735938     -5.107903
  H       3.709179     -0.884038     -3.792070
  H       0.332181     -3.735850     -5.982626
  H       1.630348      0.121166     -4.652087
  H      -0.075247     -1.302976     -5.752227
  F      -0.137011     -2.052883      0.444221
  F      -2.204865     -1.412947      0.185505
  F       0.481754      0.141388     -1.418577
  F      -1.554693      0.795609     -0.991054
  F      -1.569893     -1.383405     -2.669994
  F       0.210393     -2.495469     -2.086495
  F      -0.902901      0.421358      1.781821
  F       1.159182      0.154637      1.129542
  F      -1.641232     -4.128965     -0.505745
  F      -3.190234     -3.162395     -1.698453
  F       0.730629      2.574438      1.981620
  F      -1.043874      2.833159      0.754765
  F      -2.505812     -5.472134     -2.753360
  F      -0.401587     -5.008475     -2.731028
  F      -1.745547     -3.877107     -3.994545
  O       2.304458      2.704630     -0.179081
  O       0.474950      3.230245     -1.372591
  C      -0.983053     -1.404920     -0.368334
  C      -0.519669      0.084680     -0.522757
  C      -1.040545     -2.177542     -1.728063
  C      -0.016412      0.718667      0.809866
  C      -1.891932     -3.487340     -1.656455
  C       0.180078      2.263472      0.781458
  C      -1.617472     -4.486844     -2.822228
  C       1.084501      2.795591     -0.384735
