84
Coordinates from ORCA-job R4N+PFOS-_wb E -3538.934785530753
  N       7.487576     -0.604060     -2.616210
  C       2.581502     -3.716909      0.483509
  C       1.583675     -4.077820     -0.627194
  C       1.370766     -3.015172     -1.714033
  C       3.905580     -3.207980     -0.041458
  C       2.793249     -4.938426      1.401999
  C       7.660107     -1.672874     -1.526610
  C       6.370618     -2.223455     -0.999743
  C       0.919553     -1.668993     -1.186047
  C       4.522910     -2.106279      0.555798
  C       4.566829     -3.837992     -1.102397
  C       0.365159     -3.530028     -2.754745
  C       8.857300     -0.115689     -2.989303
  C       6.675424      0.552360     -2.113677
  C       6.827230     -1.181397     -3.831463
  C       5.740504     -1.623157      0.092154
  C       5.778780     -3.351560     -1.577632
  C       3.547433     -4.620463      2.688071
  C       1.566903     -0.500002     -1.598025
  C      -0.197958     -1.549622     -0.350917
  C       1.097634      0.755202     -1.214549
  C      -0.664691     -0.297570      0.040877
  C      -0.023487      0.860976     -0.396088
  H       2.144355     -2.912051      1.093662
  H       0.621593     -4.311751     -0.151161
  H       1.909724     -5.003713     -1.121121
  H       2.328158     -2.853638     -2.226658
  H       3.327223     -5.712706      0.833189
  H       1.807656     -5.353777      1.649051
  H       8.232502     -1.184750     -0.732937
  H       8.272339     -2.454865     -1.984420
  H       4.044446     -1.624823      1.403242
  H       4.126266     -4.713715     -1.572221
  H       0.227862     -2.803230     -3.562672
  H      -0.612217     -3.712895     -2.292646
  H       0.714944     -4.470887     -3.195160
  H       8.755271      0.634468     -3.775672
  H       9.445558     -0.962417     -3.348814
  H       9.324456      0.323986     -2.105894
  H       7.138185      0.939513     -1.203425
  H       5.658219      0.213664     -1.914171
  H       6.665977      1.320528     -2.889942
  H       6.783623     -0.402954     -4.596122
  H       5.817892     -1.504032     -3.572437
  H       7.420314     -2.027205     -4.185377
  H       6.202980     -0.767272      0.577889
  H       6.271409     -3.849118     -2.409637
  H       3.023956     -3.851089      3.268256
  H       4.559341     -4.252873      2.483349
  H       3.638032     -5.511529      3.318666
  H       2.441822     -0.576852     -2.241403
  H      -0.718760     -2.443134     -0.014000
  H       1.612492      1.650551     -1.553446
  H      -1.535683     -0.225859      0.687318
  H      -0.391140      1.837636     -0.092769
  S      -1.481467     -3.594705      3.202354
  F       0.094955     -0.722427      3.240269
  F       0.140613      0.767605      4.865403
  F       0.994867     -0.988697      6.623482
  F       1.239469     -2.577971      5.143123
  F       2.920716     -1.140376      3.836242
  F       2.746632      0.656006      5.088155
  F      -1.186810     -2.010504      7.016929
  F      -1.824271     -0.950800      5.211502
  F       2.204092      0.054344      1.673876
  F       1.340566      1.786391      2.718405
  F      -2.759384     -3.420248      5.495450
  F      -0.747560     -4.276605      5.671701
  F       4.708716      0.783844      2.937051
  F       3.698825      2.659622      3.495261
  F       5.062046      3.002737      1.275479
  F       2.941532      2.936279      0.776771
  F       4.231792      1.238211      0.318882
  O      -2.144248     -4.922947      3.139252
  O      -0.053182     -3.602342      2.800172
  O      -2.286892     -2.473026      2.656944
  C       0.715562     -0.358904      4.383933
  C       0.517413     -1.483689      5.458119
  C       2.210511     -0.011517      4.041630
  C      -0.996984     -1.915539      5.675653
  C       2.333340      0.868584      2.742281
  C      -1.467194     -3.289724      5.085469
  C       3.697163      1.626717      2.626396
  C       3.984023      2.210655      1.201919
84
Coordinates from ORCA-job R4N+PFOS-_wb E -3538.942609114867
  N       7.477325     -0.603780     -2.607826
  C       2.581833     -3.715219      0.487596
  C       1.583503     -4.072530     -0.620138
  C       1.365955     -3.014947     -1.707344
  C       3.906837     -3.207709     -0.036653
  C       2.786208     -4.932647      1.406435
  C       7.646902     -1.665852     -1.529139
  C       6.360811     -2.220403     -0.998407
  C       0.912384     -1.668513     -1.183858
  C       4.521882     -2.108625      0.556714
  C       4.565459     -3.833376     -1.095810
  C       0.367285     -3.534919     -2.746260
  C       8.839407     -0.123825     -2.975249
  C       6.675907      0.549979     -2.110025
  C       6.822347     -1.170658     -3.818614
  C       5.734392     -1.624894      0.091639
  C       5.771798     -3.345768     -1.572287
  C       3.538060     -4.620101      2.691852
  C       1.558275     -0.503551     -1.593769
  C      -0.200810     -1.548023     -0.350951
  C       1.093021      0.748368     -1.209323
  C      -0.663720     -0.300061      0.042660
  C      -0.023419      0.854616     -0.391982
  H       2.147748     -2.912137      1.094581
  H       0.625754     -4.305648     -0.143277
  H       1.906452     -4.996054     -1.112285
  H       2.318845     -2.851795     -2.218430
  H       3.314058     -5.709294      0.842340
  H       1.801283     -5.340412      1.652183
  H       8.219037     -1.180338     -0.739969
  H       8.257508     -2.442522     -1.987322
  H       4.044629     -1.627067      1.400813
  H       4.125912     -4.706034     -1.565678
  H       0.229401     -2.813169     -3.554314
  H      -0.607991     -3.720299     -2.288208
  H       0.720286     -4.472449     -3.182699
  H       8.740970      0.625509     -3.757358
  H       9.421871     -0.969707     -3.334028
  H       9.304482      0.310270     -2.092886
  H       7.137902      0.932263     -1.202260
  H       5.658820      0.220807     -1.913889
  H       6.674543      1.315056     -2.883614
  H       6.785664     -0.392100     -4.577695
  H       5.814217     -1.487405     -3.564894
  H       7.410966     -2.014796     -4.171571
  H       6.194941     -0.770521      0.574943
  H       6.261206     -3.840252     -2.404241
  H       3.020820     -3.848642      3.268289
  H       4.550587     -4.261850      2.491062
  H       3.619903     -5.508413      3.321795
  H       2.431798     -0.580769     -2.233817
  H      -0.720352     -2.438776     -0.014642
  H       1.607116      1.640919     -1.547161
  H      -1.529948     -0.229016      0.690839
  H      -0.388486      1.828714     -0.088223
  S      -1.463520     -3.584963      3.202181
  F       0.117358     -0.721455      3.234109
  F       0.152173      0.757092      4.845228
  F       0.985225     -0.989339      6.605087
  F       1.250343     -2.565789      5.140203
  F       2.927072     -1.132511      3.835727
  F       2.747692      0.650227      5.077169
  F      -1.180546     -2.013733      6.976820
  F      -1.806056     -0.959002      5.185773
  F       2.210789      0.051244      1.682202
  F       1.353500      1.771855      2.714003
  F      -2.730800     -3.421604      5.461668
  F      -0.732536     -4.266734      5.634502
  F       4.706675      0.786819      2.931157
  F       3.701497      2.646092      3.484796
  F       5.055369      2.987610      1.272278
  F       2.951137      2.925778      0.778934
  F       4.226945      1.238962      0.323633
  O      -2.110006     -4.897132      3.135472
  O      -0.057270     -3.584657      2.802747
  O      -2.263306     -2.483429      2.666118
  C       0.728577     -0.361440      4.372786
  C       0.524229     -1.481651      5.442757
  C       2.218023     -0.012756      4.036162
  C      -0.983617     -1.916839      5.646876
  C       2.341425      0.862365      2.741274
  C      -1.448551     -3.286126      5.055612
  C       3.699112      1.620102      2.621559
  C       3.983717      2.202654      1.202458
84
Coordinates from ORCA-job R4N+PFOS-_wb E -3538.943932458509
  N       7.473863     -0.604491     -2.607701
  C       2.579572     -3.713909      0.492221
  C       1.580939     -4.069392     -0.614232
  C       1.361577     -3.016545     -1.704003
  C       3.905627     -3.207868     -0.031802
  C       2.778122     -4.928786      1.412618
  C       7.639978     -1.660709     -1.529715
  C       6.354911     -2.218184     -0.996547
  C       0.906502     -1.668390     -1.185472
  C       4.518729     -2.108060      0.558330
  C       4.564266     -3.833159     -1.089114
  C       0.368499     -3.541856     -2.743145
  C       8.835188     -0.126487     -2.973221
  C       6.673947      0.549769     -2.116617
  C       6.822505     -1.172411     -3.817194
  C       5.728969     -1.623420      0.091871
  C       5.767995     -3.344221     -1.567251
  C       3.531296     -4.620886      2.697256
  C       1.554783     -0.506124     -1.594061
  C      -0.205821     -1.544860     -0.354257
  C       1.093264      0.745811     -1.209798
  C      -0.665173     -0.297275      0.039518
  C      -0.022088      0.854703     -0.393798
  H       2.147675     -2.908717      1.096995
  H       0.624105     -4.301085     -0.135791
  H       1.901462     -4.994190     -1.104749
  H       2.314314     -2.852432     -2.214168
  H       3.300224     -5.710438      0.850869
  H       1.791512     -5.330241      1.659792
  H       8.210966     -1.175855     -0.739976
  H       8.252213     -2.438635     -1.982440
  H       4.040514     -1.623896      1.400078
  H       4.125943     -4.706747     -1.558066
  H       0.231432     -2.823870     -3.554142
  H      -0.608077     -3.728677     -2.289210
  H       0.724675     -4.479393     -3.175820
  H       8.739735      0.620779     -3.757038
  H       9.419237     -0.971994     -3.328989
  H       9.299800      0.310059     -2.092342
  H       7.132689      0.935126     -1.209011
  H       5.656047      0.224659     -1.922406
  H       6.675221      1.313008     -2.891432
  H       6.789169     -0.396962     -4.579002
  H       5.812873     -1.486532     -3.567815
  H       7.409673     -2.018366     -4.167065
  H       6.188062     -0.767639      0.573570
  H       6.256709     -3.838926     -2.399230
  H       3.019708     -3.846085      3.273202
  H       4.546365     -4.270244      2.497754
  H       3.606845     -5.508931      3.327570
  H       2.429777     -0.585319     -2.231504
  H      -0.726828     -2.434278     -0.016722
  H       1.610360      1.636957     -1.546027
  H      -1.529083     -0.224847      0.690137
  H      -0.383836      1.829415     -0.088905
  S      -1.450680     -3.574792      3.195943
  F       0.125655     -0.722982      3.231828
  F       0.151829      0.750151      4.842703
  F       0.980376     -0.992623      6.601512
  F       1.262486     -2.563816      5.140175
  F       2.934345     -1.125076      3.841173
  F       2.745125      0.652734      5.080688
  F      -1.175296     -2.039381      6.962139
  F      -1.801748     -0.968134      5.186524
  F       2.215695      0.052322      1.688207
  F       1.360594      1.772660      2.713820
  F      -2.720594     -3.431463      5.438858
  F      -0.724978     -4.274374      5.606835
  F       4.710490      0.791302      2.930505
  F       3.705752      2.645355      3.486731
  F       5.057399      2.986612      1.275350
  F       2.956301      2.932037      0.785267
  F       4.224299      1.244931      0.326065
  O      -2.079913     -4.876231      3.113210
  O      -0.059462     -3.560135      2.805145
  O      -2.247331     -2.486838      2.672569
  C       0.731659     -0.363302      4.370172
  C       0.529601     -1.486236      5.439084
  C       2.222489     -0.010129      4.039573
  C      -0.978749     -1.927271      5.636526
  C       2.345678      0.864211      2.743321
  C      -1.441104     -3.293772      5.032398
  C       3.703747      1.622106      2.624145
  C       3.985639      2.206453      1.204468
84
Coordinates from ORCA-job R4N+PFOS-_wb E -3538.944010194483
  N       7.471006     -0.604415     -2.609948
  C       2.578762     -3.714728      0.493809
  C       1.580652     -4.070733     -0.613026
  C       1.361863     -3.019068     -1.703984
  C       3.904746     -3.208205     -0.030261
  C       2.777117     -4.928956      1.414915
  C       7.638149     -1.657618     -1.529445
  C       6.353367     -2.216199     -0.996017
  C       0.907470     -1.669991     -1.186783
  C       4.516629     -2.106964      0.559285
  C       4.563931     -3.833378     -1.087785
  C       0.369445     -3.545313     -2.743290
  C       8.831967     -0.123480     -2.975649
  C       6.667168      0.549026     -2.122110
  C       6.822049     -1.177180     -3.819226
  C       5.726588     -1.621217      0.092305
  C       5.767354     -3.343316     -1.566426
  C       3.529521     -4.620949      2.700189
  C       1.558319     -0.508564     -1.594844
  C      -0.205896     -1.544353     -0.356636
  C       1.098557      0.744527     -1.211079
  C      -0.663626     -0.295589      0.036567
  C      -0.017716      0.855478     -0.396087
  H       2.146691     -2.908595      1.097975
  H       0.623381     -4.302089     -0.134633
  H       1.900924     -4.996385     -1.102792
  H       2.315094     -2.855390     -2.214160
  H       3.299503     -5.711349      0.853891
  H       1.790325     -5.330886      1.661760
  H       8.207739     -1.171309     -0.739096
  H       8.252193     -2.436638     -1.978697
  H       4.037760     -1.622205      1.400538
  H       4.126429     -4.707762     -1.556458
  H       0.233258     -2.828322     -3.555625
  H      -0.608063     -3.731508     -2.290499
  H       0.725588     -4.483668     -3.174806
  H       8.735591      0.622084     -3.761313
  H       9.419106     -0.968030     -3.329370
  H       9.295377      0.316445     -2.095519
  H       7.123182      0.937977     -1.214358
  H       5.649612      0.221572     -1.928554
  H       6.666817      1.311352     -2.898170
  H       6.787916     -0.404262     -4.583932
  H       5.812310     -1.492656     -3.570810
  H       7.410999     -2.023311     -4.166418
  H       6.184721     -0.764458      0.573677
  H       6.256249     -3.838024     -2.398530
  H       3.017011     -3.846885      3.276929
  H       4.544734     -4.269382      2.501687
  H       3.605660     -5.509541      3.330047
  H       2.434225     -0.589252     -2.231164
  H      -0.728875     -2.432886     -0.019088
  H       1.618143      1.634876     -1.546157
  H      -1.528296     -0.221584      0.686245
  H      -0.377535      1.830988     -0.090785
  S      -1.453232     -3.576715      3.189077
  F       0.126691     -0.714987      3.231771
  F       0.155556      0.752459      4.848619
  F       0.977503     -0.995652      6.603114
  F       1.264678     -2.564960      5.138984
  F       2.938238     -1.123739      3.845569
  F       2.746663      0.654661      5.086067
  F      -1.174612     -2.046339      6.958738
  F      -1.801449     -0.967759      5.186275
  F       2.221056      0.052846      1.691959
  F       1.364205      1.774812      2.716898
  F      -2.723184     -3.432282      5.436573
  F      -0.726437     -4.277370      5.602117
  F       4.715723      0.792836      2.933818
  F       3.709853      2.646529      3.494363
  F       5.063779      2.989208      1.281304
  F       2.960567      2.940424      0.793284
  F       4.224650      1.250151      0.329143
  O      -2.080714     -4.877556      3.105068
  O      -0.062432     -3.559483      2.801567
  O      -2.249899     -2.489077      2.668497
  C       0.733241     -0.360983      4.371884
  C       0.530120     -1.487987      5.438094
  C       2.225743     -0.008580      4.043814
  C      -0.979212     -1.929978      5.632594
  C       2.349589      0.865929      2.747025
  C      -1.443319     -3.296570      5.025065
  C       3.708316      1.624341      2.629606
  C       3.989365      2.211366      1.209762
84
Coordinates from ORCA-job R4N+PFOS-_wb E -3538.944034944532
  N       7.465108     -0.604170     -2.613692
  C       2.577671     -3.714894      0.497464
  C       1.579803     -4.072206     -0.609293
  C       1.362377     -3.023043     -1.702912
  C       3.903785     -3.208827     -0.026841
  C       2.775120     -4.927550      1.420559
  C       7.634683     -1.653458     -1.530195
  C       6.350903     -2.214039     -0.995417
  C       0.910161     -1.671962     -1.188885
  C       4.514393     -2.105827      0.561128
  C       4.563957     -3.835035     -1.083476
  C       0.369809     -3.550691     -2.741297
  C       8.824849     -0.118591     -2.979268
  C       6.655702      0.547363     -2.129803
  C       6.819891     -1.182680     -3.822731
  C       5.723422     -1.618460      0.092599
  C       5.766875     -3.343941     -1.563312
  C       3.528617     -4.618820      2.705122
  C       1.566259     -0.512923     -1.596355
  C      -0.205195     -1.541568     -0.361598
  C       1.110227      0.742385     -1.214427
  C      -0.659438     -0.290494      0.029496
  C      -0.007750      0.858046     -0.402016
  H       2.146196     -2.906864      1.099747
  H       0.621999     -4.301866     -0.130645
  H       1.899126     -4.999563     -1.096900
  H       2.316002     -2.861393     -2.213532
  H       3.296174     -5.712014      0.860775
  H       1.787929     -5.328289      1.668757
  H       8.202467     -1.164429     -0.739905
  H       8.251225     -2.433154     -1.975485
  H       4.035021     -1.620139      1.401595
  H       4.127738     -4.710962     -1.550705
  H       0.235031     -2.835825     -3.555961
  H      -0.608664     -3.734624     -2.289263
  H       0.724841     -4.490797     -3.170347
  H       8.726635      0.624972     -3.766826
  H       9.416097     -0.961481     -3.330598
  H       9.286059      0.325350     -2.099772
  H       7.108160      0.940736     -1.221999
  H       5.638957      0.216136     -1.937259
  H       6.652997      1.308348     -2.907387
  H       6.784792     -0.412525     -4.590427
  H       5.810293     -1.500255     -3.575698
  H       7.411647     -2.028413     -4.166526
  H       6.179845     -0.759811      0.572632
  H       6.256201     -3.839693     -2.394662
  H       3.016342     -3.845194      3.282927
  H       4.543732     -4.266770      2.505986
  H       3.605996     -5.507581      3.334868
  H       2.443686     -0.597177     -2.230336
  H      -0.732356     -2.427871     -0.024155
  H       1.634640      1.630636     -1.547837
  H      -1.525350     -0.212667      0.677126
  H      -0.363608      1.835105     -0.096621
  S      -1.453208     -3.568071      3.178354
  F       0.129749     -0.721943      3.228602
  F       0.151501      0.745765      4.845847
  F       0.977703     -0.999002      6.602087
  F       1.267238     -2.570788      5.139683
  F       2.945182     -1.121712      3.852217
  F       2.740894      0.655889      5.092312
  F      -1.171144     -2.062034      6.958176
  F      -1.799485     -0.969228      5.193430
  F       2.228493      0.052804      1.695535
  F       1.366899      1.774747      2.718786
  F      -2.725783     -3.434973      5.429821
  F      -0.728266     -4.283459      5.590096
  F       4.719977      0.793879      2.939753
  F       3.712044      2.645833      3.505699
  F       5.072333      2.991102      1.293146
  F       2.967823      2.952284      0.805844
  F       4.225232      1.257988      0.334781
  O      -2.077193     -4.869318      3.083735
  O      -0.061300     -3.543257      2.796769
  O      -2.251063     -2.477815      2.666358
  C       0.733337     -0.366552      4.370149
  C       0.531281     -1.494019      5.437104
  C       2.226971     -0.009301      4.047545
  C      -0.978293     -1.936509      5.631745
  C       2.353158      0.866327      2.751096
  C      -1.445247     -3.299298      5.015111
  C       3.712071      1.625952      2.637561
  C       3.994246      2.217441      1.219181
84
Coordinates from ORCA-job R4N+PFOS-_wb E -3538.944044080252
  N       7.461990     -0.603959     -2.615339
  C       2.576845     -3.715931      0.498492
  C       1.579510     -4.074390     -0.608427
  C       1.362027     -3.026230     -1.702999
  C       3.902568     -3.208682     -0.025862
  C       2.775464     -4.928157      1.421660
  C       7.632336     -1.649685     -1.528957
  C       6.349022     -2.211607     -0.994174
  C       0.911617     -1.674172     -1.190029
  C       4.511416     -2.104259      0.561276
  C       4.564500     -3.835465     -1.081077
  C       0.368406     -3.554334     -2.740045
  C       8.821195     -0.116821     -2.980829
  C       6.649796      0.547271     -2.135535
  C       6.819276     -1.186906     -3.823565
  C       5.719921     -1.615546      0.092650
  C       5.767037     -3.343190     -1.560858
  C       3.527870     -4.618483      2.706638
  C       1.571041     -0.516670     -1.596613
  C      -0.204833     -1.541124     -0.364582
  C       1.117169      0.739780     -1.215818
  C      -0.657165     -0.288824      0.025123
  C      -0.002022      0.858169     -0.405415
  H       2.144677     -2.907971      1.100652
  H       0.621620     -4.304207     -0.130005
  H       1.899292     -5.002032     -1.095229
  H       2.315301     -2.865723     -2.214595
  H       3.297833     -5.712042      0.862259
  H       1.788819     -5.330535      1.669352
  H       8.198021     -1.157814     -0.738924
  H       8.251104     -2.429596     -1.970818
  H       4.031151     -1.618359      1.401099
  H       4.130034     -4.712817     -1.547295
  H       0.233754     -2.840504     -3.555657
  H      -0.610113     -3.736992     -2.287579
  H       0.722351     -4.495281     -3.168184
  H       8.722510      0.624691     -3.770260
  H       9.414287     -0.959520     -3.329550
  H       9.280878      0.330009     -2.101998
  H       7.100138      0.943939     -1.228138
  H       5.633416      0.214551     -1.943583
  H       6.646582      1.306329     -2.915003
  H       6.784289     -0.419183     -4.593713
  H       5.809674     -1.504974     -3.577178
  H       7.412555     -2.032915     -4.164024
  H       6.174406     -0.755370      0.571724
  H       6.257582     -3.839605     -2.391080
  H       3.013704     -3.846590      3.285135
  H       4.542251     -4.263909      2.508208
  H       3.607193     -5.507593      3.335688
  H       2.449273     -0.602980     -2.229197
  H      -0.734573     -2.426097     -0.027659
  H       1.644511      1.626712     -1.548114
  H      -1.524523     -0.208715      0.670531
  H      -0.355674      1.836064     -0.100137
  S      -1.456117     -3.567819      3.172482
  F       0.125897     -0.706377      3.232445
  F       0.158689      0.750508      4.858729
  F       0.978338     -1.005458      6.602456
  F       1.268425     -2.569835      5.132464
  F       2.943845     -1.122133      3.854661
  F       2.744608      0.655465      5.095508
  F      -1.168329     -2.070154      6.954714
  F      -1.799554     -0.971196      5.194993
  F       2.233193      0.053170      1.698865
  F       1.369420      1.775368      2.720524
  F      -2.724703     -3.437794      5.426922
  F      -0.726998     -4.286525      5.582528
  F       4.722727      0.795626      2.943037
  F       3.713929      2.646135      3.512217
  F       5.077782      2.992305      1.300399
  F       2.972836      2.961378      0.814603
  F       4.224502      1.264419      0.337977
  O      -2.083979     -4.867108      3.075582
  O      -0.064142     -3.545983      2.790477
  O      -2.251541     -2.474040      2.663749
  C       0.734259     -0.361506      4.374334
  C       0.531787     -1.495051      5.434960
  C       2.228503     -0.007972      4.050684
  C      -0.977239     -1.939753      5.628424
  C       2.355979      0.867352      2.754248
  C      -1.444855     -3.301436      5.009081
  C       3.714525      1.627781      2.642219
  C       3.997141      2.222150      1.225216
84
Coordinates from ORCA-job R4N+PFOS-_wb E -3538.944057942603
  N       7.459011     -0.603653     -2.617042
  C       2.576487     -3.716395      0.499941
  C       1.579415     -4.075886     -0.606845
  C       1.362079     -3.028726     -1.702413
  C       3.901845     -3.208529     -0.024778
  C       2.775897     -4.927905      1.423747
  C       7.629914     -1.647141     -1.528905
  C       6.347080     -2.209627     -0.993786
  C       0.913449     -1.675767     -1.190341
  C       4.509119     -2.102602      0.560991
  C       4.564659     -3.835712     -1.079055
  C       0.367152     -3.557065     -2.738004
  C       8.817925     -0.116642     -2.983333
  C       6.646348      0.547933     -2.139289
  C       6.816596     -1.188916     -3.824134
  C       5.716975     -1.612871      0.091964
  C       5.766516     -3.342396     -1.559249
  C       3.527165     -4.616573      2.708946
  C       1.575667     -0.519594     -1.595893
  C      -0.203948     -1.540644     -0.366716
  C       1.123640      0.737634     -1.215792
  C      -0.654429     -0.287564      0.022376
  C       0.003546      0.858145     -0.407057
  H       2.143751     -2.908588      1.101704
  H       0.621421     -4.305172     -0.128486
  H       1.899362     -5.003895     -1.092688
  H       2.314991     -2.869674     -2.214909
  H       3.299457     -5.711452      0.865122
  H       1.789647     -5.331305      1.671091
  H       8.194491     -1.153210     -0.739467
  H       8.249840     -2.426982     -1.969073
  H       4.028219     -1.616509      1.400293
  H       4.131410     -4.714174     -1.544274
  H       0.232569     -2.844137     -3.554353
  H      -0.611178     -3.738266     -2.284685
  H       0.719847     -4.498815     -3.165283
  H       8.718937      0.623698     -3.773727
  H       9.411070     -0.959730     -3.330886
  H       9.277507      0.331447     -2.105170
  H       7.096396      0.946134     -1.232508
  H       5.630132      0.215104     -1.947104
  H       6.643135      1.305641     -2.919990
  H       6.781732     -0.422641     -4.595656
  H       5.807020     -1.506513     -3.577250
  H       7.410046     -2.035457     -4.162798
  H       6.169815     -0.751178      0.569772
  H       6.257865     -3.839390     -2.388601
  H       3.011292     -3.845668      3.287180
  H       4.540868     -4.260024      2.510899
  H       3.607948     -5.505423      3.338109
  H       2.454526     -0.607549     -2.227296
  H      -0.735997     -2.424570     -0.030849
  H       1.653301      1.623477     -1.547187
  H      -1.522943     -0.205687      0.665985
  H      -0.348358      1.836646     -0.101848
  S      -1.457901     -3.565981      3.168177
  F       0.130011     -0.708131      3.230318
  F       0.158518      0.747711      4.856795
  F       0.977690     -1.008609      6.601140
  F       1.268114     -2.572825      5.131311
  F       2.947999     -1.121033      3.857765
  F       2.743432      0.655682      5.098558
  F      -1.168371     -2.073155      6.951327
  F      -1.798210     -0.971760      5.193083
  F       2.237489      0.053535      1.701412
  F       1.371161      1.774469      2.722437
  F      -2.724658     -3.439075      5.422848
  F      -0.727239     -4.287994      5.575919
  F       4.724770      0.796926      2.946107
  F       3.715070      2.645920      3.517995
  F       5.082185      2.993096      1.307540
  F       2.977213      2.969197      0.822976
  F       4.223819      1.270386      0.341009
  O      -2.086371     -4.865008      3.069042
  O      -0.065909     -3.544237      2.785132
  O      -2.253453     -2.471177      2.661014
  C       0.735976     -0.363690      4.373308
  C       0.532027     -1.497671      5.433065
  C       2.230336     -0.008279      4.052679
  C      -0.976847     -1.941460      5.625407
  C       2.358527      0.867556      2.756987
  C      -1.445273     -3.301946      5.004818
  C       3.716351      1.629059      2.646396
  C       3.999551      2.226131      1.230968
84
Coordinates from ORCA-job R4N+PFOS-_wb E -3538.944066599515
  N       7.453408     -0.602552     -2.619424
  C       2.575313     -3.718084      0.502543
  C       1.577616     -4.079775     -0.602865
  C       1.360481     -3.035423     -1.701284
  C       3.899751     -3.209183     -0.023406
  C       2.776434     -4.927874      1.428098
  C       7.624835     -1.642981     -1.528694
  C       6.342638     -2.206545     -0.993420
  C       0.916442     -1.679887     -1.192050
  C       4.503658     -2.100031      0.559441
  C       4.564620     -3.837575     -1.075463
  C       0.362071     -3.564574     -2.732949
  C       8.811920     -0.114417     -2.985170
  C       6.638671      0.548712     -2.144956
  C       6.813186     -1.190994     -3.825951
  C       5.709987     -1.607858      0.089578
  C       5.765404     -3.342286     -1.555988
  C       3.527364     -4.612975      2.712519
  C       1.585637     -0.527213     -1.595685
  C      -0.202888     -1.539110     -0.372290
  C       1.138520      0.732223     -1.217612
  C      -0.648708     -0.283771      0.014570
  C       0.016253      0.858500     -0.413009
  H       2.142106     -2.910071      1.103290
  H       0.619607     -4.306622     -0.123439
  H       1.896726     -5.009298     -1.086259
  H       2.312609     -2.880319     -2.216178
  H       3.301107     -5.711501      0.870816
  H       1.790864     -5.332260      1.676288
  H       8.187269     -1.145664     -0.739970
  H       8.246835     -2.422487     -1.966320
  H       4.020897     -1.613420      1.397356
  H       4.133981     -4.718419     -1.538527
  H       0.227527     -2.854027     -3.551296
  H      -0.615687     -3.741953     -2.277104
  H       0.711582     -4.508490     -3.157900
  H       8.712624      0.625025     -3.776238
  H       9.405998     -0.957260     -3.331439
  H       9.270257      0.334864     -2.107040
  H       7.087178      0.949142     -1.238503
  H       5.622790      0.214780     -1.953498
  H       6.635579      1.304674     -2.927243
  H       6.779050     -0.426414     -4.599095
  H       5.803584     -1.508576     -3.579713
  H       7.407797     -2.037799     -4.161666
  H       6.159073     -0.742737      0.564606
  H       6.258793     -3.840553     -2.383297
  H       3.009551     -3.842952      3.290021
  H       4.539841     -4.253638      2.513551
  H       3.610935     -5.500789      3.342672
  H       2.466115     -0.619687     -2.224106
  H      -0.740052     -2.420353     -0.037665
  H       1.673968      1.615164     -1.547281
  H      -1.519264     -0.197163      0.654715
  H      -0.331403      1.838752     -0.108715
  S      -1.458761     -3.557856      3.159241
  F       0.133924     -0.709859      3.228158
  F       0.157345      0.742865      4.857298
  F       0.981391     -1.016995      6.597877
  F       1.268909     -2.577414      5.123681
  F       2.952353     -1.119115      3.862865
  F       2.740751      0.656054      5.103614
  F      -1.164354     -2.084456      6.947958
  F      -1.796296     -0.974822      5.196065
  F       2.244801      0.055192      1.705109
  F       1.373650      1.774202      2.724668
  F      -2.723654     -3.442127      5.413599
  F      -0.727325     -4.293091      5.561143
  F       4.727407      0.799134      2.951855
  F       3.716479      2.645698      3.529070
  F       5.091295      2.994408      1.321971
  F       2.986179      2.986003      0.839319
  F       4.221961      1.282913      0.346279
  O      -2.089095     -4.855614      3.052606
  O      -0.066649     -3.536234      2.775158
  O      -2.253386     -2.459350      2.657557
  C       0.737406     -0.366612      4.372569
  C       0.533779     -1.502978      5.429242
  C       2.231872     -0.008066      4.055918
  C      -0.974668     -1.946628      5.622620
  C       2.362071      0.868803      2.761262
  C      -1.444772     -3.303438      4.996798
  C       3.718989      1.631856      2.654129
  C       4.004183      2.234526      1.241952
84
Coordinates from ORCA-job R4N+PFOS-_wb E -3538.944068628808
  N       7.449601     -0.602570     -2.621867
  C       2.576030     -3.718451      0.503996
  C       1.578867     -4.080148     -0.601940
  C       1.362707     -3.036098     -1.700900
  C       3.900636     -3.209753     -0.021542
  C       2.776711     -4.928231      1.429769
  C       7.623612     -1.641117     -1.529508
  C       6.342630     -2.206040     -0.992721
  C       0.919222     -1.680156     -1.192176
  C       4.503737     -2.099615      0.560272
  C       4.565952     -3.838639     -1.072978
  C       0.364421     -3.565243     -2.732713
  C       8.807039     -0.113060     -2.989938
  C       6.633643      0.548417     -2.148556
  C       6.808956     -1.194100     -3.826697
  C       5.709527     -1.606730      0.089664
  C       5.766744     -3.343312     -1.553620
  C       3.526452     -4.612891      2.714834
  C       1.590307     -0.528023     -1.594178
  C      -0.201126     -1.538532     -0.373904
  C       1.144079      0.731727     -1.215954
  C      -0.646025     -0.282912      0.013179
  C       0.020870      0.858865     -0.412785
  H       2.142457     -2.910414      1.104585
  H       0.620449     -4.306286     -0.122999
  H       1.898016     -5.009921     -1.084857
  H       2.315181     -2.881732     -2.215427
  H       3.302140     -5.711697      0.872931
  H       1.791031     -5.332886      1.677113
  H       8.185699     -1.141487     -0.741978
  H       8.246657     -2.420167     -1.966485
  H       4.020482     -1.612653      1.397605
  H       4.135691     -4.720002     -1.535419
  H       0.230449     -2.854942     -3.551389
  H      -0.613529     -3.742045     -2.277045
  H       0.713718     -4.509480     -3.157154
  H       8.705728      0.625018     -3.782052
  H       9.401930     -0.955593     -3.335620
  H       9.265760      0.338292     -2.113064
  H       7.082693      0.951270     -1.243422
  H       5.618498      0.213241     -1.955183
  H       6.628405      1.302862     -2.932322
  H       6.772895     -0.430921     -4.601160
  H       5.800057     -1.512770     -3.578788
  H       7.404489     -2.040622     -4.161522
  H       6.157588     -0.740413      0.563514
  H       6.260469     -3.841857     -2.380591
  H       3.007860     -3.842849      3.291663
  H       4.538966     -4.253218      2.516584
  H       3.609787     -5.500519      3.345294
  H       2.471627     -0.621143     -2.221344
  H      -0.739652     -2.419426     -0.040498
  H       1.680984      1.614188     -1.544546
  H      -1.517409     -0.195667      0.652118
  H      -0.326144      1.839367     -0.108534
  S      -1.459963     -3.557821      3.155569
  F       0.135735     -0.709665      3.227273
  F       0.157082      0.742319      4.857213
  F       0.979109     -1.019641      6.597878
  F       1.266760     -2.578783      5.122098
  F       2.953379     -1.119078      3.865050
  F       2.740399      0.655413      5.106696
  F      -1.168309     -2.083967      6.944866
  F      -1.797465     -0.974857      5.191496
  F       2.247041      0.056658      1.707304
  F       1.375510      1.775109      2.727522
  F      -2.725623     -3.442284      5.409630
  F      -0.729241     -4.293287      5.557691
  F       4.729210      0.799014      2.955002
  F       3.718745      2.645436      3.534091
  F       5.095248      2.994824      1.327596
  F       2.989829      2.990609      0.845684
  F       4.222761      1.286366      0.349211
  O      -2.089979     -4.855734      3.049331
  O      -0.067962     -3.536076      2.771388
  O      -2.254753     -2.459658      2.653584
  C       0.737725     -0.366906      4.372707
  C       0.532299     -1.503988      5.428268
  C       2.232673     -0.008155      4.058088
  C      -0.976782     -1.946763      5.619682
  C       2.363877      0.869606      2.764054
  C      -1.446592     -3.303614      4.993550
  C       3.721091      1.632479      2.658053
  C       4.006864      2.236807      1.246618
84
Coordinates from ORCA-job R4N+PFOS-_wb E -3538.944072966769
  N       7.443390     -0.601951     -2.626179
  C       2.577928     -3.719908      0.506814
  C       1.581455     -4.081212     -0.599933
  C       1.367696     -3.037434     -1.699718
  C       3.902625     -3.211511     -0.018544
  C       2.777919     -4.929846      1.432699
  C       7.621486     -1.639084     -1.532693
  C       6.342460     -2.205801     -0.993158
  C       0.924897     -1.680985     -1.191682
  C       4.504752     -2.099800      0.561348
  C       4.568007     -3.841080     -1.069609
  C       0.370166     -3.566207     -2.732542
  C       8.799284     -0.110532     -2.997579
  C       6.626199      0.548215     -2.152678
  C       6.801417     -1.196292     -3.829050
  C       5.709590     -1.605937      0.089218
  C       5.767857     -3.344859     -1.551849
  C       3.526260     -4.613925      2.718509
  C       1.598664     -0.529400     -1.590887
  C      -0.197429     -1.538384     -0.376181
  C       1.153068      0.730673     -1.212639
  C      -0.641786     -0.282531      0.010761
  C       0.027948      0.858717     -0.412264
  H       2.143913     -2.911862      1.107371
  H       0.622195     -4.305617     -0.121822
  H       1.900150     -5.011581     -1.082054
  H       2.321126     -2.884243     -2.213002
  H       3.304192     -5.713097      0.876305
  H       1.792009     -5.334646      1.679011
  H       8.184055     -1.137121     -0.746922
  H       8.245249     -2.417292     -1.970235
  H       4.021051     -1.612458      1.398092
  H       4.138242     -4.723395     -1.530738
  H       0.237673     -2.856045     -3.551611
  H      -0.608349     -3.742099     -2.277687
  H       0.719274     -4.510909     -3.156169
  H       8.695093      0.626344     -3.790496
  H       9.395010     -0.952462     -3.343415
  H       9.259015      0.342880     -2.122285
  H       7.076542      0.953253     -1.249126
  H       5.612112      0.211240     -1.956556
  H       6.617678      1.301470     -2.937600
  H       6.762168     -0.434128     -4.604405
  H       5.793655     -1.516844     -3.578661
  H       7.398048     -2.041989     -4.164069
  H       6.156542     -0.738044      0.561311
  H       6.261652     -3.843649     -2.378652
  H       3.006800     -3.843554      3.294207
  H       4.538899     -4.254076      2.520987
  H       3.609143     -5.501175      3.349586
  H       2.481548     -0.623177     -2.215788
  H      -0.737748     -2.418999     -0.044810
  H       1.692054      1.612616     -1.539302
  H      -1.514665     -0.194656      0.647578
  H      -0.318721      1.839484     -0.108420
  S      -1.461884     -3.557446      3.150760
  F       0.135540     -0.706543      3.226954
  F       0.156722      0.742823      4.859603
  F       0.976492     -1.025138      6.597697
  F       1.261460     -2.580449      5.116904
  F       2.952176     -1.119587      3.867206
  F       2.739927      0.653792      5.110832
  F      -1.175539     -2.080713      6.940720
  F      -1.800008     -0.973083      5.184421
  F       2.248689      0.059791      1.710122
  F       1.378019      1.777751      2.732178
  F      -2.731173     -3.439058      5.403180
  F      -0.735940     -4.292471      5.555096
  F       4.730852      0.797483      2.959857
  F       3.722382      2.644433      3.541668
  F       5.100813      2.995069      1.336080
  F       2.995025      2.996020      0.854507
  F       4.224641      1.290466      0.353953
  O      -2.093015     -4.854876      3.046077
  O      -0.069821     -3.537620      2.767525
  O      -2.254932     -2.459201      2.646837
  C       0.736855     -0.365932      4.373680
  C       0.529119     -1.504991      5.426582
  C       2.232518     -0.008080      4.061012
  C      -0.981269     -1.945353      5.615641
  C       2.365603      0.871253      2.768074
  C      -1.451187     -3.302314      4.989471
  C       3.723834      1.632820      2.663968
  C       4.010877      2.239341      1.253550
84
Coordinates from ORCA-job R4N+PFOS-_wb E -3538.944071328279
  N       7.438572     -0.601198     -2.629739
  C       2.579229     -3.721723      0.508552
  C       1.582651     -4.083315     -0.598175
  C       1.369374     -3.039992     -1.698601
  C       3.903679     -3.212937     -0.016868
  C       2.779196     -4.931086      1.435108
  C       7.619187     -1.636324     -1.534594
  C       6.341595     -2.204678     -0.993428
  C       0.928396     -1.682767     -1.191118
  C       4.504025     -2.099315      0.561284
  C       4.570482     -3.843796     -1.066245
  C       0.370999     -3.568524     -2.730740
  C       8.793561     -0.108714     -3.003088
  C       6.620310      0.548663     -2.157280
  C       6.796334     -1.198248     -3.831193
  C       5.707946     -1.604107      0.088127
  C       5.769221     -3.346085     -1.549746
  C       3.526695     -4.613533      2.721025
  C       1.605950     -0.532440     -1.587574
  C      -0.195803     -1.538128     -0.378452
  C       1.162249      0.728382     -1.209400
  C      -0.638350     -0.281578      0.008281
  C       0.035263      0.858461     -0.411985
  H       2.144959     -2.913631      1.108760
  H       0.623215     -4.306850     -0.120004
  H       1.901048     -5.014033     -1.079796
  H       2.322778     -2.888149     -2.212263
  H       3.306187     -5.714404      0.879477
  H       1.793299     -5.336104      1.681188
  H       8.181368     -1.131943     -0.750096
  H       8.244081     -2.414034     -1.971395
  H       4.019368     -1.611692      1.397382
  H       4.142345     -4.727901     -1.525470
  H       0.238787     -2.858719     -3.550172
  H      -0.607452     -3.743389     -2.275324
  H       0.719206     -4.513769     -3.153898
  H       8.687858      0.626810     -3.797080
  H       9.390038     -0.950442     -3.348149
  H       9.253538      0.346713     -2.128931
  H       7.071245      0.956006     -1.255054
  H       5.606942      0.210574     -1.959245
  H       6.609638      1.300463     -2.943581
  H       6.755494     -0.437377     -4.607757
  H       5.789172     -1.519653     -3.579530
  H       7.393693     -2.043773     -4.165378
  H       6.153310     -0.734531      0.558545
  H       6.264079     -3.845585     -2.375499
  H       3.006377     -3.842854      3.295569
  H       4.539165     -4.253129      2.523501
  H       3.609947     -5.500055      3.353081
  H       2.490293     -0.627762     -2.210199
  H      -0.739146     -2.417799     -0.049545
  H       1.704272      1.609256     -1.533977
  H      -1.512784     -0.192165      0.642767
  H      -0.310092      1.839836     -0.108566
  S      -1.463697     -3.555857      3.144969
  F       0.136907     -0.704700      3.225723
  F       0.155652      0.742629      4.860698
  F       0.975059     -1.030195      6.596704
  F       1.258483     -2.581829      5.111766
  F       2.952374     -1.118716      3.870192
  F       2.738357      0.653550      5.115229
  F      -1.180235     -2.080903      6.936549
  F      -1.801790     -0.972880      5.179454
  F       2.250309      0.063509      1.713073
  F       1.380703      1.781000      2.736878
  F      -2.734437     -3.438088      5.396927
  F      -0.739814     -4.292919      5.549910
  F       4.732444      0.796526      2.964332
  F       3.726188      2.643711      3.549459
  F       5.106539      2.995740      1.344772
  F       3.000472      3.002979      0.863873
  F       4.225861      1.295787      0.358566
  O      -2.095876     -4.852737      3.040058
  O      -0.071721     -3.537036      2.761940
  O      -2.255469     -2.456729      2.641340
  C       0.736407     -0.365418      4.374003
  C       0.527195     -1.506406      5.424436
  C       2.232568     -0.007254      4.063976
  C      -0.984051     -1.945547      5.611715
  C       2.367446      0.873501      2.772132
  C      -1.453947     -3.301964      4.984261
  C       3.726575      1.633756      2.669817
  C       4.014744      2.242831      1.260673
84
Coordinates from ORCA-job R4N+PFOS-_wb E -3538.944074626815
  N       7.440468     -0.601378     -2.629102
  C       2.578888     -3.721561      0.508080
  C       1.581945     -4.083346     -0.598274
  C       1.367939     -3.040041     -1.698567
  C       3.903192     -3.212567     -0.017604
  C       2.779242     -4.930876      1.434536
  C       7.619695     -1.637420     -1.534702
  C       6.341523     -2.204971     -0.994087
  C       0.926736     -1.683009     -1.190937
  C       4.503487     -2.098724      0.560097
  C       4.570192     -3.843842     -1.066601
  C       0.369523     -3.568836     -2.730494
  C       8.796146     -0.110466     -3.002011
  C       6.623835      0.549219     -2.155779
  C       6.797449     -1.196626     -3.830974
  C       5.707534     -1.603831      0.086919
  C       5.769114     -3.346546     -1.550034
  C       3.527560     -4.613334      2.719955
  C       1.604197     -0.532609     -1.587247
  C      -0.197338     -1.538631     -0.378044
  C       1.160590      0.728105     -1.208709
  C      -0.639871     -0.282168      0.008953
  C       0.033626      0.857972     -0.411257
  H       2.144810     -2.913557      1.108444
  H       0.622783     -4.307241     -0.119692
  H       1.900368     -5.013960     -1.080074
  H       2.321117     -2.887797     -2.212478
  H       3.305811     -5.714295      0.878669
  H       1.793465     -5.335774      1.681222
  H       8.182229     -1.134171     -0.749743
  H       8.243910     -2.415499     -1.971802
  H       4.018706     -1.610659      1.395909
  H       4.142256     -4.728299     -1.525331
  H       0.236706     -2.858920     -3.549718
  H      -0.608719     -3.744325     -2.274876
  H       0.718100     -4.513783     -3.153993
  H       8.691584      0.625643     -3.795602
  H       9.391586     -0.952770     -3.347428
  H       9.256602      0.343877     -2.127548
  H       7.075316      0.955235     -1.253234
  H       5.610009      0.212436     -1.957972
  H       6.614190      1.301701     -2.941439
  H       6.757599     -0.435117     -4.606956
  H       5.789864     -1.516870     -3.579561
  H       7.393641     -2.042713     -4.165819
  H       6.152995     -0.734190      0.557115
  H       6.264207     -3.846587     -2.375317
  H       3.007774     -3.842453      3.294668
  H       4.540003     -4.253232      2.521802
  H       3.610976     -5.499775      3.352089
  H       2.488477     -0.627781     -2.209978
  H      -0.740632     -2.418368     -0.049225
  H       1.702683      1.609055     -1.532945
  H      -1.514167     -0.192956      0.643662
  H      -0.311768      1.839274     -0.107651
  S      -1.463488     -3.556125      3.145617
  F       0.136282     -0.705027      3.225852
  F       0.155053      0.742697      4.860556
  F       0.975957     -1.029914      6.596410
  F       1.259255     -2.581296      5.111354
  F       2.951981     -1.117855      3.869088
  F       2.737967      0.654128      5.114479
  F      -1.178997     -2.081497      6.937122
  F      -1.801691     -0.973592      5.180495
  F       2.248339      0.065149      1.712267
  F       1.380004      1.782429      2.737381
  F      -2.733287     -3.439226      5.398099
  F      -0.738249     -4.293194      5.550246
  F       4.731465      0.797012      2.963019
  F       3.725929      2.644370      3.548406
  F       5.104907      2.996824      1.343359
  F       2.998911      3.002727      0.862373
  F       4.225254      1.296039      0.357751
  O      -2.095314     -4.853199      3.040628
  O      -0.071638     -3.536674      2.762159
  O      -2.255688     -2.457037      2.642519
  C       0.736058     -0.365196      4.373835
  C       0.527669     -1.506201      5.424392
  C       2.231995     -0.006569      4.063237
  C      -0.983350     -1.945952      5.612281
  C       2.366431      0.874546      2.771630
  C      -1.452955     -3.302430      4.984773
  C       3.725722      1.634424      2.668792
  C       4.013563      2.243271      1.259504
84
Coordinates from ORCA-job R4N+PFOS-_wb E -3538.944075645426
  N       7.443387     -0.601665     -2.627477
  C       2.578423     -3.721647      0.506807
  C       1.580718     -4.083789     -0.598663
  C       1.365430     -3.040644     -1.698769
  C       3.902389     -3.211962     -0.019316
  C       2.779624     -4.930877      1.433033
  C       7.620941     -1.638245     -1.533665
  C       6.341801     -2.204808     -0.994364
  C       0.924133     -1.683906     -1.190672
  C       4.502196     -2.097747      0.558029
  C       4.570051     -3.843251     -1.067919
  C       0.366551     -3.569757     -2.729987
  C       8.799750     -0.113248     -3.000995
  C       6.629407      0.550351     -2.153377
  C       6.798404     -1.195386     -3.828903
  C       5.706695     -1.603308      0.085622
  C       5.769157     -3.345992     -1.550909
  C       3.529983     -4.613579      2.717281
  C       1.602002     -0.533658     -1.586500
  C      -0.199945     -1.539585     -0.377770
  C       1.159051      0.727018     -1.207419
  C      -0.642022     -0.283067      0.009522
  C       0.031855      0.856956     -0.410393
  H       2.144714     -2.913704      1.107481
  H       0.622150     -4.307882     -0.119046
  H       1.898715     -5.014511     -1.080594
  H       2.318111     -2.887821     -2.213518
  H       3.305038     -5.714625      0.876581
  H       1.794089     -5.335413      1.681200
  H       8.183618     -1.136334     -0.747959
  H       8.244482     -2.416941     -1.970686
  H       4.016962     -1.609019      1.393296
  H       4.142567     -4.728014     -1.526542
  H       0.232530     -2.859660     -3.548827
  H      -0.611250     -3.746196     -2.273823
  H       0.715476     -4.514247     -3.154184
  H       8.696304      0.622929     -3.794639
  H       9.393577     -0.956634     -3.346452
  H       9.261353      0.340393     -2.126793
  H       7.082380      0.955350     -1.251130
  H       5.615157      0.215582     -1.954602
  H       6.620508      1.303116     -2.938761
  H       6.759120     -0.433602     -4.604611
  H       5.790504     -1.513995     -3.576699
  H       7.392785     -2.042433     -4.164551
  H       6.152291     -0.733923      0.556097
  H       6.264540     -3.846052     -2.375984
  H       3.011604     -3.842236      3.292599
  H       4.542417     -4.254320      2.517668
  H       3.613687     -5.499939      3.349468
  H       2.486332     -0.628905     -2.209104
  H      -0.743499     -2.419212     -0.049067
  H       1.701886      1.607903     -1.530532
  H      -1.516158     -0.193877      0.644444
  H      -0.313203      1.838248     -0.106396
  S      -1.463443     -3.555655      3.146507
  F       0.134901     -0.705282      3.225838
  F       0.153791      0.742838      4.860170
  F       0.977635     -1.029382      6.595474
  F       1.260549     -2.580380      5.110226
  F       2.951022     -1.116199      3.866700
  F       2.737053      0.654811      5.113449
  F      -1.175863     -2.083324      6.938155
  F      -1.801257     -0.974360      5.183429
  F       2.244506      0.069356      1.710807
  F       1.379134      1.785941      2.739324
  F      -2.731528     -3.440663      5.399800
  F      -0.736046     -4.293672      5.550181
  F       4.729758      0.797863      2.961358
  F       3.725847      2.645732      3.547164
  F       5.101629      2.999204      1.341279
  F       2.995889      3.001277      0.859728
  F       4.224882      1.295901      0.357531
  O      -2.095430     -4.852621      3.040426
  O      -0.071621     -3.535733      2.762642
  O      -2.255713     -2.455892      2.644684
  C       0.735233     -0.364696      4.373229
  C       0.528491     -1.505852      5.423915
  C       2.230785     -0.005275      4.061909
  C      -0.981873     -1.946659      5.613327
  C       2.364653      0.876964      2.771214
  C      -1.451447     -3.302838      4.985230
  C       3.724397      1.635771      2.667659
  C       4.011532      2.243867      1.258060
84
Coordinates from ORCA-job R4N+PFOS-_wb E -3538.944077171451
  N       7.442445     -0.601423     -2.628077
  C       2.578215     -3.722084      0.507217
  C       1.580603     -4.084788     -0.598069
  C       1.365626     -3.042119     -1.698636
  C       3.901822     -3.212081     -0.019330
  C       2.780046     -4.931018      1.433716
  C       7.619977     -1.638136     -1.534362
  C       6.340945     -2.204676     -0.994778
  C       0.924740     -1.685169     -1.190725
  C       4.501104     -2.097221      0.557285
  C       4.569554     -3.843542     -1.067809
  C       0.366614     -3.571358     -2.729656
  C       8.798856     -0.113259     -3.001600
  C       6.628823      0.550817     -2.153849
  C       6.797367     -1.194760     -3.829678
  C       5.705543     -1.602713      0.084820
  C       5.768547     -3.346235     -1.550869
  C       3.531040     -4.613302      2.717500
  C       1.603971     -0.535245     -1.585222
  C      -0.200092     -1.540388     -0.378988
  C       1.161604      0.725581     -1.205953
  C      -0.641578     -0.283725      0.008476
  C       0.033664      0.855973     -0.410069
  H       2.144357     -2.914108      1.107717
  H       0.621956     -4.308453     -0.118339
  H       1.898557     -5.015802     -1.079483
  H       2.318366     -2.889761     -2.213422
  H       3.305276     -5.714889      0.877261
  H       1.794701     -5.335637      1.682495
  H       8.182837     -1.136389     -0.748679
  H       8.243361     -2.416910     -1.971445
  H       4.015596     -1.608070      1.392130
  H       4.142243     -4.728526     -1.526175
  H       0.232661     -2.861476     -3.548702
  H      -0.611216     -3.747547     -2.273465
  H       0.715364     -4.516023     -3.153611
  H       8.695517      0.623165     -3.795028
  H       9.392434     -0.956704     -3.347349
  H       9.260663      0.340001     -2.127312
  H       7.081950      0.955628     -1.251591
  H       5.614462      0.216435     -1.955059
  H       6.620146      1.303619     -2.939191
  H       6.758396     -0.432847     -4.605268
  H       5.789358     -1.513108     -3.577688
  H       7.391522     -2.041931     -4.165401
  H       6.150901     -0.732986      0.554925
  H       6.264036     -3.846513     -2.375753
  H       3.012859     -3.841933      3.292953
  H       4.543305     -4.253918      2.517268
  H       3.615254     -5.499513      3.349831
  H       2.488910     -0.630864     -2.206919
  H      -0.744546     -2.419750     -0.051049
  H       1.705599      1.606211     -1.527795
  H      -1.516282     -0.194204      0.642564
  H      -0.310848      1.837365     -0.105769
  S      -1.464166     -3.555136      3.145006
  F       0.135157     -0.703578      3.225583
  F       0.153927      0.743170      4.860954
  F       0.976979     -1.030253      6.595232
  F       1.259986     -2.580411      5.109031
  F       2.951226     -1.115369      3.866907
  F       2.736989      0.654869      5.114806
  F      -1.176744     -2.083633      6.936780
  F      -1.801551     -0.974070      5.182218
  F       2.244228      0.072026      1.711690
  F       1.380215      1.788159      2.741990
  F      -2.732001     -3.440639      5.398355
  F      -0.736428     -4.293508      5.548340
  F       4.730431      0.797959      2.962393
  F       3.727710      2.646110      3.549329
  F       5.102614      3.000266      1.343149
  F       2.996835      3.002582      0.861826
  F       4.225619      1.297219      0.359157
  O      -2.096017     -4.852126      3.038558
  O      -0.072326     -3.534986      2.761066
  O      -2.256652     -2.455359      2.643441
  C       0.735297     -0.364093      4.373362
  C       0.528082     -1.505928      5.423218
  C       2.230969     -0.004580      4.062724
  C      -0.982398     -1.946603      5.612072
  C       2.365211      0.878537      2.772799
  C      -1.451980     -3.302620      4.983683
  C       3.725429      1.636552      2.669371
  C       4.012458      2.245030      1.259904
84
Coordinates from ORCA-job R4N+PFOS-_wb E -3538.944079040322
  N       7.440891     -0.601664     -2.628982
  C       2.577994     -3.722395      0.507061
  C       1.580988     -4.086087     -0.598422
  C       1.366082     -3.043884     -1.699513
  C       3.901339     -3.212185     -0.019524
  C       2.780415     -4.930810      1.434189
  C       7.618928     -1.638034     -1.534977
  C       6.340137     -2.204788     -0.994964
  C       0.925155     -1.686932     -1.191399
  C       4.499324     -2.095899      0.555759
  C       4.570027     -3.845071     -1.066487
  C       0.367128     -3.573543     -2.730383
  C       8.797119     -0.113028     -3.002597
  C       6.626849      0.550547     -2.155113
  C       6.796191     -1.195592     -3.830589
  C       5.703934     -1.601647      0.083646
  C       5.768801     -3.347561     -1.549698
  C       3.532737     -4.612904      2.717181
  C       1.606262     -0.536946     -1.582681
  C      -0.201027     -1.542449     -0.381569
  C       1.164251      0.723655     -1.202204
  C      -0.642166     -0.286022      0.007052
  C       0.035023      0.853705     -0.408076
  H       2.143548     -2.914245      1.106804
  H       0.622196     -4.309892     -0.118912
  H       1.899667     -5.017115     -1.079305
  H       2.318833     -2.891668     -2.214235
  H       3.304924     -5.715155      0.877687
  H       1.795183     -5.335096      1.684015
  H       8.181752     -1.135862     -0.749524
  H       8.242435     -2.416792     -1.971850
  H       4.012751     -1.605562      1.389228
  H       4.143293     -4.730795     -1.523954
  H       0.233136     -2.863973     -3.549721
  H      -0.610721     -3.749668     -2.274221
  H       0.715908     -4.518369     -3.153971
  H       8.693371      0.623569     -3.795828
  H       9.390897     -0.956215     -3.348668
  H       9.258927      0.340092     -2.128232
  H       7.079793      0.955752     -1.252926
  H       5.612454      0.216061     -1.956295
  H       6.618122      1.303057     -2.940710
  H       6.757204     -0.433932     -4.606421
  H       5.788229     -1.514209     -3.578796
  H       7.390724     -2.042670     -4.165877
  H       6.148745     -0.731220      0.553008
  H       6.264944     -3.848621     -2.373715
  H       3.015512     -3.841121      3.292920
  H       4.544986     -4.254075      2.515876
  H       3.617134     -5.498948      3.349747
  H       2.492450     -0.632353     -2.202654
  H      -0.746768     -2.421806     -0.055800
  H       1.709881      1.604339     -1.521132
  H      -1.517952     -0.196716      0.639646
  H      -0.308922      1.834873     -0.102398
  S      -1.465157     -3.553537      3.142278
  F       0.135201     -0.699092      3.226216
  F       0.155202      0.744117      4.864348
  F       0.976170     -1.031947      6.595653
  F       1.259416     -2.580340      5.107409
  F       2.951350     -1.114050      3.866502
  F       2.738217      0.654483      5.117212
  F      -1.178182     -2.084200      6.934784
  F      -1.801516     -0.973232      5.180458
  F       2.242624      0.077855      1.713383
  F       1.382186      1.793010      2.748134
  F      -2.732544     -3.440216      5.395799
  F      -0.736886     -4.293110      5.544818
  F       4.731623      0.798323      2.964148
  F       3.731495      2.647259      3.552910
  F       5.103818      3.002808      1.345915
  F       2.997986      3.004092      0.864818
  F       4.227591      1.299252      0.362019
  O      -2.096214     -4.850790      3.035146
  O      -0.073405     -3.532427      2.757827
  O      -2.258688     -2.454117      2.641505
  C       0.735790     -0.362612      4.374610
  C       0.527782     -1.506009      5.422687
  C       2.231651     -0.003290      4.064308
  C      -0.982992     -1.946355      5.610276
  C       2.366030      0.881937      2.776028
  C      -1.452686     -3.301976      4.981131
  C       3.727338      1.638258      2.672334
  C       4.014018      2.247053      1.262791
84
Coordinates from ORCA-job R4N+PFOS-_wb E -3538.944080218763
  N       7.440627     -0.601460     -2.628989
  C       2.578073     -3.722267      0.507137
  C       1.581304     -4.085968     -0.598628
  C       1.366487     -3.043757     -1.699734
  C       3.901649     -3.212157     -0.019205
  C       2.780122     -4.930744      1.434249
  C       7.618964     -1.637639     -1.534850
  C       6.340272     -2.204589     -0.994807
  C       0.925382     -1.686792     -1.191818
  C       4.500014     -2.096310      0.556611
  C       4.569806     -3.844409     -1.066910
  C       0.367739     -3.573487     -2.730760
  C       8.796693     -0.112222     -3.002526
  C       6.625881      0.550414     -2.155507
  C       6.796353     -1.195999     -3.830512
  C       5.704533     -1.601921      0.084342
  C       5.768645     -3.346910     -1.550059
  C       3.532170     -4.613109      2.717456
  C       1.606069     -0.536743     -1.583613
  C      -0.200642     -1.542363     -0.381739
  C       1.163912      0.723820     -1.203164
  C      -0.641968     -0.285958      0.006809
  C       0.034911      0.853804     -0.408652
  H       2.143442     -2.914138      1.106831
  H       0.622417     -4.309958     -0.119476
  H       1.900235     -5.016914     -1.079482
  H       2.319332     -2.891543     -2.214283
  H       3.304629     -5.715103      0.877762
  H       1.794742     -5.334861      1.683819
  H       8.181663     -1.135215     -0.749471
  H       8.242681     -2.416240     -1.971709
  H       4.013724     -1.606313      1.390445
  H       4.142737     -4.729705     -1.524854
  H       0.234024     -2.864042     -3.550250
  H      -0.610226     -3.749423     -2.274768
  H       0.716526     -4.518426     -3.154094
  H       8.692651      0.624171     -3.795902
  H       9.390909     -0.955198     -3.348384
  H       9.258174      0.341277     -2.128185
  H       7.078371      0.955967     -1.253257
  H       5.611583      0.215440     -1.957016
  H       6.617043      1.302767     -2.941269
  H       6.757201     -0.434570     -4.606575
  H       5.788445     -1.514924     -3.578726
  H       7.391293     -2.042935     -4.165436
  H       6.149579     -0.731808      0.554040
  H       6.264492     -3.847580     -2.374509
  H       3.014903     -3.841412      3.293298
  H       4.544489     -4.254308      2.516441
  H       3.616339     -5.499307      3.349829
  H       2.492020     -0.632067     -2.203936
  H      -0.746182     -2.421780     -0.055791
  H       1.709229      1.604583     -1.522436
  H      -1.517664     -0.196662      0.639546
  H      -0.309014      1.834949     -0.102878
  S      -1.464760     -3.552568      3.142596
  F       0.135102     -0.699572      3.226570
  F       0.155513      0.744215      4.864301
  F       0.975746     -1.030970      6.596221
  F       1.259495     -2.580197      5.109002
  F       2.951044     -1.115158      3.866682
  F       2.738678      0.653640      5.117130
  F      -1.178352     -2.084067      6.935506
  F      -1.801566     -0.972851      5.181248
  F       2.243295      0.076510      1.713397
  F       1.382374      1.791854      2.747477
  F      -2.732890     -3.439602      5.395787
  F      -0.737436     -4.292972      5.545176
  F       4.731880      0.797796      2.964552
  F       3.731176      2.646639      3.552706
  F       5.103693      3.002180      1.345823
  F       2.997892      3.002544      0.864397
  F       4.228231      1.298069      0.362202
  O      -2.095838     -4.849751      3.034917
  O      -0.072880     -3.531428      2.758706
  O      -2.258073     -2.452966      2.641959
  C       0.735823     -0.362849      4.374840
  C       0.527651     -1.505778      5.423426
  C       2.231787     -0.004091      4.064362
  C      -0.983144     -1.946089      5.610962
  C       2.366306      0.880910      2.775883
  C      -1.452931     -3.301595      4.981597
  C       3.727467      1.637447      2.672349
  C       4.014169      2.246017      1.262709
84
Coordinates from ORCA-job R4N+PFOS-_wb E -3538.944079541321
  N       7.440861     -0.601604     -2.628341
  C       2.577577     -3.722061      0.506217
  C       1.581122     -4.086071     -0.599804
  C       1.366003     -3.043907     -1.700947
  C       3.901452     -3.211924     -0.019613
  C       2.779310     -4.930423      1.433504
  C       7.619272     -1.637017     -1.533486
  C       6.340539     -2.204276     -0.993918
  C       0.924668     -1.687058     -1.193015
  C       4.499640     -2.096244      0.556670
  C       4.570160     -3.844127     -1.067010
  C       0.367305     -3.573857     -2.731882
  C       8.796820     -0.111728     -3.001592
  C       6.625036      0.549996     -2.156095
  C       6.797502     -1.197435     -3.829707
  C       5.704376     -1.601674      0.084994
  C       5.769413     -3.346645     -1.549384
  C       3.531811     -4.612963      2.716464
  C       1.605025     -0.536818     -1.584793
  C      -0.201442     -1.542903     -0.383023
  C       1.162832      0.723565     -1.203762
  C      -0.642900     -0.286654      0.005993
  C       0.033942      0.853265     -0.409027
  H       2.142533     -2.913944      1.105765
  H       0.622188     -4.310377     -0.120969
  H       1.900487     -5.016898     -1.080615
  H       2.318822     -2.891539     -2.215521
  H       3.303358     -5.715051      0.876964
  H       1.793783     -5.334033      1.683371
  H       8.181183     -1.133739     -0.748087
  H       8.243769     -2.415394     -1.969630
  H       4.012937     -1.606256      1.390306
  H       4.143468     -4.729530     -1.525057
  H       0.233622     -2.864585     -3.551519
  H      -0.610661     -3.749707     -2.275856
  H       0.716120     -4.518875     -3.155019
  H       8.692619      0.624248     -3.795318
  H       9.391604     -0.954531     -3.346905
  H       9.257744      0.342369     -2.127273
  H       7.076767      0.956486     -1.253903
  H       5.610889      0.214417     -1.958013
  H       6.616115      1.301731     -2.942480
  H       6.758484     -0.436665     -4.606440
  H       5.789562     -1.516528     -3.578145
  H       7.393003     -2.044395     -4.163560
  H       6.149140     -0.731548      0.554896
  H       6.265801     -3.847324     -2.373520
  H       3.015096     -3.841012      3.292470
  H       4.544239     -4.254617      2.515160
  H       3.615694     -5.499184      3.348833
  H       2.490722     -0.631836     -2.205507
  H      -0.746983     -2.422465     -0.057438
  H       1.708056      1.604490     -1.522753
  H      -1.518649     -0.197542      0.638705
  H      -0.309724      1.834279     -0.102549
  S      -1.463856     -3.550286      3.142858
  F       0.134661     -0.698936      3.227803
  F       0.156571      0.744392      4.866039
  F       0.976967     -1.030728      6.596970
  F       1.260565     -2.580079      5.109990
  F       2.950675     -1.115965      3.865988
  F       2.740088      0.652552      5.117102
  F      -1.176361     -2.085250      6.937112
  F      -1.800582     -0.972577      5.184097
  F       2.243149      0.076560      1.713444
  F       1.382441      1.791742      2.748027
  F      -2.732071     -3.439254      5.396267
  F      -0.736794     -4.293207      5.544784
  F       4.731819      0.797733      2.965005
  F       3.730960      2.646577      3.552797
  F       5.102992      3.002583      1.345953
  F       2.997270      3.001232      0.864021
  F       4.229044      1.297522      0.362685
  O      -2.094786     -4.847426      3.033891
  O      -0.071970     -3.528636      2.759152
  O      -2.257244     -2.450280      2.643320
  C       0.736269     -0.362727      4.375768
  C       0.528594     -1.505779      5.424350
  C       2.232156     -0.004564      4.064453
  C      -0.982001     -1.946235      5.612481
  C       2.366312      0.880737      2.776124
  C      -1.452170     -3.301212      4.982225
  C       3.727401      1.637282      2.672580
  C       4.014027      2.245622      1.262816
84
Coordinates from ORCA-job R4N+PFOS-_wb E -3538.944079606390
  N       7.440088     -0.601197     -2.628998
  C       2.577463     -3.722404      0.506364
  C       1.581344     -4.086905     -0.599822
  C       1.366371     -3.045019     -1.701282
  C       3.901278     -3.212051     -0.019413
  C       2.779224     -4.930542      1.433927
  C       7.618583     -1.636376     -1.533903
  C       6.339877     -2.203774     -0.994272
  C       0.925080     -1.688086     -1.193617
  C       4.499124     -2.095970      0.556507
  C       4.570201     -3.844377     -1.066553
  C       0.367871     -3.575214     -2.732262
  C       8.796025     -0.111376     -3.002416
  C       6.624251      0.550443     -2.156915
  C       6.796649     -1.197253     -3.830217
  C       5.703573     -1.601022      0.084409
  C       5.769154     -3.346519     -1.549323
  C       3.531668     -4.612774      2.716834
  C       1.606389     -0.538065     -1.584342
  C      -0.201635     -1.543666     -0.384510
  C       1.164552      0.722380     -1.203114
  C      -0.642767     -0.287365      0.004714
  C       0.035079      0.852356     -0.409247
  H       2.142096     -2.914259      1.105656
  H       0.622289     -4.311216     -0.121241
  H       1.900997     -5.017794     -1.080316
  H       2.319305     -2.892754     -2.215695
  H       3.303310     -5.715272      0.877562
  H       1.793685     -5.334093      1.683832
  H       8.180382     -1.132803     -0.748608
  H       8.243251     -2.414713     -1.969893
  H       4.012380     -1.605939      1.390123
  H       4.143843     -4.730153     -1.524203
  H       0.234424     -2.866186     -3.552145
  H      -0.610199     -3.750876     -2.276390
  H       0.716734     -4.520378     -3.155032
  H       8.691763      0.624490     -3.796247
  H       9.390776     -0.954229     -3.347647
  H       9.257010      0.342869     -2.128197
  H       7.076039      0.957134     -1.254844
  H       5.610156      0.214818     -1.958716
  H       6.615203      1.302007     -2.943464
  H       6.757693     -0.436663     -4.607137
  H       5.788690     -1.516162     -3.578527
  H       7.392045     -2.044356     -4.163890
  H       6.148098     -0.730615      0.554009
  H       6.265727     -3.847330     -2.373255
  H       3.014986     -3.840615      3.292599
  H       4.544127     -4.254550      2.515472
  H       3.615433     -5.498828      3.349458
  H       2.492578     -0.633300     -2.204311
  H      -0.747878     -2.423106     -0.059771
  H       1.710523      1.603155     -1.521251
  H      -1.518958     -0.198052      0.636796
  H      -0.308152      1.833426     -0.102462
  S      -1.464241     -3.548926      3.141985
  F       0.134875     -0.698046      3.228178
  F       0.156990      0.744608      4.867001
  F       0.976861     -1.031334      6.597324
  F       1.260137     -2.580282      5.109913
  F       2.950585     -1.116131      3.866053
  F       2.740679      0.651744      5.118215
  F      -1.176743     -2.085511      6.936968
  F      -1.800603     -0.971988      5.184385
  F       2.243258      0.077915      1.714240
  F       1.383289      1.792815      2.749886
  F      -2.732717     -3.438494      5.395383
  F      -0.737720     -4.293039      5.543793
  F       4.732324      0.797481      2.966205
  F       3.732172      2.646467      3.554734
  F       5.103798      3.003320      1.347991
  F       2.998110      3.001768      0.865834
  F       4.230181      1.298365      0.364238
  O      -2.095585     -4.845836      3.032518
  O      -0.072333     -3.527592      2.758430
  O      -2.257186     -2.448476      2.642766
  C       0.736452     -0.362461      4.376335
  C       0.528425     -1.505886      5.424523
  C       2.232464     -0.004595      4.065213
  C      -0.982279     -1.946019      5.612382
  C       2.366824      0.881425      2.777390
  C      -1.452738     -3.300623      4.981530
  C       3.728205      1.637506      2.674141
  C       4.014950      2.246224      1.264570
84
Coordinates from ORCA-job R4N+PFOS-_wb E -3538.944078782480
  N       7.440264     -0.600609     -2.628928
  C       2.576797     -3.722869      0.505489
  C       1.581444     -4.088156     -0.601110
  C       1.366242     -3.046398     -1.702667
  C       3.900531     -3.212063     -0.019944
  C       2.778609     -4.930678      1.433506
  C       7.618016     -1.636078     -1.533899
  C       6.338926     -2.203403     -0.994828
  C       0.924451     -1.689680     -1.194942
  C       4.498022     -2.095713      0.555895
  C       4.569760     -3.844447     -1.066805
  C       0.368225     -3.577063     -2.733851
  C       8.796461     -0.110867     -3.001338
  C       6.624314      0.550935     -2.156834
  C       6.797477     -1.196127     -3.830788
  C       5.702379     -1.600614      0.083642
  C       5.768364     -3.346187     -1.549978
  C       3.531116     -4.612520      2.716292
  C       1.606430     -0.539540     -1.584155
  C      -0.202822     -1.545665     -0.386509
  C       1.164564      0.720683     -1.202314
  C      -0.643918     -0.289614      0.003447
  C       0.034597      0.850263     -0.409119
  H       2.140787     -2.914776      1.104294
  H       0.622312     -4.313156     -0.122992
  H       1.901982     -5.018809     -1.081465
  H       2.319236     -2.893686     -2.216851
  H       3.302669     -5.715624      0.877402
  H       1.793059     -5.334085      1.683560
  H       8.179585     -1.132732     -0.748300
  H       8.242733     -2.414477     -1.969744
  H       4.011323     -1.605768      1.389604
  H       4.143622     -4.730425     -1.524304
  H       0.234771     -2.868175     -3.553850
  H      -0.609903     -3.753048     -2.278236
  H       0.717563     -4.522141     -3.156428
  H       8.692794      0.625235     -3.795043
  H       9.391326     -0.953707     -3.346399
  H       9.256908      0.343146     -2.126701
  H       7.075769      0.957342     -1.254470
  H       5.610158      0.215172     -1.959153
  H       6.615504      1.302749     -2.943115
  H       6.759179     -0.435278     -4.607487
  H       5.789325     -1.514890     -3.579844
  H       7.392870     -2.043245     -4.164408
  H       6.146853     -0.730178      0.553212
  H       6.265036     -3.846956     -2.373845
  H       3.014773     -3.839785      3.291597
  H       4.543747     -4.254865      2.514791
  H       3.614413     -5.498256      3.349432
  H       2.493144     -0.634486     -2.203408
  H      -0.749493     -2.425273     -0.062968
  H       1.710915      1.601608     -1.519369
  H      -1.520545     -0.200631      0.634960
  H      -0.308406      1.831183     -0.101596
  S      -1.464520     -3.547344      3.142532
  F       0.134592     -0.695821      3.229887
  F       0.158852      0.745812      4.869388
  F       0.977597     -1.031009      6.598540
  F       1.260288     -2.579810      5.110899
  F       2.950181     -1.116502      3.864726
  F       2.743085      0.650392      5.118768
  F      -1.176258     -2.084866      6.937908
  F      -1.799898     -0.970474      5.185850
  F       2.242505      0.079955      1.714760
  F       1.384216      1.794483      2.752281
  F      -2.732700     -3.436904      5.396198
  F      -0.737929     -4.291904      5.544209
  F       4.732797      0.797216      2.966878
  F       3.733827      2.646699      3.555721
  F       5.103849      3.004568      1.348835
  F       2.998343      3.000697      0.865971
  F       4.232279      1.298276      0.365599
  O      -2.096472     -4.844005      3.033123
  O      -0.072659     -3.526657      2.758782
  O      -2.257006     -2.446528      2.643394
  C       0.737193     -0.361392      4.377790
  C       0.528979     -1.505188      5.425637
  C       2.233239     -0.004527      4.065664
  C      -0.981824     -1.944922      5.613355
  C       2.367249      0.882518      2.778500
  C      -1.452732     -3.299215      4.982134
  C       3.729099      1.637817      2.675060
  C       4.015801      2.246340      1.265410
84
Coordinates from ORCA-job R4N+PFOS-_wb E -3538.944080502887
  N       7.440299     -0.600465     -2.628829
  C       2.576611     -3.723140      0.504860
  C       1.581389     -4.088655     -0.601774
  C       1.365948     -3.046906     -1.703308
  C       3.900290     -3.212099     -0.020434
  C       2.778489     -4.930774      1.433073
  C       7.617980     -1.635577     -1.533470
  C       6.338924     -2.203099     -0.994614
  C       0.924148     -1.690268     -1.195370
  C       4.497349     -2.095547      0.555429
  C       4.570032     -3.844448     -1.067029
  C       0.367874     -3.577659     -2.734396
  C       8.796519     -0.110981     -3.001428
  C       6.624486      0.551293     -2.157033
  C       6.797421     -1.196338     -3.830441
  C       5.701799     -1.600335      0.083551
  C       5.768756     -3.346109     -1.549761
  C       3.530853     -4.612283      2.715866
  C       1.606462     -0.540123     -1.583938
  C      -0.203347     -1.546376     -0.387228
  C       1.164691      0.720050     -1.201824
  C      -0.644345     -0.290395      0.003024
  C       0.034514      0.849520     -0.408927
  H       2.140442     -2.915056      1.103546
  H       0.622305     -4.313885     -0.123631
  H       1.902100     -5.019229     -1.082128
  H       2.318842     -2.894059     -2.217593
  H       3.302675     -5.715765      0.877164
  H       1.792960     -5.334229      1.683112
  H       8.179241     -1.131916     -0.747864
  H       8.242947     -2.413983     -1.968939
  H       4.010355     -1.605654      1.388998
  H       4.144248     -4.730565     -1.524596
  H       0.234195     -2.868739     -3.554330
  H      -0.610168     -3.753842     -2.278668
  H       0.717323     -4.522645     -3.157085
  H       8.692931      0.624803     -3.795438
  H       9.391332     -0.954007     -3.346124
  H       9.256989      0.343387     -2.126996
  H       7.076047      0.957928     -1.254826
  H       5.610302      0.215699     -1.959161
  H       6.615684      1.302911     -2.943493
  H       6.759025     -0.435729     -4.607355
  H       5.789302     -1.515066     -3.579304
  H       7.392794     -2.043540     -4.163885
  H       6.145905     -0.729714      0.553117
  H       6.265781     -3.846895     -2.373406
  H       3.014456     -3.839370      3.290863
  H       4.543512     -4.254715      2.514378
  H       3.614072     -5.497828      3.349280
  H       2.493385     -0.635011     -2.202903
  H      -0.750329     -2.426051     -0.064387
  H       1.711281      1.600988     -1.518431
  H      -1.521179     -0.201513      0.634258
  H      -0.308421      1.830398     -0.101188
  S      -1.464442     -3.546922      3.142737
  F       0.134776     -0.695402      3.230312
  F       0.159453      0.746095      4.869936
  F       0.977941     -1.031018      6.598861
  F       1.260377     -2.579640      5.110979
  F       2.950103     -1.116648      3.864242
  F       2.743841      0.649785      5.119099
  F      -1.176193     -2.084507      6.938074
  F      -1.799641     -0.969976      5.186041
  F       2.242234      0.080979      1.714953
  F       1.384566      1.795179      2.753389
  F      -2.732658     -3.436327      5.396276
  F      -0.737942     -4.291457      5.544397
  F       4.732919      0.797160      2.967294
  F       3.734408      2.646769      3.556472
  F       5.104079      3.005198      1.349678
  F       2.998674      3.000888      0.866487
  F       4.233082      1.298734      0.366275
  O      -2.096486     -4.843563      3.033435
  O      -0.072574     -3.526337      2.758980
  O      -2.256834     -2.446059      2.643540
  C       0.737523     -0.361143      4.378197
  C       0.529217     -1.504972      5.425928
  C       2.233543     -0.004540      4.065853
  C      -0.981665     -1.944509      5.613558
  C       2.367428      0.883039      2.779013
  C      -1.452628     -3.298700      4.982256
  C       3.729428      1.638055      2.675628
  C       4.016230      2.246723      1.266067
84
Coordinates from ORCA-job R4N+PFOS-_wb E -3538.944081370460
  N       7.439260     -0.600411     -2.628936
  C       2.576917     -3.723447      0.504744
  C       1.581658     -4.088728     -0.601905
  C       1.366340     -3.046902     -1.703425
  C       3.900617     -3.212475     -0.020452
  C       2.778701     -4.931005      1.433025
  C       7.617888     -1.634964     -1.533294
  C       6.339414     -2.203139     -0.994137
  C       0.924896     -1.690152     -1.195327
  C       4.497405     -2.095842      0.555445
  C       4.570665     -3.844748     -1.066974
  C       0.367964     -3.577435     -2.734352
  C       8.795089     -0.110543     -3.002471
  C       6.623291      0.551237     -2.157163
  C       6.796009     -1.197070     -3.829912
  C       5.701882     -1.600543      0.083942
  C       5.769732     -3.346571     -1.549042
  C       3.530329     -4.612147      2.716173
  C       1.607416     -0.540104     -1.583853
  C      -0.202742     -1.546093     -0.387415
  C       1.165730      0.720167     -1.201911
  C      -0.643713     -0.290045      0.002529
  C       0.035443      0.849789     -0.409220
  H       2.140872     -2.915371      1.103483
  H       0.622568     -4.313914     -0.123705
  H       1.902220     -5.019328     -1.082310
  H       2.319177     -2.894256     -2.217873
  H       3.303368     -5.715886      0.877436
  H       1.793172     -5.334732      1.682641
  H       8.178877     -1.130655     -0.747902
  H       8.243282     -2.413113     -1.968587
  H       4.010039     -1.605940      1.388760
  H       4.145090     -4.730886     -1.524683
  H       0.234224     -2.868454     -3.554227
  H      -0.610022     -3.753485     -2.278458
  H       0.717181     -4.522451     -3.157148
  H       8.690806      0.624937     -3.796660
  H       9.390051     -0.953441     -3.347220
  H       9.255916      0.344274     -2.128494
  H       7.075183      0.958357     -1.255338
  H       5.609306      0.215390     -1.958571
  H       6.613850      1.302623     -2.943839
  H       6.756610     -0.436737     -4.607035
  H       5.788247     -1.516452     -3.578085
  H       7.391787     -2.043951     -4.163469
  H       6.145457     -0.729564      0.553409
  H       6.267010     -3.847308     -2.372580
  H       3.013308     -3.839402      3.290810
  H       4.542947     -4.254207      2.515160
  H       3.613641     -5.497590      3.349709
  H       2.494411     -0.635134     -2.202704
  H      -0.749929     -2.425723     -0.064824
  H       1.712475      1.601003     -1.518529
  H      -1.520702     -0.201088      0.633530
  H      -0.307566      1.830729     -0.101751
  S      -1.464237     -3.547321      3.142747
  F       0.135481     -0.696271      3.229706
  F       0.159235      0.745908      4.868881
  F       0.977579     -1.031046      6.598584
  F       1.260043     -2.579700      5.110728
  F       2.950232     -1.116886      3.864389
  F       2.743607      0.649384      5.119464
  F      -1.176861     -2.083818      6.937607
  F      -1.799803     -0.969728      5.185091
  F       2.242995      0.080953      1.715047
  F       1.384952      1.794996      2.753310
  F      -2.733274     -3.435714      5.395570
  F      -0.738752     -4.291233      5.544786
  F       4.733239      0.796916      2.967903
  F       3.734661      2.646409      3.557446
  F       5.105250      3.005134      1.351139
  F       2.999936      3.001898      0.867629
  F       4.233760      1.299447      0.366860
  O      -2.096276     -4.843971      3.033605
  O      -0.072210     -3.526852      2.759471
  O      -2.256409     -2.446556      2.642944
  C       0.737614     -0.361396      4.377768
  C       0.528954     -1.504948      5.425638
  C       2.233649     -0.004769      4.065963
  C      -0.982035     -1.944223      5.613135
  C       2.367861      0.882955      2.779181
  C      -1.452998     -3.298467      4.982046
  C       3.729866      1.637980      2.676267
  C       4.017125      2.247121      1.267018
84
Coordinates from ORCA-job R4N+PFOS-_wb E -3538.944080427127
  N       7.438958     -0.600119     -2.628899
  C       2.576738     -3.723648      0.504659
  C       1.581660     -4.089062     -0.602108
  C       1.366483     -3.047324     -1.703735
  C       3.900523     -3.212751     -0.020447
  C       2.778348     -4.931106      1.433125
  C       7.617575     -1.634805     -1.533354
  C       6.339110     -2.203093     -0.994281
  C       0.924915     -1.690547     -1.195793
  C       4.497184     -2.096024      0.555381
  C       4.570602     -3.845019     -1.066921
  C       0.368334     -3.577980     -2.734801
  C       8.794784     -0.110001     -3.002152
  C       6.622736      0.551360     -2.157135
  C       6.795989     -1.196650     -3.830104
  C       5.701564     -1.600562      0.083806
  C       5.769518     -3.346572     -1.549178
  C       3.529889     -4.612187      2.716304
  C       1.607601     -0.540524     -1.584101
  C      -0.202919     -1.546437     -0.388164
  C       1.166028      0.719756     -1.202023
  C      -0.643731     -0.290376      0.001997
  C       0.035662      0.849417     -0.409449
  H       2.140601     -2.915450      1.103182
  H       0.622495     -4.314278     -0.124118
  H       1.902388     -5.019669     -1.082395
  H       2.319422     -2.894680     -2.218005
  H       3.303003     -5.716098      0.877671
  H       1.792766     -5.334738      1.682712
  H       8.178485     -1.130526     -0.747880
  H       8.243051     -2.412870     -1.968684
  H       4.009708     -1.606064      1.388610
  H       4.145090     -4.731208     -1.524587
  H       0.234768     -2.869108     -3.554799
  H      -0.609752     -3.753974     -2.279103
  H       0.717643     -4.523053     -3.157399
  H       8.690504      0.625661     -3.796176
  H       9.389880     -0.952747     -3.347038
  H       9.255461      0.344648     -2.127994
  H       7.074400      0.958431     -1.255175
  H       5.608762      0.215357     -1.958806
  H       6.613369      1.302826     -2.943742
  H       6.756679     -0.436190     -4.607118
  H       5.788213     -1.516158     -3.578540
  H       7.391916     -2.043423     -4.163669
  H       6.145022     -0.729511      0.553247
  H       6.266863     -3.847317     -2.372674
  H       3.012863     -3.839383      3.290871
  H       4.542549     -4.254313      2.515352
  H       3.613099     -5.497603      3.349891
  H       2.494643     -0.635568     -2.202880
  H      -0.750255     -2.426052     -0.065769
  H       1.712911      1.600573     -1.518447
  H      -1.520830     -0.201380      0.632848
  H      -0.307230      1.830355     -0.101842
  S      -1.464127     -3.546809      3.142858
  F       0.135520     -0.695872      3.230016
  F       0.159818      0.746228      4.869260
  F       0.977522     -1.030666      6.598959
  F       1.260181     -2.579522      5.111360
  F       2.950191     -1.117224      3.864112
  F       2.744339      0.648875      5.119539
  F      -1.176847     -2.083532      6.937840
  F      -1.799566     -0.969302      5.185321
  F       2.243287      0.081175      1.715103
  F       1.385422      1.795131      2.753684
  F      -2.733291     -3.435251      5.395679
  F      -0.738821     -4.290936      5.544894
  F       4.733630      0.796719      2.968148
  F       3.735165      2.646232      3.557880
  F       5.105579      3.005270      1.351573
  F       3.000264      3.001725      0.867980
  F       4.234349      1.299463      0.367243
  O      -2.096122     -4.843447      3.033514
  O      -0.072074     -3.526276      2.759677
  O      -2.256302     -2.446030      2.643093
  C       0.737895     -0.361211      4.378037
  C       0.529072     -1.504710      5.425987
  C       2.233969     -0.004943      4.066026
  C      -0.981940     -1.943912      5.613373
  C       2.368232      0.882975      2.779401
  C      -1.453008     -3.298103      4.982211
  C       3.730309      1.637887      2.676605
  C       4.017555      2.247112      1.267399
84
Coordinates from ORCA-job R4N+PFOS-_wb E -3538.944080498438
  N       7.439266     -0.599898     -2.628306
  C       2.576404     -3.723668      0.504413
  C       1.581179     -4.089153     -0.602197
  C       1.365981     -3.047516     -1.703862
  C       3.900222     -3.212945     -0.020824
  C       2.777978     -4.931017      1.433053
  C       7.617579     -1.635265     -1.533302
  C       6.338953     -2.203457     -0.994434
  C       0.924491     -1.690688     -1.196028
  C       4.497030     -2.096375      0.555135
  C       4.570049     -3.845092     -1.067438
  C       0.367785     -3.578179     -2.734853
  C       8.795207     -0.109447     -3.000752
  C       6.622776      0.551269     -2.156196
  C       6.796762     -1.195649     -3.830171
  C       5.701422     -1.600916      0.083655
  C       5.769063     -3.346671     -1.549611
  C       3.529573     -4.611957      2.716153
  C       1.607079     -0.540742     -1.584702
  C      -0.203210     -1.546421     -0.388255
  C       1.165690      0.719608     -1.202600
  C      -0.643793     -0.290272      0.002019
  C       0.035497      0.849427     -0.409789
  H       2.140380     -2.915229      1.102731
  H       0.622049     -4.314182     -0.124145
  H       1.901781     -5.019854     -1.082416
  H       2.318907     -2.894962     -2.218183
  H       3.302618     -5.716091      0.877688
  H       1.792425     -5.334652      1.682743
  H       8.178613     -1.131510     -0.747580
  H       8.242879     -2.413280     -1.968983
  H       4.009518     -1.606396      1.388361
  H       4.144320     -4.731084     -1.525280
  H       0.234182     -2.869330     -3.554866
  H      -0.610293     -3.754143     -2.279125
  H       0.717059     -4.523270     -3.157448
  H       8.691152      0.626743     -3.794321
  H       9.390455     -0.951929     -3.345998
  H       9.255553      0.344625     -2.126084
  H       7.074027      0.957816     -1.253794
  H       5.608736      0.215115     -1.958513
  H       6.613754      1.303194     -2.942380
  H       6.757704     -0.434641     -4.606673
  H       5.788924     -1.515367     -3.579220
  H       7.392848     -2.042175     -4.164083
  H       6.144897     -0.729940      0.553208
  H       6.266380     -3.847439     -2.373112
  H       3.012462     -3.839222      3.290773
  H       4.542175     -4.253939      2.515128
  H       3.612958     -5.497370      3.349726
  H       2.493880     -0.635886     -2.203803
  H      -0.750510     -2.425976     -0.065628
  H       1.712503      1.600372     -1.519289
  H      -1.520784     -0.201149      0.633017
  H      -0.307353      1.830413     -0.102289
  S      -1.463711     -3.547252      3.143579
  F       0.135956     -0.696501      3.229662
  F       0.159738      0.746263      4.868321
  F       0.977404     -1.029463      6.599041
  F       1.260858     -2.579111      5.112431
  F       2.950543     -1.117070      3.863970
  F       2.744412      0.649252      5.119018
  F      -1.176439     -2.083149      6.938204
  F      -1.799300     -0.969437      5.185400
  F       2.243611      0.080848      1.714667
  F       1.385673      1.794984      2.752923
  F      -2.732679     -3.435502      5.396575
  F      -0.738040     -4.290842      5.545689
  F       4.733917      0.796622      2.967638
  F       3.735370      2.646136      3.557272
  F       5.105727      3.005097      1.350924
  F       3.000390      3.001363      0.867344
  F       4.234566      1.299159      0.366727
  O      -2.095525     -4.843959      3.034324
  O      -0.071664     -3.526569      2.760377
  O      -2.256077     -2.446649      2.643702
  C       0.738114     -0.361309      4.377667
  C       0.529350     -1.504329      5.426229
  C       2.234153     -0.004856      4.065626
  C      -0.981556     -1.943843      5.613701
  C       2.368467      0.882804      2.778868
  C      -1.452497     -3.298263      4.982916
  C       3.730552      1.637735      2.676059
  C       4.017736      2.246875      1.266816
84
Coordinates from ORCA-job R4N+PFOS-_wb E -3538.944081247883
  N       7.439593     -0.600051     -2.628205
  C       2.576334     -3.723634      0.504179
  C       1.581108     -4.089105     -0.602435
  C       1.365821     -3.047407     -1.704027
  C       3.900103     -3.212782     -0.021028
  C       2.778028     -4.931021      1.432731
  C       7.617681     -1.635333     -1.533101
  C       6.338931     -2.203385     -0.994382
  C       0.924256     -1.690660     -1.196063
  C       4.496819     -2.096159      0.554974
  C       4.570027     -3.844944     -1.067566
  C       0.367629     -3.578055     -2.735035
  C       8.795641     -0.110019     -3.000798
  C       6.623464      0.551416     -2.156188
  C       6.796851     -1.195830     -3.829922
  C       5.701244     -1.600707      0.083563
  C       5.769131     -3.346633     -1.549565
  C       3.529615     -4.611937      2.715838
  C       1.606814     -0.540626     -1.584538
  C      -0.203476     -1.546577     -0.388312
  C       1.165297      0.719637     -1.202315
  C      -0.644221     -0.290525      0.002034
  C       0.035032      0.849276     -0.409563
  H       2.140305     -2.915291      1.102601
  H       0.622004     -4.314205     -0.124341
  H       1.901732     -5.019773     -1.082714
  H       2.318729     -2.894762     -2.218366
  H       3.302735     -5.716015      0.877316
  H       1.792515     -5.334746      1.682419
  H       8.178690     -1.131583     -0.747359
  H       8.242949     -2.413428     -1.968682
  H       4.009210     -1.606191      1.388128
  H       4.144340     -4.730957     -1.525411
  H       0.233924     -2.869125     -3.554962
  H      -0.610411     -3.754165     -2.279280
  H       0.716975     -4.523065     -3.157747
  H       8.691740      0.625996     -3.794547
  H       9.390686     -0.952731     -3.345846
  H       9.256099      0.344165     -2.126259
  H       7.074925      0.957976     -1.253892
  H       5.609348      0.215588     -1.958340
  H       6.614571      1.303227     -2.942479
  H       6.757921     -0.434936     -4.606541
  H       5.788944     -1.515250     -3.578828
  H       7.392688     -2.042570     -4.163737
  H       6.144658     -0.729689      0.553095
  H       6.266537     -3.847420     -2.373000
  H       3.012461     -3.839243      3.290476
  H       4.542180     -4.253840      2.514799
  H       3.613076     -5.497354      3.349397
  H       2.493685     -0.635632     -2.203557
  H      -0.750700     -2.426215     -0.065795
  H       1.712069      1.600478     -1.518864
  H      -1.521241     -0.201559      0.633006
  H      -0.307920      1.830196     -0.101971
  S      -1.463464     -3.547598      3.143884
  F       0.135846     -0.696455      3.229710
  F       0.159579      0.746378      4.868332
  F       0.977442     -1.029246      6.599056
  F       1.260953     -2.578898      5.112455
  F       2.950314     -1.116978      3.863683
  F       2.744412      0.649212      5.118992
  F      -1.176379     -2.083041      6.938334
  F      -1.799396     -0.969590      5.185417
  F       2.243212      0.081301      1.714604
  F       1.385564      1.795368      2.753179
  F      -2.732409     -3.435800      5.396879
  F      -0.737650     -4.290810      5.546064
  F       4.733748      0.796716      2.967564
  F       3.735401      2.646293      3.557261
  F       5.105547      3.005410      1.350930
  F       3.000252      3.001438      0.867230
  F       4.234660      1.299362      0.366707
  O      -2.095191     -4.844370      3.034833
  O      -0.071422     -3.526868      2.760677
  O      -2.255909     -2.447109      2.643882
  C       0.737991     -0.361177      4.377701
  C       0.529361     -1.504174      5.426289
  C       2.234019     -0.004736      4.065559
  C      -0.981513     -1.943841      5.613821
  C       2.368274      0.883090      2.778903
  C      -1.452252     -3.298396      4.983190
  C       3.730445      1.637912      2.676029
  C       4.017652      2.247061      1.266777
84
Coordinates from ORCA-job R4N+PFOS-_wb E -3538.944079848391
  N       7.440493     -0.600548     -2.628245
  C       2.576398     -3.723425      0.504017
  C       1.581212     -4.088659     -0.602695
  C       1.365763     -3.046668     -1.704013
  C       3.900091     -3.212319     -0.021045
  C       2.778230     -4.931112      1.432114
  C       7.618028     -1.635476     -1.532768
  C       6.339021     -2.203091     -0.994144
  C       0.924064     -1.690140     -1.195650
  C       4.496578     -2.095379      0.554739
  C       4.570423     -3.844810     -1.067123
  C       0.367519     -3.577090     -2.735114
  C       8.796865     -0.112388     -3.002027
  C       6.626207      0.552234     -2.156266
  C       6.796192     -1.196308     -3.829115
  C       5.701035     -1.599954      0.083460
  C       5.769520     -3.346603     -1.549052
  C       3.529632     -4.612311      2.715420
  C       1.606229     -0.539845     -1.584050
  C      -0.203611     -1.546513     -0.387744
  C       1.164175      0.720221     -1.201855
  C      -0.644970     -0.290655      0.002443
  C       0.033809      0.849422     -0.409162
  H       2.140427     -2.915307      1.102784
  H       0.622148     -4.313898     -0.124494
  H       1.901785     -5.019219     -1.083219
  H       2.318597     -2.893787     -2.218445
  H       3.303141     -5.715808      0.876480
  H       1.792763     -5.335076      1.681539
  H       8.179198     -1.131723     -0.747146
  H       8.243053     -2.413913     -1.968085
  H       4.008775     -1.605349      1.387679
  H       4.144987     -4.731101     -1.524688
  H       0.233546     -2.867820     -3.554709
  H      -0.610416     -3.753614     -2.279278
  H       0.717003     -4.521840     -3.158295
  H       8.693353      0.623093     -3.796312
  H       9.390759     -0.956065     -3.346726
  H       9.258311      0.341998     -2.128149
  H       7.078976      0.958794     -1.254621
  H       5.611829      0.217959     -1.957273
  H       6.617595      1.303562     -2.943010
  H       6.757590     -0.435860     -4.606169
  H       5.788069     -1.514361     -3.577046
  H       7.390756     -2.043981     -4.162829
  H       6.144319     -0.728798      0.552856
  H       6.267116     -3.847536     -2.372278
  H       3.012360     -3.839792      3.290136
  H       4.542174     -4.254075      2.514574
  H       3.613097     -5.497856      3.348801
  H       2.493199     -0.634496     -2.202977
  H      -0.750488     -2.426351     -0.065213
  H       1.710647      1.601272     -1.518345
  H      -1.521978     -0.202046      0.633454
  H      -0.309578      1.830197     -0.101608
  S      -1.462986     -3.549079      3.144528
  F       0.135216     -0.696709      3.229630
  F       0.158824      0.746175      4.868192
  F       0.977679     -1.029408      6.598655
  F       1.260929     -2.578876      5.111782
  F       2.949707     -1.116698      3.863067
  F       2.743797      0.649285      5.118751
  F      -1.176242     -2.083012      6.938405
  F      -1.799720     -0.970300      5.185197
  F       2.242214      0.082069      1.714252
  F       1.384738      1.795893      2.753305
  F      -2.732051     -3.436717      5.397397
  F      -0.737117     -4.291149      5.547039
  F       4.732978      0.797296      2.967183
  F       3.734667      2.646803      3.557058
  F       5.104604      3.006258      1.350787
  F       2.999357      3.002092      0.867010
  F       4.234013      1.300216      0.366340
  O      -2.094540     -4.846005      3.036104
  O      -0.070921     -3.528321      2.761437
  O      -2.255531     -2.448890      2.644042
  C       0.737432     -0.361199      4.377488
  C       0.529289     -1.504277      5.426013
  C       2.233379     -0.004511      4.065224
  C      -0.981523     -1.944192      5.613847
  C       2.367450      0.883606      2.778699
  C      -1.451890     -3.299113      4.983700
  C       3.729645      1.638481      2.675762
  C       4.016822      2.247771      1.266525
