52
Coordinates from ORCA-job R4N+PFOA-_0.15M E -2398.242098977966
  N          -4.67560004189505      0.21861642490731     -0.78190263257968
  C          -3.19298102347586      0.37677738499395     -1.13564575977729
  C          -5.15097312399164      1.35827592483310      0.06773775580301
  C          -5.44767109841644      0.21776555868702     -2.07075519184811
  C          -4.92023416283265     -1.07359833076992     -0.06222300460717
  C          -2.26837864426026      0.39917732474463      0.04532977466023
  C          -1.92865230941775      1.61068823825352      0.65517019551905
  C          -1.70167328840248     -0.78660511171000      0.52246979198990
  C          -1.05596512482971      1.63343399394276      1.73864654454013
  C          -0.82886645583405     -0.76403241610503      1.60582786560921
  C          -0.50847407771978      0.44556176796538      2.21841570981950
  H          -3.12852917944170      1.31002141034758     -1.70172976071605
  H          -2.96220262173085     -0.46247925741024     -1.79774538515551
  H          -4.95692614564349      2.29431876081476     -0.46012730056869
  H          -6.22318901900950      1.23256710919050      0.23380290164885
  H          -4.62250955497519      1.34027285198210      1.02179174285709
  H          -5.11691921550497     -0.62813833492538     -2.67648406578949
  H          -6.50892772649130      0.12630861897009     -1.83674191836518
  H          -5.25635179785285      1.15854819813753     -2.59158359780356
  H          -4.55741733002997     -1.89577165525545     -0.68226051548978
  H          -4.39531944211710     -1.05434412032912      0.89393628524634
  H          -5.99420975800022     -1.17165978305827      0.10648358108855
  H          -2.34627935463464      2.53923953848904      0.27401323959143
  H          -1.94220273309097     -1.72935161010749      0.03746288787019
  H          -0.79751302548362      2.58014590534619      2.20430381052820
  H          -0.39283942384863     -1.69082453628447      1.96749985596695
  H           0.17580132165217      0.46365345721882      3.06203433994856
  F         -10.27371341876991      1.51859753131682      0.10214936352503
  F         -10.40254982960482      0.54502378561592     -1.85740072982555
  F          -8.53295811251846     -0.41026192801013     -0.24009304982281
  F          -9.98660305459971     -0.79002656882793      1.36129075893292
  F         -12.66460073735635      1.53362269009478     -1.04447390118182
  F         -12.72288513919967     -0.65249138894670     -1.17616754324754
  F          -9.11637193969515     -2.96944856400878      0.27616870480912
  F         -11.23989828252093     -2.65851756771146     -0.15635427214753
  F         -14.30046338491148      0.38903001725872      0.66472500976787
  F         -12.72912991224145     -0.89140041532943      1.50653140856030
  F         -10.74404962534513     -2.03313250961832     -2.69109809559136
  F          -9.83455233359631     -3.93009146523031     -2.07574195641021
  F         -12.72678348600366      2.63401341076809      1.45873574674079
  F         -11.46345047625422      1.23352358535405      2.55173705170859
  F         -13.58996771969001      1.33340704477962      2.97642261399002
  O          -7.34986434660169     -2.77698084882297     -2.07144067263289
  O          -8.32772546994906     -1.24080665961135     -3.41573975161821
  C         -10.69331020697489      0.40216896855248     -0.54680921762248
  C          -9.81639554530672     -0.77124127656235      0.01829073689554
  C         -12.25834464955744      0.38630165259640     -0.44932975547253
  C          -9.98523863350281     -2.24699032857750     -0.47580783113695
  C         -12.97795565616623      0.30930795579300      0.94354940921323
  C          -9.71490718213462     -2.56695639932909     -1.97561915952933
  C         -12.67038621355819      1.41462092531360      2.00637443533952
  C          -8.31166178436103     -2.13750964192605     -2.54907518363040
