84
Coordinates from ORCA-job R4N+PFOS-_r2 E -3538.088196658709
  N           7.48757567052937     -0.60405979700140     -2.61620999005160
  C           2.58150243592013     -3.71690869332113      0.48350898658694
  C           1.58367542502603     -4.07782024414274     -0.62719369499022
  C           1.37076566113799     -3.01517248449787     -1.71403348421109
  C           3.90557972216369     -3.20798004955273     -0.04145763517580
  C           2.79324909058757     -4.93842577596744      1.40199925461088
  C           7.66010679138434     -1.67287406355077     -1.52660986629511
  C           6.37061752299540     -2.22345452730241     -0.99974294644691
  C           0.91955256199946     -1.66899333995937     -1.18604697617534
  C           4.52290998827119     -2.10627888189201      0.55579807871608
  C           4.56682883133028     -3.83799160779618     -1.10239677992905
  C           0.36515926547504     -3.53002808969774     -2.75474477285237
  C           8.85729964881912     -0.11568937985845     -2.98930324414357
  C           6.67542441616171      0.55235992263541     -2.11367726906078
  C           6.82723036238195     -1.18139742099894     -3.83146314823838
  C           5.74050410367954     -1.62315667420603      0.09215413972375
  C           5.77877951438130     -3.35155976605116     -1.57763179778036
  C           3.54743279845405     -4.62046337061668      2.68807091732278
  C           1.56690273335857     -0.50000182265821     -1.59802479857284
  C          -0.19795781408841     -1.54962239628717     -0.35091736819915
  C           1.09763427605400      0.75520189687942     -1.21454902777885
  C          -0.66469142520410     -0.29757009719600      0.04087739190547
  C          -0.02348726960570      0.86097565903533     -0.39608754083258
  H           2.14435540890936     -2.91205101691327      1.09366241523167
  H           0.62159277233987     -4.31175100890677     -0.15116058344947
  H           1.90972440283605     -5.00371259059293     -1.12112087479021
  H           2.32815780019840     -2.85363824350333     -2.22665760138516
  H           3.32722296489717     -5.71270563384064      0.83318892133995
  H           1.80765602797485     -5.35377686934835      1.64905134176497
  H           8.23250217840233     -1.18474987702172     -0.73293729711672
  H           8.27233925264966     -2.45486476869849     -1.98442049618570
  H           4.04444644895140     -1.62482275342987      1.40324172781465
  H           4.12626606753884     -4.71371547792514     -1.57222147046229
  H           0.22786217132595     -2.80323034050938     -3.56267189591821
  H          -0.61221738978505     -3.71289458125141     -2.29264618927030
  H           0.71494433984608     -4.47088681758965     -3.19516010696540
  H           8.75527122616178      0.63446758174467     -3.77567236079180
  H           9.44555821906350     -0.96241665099569     -3.34881351183324
  H           9.32445648326874      0.32398580660847     -2.10589359825099
  H           7.13818491278200      0.93951297919646     -1.20342475118305
  H           5.65821945597019      0.21366370040975     -1.91417142771349
  H           6.66597708479194      1.32052823100050     -2.88994174885176
  H           6.78362326600040     -0.40295366703341     -4.59612210714411
  H           5.81789205028973     -1.50403152724825     -3.57243664717498
  H           7.42031374167110     -2.02720497146800     -4.18537653902310
  H           6.20298031688014     -0.76727225801523      0.57788919912216
  H           6.27140854147186     -3.84911796239064     -2.40963680886104
  H           3.02395557037144     -3.85108887305992      3.26825631066313
  H           4.55934144309265     -4.25287301878014      2.48334914636773
  H           3.63803157538881     -5.51152945416859      3.31866587579380
  H           2.44182182721281     -0.57685186638823     -2.24140307946017
  H          -0.71875961064259     -2.44313403810544     -0.01400021622024
  H           1.61249226648092      1.65055129234501     -1.55344613188982
  H          -1.53568307106509     -0.22585864016628      0.68731846251919
  H          -0.39113956880712      1.83763614152074     -0.09276922896956
  S          -1.48146718475626     -3.59470537596873      3.20235395157146
  F           0.09495457683222     -0.72242743080542      3.24026908001243
  F           0.14061289034020      0.76760520551466      4.86540326144185
  F           0.99486662637906     -0.98869708627528      6.62348209173444
  F           1.23946936010112     -2.57797110316734      5.14312269395798
  F           2.92071569371391     -1.14037563298174      3.83624245254144
  F           2.74663167033016      0.65600601133852      5.08815463477288
  F          -1.18681031065366     -2.01050398190607      7.01692905329129
  F          -1.82427076071589     -0.95080013497033      5.21150222637536
  F           2.20409247653371      0.05434412446401      1.67387559777696
  F           1.34056602318634      1.78639090725852      2.71840510367907
  F          -2.75938405775466     -3.42024824377619      5.49545002368453
  F          -0.74755992662583     -4.27660517548637      5.67170058236449
  F           4.70871577016576      0.78384361920522      2.93705074092618
  F           3.69882511018728      2.65962249323746      3.49526124287783
  F           5.06204647230017      3.00273687300548      1.27547909207716
  F           2.94153163721550      2.93627912199159      0.77677093574652
  F           4.23179216001370      1.23821070992499      0.31888167966091
  O          -2.14424794064688     -4.92294701174686      3.13925152315280
  O          -0.05318180233844     -3.60234238230327      2.80017243293385
  O          -2.28689157005041     -2.47302594212714      2.65694398965735
  C           0.71556235152036     -0.35890354894691      4.38393278887572
  C           0.51741334666585     -1.48368858617928      5.45811856479220
  C           2.21051084379432     -0.01151679916861      4.04163009183839
  C          -0.99698418312027     -1.91553920163071      5.67565264803741
  C           2.33334025656681      0.86858405632636      2.74228129322407
  C          -1.46719391605418     -3.28972390767167      5.08546949538093
  C           3.69716259712452      1.62671694098632      2.62639578083924
  C           3.98402279705328      2.21065470008697      1.20191871665310
