84
Coordinates from ORCA-job R4N+PFOS-_wb E -3538.944079848391
  N           7.44049276426437     -0.60054796867589     -2.62824476749278
  C           2.57639841883137     -3.72342494277731      0.50401724464171
  C           1.58121194592838     -4.08865941996415     -0.60269452501562
  C           1.36576274495004     -3.04666804936387     -1.70401252733614
  C           3.90009061841108     -3.21231897991952     -0.02104471389339
  C           2.77823017961433     -4.93111206429474      1.43211449525617
  C           7.61802847773930     -1.63547552406136     -1.53276849768167
  C           6.33902071201624     -2.20309148811522     -0.99414357153936
  C           0.92406428839106     -1.69013974818433     -1.19564986819867
  C           4.49657757151587     -2.09537863993180      0.55473875379297
  C           4.57042295782109     -3.84480957994332     -1.06712258398420
  C           0.36751912535589     -3.57709030727726     -2.73511408573962
  C           8.79686549479582     -0.11238813853653     -3.00202683182075
  C           6.62620674278289      0.55223400135533     -2.15626647046544
  C           6.79619176653021     -1.19630839485211     -3.82911479416234
  C           5.70103473491616     -1.59995427359343      0.08346029932788
  C           5.76952005397361     -3.34660320541308     -1.54905203819077
  C           3.52963175540385     -4.61231051367558      2.71542012156963
  C           1.60622870620080     -0.53984532710682     -1.58404982261306
  C          -0.20361109988517     -1.54651263634963     -0.38774395223182
  C           1.16417512197491      0.72022085136404     -1.20185494789375
  C          -0.64496989141803     -0.29065546760331      0.00244301898128
  C           0.03380921904995      0.84942249928066     -0.40916249575257
  H           2.14042676304846     -2.91530730255184      1.10278443986243
  H           0.62214800225713     -4.31389820527942     -0.12449422854151
  H           1.90178548751665     -5.01921930187560     -1.08321886864030
  H           2.31859713525855     -2.89378740699748     -2.21844473753034
  H           3.30314088046301     -5.71580826211615      0.87647994771661
  H           1.79276251596263     -5.33507568566119      1.68153915939237
  H           8.17919843068832     -1.13172314689850     -0.74714643521136
  H           8.24305300262177     -2.41391270824331     -1.96808513435444
  H           4.00877498560817     -1.60534943532387      1.38767876010113
  H           4.14498711243023     -4.73110095680901     -1.52468784154929
  H           0.23354581929436     -2.86782033622859     -3.55470851741904
  H          -0.61041567741306     -3.75361377919791     -2.27927840024024
  H           0.71700316508026     -4.52183987933387     -3.15829502851598
  H           8.69335306454476      0.62309289147238     -3.79631199244916
  H           9.39075893187454     -0.95606451923338     -3.34672587351003
  H           9.25831085493614      0.34199816843089     -2.12814873604818
  H           7.07897619153343      0.95879404301438     -1.25462090016581
  H           5.61182946789906      0.21795872498422     -1.95727290832329
  H           6.61759471663180      1.30356222030567     -2.94300978434752
  H           6.75758958838865     -0.43586040533593     -4.60616926572317
  H           5.78806918139471     -1.51436086078237     -3.57704555144334
  H           7.39075558001797     -2.04398090459540     -4.16282858970984
  H           6.14431895145288     -0.72879762469059      0.55285591961472
  H           6.26711614389109     -3.84753610041519     -2.37227776449485
  H           3.01236005714536     -3.83979168654883      3.29013639522514
  H           4.54217410182560     -4.25407504850807      2.51457378094869
  H           3.61309708232395     -5.49785597182044      3.34880116462970
  H           2.49319921580065     -0.63449566780474     -2.20297718812750
  H          -0.75048756854548     -2.42635110305224     -0.06521285305219
  H           1.71064679626028      1.60127189037955     -1.51834485934234
  H          -1.52197777082788     -0.20204613112186      0.63345361018216
  H          -0.30957819641523      1.83019738167351     -0.10160750631026
  S          -1.46298604807593     -3.54907928575316      3.14452800740177
  F           0.13521601974505     -0.69670938245772      3.22962995614708
  F           0.15882359715623      0.74617511821332      4.86819190132209
  F           0.97767867138870     -1.02940799481221      6.59865497883895
  F           1.26092941488482     -2.57887573295846      5.11178163107746
  F           2.94970730705942     -1.11669775701433      3.86306722483447
  F           2.74379726506941      0.64928547114177      5.11875149120330
  F          -1.17624164687599     -2.08301164322924      6.93840531045562
  F          -1.79971958090016     -0.97029975327387      5.18519694362657
  F           2.24221393954874      0.08206936378170      1.71425229238405
  F           1.38473759129599      1.79589250323386      2.75330485812667
  F          -2.73205100683910     -3.43671687287098      5.39739712666211
  F          -0.73711703176620     -4.29114868626358      5.54703894864831
  F           4.73297761772488      0.79729626741589      2.96718291372856
  F           3.73466678737920      2.64680287173481      3.55705789457498
  F           5.10460449404751      3.00625817920422      1.35078721770191
  F           2.99935666646352      3.00209236623570      0.86701037566692
  F           4.23401289714383      1.30021577903013      0.36634035550620
  O          -2.09453990054074     -4.84600545787648      3.03610380772766
  O          -0.07092143619883     -3.52832141509120      2.76143680920102
  O          -2.25553105401357     -2.44889016453944      2.64404169780039
  C           0.73743185676903     -0.36119908613892      4.37748826016830
  C           0.52928912644618     -1.50427740711390      5.42601336868699
  C           2.23337873705715     -0.00451084042641      4.06522439485505
  C          -0.98152305946375     -1.94419150355202      5.61384659664799
  C           2.36744956475141      0.88360605604829      2.77869888504499
  C          -1.45189040589053     -3.29911315358836      4.98370016410001
  C           3.72964508567923      1.63848104051516      2.67576237570165
  C           4.01682160382981      2.24777058790873      1.26652548569437
