80
Coordinates from ORCA-job R4N+PFOA-_wb E -2865.791913932819
  N           5.50336007793867      0.63670599245100      2.53434199436950
  C           3.36986319241729     -4.10440664160867     -1.59124044664217
  C           4.21032804366783     -4.56730861336639     -2.78575052581757
  C           4.48304076549752     -3.48899005867463     -3.84201363620250
  C           4.01563823684753     -2.94012255226178     -0.87115321680137
  C           3.06751452136330     -5.26981617443871     -0.64354594919713
  C           5.86763974676714      0.43437686162636      1.07661245647720
  C           5.21966263402139     -0.74597495872860      0.41483144502902
  C           3.20694241862456     -2.87919628819752     -4.38717512877122
  C           3.39386167935544     -1.69734590973735     -0.83785536985279
  C           5.25708767802401     -3.06763039683298     -0.24910264269827
  C           5.35040421097756     -4.05404346815033     -4.96643283601217
  C           4.03945013847092      0.84817174809678      2.69759619476654
  C           6.22185594026399      1.85174436060266      3.00844234647899
  C           5.92979019501733     -0.52608529499660      3.35699072330803
  C           3.98889511436012     -0.61170478742425     -0.21601267644886
  C           5.85006906798810     -1.98831599585195      0.38480341150079
  C           2.06222117229614     -4.91221086227648      0.44161843818360
  C           2.23896717406125     -3.66686382496847     -5.01001056281631
  C           2.96915878660565     -1.51222945466291     -4.27666059308058
  C           1.07158138500925     -3.10446454023083     -5.50401038370401
  C           1.79770375124222     -0.94426166072327     -4.76204037380593
  C           0.84299972828739     -1.73983614930109     -5.37765396111543
  H           2.41054930212156     -3.74783214646141     -1.97842521762386
  H           3.69871687926657     -5.41181276166561     -3.25925439690426
  H           5.17187330536374     -4.95038250027982     -2.42767250199834
  H           5.04283518809311     -2.67969570102419     -3.36279940402304
  H           3.99953493994641     -5.62477111486813     -0.19147870606905
  H           2.67723778440252     -6.10019821215639     -1.23966602115342
  H           6.95274520511034      0.34379923463381      1.05872627465286
  H           5.58371100628674      1.35974125674865      0.57679582081575
  H           2.43494333722041     -1.57217471161243     -1.32409030061184
  H           5.77428569390564     -4.02085241897778     -0.26604600871609
  H           5.58619939475997     -3.28681593641767     -5.70698128620636
  H           4.84218159575899     -4.87370571377233     -5.48108158908704
  H           6.29158396059350     -4.44071879739912     -4.56860166450142
  H           3.51541400327189     -0.06290081630751      2.42394500135226
  H           3.73166718075774      1.67436483819969      2.06015818698481
  H           3.84493280391848      1.08517944737189      3.74133528164089
  H           7.29147912615944      1.69587307081457      2.88721088598008
  H           5.98177713380018      2.00807678931386      4.05753892014431
  H           5.89551871499480      2.70473554019958      2.41748430891515
  H           5.38102078912635     -1.40984224131283      3.04248627313887
  H           5.70709070362462     -0.30583617944850      4.39864135379945
  H           6.99932383643383     -0.67543424557052      3.22579743055556
  H           3.49114876863545      0.35143873380968     -0.22696935532181
  H           6.81948427695664     -2.10832172606627      0.85627402712353
  H           1.11333307211906     -4.59512557281095      0.00094636736409
  H           2.42405500888064     -4.09679669790217      1.07327145442190
  H           1.85899292339072     -5.76726626851560      1.08951058762628
  H           2.39622815406999     -4.73593784824056     -5.10790260389774
  H           3.70917917768291     -0.88403783794028     -3.79206968142046
  H           0.33218082802005     -3.73584957017683     -5.98262577618227
  H           1.63034846714903      0.12116591212319     -4.65208652905437
  H          -0.07524664208355     -1.30297578313145     -5.75222679245185
  F          -0.13701087151940     -2.05288253116903      0.44422100142398
  F          -2.20486530788758     -1.41294720002595      0.18550511086960
  F           0.48175393222289      0.14138776663585     -1.41857746772221
  F          -1.55469254748912      0.79560938020099     -0.99105430102700
  F          -1.56989341775659     -1.38340459460124     -2.66999413113534
  F           0.21039281371982     -2.49546914862878     -2.08649470279448
  F          -0.90290096052149      0.42135807073111      1.78182138114149
  F           1.15918175194751      0.15463670669249      1.12954180023215
  F          -1.64123213021857     -4.12896546819778     -0.50574461313698
  F          -3.19023434941020     -3.16239504835991     -1.69845268360701
  F           0.73062912643338      2.57443839686113      1.98161959794874
  F          -1.04387370390269      2.83315936198164      0.75476517490073
  F          -2.50581160888248     -5.47213401183683     -2.75336012296597
  F          -0.40158734791973     -5.00847499593757     -2.73102778414887
  F          -1.74554718698526     -3.87710730954041     -3.99454495579697
  O           2.30445756860714      2.70462999024919     -0.17908055252629
  O           0.47494967517586      3.23024529842831     -1.37259128568096
  C          -0.98305289503417     -1.40492009395130     -0.36833419085412
  C          -0.51966914612140      0.08467985431652     -0.52275658807046
  C          -1.04054451704965     -2.17754177071889     -1.72806314179964
  C          -0.01641217020780      0.71866656205172      0.80986610986535
  C          -1.89193168121367     -3.48733971843775     -1.65645475251182
  C           0.18007815676868      2.26347249984102      0.78145788653045
  C          -1.61747203521192     -4.48684391909114     -2.82222782151460
  C           1.08450080108816      2.79559089758279     -0.38473532015420
