25
Coordinates from ORCA-job PFOA_altB_r2 E -1953.066809169619
  F          -1.50793900360700     -1.13236312916754      1.53917411942003
  F          -0.51798063093161      0.77526259469376      1.10674554710270
  F           0.74749319897088     -1.31963020760989      2.57376059298327
  F           0.85405361787088     -2.43872515004838      0.68477460018774
  F           0.10182923708592     -0.51873526183315     -1.51107400955654
  F          -1.40927716783852     -1.97935006781363     -0.88346286050007
  F           3.10426697851463     -1.31236088446378      1.57623965214195
  F           2.47751825081381     -0.65694293007039     -0.40670247564536
  F          -3.01361558585019      0.39062721679275     -0.16294475360188
  F          -1.53807950435854      1.49397527648269     -1.36604265260751
  F           3.81394310134768      1.14503481678546      1.15500424962745
  F           2.27304984889599      0.96379978442960      2.71676021607017
  F          -3.64240464050223     -1.19096432136965     -2.21530225534985
  F          -1.96552416999755     -0.47013328379090     -3.41003212403719
  F          -3.59079987879509      0.87899326873740     -2.87510683760473
  O           1.32702959619486      3.04223465692009      1.42046058238143
  O           1.70730011788079      2.07782465903373     -0.58986160655095
  C          -0.54753731428461     -0.54144649583056      0.79319308681200
  C           0.81686133011514     -1.19432697946201      1.22746431479124
  C          -0.96347615280269     -0.71393690148018     -0.70883677289578
  C           2.20791379685828     -0.52379416024261      0.90716945470331
  C          -2.09167257976649      0.28306912509463     -1.14645752930152
  C           2.46750924942404      0.94546751363722      1.36719462438119
  C          -2.84210441495073     -0.14621012185001     -2.44998499320097
  C           1.73174271971236      2.14263098242534      0.65766683024985
