29
Coordinates from ORCA-job PFOS_0.15M E -2626.035974457059
  S       4.010919     -0.815617     -0.137590
  F      -0.794224     -1.622681     -0.671375
  F       0.753592     -1.608956      0.838406
  F       0.054009      0.718277     -1.723407
  F       1.488060     -0.869716     -1.795446
  F      -0.146162      0.769257      1.825571
  F      -1.576587     -0.839904      1.787632
  F       2.495344      1.674507     -1.351120
  F       1.185594      1.929069      0.330830
  F      -2.642221      1.552666      1.324675
  F      -1.304669      1.959358     -0.320448
  F       2.315063     -0.027451      1.754766
  F       3.690819      1.519430      1.094564
  F      -2.325567     -0.179131     -1.740530
  F      -3.765523      1.307642     -1.101235
  F      -4.432062     -0.308903      1.127957
  F      -3.103189     -1.855517      0.366375
  F      -4.778929     -1.184794     -0.831574
  O       5.143829     -0.974729      0.776048
  O       4.373602     -0.266050     -1.442241
  O       3.150333     -1.995735     -0.212104
  C       0.014967     -0.783042      0.052571
  C       0.906266     -0.010926     -0.919762
  C      -0.901920      0.026146      0.965045
  C       1.920172      0.961740     -0.333277
  C      -1.940523      0.932696      0.318011
  C       2.961099      0.442556      0.634455
  C      -2.944952      0.308878     -0.632832
  C      -3.807241     -0.759269      0.016134
29
Coordinates from ORCA-job PFOS_0.15M E -2626.075040091267
  S       4.279925     -0.795762     -0.019869
  F      -0.723753     -1.667061     -0.698596
  F       0.742286     -1.625555      0.880910
  F       0.181709      0.608828     -1.785845
  F       1.560367     -1.024129     -1.718312
  F      -0.266751      0.659908      1.890949
  F      -1.600418     -1.015598      1.735982
  F       2.610730      1.486238     -1.557316
  F       1.365746      1.966791      0.122394
  F      -2.750769      1.332924      1.547561
  F      -1.500559      1.976183     -0.087898
  F       2.596575      0.236098      1.754864
  F       3.880243      1.695815      0.780552
  F      -2.613445      0.093109     -1.753121
  F      -3.958514      1.494259     -0.799370
  F      -4.676986     -0.455826      1.079224
  F      -3.473959     -1.915228      0.006652
  F      -5.091489     -0.896197     -1.004706
  O       5.438740     -0.708627      0.882659
  O       4.579514     -0.465182     -1.419104
  O       3.485679     -2.018378      0.155743
  C       0.030662     -0.817245      0.060615
  C       0.990876     -0.088704     -0.922621
  C      -0.971159     -0.065257      0.982041
  C       2.060869      0.919743     -0.444703
  C      -2.085053      0.868631      0.443628
  C       3.168795      0.543763      0.549904
  C      -3.165617      0.405000     -0.556636
  C      -4.094344     -0.728742     -0.105480
29
Coordinates from ORCA-job PFOS_0.15M E -2626.087194910572
  S       4.373544     -0.815173     -0.009698
  F      -0.764202     -1.652430     -0.688576
  F       0.748594     -1.604242      0.893378
  F       0.120841      0.626066     -1.750999
  F       1.524193     -1.042847     -1.689991
  F      -0.253715      0.682933      1.884819
  F      -1.616040     -1.021110      1.750278
  F       2.571562      1.449631     -1.586588
  F       1.347285      1.944772      0.150775
  F      -2.762378      1.332894      1.587449
  F      -1.497912      1.967637     -0.081105
  F       2.651281      0.224597      1.718338
  F       3.904397      1.687427      0.689683
  F      -2.609598      0.114567     -1.715851
  F      -3.986130      1.508763     -0.747789
  F      -4.733019     -0.501014      1.029329
  F      -3.478971     -1.907000     -0.068145
  F      -5.084170     -0.861156     -1.090510
  O       5.512211     -0.634467      0.919394
  O       4.670928     -0.503903     -1.424011
  O       3.594709     -2.052152      0.209782
  C       0.002489     -0.827855      0.077930
  C       0.947387     -0.089615     -0.927552
  C      -0.986397     -0.060152      1.020170
  C       2.037859      0.923521     -0.457014
  C      -2.103374      0.891766      0.479762
  C       3.195709      0.537108      0.512420
  C      -3.192868      0.424531     -0.539498
  C      -4.134316     -0.743297     -0.146079
29
Coordinates from ORCA-job PFOS_0.15M E -2626.088965230470
  S       4.310588     -0.867009      0.047312
  F      -0.734892     -1.631547     -0.744666
  F       0.795313     -1.569332      0.826638
  F       0.148091      0.644481     -1.827335
  F       1.587720     -1.006970     -1.686077
  F      -0.226717      0.671026      1.861145
  F      -1.585088     -1.042040      1.695983
  F       2.617439      1.449573     -1.609598
  F       1.349735      2.009740      0.096658
  F      -2.736039      1.313045      1.609283
  F      -1.512532      1.982579     -0.085490
  F       2.581205      0.284133      1.704971
  F       3.921557      1.676214      0.661907
  F      -2.643075      0.133789     -1.703565
  F      -4.024840      1.495955     -0.672274
  F      -4.670903     -0.565572      1.089176
  F      -3.425120     -1.915885     -0.085313
  F      -5.090549     -0.882956     -1.025554
  O       5.408454     -0.712093      1.034899
  O       4.687994     -0.579836     -1.358522
  O       3.463676     -2.069097      0.243170
  C       0.019941     -0.808701      0.027208
  C       0.956633     -0.048725     -0.978929
  C      -0.966252     -0.058047      0.996840
  C       2.031393      0.978817     -0.487683
  C      -2.096963      0.905453      0.485398
  C       3.160135      0.561163      0.510341
  C      -3.208482      0.426774     -0.515192
  C      -4.118523     -0.775132     -0.110633
29
Coordinates from ORCA-job PFOS_0.15M E -2626.089228406252
  S       4.419795     -0.799003     -0.041797
  F      -0.781049     -1.677877     -0.678548
  F       0.728871     -1.601639      0.910602
  F       0.137557      0.554489     -1.800477
  F       1.583076     -1.082364     -1.586231
  F      -0.270181      0.661218      1.892755
  F      -1.676277     -1.015083      1.725464
  F       2.538005      1.428821     -1.565369
  F       1.310079      1.942572      0.181870
  F      -2.749294      1.383399      1.561221
  F      -1.465601      1.964589     -0.123526
  F       2.646112      0.156837      1.706867
  F       3.866782      1.677676      0.700756
  F      -2.605814      0.112052     -1.715373
  F      -3.986173      1.525445     -0.745814
  F      -4.683370     -0.504121      1.063532
  F      -3.470490     -1.889654     -0.103011
  F      -5.111384     -0.823441     -1.047014
  O       5.519658     -0.592880      0.936565
  O       4.751905     -0.421489     -1.440172
  O       3.686354     -2.081056      0.111993
  C      -0.028309     -0.851443      0.087013
  C       0.926974     -0.111163     -0.920871
  C      -1.012398     -0.061694      1.028722
  C       1.988928      0.937173     -0.435041
  C      -2.097234      0.928088      0.466709
  C       3.167465      0.529046      0.513020
  C      -3.195904      0.445681     -0.549352
  C      -4.138183     -0.734380     -0.134390
29
Coordinates from ORCA-job PFOS_0.15M E -2626.089696836714
  S       4.378812     -0.818145      0.029453
  F      -0.775563     -1.654681     -0.749390
  F       0.749755     -1.624869      0.823567
  F       0.135241      0.594214     -1.830080
  F       1.585875     -1.038289     -1.663048
  F      -0.230647      0.627393      1.866105
  F      -1.638610     -1.043571      1.691469
  F       2.572057      1.447687     -1.584402
  F       1.310938      1.972601      0.127821
  F      -2.701242      1.377663      1.571037
  F      -1.451797      1.949401     -0.138835
  F       2.584270      0.213318      1.712379
  F       3.857862      1.684152      0.703241
  F      -2.635181      0.106213     -1.710893
  F      -3.988430      1.519305     -0.712576
  F      -4.628759     -0.524923      1.128330
  F      -3.480644     -1.904949     -0.108181
  F      -5.146111     -0.807397     -0.966773
  O       5.464960     -0.593291      1.017711
  O       4.742014     -0.498049     -1.374372
  O       3.631356     -2.086252      0.216009
  C      -0.013024     -0.848003      0.028040
  C       0.933256     -0.083760     -0.967543
  C      -0.984119     -0.080078      0.997257
  C       1.993897      0.956597     -0.464875
  C      -2.075666      0.914068      0.462629
  C       3.138279      0.545587      0.520452
  C      -3.196358      0.436926     -0.529424
  C      -4.132519     -0.739067     -0.095007
29
Coordinates from ORCA-job PFOS_0.15M E -2626.089728943089
  S       4.338318     -0.875953      0.019757
  F      -0.759628     -1.605776     -0.749325
  F       0.754677     -1.564766      0.831262
  F       0.158939      0.658265     -1.824924
  F       1.588714     -0.992057     -1.660028
  F      -0.248387      0.705255      1.848400
  F      -1.622534     -0.993712      1.701934
  F       2.615658      1.472936     -1.568609
  F       1.367665      2.013988      0.147424
  F      -2.737283      1.401231      1.549044
  F      -1.511992      1.973415     -0.174310
  F       2.593813      0.210424      1.719238
  F       3.918480      1.641376      0.717208
  F      -2.657747      0.096660     -1.719988
  F      -4.049759      1.463332     -0.718061
  F      -4.574892     -0.608521      1.153892
  F      -3.420746     -1.942424     -0.127687
  F      -5.141559     -0.889634     -0.929718
  O       5.425424     -0.713703      1.018521
  O       4.724237     -0.551036     -1.376023
  O       3.536443     -2.112782      0.181395
  C      -0.006674     -0.790918      0.029237
  C       0.946537     -0.030462     -0.960918
  C      -0.989482     -0.028121      0.989370
  C       2.025417      0.985091     -0.451369
  C      -2.105929      0.930959      0.445506
  C       3.155230      0.531375      0.527707
  C      -3.217596      0.410657     -0.533351
  C      -4.105444     -0.795301     -0.085484
29
Coordinates from ORCA-job PFOS_0.15M E -2626.089821044736
  S       4.344062     -0.839828      0.034545
  F      -0.765761     -1.644562     -0.749568
  F       0.759808     -1.607005      0.821054
  F       0.144213      0.596836     -1.844378
  F       1.600840     -1.027728     -1.653128
  F      -0.228813      0.641063      1.863583
  F      -1.631521     -1.033489      1.691659
  F       2.583413      1.453181     -1.588393
  F       1.316631      1.997284      0.114231
  F      -2.701256      1.386376      1.569876
  F      -1.460659      1.958192     -0.143028
  F       2.570842      0.234135      1.713922
  F       3.871879      1.677529      0.697753
  F      -2.638389      0.122630     -1.714730
  F      -4.005241      1.505733     -0.699379
  F      -4.574650     -0.576749      1.148024
  F      -3.449252     -1.918405     -0.150822
  F      -5.147510     -0.819774     -0.939219
  O       5.422737     -0.639903      1.036101
  O       4.728260     -0.524056     -1.364091
  O       3.567763     -2.091276      0.209557
  C      -0.007389     -0.832245      0.025731
  C       0.938345     -0.068636     -0.969246
  C      -0.980796     -0.068544      0.994676
  C       1.995630      0.972584     -0.467066
  C      -2.076798      0.919717      0.461698
  C       3.130017      0.551346      0.520916
  C      -3.196110      0.433842     -0.526374
  C      -4.110393     -0.758449     -0.093802
29
Coordinates from ORCA-job PFOS_0.15M E -2626.089790879444
  S       4.369228     -0.834744      0.032317
  F      -0.759473     -1.635849     -0.776816
  F       0.753052     -1.610728      0.807773
  F       0.162779      0.615232     -1.844369
  F       1.613157     -1.015659     -1.658065
  F      -0.240479      0.637858      1.850364
  F      -1.639123     -1.040479      1.667183
  F       2.597191      1.464757     -1.567408
  F       1.326965      1.991129      0.138405
  F      -2.697167      1.395660      1.548485
  F      -1.467466      1.943423     -0.181330
  F       2.581114      0.205221      1.718416
  F       3.875462      1.669886      0.724575
  F      -2.664784      0.078090     -1.714609
  F      -4.010902      1.498603     -0.720435
  F      -4.595843     -0.533842      1.171954
  F      -3.490938     -1.917950     -0.099175
  F      -5.180429     -0.819713     -0.906529
  O       5.444700     -0.630913      1.037166
  O       4.750941     -0.501781     -1.363377
  O       3.606782     -2.096475      0.196025
  C      -0.006865     -0.830864      0.010975
  C       0.948511     -0.060776     -0.970794
  C      -0.987066     -0.071822      0.977426
  C       2.006212      0.973240     -0.452980
  C      -2.083063      0.915376      0.441206
  C       3.140749      0.542141      0.531552
  C      -3.213434      0.421308     -0.530943
  C      -4.139914     -0.750529     -0.066892
29
Coordinates from ORCA-job PFOS_0.15M E -2626.089841634559
  S       4.354824     -0.844443      0.029424
  F      -0.768126     -1.633699     -0.755412
  F       0.752565     -1.600883      0.820763
  F       0.149866      0.612304     -1.839691
  F       1.598383     -1.019703     -1.653714
  F      -0.237203      0.651626      1.859167
  F      -1.636057     -1.026875      1.687470
  F       2.591071      1.457520     -1.578557
  F       1.328842      1.997167      0.128375
  F      -2.708332      1.395229      1.560005
  F      -1.471330      1.957803     -0.159198
  F       2.579761      0.217085      1.715423
  F       3.879325      1.667826      0.708287
  F      -2.645103      0.106963     -1.714798
  F      -4.014593      1.496873     -0.710607
  F      -4.578143     -0.573050      1.154618
  F      -3.452188     -1.921690     -0.136628
  F      -5.154299     -0.832725     -0.929440
  O       5.434403     -0.642921      1.030076
  O       4.735172     -0.522562     -1.368946
  O       3.584473     -2.099825      0.202208
  C      -0.011016     -0.824264      0.023852
  C       0.939601     -0.060255     -0.966641
  C      -0.986719     -0.061076      0.990855
  C       2.002418      0.973125     -0.459227
  C      -2.084822      0.922854      0.454179
  C       3.137403      0.542957      0.524326
  C      -3.204100      0.427483     -0.529520
  C      -4.116176     -0.763043     -0.086550
29
Coordinates from ORCA-job PFOS_0.15M E -2626.089841800752
  S       4.352146     -0.841849      0.030909
  F      -0.762976     -1.638633     -0.756738
  F       0.757354     -1.602383      0.819551
  F       0.151910      0.606748     -1.843498
  F       1.604746     -1.021286     -1.652658
  F      -0.234649      0.647246      1.857761
  F      -1.633534     -1.030933      1.685636
  F       2.590087      1.459599     -1.578994
  F       1.323735      1.996812      0.126093
  F      -2.702666      1.394164      1.559780
  F      -1.467243      1.954041     -0.160839
  F       2.576179      0.220205      1.715449
  F       3.876561      1.671143      0.709198
  F      -2.647779      0.105385     -1.715080
  F      -4.011263      1.499150     -0.709470
  F      -4.577373     -0.568816      1.158208
  F      -3.461088     -1.921364     -0.137509
  F      -5.160700     -0.824356     -0.924330
  O       5.428340     -0.644219      1.035929
  O       4.737666     -0.517596     -1.365315
  O       3.579228     -2.096209      0.198156
  C      -0.007584     -0.827242      0.022192
  C       0.942111     -0.062310     -0.968026
  C      -0.984202     -0.064999      0.988932
  C       2.001091      0.974062     -0.460009
  C      -2.081788      0.919886      0.453240
  C       3.135068      0.545884      0.524836
  C      -3.203829      0.427282     -0.528805
  C      -4.119646     -0.759613     -0.084499
29
Coordinates from ORCA-job PFOS_0.15M E -2626.089844241081
  S       4.353530     -0.842877      0.030702
  F      -0.765398     -1.636271     -0.757256
  F       0.754849     -1.602382      0.819241
  F       0.151446      0.609023     -1.842351
  F       1.602425     -1.020621     -1.653147
  F      -0.236131      0.647812      1.858628
  F      -1.635391     -1.030143      1.685085
  F       2.590556      1.458670     -1.578736
  F       1.325581      1.996958      0.126894
  F      -2.704593      1.394778      1.559906
  F      -1.468570      1.955342     -0.160415
  F       2.577906      0.219386      1.715603
  F       3.877674      1.670034      0.708299
  F      -2.646812      0.106125     -1.714785
  F      -4.012721      1.498530     -0.709772
  F      -4.577257     -0.570067      1.157343
  F      -3.457058     -1.920980     -0.136685
  F      -5.158351     -0.827915     -0.925580
  O       5.430957     -0.642571      1.033959
  O       4.736703     -0.520204     -1.366563
  O       3.582250     -2.097854      0.200965
  C      -0.009306     -0.826151      0.022258
  C       0.941121     -0.061429     -0.967624
  C      -0.985607     -0.063902      0.989353
  C       2.001560      0.973635     -0.459609
  C      -2.083025      0.921108      0.453626
  C       3.135991      0.544861      0.524608
  C      -3.204133      0.427597     -0.528983
  C      -4.118293     -0.760691     -0.084865
29
Coordinates from ORCA-job PFOS_0.15M E -2626.089844333014
  S       4.353821     -0.842989      0.030475
  F      -0.765509     -1.636228     -0.756883
  F       0.754900     -1.601890      0.819536
  F       0.151266      0.609247     -1.842220
  F       1.602049     -1.020620     -1.653178
  F      -0.236046      0.648424      1.858447
  F      -1.635144     -1.029742      1.685588
  F       2.590593      1.458591     -1.578646
  F       1.325678      1.996817      0.127100
  F      -2.704808      1.395015      1.559864
  F      -1.468832      1.955377     -0.160568
  F       2.577859      0.218682      1.715423
  F       3.877500      1.669747      0.708546
  F      -2.646544      0.106037     -1.714678
  F      -4.012804      1.498372     -0.710005
  F      -4.577195     -0.570373      1.157226
  F      -3.457014     -1.921082     -0.137122
  F      -5.158460     -0.827983     -0.925603
  O       5.431006     -0.642475      1.033992
  O       4.737072     -0.520041     -1.366674
  O       3.582921     -2.098200      0.200492
  C      -0.009422     -0.825922      0.022421
  C       0.940924     -0.061308     -0.967593
  C      -0.985650     -0.063575      0.989505
  C       2.001551      0.973488     -0.459548
  C      -2.083231      0.921203      0.453722
  C       3.135952      0.544542      0.524537
  C      -3.204188      0.427504     -0.529025
  C      -4.118348     -0.760818     -0.085030
