29
Coordinates from ORCA-job PFOS_0.15M E -2626.089844333014
  S           4.35382072332964     -0.84298925138647      0.03047519638889
  F          -0.76550871296968     -1.63622769715635     -0.75688345756521
  F           0.75490035395577     -1.60189021896602      0.81953577855858
  F           0.15126614195513      0.60924736153821     -1.84221975854656
  F           1.60204906341875     -1.02062042581470     -1.65317848584999
  F          -0.23604648185168      0.64842440354489      1.85844663683803
  F          -1.63514414684406     -1.02974199254630      1.68558796921798
  F           2.59059343771058      1.45859123324943     -1.57864628405066
  F           1.32567824082546      1.99681736599165      0.12709967574361
  F          -2.70480840684430      1.39501546095783      1.55986421996085
  F          -1.46883207572803      1.95537689299178     -0.16056759515329
  F           2.57785909257959      0.21868206799305      1.71542293206067
  F           3.87750014790884      1.66974677273234      0.70854570830856
  F          -2.64654435945462      0.10603657745335     -1.71467765827100
  F          -4.01280374895423      1.49837172486496     -0.71000498079514
  F          -4.57719450853314     -0.57037275465492      1.15722641981813
  F          -3.45701405607216     -1.92108236919929     -0.13712202909090
  F          -5.15845953063629     -0.82798325994986     -0.92560271156242
  O           5.43100642537763     -0.64247542701459      1.03399237441798
  O           4.73707212881195     -0.52004141219182     -1.36667411421860
  O           3.58292118186026     -2.09819955683386      0.20049177170993
  C          -0.00942183066899     -0.82592231185056      0.02242065823721
  C           0.94092429045720     -0.06130777686286     -0.96759304284019
  C          -0.98564961125450     -0.06357527775530      0.98950465881756
  C           2.00155142314214      0.97348798833704     -0.45954837491935
  C          -2.08323125373665      0.92120334716134      0.45372235874500
  C           3.13595246973532      0.54454192112261      0.52453678630552
  C          -3.20418795198416      0.42750444280507     -0.52902466012172
  C          -4.11834844553579     -0.76081782846064     -0.08502999194347
