25
-96.5583781183 converged=true
F  -1.40024119534642554896 -1.43834516675900014882 1.84790897534171305594
F  -0.72526005044431129942 0.55685573546352562513 1.58789434750507285621
F  0.96633682846021995427 -1.36297146721690221050 2.67026134729191211292
F  0.87845567952489866936 -2.48489506193779208232 0.83461968091228599942
F  -0.10758594286994019318 -1.01167720807475114420 -1.26819915563848661932
F  -1.76638092315802053278 -2.01949213563723128928 -0.41843828297471158395
F  3.15492298567717499580 -1.13827466561762769004 1.47081781380785847624
F  2.33552435937708313674 -0.74762436299962620190 -0.46886897989788040020
F  -3.35845983081815857574 -0.22444999802312740056 -0.57303699761117987688
F  -2.04185830247910526936 1.43408515823397397781 -0.30672206662507717212
F  3.52462837501360493064 1.35947371715993314822 1.18771907998647408000
F  1.70295082881825865506 1.27330239130100686396 2.34959665284767416082
F  -2.20096772284079822413 -0.78381982316815201894 -3.03014529710071522928
F  -0.98017994906649830167 0.97769176822883108180 -2.88092818563705010959
F  -3.11457558921736366031 1.14318624945732683074 -2.82175609512825076308
O  1.91405665015312176358 2.95021202044475661097 -0.29536886510799126304
O  0.47404341332709154511 1.24064404674803130391 -0.49446219694389886845
C  -0.58462720404038959199 -0.67029461227576214721 1.08050686082264313370
C  0.84954119086264734406 -1.22804936446654644477 1.33151913110107122939
C  -1.10042412213938178844 -0.83938825147194751075 -0.38725613663469454773
C  2.13298655540584203294 -0.49842968977005758235 0.83973984183614713839
C  -2.12318730168567704197 0.23423778916404811024 -0.88391218920444991625
C  2.21256157841185485680 1.01372211910901000032 1.10870916869396940463
C  -2.07989328122780259278 0.40076698186754816655 -2.43257977731850871805
C  1.43773297030208468961 1.86353383024051777461 -0.04781967432394095691
