25
-96.5587656171 converged=true
F  0.45166969947427404453 -1.68723949033741105197 -0.49336233144628549585
F  -0.54474270962709470112 -2.48466822356292693641 1.19503842337640064919
F  -0.18098910656255609575 0.80579612569156611190 1.69212415027989515615
F  0.21908826892517818674 -0.96246474084718802722 2.80105174212931462563
F  -2.27398900610206533557 -1.88354800658063781249 -0.53937750714614052239
F  -2.42590111486055448609 -0.69509840395514421729 1.25260317838331891593
F  2.49263786118016872351 -0.16942595020894510305 2.66449494204681114340
F  2.49400160896103795238 -1.32643045275222060120 0.85780320081787209130
F  -3.41465811401493501975 0.42622541859965112909 -0.77386865468076415642
F  -1.71330093695796903397 1.57387339148739147099 -0.21953910426154926716
F  3.74956940064000487922 1.00793420220724594394 0.52812096787214724003
F  2.09769546834519005074 2.12929823680681629128 1.36150605711598693404
F  -2.70284581690783110020 0.08424341022562384373 -3.01506494385805057235
F  -0.77277219479656567014 -0.65806466723839174282 -2.53821767060839054153
F  -1.11863317221686542347 1.47312213440466655001 -2.69743008915865933872
O  0.51428050045006057367 0.70470238208041802164 -0.77085710474741897524
O  2.35568404992184410318 1.55148477306421317401 -1.72892372873813626732
C  -0.29695747311572501248 -1.31412635281328271653 0.54736931399101762530
C  0.42151427597640389600 -0.38957648191582561203 1.58874578685544132206
C  -1.71843171081917489573 -0.83544907041355853661 0.11084151501081572488
C  1.96151198805499160649 -0.22096752451242926418 1.41724779653273524893
C  -2.05413637067405252523 0.40846242836902413309 -0.76846249141408795591
C  2.39400328838712139756 1.02354524363570598133 0.62012068334467218556
C  -1.61608829674436416113 0.32645283221851517652 -2.26965842721389732262
C  1.68188961308344486767 1.11191878634712537632 -0.82250670448306395510
