56
-70.9557501705 converged=true
N  -2.49219475092179854059 -0.16370071465482899375 -3.79208390317948218495
C  1.33570496472936861565 1.05559015335661277035 1.42533393614863368448
C  2.13171428440329169263 -0.06275264997182097848 2.11299439895342544560
C  1.23527239539789590594 -1.17508936914978234789 2.67474303369073318493
C  0.41927054646337391652 0.50479316700052989653 0.36447496428298431503
C  2.28932519738966711031 2.10516018899628365446 0.83487048150464260310
C  -2.22679402014260485743 -1.08291431415950012429 -2.64518889572149795697
C  -1.30935219772195021726 -0.51437462691633983880 -1.59696849565783094427
C  0.16650028927680116109 -0.62877551982031731903 3.58794098992485910316
C  -0.95110605496410094428 0.71874618567912440525 0.44063970848370492828
C  0.91164502382897516508 -0.23511874073900990156 -0.70560374441522366595
C  2.08023393515004206833 -2.21872838154376816888 3.41067829993669713318
C  -3.16277514927197511696 1.06253154305224262188 -3.33695332450708015415
C  -3.35514497296894198541 -0.87288518842275975018 -4.74901113779189554265
C  -1.23153624642104708720 0.18125887131741499902 -4.46370689052606373082
C  -1.80615210164795136905 0.21414922371689462666 -0.52231271963897829558
C  0.06089942916183538335 -0.74090877901572671504 -1.67023013037256129465
C  1.53967693083879186844 3.30611238970517407054 0.27091638589425526273
C  0.49009549816724784499 0.12928561664201271286 4.70746000839163514229
C  -1.17355118975140704229 -0.88611541254241177334 3.32788997274609599231
C  -0.49923104518416633324 0.62279530820626782806 5.53885312624282732941
C  -2.16643413910214066576 -0.39469189286303441033 4.15767130337367341042
C  -1.83199299004251914269 0.36389387865722500059 5.26599694817520447288
H  0.71875667171681201228 1.54721191918826916911 2.18594572846617296591
H  2.72117105395717695515 0.37514831857365826817 2.92064844145892843486
H  2.83099229461467816193 -0.50796278276428008525 1.40246809449861342678
H  0.74039235561238625483 -1.67102946837552712722 1.83191169655856511689
H  2.89021480020116827703 1.64839894041662349267 0.04609608908857833198
H  2.97131494185666511498 2.43985492569919237837 1.61945383806286447026
H  -1.77939021074689440738 -1.98764775325601950051 -3.06529916365474397466
H  -3.18753197534935051038 -1.33783472642536982455 -2.19555120025898498071
H  -1.35374025726758584476 1.27746896271454390970 1.27276150703982326995
H  1.97058251049783494935 -0.43022762620353866003 -0.78636739732964011651
H  2.60381171026360647147 -1.76910792263606397867 4.25080339522905870098
H  2.81607656422174290611 -2.65138548158237652430 2.73661645271496301035
H  1.44687314683298806628 -3.01784106092233983532 3.78941606177138634592
H  -3.36490936175679733466 1.70525498844091383255 -4.19015375364137643288
H  -2.52515231269788342772 1.59296496391384168057 -2.63408114485125377513
H  -4.10240377730568095416 0.81171857549059556192 -2.85093455299453868435
H  -4.29100996970015735599 -1.15668672648551318360 -4.27490238764109165004
H  -2.84394091067082621649 -1.77223602613110964299 -5.09171756276912024219
H  -3.56061394806383768596 -0.23634448207480690529 -5.60552657963737299696
H  -0.74504751666292312606 -0.73505538136777093250 -4.79751380626762102821
H  -0.57183891298072309084 0.70497484487403960784 -3.77719303106905401890
H  -1.43284629397352025748 0.80917124642335602758 -5.32733312535924508069
H  -2.86829566322799633937 0.37727133026406356464 -0.42069526824368758122
H  0.45662578094116546001 -1.33550404000695466245 -2.48155528305952755019
H  0.94339185469688591201 3.78043601070053503221 1.04699983560355214252
H  0.87566783489959443276 2.99609219124818171309 -0.53222966667372140215
H  2.23965928664546876092 4.03922200338377024309 -0.12216059970907799936
H  1.52460612779360449309 0.33980707335638943301 4.93482324280145245865
H  -1.44081874722980218806 -1.47649074793552093077 2.46270793753922134783
H  -0.22970783442750369874 1.21152350543641973424 6.40358459108764499490
H  -3.20283959257396988463 -0.60487758784805878420 3.93851664885189833853
H  -2.60392753275517385703 0.74988047935217561069 5.91498205119802378249
Cl -0.66306546492805673587 -3.35533671259182675328 -4.95751993804921031739
