80
-162.6264958249 converged=true
N  5.31697967702695351022 0.59491496629864926149 2.36934175893571108418
C  3.56494778011120239114 -4.39007416677008510675 -1.62489375026396665191
C  4.41257831076487327948 -4.71068578762162193385 -2.86577885361977635625
C  4.65744205622986839899 -3.48977320522709666406 -3.76577207021094340078
C  4.07947924093623459640 -3.16709015792892856211 -0.91376301341797872002
C  3.50551868141718703242 -5.59966152541709671908 -0.68076658977424542307
C  5.49677109238150585213 0.48068172163428624089 0.89147507190704367019
C  5.00991258772911063346 -0.81665564771823251355 0.30266340092740429135
C  3.38879112658167125360 -2.73187695128222829410 -4.06914889774660082367
C  3.24693118869772545665 -2.06670044359234195142 -0.75520404673069430057
C  5.38279624965142211579 -3.07973518948439561882 -0.43760180870178089219
C  5.33799004738531479575 -3.92063201723932630571 -5.06854334064919420655
C  3.90068847062754997523 0.43330794612178014091 2.72868333393610740245
C  5.76127763297416173316 1.93583882924876782283 2.78101081689104479011
C  6.11925897773904559074 -0.42231557712309353292 3.06515733945076007672
C  3.70411218292109101213 -0.90592785744832282635 -0.16390391076284327454
C  5.84388059661897329988 -1.92070593817582113694 0.16076912604392945561
C  2.48268893063597761994 -5.39611000054669265324 0.43067772864105213770
C  2.28504926755223358725 -3.35845509224466631792 -4.63577836011428523477
C  3.30759171607438151597 -1.37177253225986017782 -3.79621288406960033512
C  1.13428212114523696563 -2.64498751227680584108 -4.91941183042850127549
C  2.15647196622795567222 -0.65423491983529258320 -4.07044767640643900819
C  1.06524149336034068547 -1.29064123339243130850 -4.63655059304037031609
H  2.54376004474377070963 -4.17264563157759127421 -1.95906179715787986950
H  3.90407875380935642795 -5.48913421047471494774 -3.43647778959577498981
H  5.38074366511884250031 -5.10845451904949410249 -2.55756100018047582978
H  5.33079581912031841284 -2.80577312324291350265 -3.23917946386115795931
H  4.49007622852369348010 -5.77206527181212170063 -0.24389470645058064502
H  3.23475633864126432826 -6.48413774460666036958 -1.26012573678534622879
H  6.55822146213875178944 0.60830405950015986605 0.67413302456450652222
H  4.93121305978110502366 1.29414384484601718839 0.43091452821148101826
H  2.23505033573478595343 -2.10721783132619044920 -1.12631417510575038143
H  6.05203883951505616778 -3.91820342613527383691 -0.55209509218749064363
H  5.54894234142377840158 -3.05138507800965630423 -5.68678732712935897098
H  4.69620837110614175458 -4.59244970336111180131 -5.63261848737102255313
H  6.27296394774294263641 -4.43166927199352578270 -4.85385268787396384482
H  3.55675652966495636775 -0.56642896472353365667 2.47665639995636599480
H  3.29332623517273503921 1.14878697088321546360 2.17648242361505284137
H  3.76789783285065382756 0.60164813285063045711 3.79384878237246825350
H  6.79998296198036378257 2.09061722884101230946 2.49971368931756909859
H  5.66284906781712749080 2.04284702606345902609 3.85839711542027119506
H  5.14518703639700536456 2.68983388901039432994 2.29515220736836367266
H  5.80145052980391895403 -1.41557796078535647055 2.75860717290902757171
H  5.98450705179308251047 -0.32325744784760690465 4.13924158217232829315
H  7.17165884881775816950 -0.29217232170778628664 2.82573763478435369123
H  3.04674746929521500505 -0.05266588435390406886 -0.09633689598266992338
H  6.86951551577728913855 -1.87270380901012312158 0.49323455366499469044
H  1.48731813885157571065 -5.26108506206283266238 0.01037809737893302664
H  2.72417532563597042383 -4.51182443454035553287 1.01569495396143971711
H  2.46230321272139240918 -6.25766991576456899082 1.09283659427326629299
H  2.31858171172919735881 -4.41433270621002904477 -4.85832077743457446672
H  4.15250652361275562896 -0.86263293858633161015 -3.35515758343152814547
H  0.28290363798759177172 -3.14382663289638308868 -5.35987965883774464260
H  2.10453429601248798164 0.39889427018977752226 -3.82963648082371976855
H  0.16415048371446028241 -0.73350211037731405384 -4.85082565274126231714
F  -0.71243312703152694709 -1.79587376046008317942 0.55838707841312129609
F  -2.54799503152845163712 -0.89361053412565227827 -0.14545406350514666904
F  0.63572856408399935901 -0.06313496102151372469 -1.36048957300389128378
F  -1.27732671605133685233 0.93447290287851059176 -1.57236547461707654172
F  -1.53782581798838302589 -1.42647706761962722588 -2.83629276600124002883
F  -0.00494105118058207893 -2.59841136098759362127 -1.85701234418518623670
F  -1.33296623636469568908 0.90935427642028221484 1.37489594781382340472
F  0.72763727612213413565 0.28723556826533203079 1.24993375140260898348
F  -2.28498469065938936140 -3.74192532379075792903 -0.31573610214912395389
F  -3.49008020811253638627 -2.84185144673361111956 -1.87062950046082487887
F  0.38711675612837348481 2.96966290914969732739 1.60288349386207906733
F  -0.74706076069198390499 3.11904704670877652717 -0.24203730442026349934
F  -1.72371710246519294074 -4.05998560082676807070 -3.77091292134794286994
F  -2.89300151185726095449 -5.35629577040364601714 -2.52034444948478331128
F  -0.80201886069533356860 -5.08659118590205761024 -2.11951343758112198401
O  2.63131673398644272410 2.31408038558993300882 0.24769395469106325613
O  1.50660195901964200083 2.62574818462528192242 -1.66766016284849616369
C  -1.27226248147611187278 -1.15036770622330664082 -0.47828725615651679348
C  -0.52623907187994767298 0.19805703360075499475 -0.73831931970238429130
C  -1.24359981535953112441 -2.10108349679082051509 -1.71619269704551768996
C  -0.23186598127294644200 0.96212022519636475337 0.58217932792294657673
C  -2.25630005589582660619 -3.28066321752124068212 -1.57680916618331701251
C  0.23982116096298433661 2.40820140707064656027 0.36628502191535572408
C  -1.90535898553352689433 -4.47007410778179625765 -2.52299543997415387508
C  1.65744557139085491038 2.47012879781048599881 -0.47008430126474914923
