56
-70.9555690568 converged=true
N  -2.24459865739546993169 -1.02403532383704276576 -3.45594652052862816305
C  1.37030216255263748160 1.39626059204728747432 1.47848189554608810958
C  2.11213798044436007473 0.13530239735815807745 1.94547552748973617831
C  1.17115525056508351653 -1.05668515789875971933 2.16625157323726114100
C  0.57164206177732190817 1.13072223514868208660 0.22933967451309400509
C  2.35972616740414897762 2.55098626582430121346 1.26079872550683447230
C  -1.75568670114757852119 0.38093732475341057775 -3.32095295909630428000
C  -0.93732291792838506872 0.63375517020954086345 -2.08385297952433568014
C  0.06162450433115435056 -0.72020732422839917053 3.13083029184918659737
C  -0.80355116634912604479 1.33280953909422850145 0.21684464289521246383
C  1.18299563462294976546 0.69439746992277828763 -0.94048426156267550535
C  1.95699456799465787427 -2.27456041887837523419 2.66067176119251103117
C  -1.11925969101434197306 -1.96332980751315266943 -3.56505863811023049337
C  -3.07109410093035650746 -1.10023045949727538151 -4.67022270005575368401
C  -3.07687644446794683617 -1.38070762877472708041 -2.29870833515155137405
C  -1.54931887866841466739 1.09001641290804585083 -0.92203063248266936558
C  0.44159146559612166838 0.45237104892730628514 -2.08186414401755559567
C  1.64899783962043544605 3.85654590007446840261 0.92424810588219097340
C  -1.26625267377954053849 -0.84281796609101877760 2.74216256383469403346
C  0.33439305182417028428 -0.28919971246981779345 4.42407218785288947061
C  -2.29581654455509376334 -0.53660442771552030461 3.61478071321968341678
C  -0.69116263872644223554 0.01744911869718179104 5.30001432837670538589
C  -2.01093447966288874085 -0.10337334402545995948 4.89798966703157656610
H  0.67335701832246352971 1.69322183154762129220 2.27060250331240709443
H  2.63675274874381448953 0.36517334790495342700 2.87430102776939966347
H  2.86260989981228508583 -0.14494136017638797886 1.20463103526582182567
H  0.71457551722656020843 -1.31052819500879991210 1.20372167471027680108
H  3.04877127635559830310 2.29707895176023679795 0.45382066274722632215
H  2.94658036523967048481 2.68572089773095346033 2.17179876985449737958
H  -2.64148390121775600292 1.02136275278325117100 -3.30462560010221118034
H  -1.16562905419262863305 0.61379787150857867406 -4.20849423921520227054
H  -1.29718619749701558064 1.68750134996744804994 1.11061573041781591620
H  2.25161746565574816259 0.54618039817878161202 -0.96520163639695899516
H  2.71845039426626655654 -2.55161976767739195893 1.93603830968814438762
H  1.28856736985807263096 -3.12002588561928728694 2.80556476819280353752
H  2.44427795277596082713 -2.05894655566100448496 3.60813647798974157510
H  -0.50992431869043741699 -1.91554275145118335644 -2.66602846946357363578
H  -0.50817896159671271938 -1.70968966457115922886 -4.42775824711595600292
H  -1.49934547072448043359 -2.97490516187749909349 -3.68446404580014741370
H  -3.45154441208252915629 -2.11026854031706756487 -4.79746066093615031178
H  -2.48677617829412422878 -0.81999178150481000227 -5.54269161410119082234
H  -3.91304149653279997878 -0.41526359640828813813 -4.57235005234714986244
H  -2.48948392121599049176 -1.33209035099089923015 -1.38567653900453868765
H  -3.47465423865932798719 -2.38403692383651755193 -2.42430335762983339976
H  -3.90632084315793193241 -0.67747418149845572977 -2.22713424074950472331
H  -2.61500235365115463182 1.27084638123597004622 -0.91887027692851586114
H  0.94752336704629169795 0.13496098603611622613 -2.98102713775045202738
H  0.96685195094662867987 4.13705435490607786875 1.72427392634716447617
H  1.07210579558151164470 3.75479263866466661526 0.00731519030465233033
H  2.36959028574839214443 4.65974704243613047083 0.79090488605032938096
H  -1.49948265114463397119 -1.17532816514806159880 1.74084272963935715595
H  1.35727652544865073914 -0.18689285096848695655 4.75474132087967316096
H  -3.32227450239854560365 -0.63277984725345848283 3.29141755130895985459
H  -0.46132119102080204609 0.35384204970100568977 6.30065281603806148780
H  -2.81200142314146539491 0.13899999629229525810 5.58081783793379493375
Cl -5.19781232081710253823 1.42933551467884267794 -3.09154612210681900564
