80
Coordinates from ORCA-job R4N+FHEA-_wb E -2667.274234635307
  N       6.870823     -1.741130     -1.635694
  C       1.836332     -5.250989     -4.282957
  C       0.409960     -5.045154     -3.746404
  C       0.242390     -5.338007     -2.246699
  C       2.860537     -4.498456     -3.462979
  C       1.910435     -4.858924     -5.769677
  C       5.668259     -2.398184     -0.945442
  C       4.729514     -3.116595     -1.865916
  C       0.635982     -6.756839     -1.893584
  C       3.955880     -5.160557     -2.904438
  C       2.723816     -3.126171     -3.223265
  C      -1.189831     -5.026274     -1.796852
  C       7.755046     -2.778050     -2.259019
  C       7.640291     -1.000809     -0.580579
  C       6.428464     -0.769207     -2.688275
  C       4.877513     -4.482509     -2.113092
  C       3.639444     -2.446257     -2.431576
  C       3.265216     -5.149124     -6.407679
  C       1.685842     -7.003165     -1.004990
  C      -0.039005     -7.852902     -2.443802
  C       2.052669     -8.304815     -0.667172
  C       0.325548     -9.154748     -2.111880
  C       1.373039     -9.386680     -1.220606
  H       2.080692     -6.320749     -4.206308
  H      -0.273574     -5.684004     -4.322171
  H       0.097792     -4.008209     -3.931771
  H       0.920222     -4.670221     -1.699758
  H       1.671845     -3.790546     -5.866656
  H       1.124177     -5.406675     -6.306116
  H       5.156296     -1.583544     -0.424520
  H       6.102007     -3.081761     -0.209755
  H       4.073233     -6.228968     -3.070945
  H       1.877044     -2.585089     -3.638582
  H      -1.315591     -5.208284     -0.723826
  H      -1.915294     -5.649171     -2.333131
  H      -1.434214     -3.976762     -1.997422
  H       8.076148     -3.477395     -1.484385
  H       8.619229     -2.273073     -2.695610
  H       7.196600     -3.300629     -3.037161
  H       7.951321     -1.710346      0.188795
  H       6.990550     -0.235153     -0.149781
  H       8.513351     -0.539543     -1.046047
  H       5.759264     -0.037457     -2.231735
  H       5.916643     -1.311356     -3.484521
  H       7.316974     -0.274473     -3.085809
  H       5.707169     -5.023480     -1.663863
  H       3.496382     -1.387283     -2.229845
  H       3.256792     -4.906293     -7.475610
  H       3.528150     -6.208878     -6.305968
  H       4.062501     -4.561641     -5.938481
  H       2.230214     -6.162834     -0.581345
  H      -0.858098     -7.687888     -3.140134
  H       2.872761     -8.471284      0.026864
  H      -0.210095     -9.993070     -2.549746
  H       1.655906    -10.403234     -0.961421
  F       2.479296     -1.889281      0.495238
  F       0.489959     -2.355533     -0.288106
  F       0.916501     -4.438432      0.978189
  F      -0.037405     -3.233267      2.529314
  F       0.964664     -0.679789      2.759532
  F      -0.753676     -0.889455      1.409900
  F       1.023547      0.315152     -0.613396
  F      -0.054231      1.424473      0.944875
  F       1.811226     -4.218557      3.859161
  F       2.912207     -2.496138      3.075250
  F       2.903971     -5.876292      2.107853
  F       4.436263     -4.609739      2.984231
  F       3.774264     -4.252305      0.941969
  O       4.298695      0.138508      1.769171
  O       3.955337      0.708052     -0.380390
  C       1.185233     -2.079617      0.838227
  C       0.596364     -0.766256      1.455679
  C       1.075435     -3.353884      1.773272
  C       1.007015      0.572848      0.732486
  C       2.294722     -3.647335      2.734404
  C       2.258806      1.272611      1.205790
  C       3.376098     -4.626057      2.164684
  C       3.617857      0.632572      0.830821
  H       2.175984      1.401943      2.287371
  H       2.217543      2.261997      0.736322
80
Coordinates from ORCA-job R4N+FHEA-_wb E -2667.277189779310
  N       6.862866     -1.745704     -1.629224
  C       1.838873     -5.241102     -4.278694
  C       0.415142     -5.043651     -3.739916
  C       0.242639     -5.341324     -2.244483
  C       2.863197     -4.488197     -3.459879
  C       1.908162     -4.851068     -5.762338
  C       5.666570     -2.394557     -0.945423
  C       4.726179     -3.112362     -1.864592
  C       0.635395     -6.759418     -1.890336
  C       3.954987     -5.147986     -2.903857
  C       2.726665     -3.121232     -3.217438
  C      -1.185407     -5.027731     -1.796361
  C       7.739317     -2.776422     -2.249259
  C       7.629645     -1.017393     -0.579165
  C       6.433689     -0.773998     -2.673533
  C       4.873466     -4.472879     -2.113119
  C       3.639063     -2.444967     -2.426466
  C       3.256990     -5.138558     -6.407332
  C       1.682706     -7.003434     -1.005514
  C      -0.036482     -7.853792     -2.436578
  C       2.050997     -8.300404     -0.668500
  C       0.328532     -9.151117     -2.105223
  C       1.374306     -9.380306     -1.218118
  H       2.086348     -6.305806     -4.204383
  H      -0.263865     -5.679331     -4.317474
  H       0.100503     -4.010705     -3.921365
  H       0.915945     -4.678512     -1.695020
  H       1.668150     -3.786878     -5.859626
  H       1.123213     -5.397538     -6.293861
  H       5.157841     -1.582987     -0.424715
  H       6.096707     -3.076146     -0.212283
  H       4.072581     -6.213012     -3.071462
  H       1.881137     -2.581053     -3.628731
  H      -1.311678     -5.209811     -0.726844
  H      -1.910693     -5.645766     -2.332051
  H      -1.426218     -3.980488     -1.993924
  H       8.053931     -3.476559     -1.478454
  H       8.603261     -2.274009     -2.678888
  H       7.184022     -3.291916     -3.028879
  H       7.933654     -1.728533      0.185690
  H       6.987362     -0.250915     -0.149584
  H       8.502819     -0.563281     -1.041852
  H       5.769498     -0.041674     -2.219913
  H       5.925091     -1.308487     -3.471235
  H       7.324194     -0.285894     -3.063281
  H       5.700841     -5.013109     -1.666297
  H       3.494748     -1.389706     -2.221965
  H       3.242250     -4.896120     -7.471924
  H       3.521396     -6.194926     -6.308490
  H       4.054737     -4.552148     -5.944571
  H       2.224849     -6.164366     -0.584011
  H      -0.853938     -7.691004     -3.130930
  H       2.869810     -8.464539      0.022848
  H      -0.205088     -9.988093     -2.540905
  H       1.658238    -10.393524     -0.959315
  F       2.479018     -1.904891      0.499016
  F       0.505273     -2.363934     -0.280025
  F       0.918518     -4.435478      0.981105
  F      -0.024726     -3.239285      2.521544
  F       0.975484     -0.686886      2.745500
  F      -0.730467     -0.901439      1.410378
  F       1.021896      0.290146     -0.615811
  F      -0.044748      1.391849      0.927903
  F       1.814021     -4.221844      3.843995
  F       2.905089     -2.509699      3.071750
  F       2.908901     -5.866180      2.099210
  F       4.427607     -4.608998      2.970788
  F       3.769447     -4.251961      0.945133
  O       4.309894      0.183405      1.748877
  O       3.959570      0.720495     -0.391512
  C       1.193568     -2.091229      0.839778
  C       0.610336     -0.778754      1.450480
  C       1.080700     -3.359057      1.770601
  C       1.013170      0.552065      0.719760
  C       2.294278     -3.652661      2.727765
  C       2.258055      1.269044      1.181384
  C       3.374156     -4.623981      2.158415
  C       3.620971      0.649506      0.812096
  H       2.177745      1.405850      2.257756
  H       2.203335      2.249736      0.705663
80
Coordinates from ORCA-job R4N+FHEA-_wb E -2667.277101488132
  N       6.864080     -1.746091     -1.630060
  C       1.838599     -5.239781     -4.277901
  C       0.416188     -5.044650     -3.738218
  C       0.240799     -5.343713     -2.244605
  C       2.863645     -4.486477     -3.459713
  C       1.905962     -4.852086     -5.760911
  C       5.671558     -2.394325     -0.950057
  C       4.728049     -3.112473     -1.867283
  C       0.633887     -6.761686     -1.889220
  C       3.954209     -5.146263     -2.904313
  C       2.728810     -3.120432     -3.217628
  C      -1.186479     -5.029250     -1.798233
  C       7.743172     -2.771154     -2.252036
  C       7.626118     -1.021062     -0.576899
  C       6.435155     -0.771677     -2.668986
  C       4.873417     -4.471964     -2.115326
  C       3.641827     -2.445115     -2.428052
  C       3.252192     -5.140286     -6.409199
  C       1.680527     -7.003978     -1.004845
  C      -0.036417     -7.856470     -2.433664
  C       2.049407     -8.299350     -0.666358
  C       0.328987     -9.152359     -2.101261
  C       1.374178     -9.379616     -1.214473
  H       2.087623     -6.303847     -4.203153
  H      -0.261989     -5.679345     -4.317467
  H       0.100456     -4.012034     -3.918581
  H       0.912638     -4.682010     -1.692465
  H       1.665903     -3.788287     -5.860158
  H       1.120131     -5.398466     -6.290593
  H       5.163324     -1.584991     -0.429054
  H       6.099934     -3.075558     -0.216434
  H       4.071096     -6.211332     -3.071454
  H       1.883494     -2.579423     -3.628156
  H      -1.313494     -5.209607     -0.728800
  H      -1.912467     -5.646806     -2.333121
  H      -1.426775     -3.982308     -1.996398
  H       8.057451     -3.474973     -1.484782
  H       8.607665     -2.266034     -2.676536
  H       7.192992     -3.284165     -3.036483
  H       7.932095     -1.733848      0.185277
  H       6.980980     -0.259311     -0.143645
  H       8.498338     -0.561114     -1.034975
  H       5.768581     -0.043081     -2.213534
  H       5.929467     -1.301804     -3.471144
  H       7.324355     -0.278924     -3.055043
  H       5.700305     -5.013247     -1.669146
  H       3.498003     -1.389845     -2.224230
  H       3.234891     -4.897822     -7.473449
  H       3.516400     -6.196595     -6.311729
  H       4.052037     -4.554894     -5.949235
  H       2.221324     -6.164209     -0.583225
  H      -0.853873     -7.695102     -3.128338
  H       2.867880     -8.461833      0.025620
  H      -0.204102     -9.989993     -2.536031
  H       1.658791    -10.392227     -0.954496
  F       2.481785     -1.901425      0.499074
  F       0.513326     -2.365164     -0.283386
  F       0.918162     -4.430780      0.982685
  F      -0.019258     -3.233485      2.521450
  F       0.958018     -0.685049      2.739090
  F      -0.732475     -0.899916      1.389795
  F       1.030465      0.300102     -0.617334
  F      -0.039129      1.397265      0.924854
  F       1.818889     -4.213065      3.841758
  F       2.908894     -2.505123      3.066693
  F       2.910668     -5.861257      2.100785
  F       4.428937     -4.605293      2.968266
  F       3.771467     -4.252087      0.945134
  O       4.289408      0.138423      1.745271
  O       3.951577      0.705268     -0.386659
  C       1.196924     -2.088930      0.835569
  C       0.605699     -0.777124      1.442903
  C       1.082644     -3.355513      1.769359
  C       1.013649      0.555434      0.716824
  C       2.298062     -3.647016      2.726084
  C       2.259149      1.265853      1.188855
  C       3.377187     -4.621327      2.157032
  C       3.622633      0.652195      0.819141
  H       2.175927      1.391629      2.266094
  H       2.206298      2.251062      0.723370
80
Coordinates from ORCA-job R4N+FHEA-_wb E -2667.277255794093
  N       6.868724     -1.748889     -1.628413
  C       1.836372     -5.233903     -4.275922
  C       0.415385     -5.043318     -3.734252
  C       0.237569     -5.346996     -2.243065
  C       2.862289     -4.481015     -3.457486
  C       1.900422     -4.846055     -5.757795
  C       5.677940     -2.393993     -0.952063
  C       4.729557     -3.110974     -1.866911
  C       0.633617     -6.764876     -1.888795
  C       3.951393     -5.142020     -2.903059
  C       2.729781     -3.115755     -3.214373
  C      -1.189812     -5.035147     -1.798219
  C       7.747861     -2.771543     -2.251810
  C       7.629498     -1.028019     -0.573157
  C       6.442965     -0.771631     -2.663770
  C       4.872004     -4.469569     -2.115368
  C       3.643994     -2.442401     -2.425422
  C       3.243382     -5.133911     -6.411439
  C       1.679642     -7.004982     -1.004377
  C      -0.032772     -7.860626     -2.433743
  C       2.051199     -8.298761     -0.665914
  C       0.335211     -9.155139     -2.101956
  C       1.379678     -9.379959     -1.214785
  H       2.087966     -6.297547     -4.202641
  H      -0.261769     -5.676475     -4.316516
  H       0.097411     -4.010730     -3.911372
  H       0.906755     -4.686102     -1.686583
  H       1.660045     -3.782275     -5.857274
  H       1.113012     -5.391587     -6.285929
  H       5.171080     -1.586124     -0.429976
  H       6.103008     -3.076065     -0.217723
  H       4.067009     -6.207280     -3.070534
  H       1.884673     -2.573021     -3.623478
  H      -1.317478     -5.215406     -0.728914
  H      -1.915453     -5.653037     -2.333222
  H      -1.431881     -3.988553     -1.995695
  H       8.060031     -3.479730     -1.487666
  H       8.614675     -2.266600     -2.671657
  H       7.201577     -3.281292     -3.040991
  H       7.935114     -1.742125      0.187950
  H       6.984884     -0.267399     -0.137501
  H       8.502727     -0.566260     -1.027467
  H       5.776059     -0.043924     -2.207983
  H       5.938677     -1.296826     -3.470135
  H       7.332407     -0.277084     -3.046930
  H       5.698190     -5.012946     -1.670200
  H       3.500978     -1.386966     -2.220502
  H       3.222274     -4.889557     -7.475107
  H       3.507626     -6.190517     -6.317529
  H       4.046072     -4.550259     -5.954314
  H       2.217384     -6.164063     -0.580895
  H      -0.850221     -7.701081     -3.129147
  H       2.869191     -8.459093      0.027292
  H      -0.195622     -9.993862     -2.537553
  H       1.666613    -10.392023     -0.954867
  F       2.480742     -1.900513      0.502678
  F       0.516569     -2.369328     -0.283605
  F       0.914772     -4.429212      0.987140
  F      -0.018398     -3.231543      2.525455
  F       0.944196     -0.680959      2.734186
  F      -0.739195     -0.903533      1.380107
  F       1.014997      0.298899     -0.623092
  F      -0.038637      1.401216      0.925324
  F       1.820352     -4.207719      3.843969
  F       2.907885     -2.501491      3.066900
  F       2.909545     -5.857919      2.105122
  F       4.427846     -4.603339      2.970561
  F       3.771634     -4.252535      0.948785
  O       4.298641      0.150442      1.735128
  O       3.960953      0.716966     -0.393880
  C       1.196050     -2.089661      0.834700
  C       0.596808     -0.778301      1.439001
  C       1.080492     -3.355266      1.772070
  C       1.004328      0.553230      0.708977
  C       2.298359     -3.643325      2.729019
  C       2.258564      1.253423      1.175730
  C       3.377860     -4.619904      2.159460
  C       3.614005      0.627799      0.803745
  H       2.180700      1.380935      2.253231
  H       2.212256      2.238313      0.708950
80
Coordinates from ORCA-job R4N+FHEA-_wb E -2667.277364588579
  N       6.867264     -1.745986     -1.627763
  C       1.836472     -5.237065     -4.276785
  C       0.414471     -5.043116     -3.736332
  C       0.237490     -5.345944     -2.244058
  C       2.861910     -4.484092     -3.458119
  C       1.902250     -4.848952     -5.759571
  C       5.673626     -2.392910     -0.949279
  C       4.728066     -3.110944     -1.865511
  C       0.633640     -6.764082     -1.891257
  C       3.952371     -5.144714     -2.902519
  C       2.727189     -3.117994     -3.214557
  C      -1.191313     -5.035699     -1.799446
  C       7.745694     -2.772523     -2.249125
  C       7.631544     -1.020932     -0.574968
  C       6.440549     -0.771396     -2.668239
  C       4.872451     -4.470716     -2.113602
  C       3.641164     -2.443082     -2.425059
  C       3.246661     -5.138439     -6.411031
  C       1.679583     -7.005692     -1.005381
  C      -0.032556     -7.859719     -2.439539
  C       2.051044     -8.300973     -0.668353
  C       0.335648     -9.155664     -2.109198
  C       1.379685     -9.382099     -1.220310
  H       2.086615     -6.301333     -4.202459
  H      -0.263851     -5.676082     -4.318042
  H       0.098335     -4.009783     -3.914201
  H       0.906840     -4.684044     -1.688070
  H       1.662952     -3.784640     -5.859036
  H       1.114735     -5.394223     -6.288590
  H       5.164589     -1.583508     -0.427190
  H       6.099220     -3.075072     -0.214285
  H       4.069022     -6.210025     -3.069712
  H       1.881503     -2.576336     -3.624084
  H      -1.319818     -5.217927     -0.730250
  H      -1.915918     -5.653722     -2.336198
  H      -1.433987     -3.988662     -1.995827
  H       8.058036     -3.477980     -1.482165
  H       8.612392     -2.269277     -2.672241
  H       7.196721     -3.284709     -3.035282
  H       7.936989     -1.732865      0.188635
  H       6.988373     -0.257273     -0.142034
  H       8.504966     -0.562476     -1.032902
  H       5.773883     -0.041567     -2.214673
  H       5.935354     -1.300663     -3.471702
  H       7.330296     -0.278783     -3.054117
  H       5.698957     -5.012995     -1.667368
  H       3.496848     -1.387876     -2.219707
  H       3.227398     -4.894649     -7.475204
  H       3.509946     -6.195446     -6.315751
  H       4.048900     -4.554795     -5.952689
  H       2.217284     -6.165354     -0.580522
  H      -0.849231     -7.699025     -3.135652
  H       2.868571     -8.462516      0.025286
  H      -0.194463     -9.993839     -2.547017
  H       1.666408    -10.394704     -0.961765
  F       2.481321     -1.908787      0.502345
  F       0.510175     -2.364034     -0.281120
  F       0.911649     -4.433936      0.985455
  F      -0.026653     -3.234436      2.523993
  F       0.974888     -0.683367      2.742151
  F      -0.728482     -0.900675      1.406460
  F       1.018803      0.290438     -0.618968
  F      -0.039087      1.392863      0.928827
  F       1.808920     -4.219160      3.846861
  F       2.898073     -2.507018      3.076876
  F       2.905366     -5.863493      2.106858
  F       4.423085     -4.606133      2.977218
  F       3.767540     -4.253531      0.951520
  O       4.317187      0.183803      1.732884
  O       3.959581      0.723036     -0.403451
  C       1.195819     -2.092251      0.838192
  C       0.610559     -0.778795      1.449334
  C       1.076208     -3.359240      1.773005
  C       1.012345      0.551365      0.714061
  C       2.290316     -3.649996      2.733171
  C       2.262132      1.265263      1.174106
  C       3.372238     -4.622957      2.163662
  C       3.624532      0.651193      0.800415
  H       2.186011      1.398496      2.251282
  H       2.204939      2.247613      0.702185
80
Coordinates from ORCA-job R4N+FHEA-_wb E -2667.277387123985
  N       6.868851     -1.746749     -1.628104
  C       1.835270     -5.235902     -4.276071
  C       0.413621     -5.042546     -3.734965
  C       0.236467     -5.346624     -2.243150
  C       2.861277     -4.483339     -3.457529
  C       1.900178     -4.847598     -5.758617
  C       5.676060     -2.393859     -0.950706
  C       4.729477     -3.111272     -1.866447
  C       0.633869     -6.764521     -1.890921
  C       3.951517     -5.144539     -2.902503
  C       2.727936     -3.117139     -3.214266
  C      -1.192531     -5.037879     -1.798644
  C       7.748257     -2.771951     -2.249777
  C       7.631599     -1.022159     -0.574285
  C       6.441613     -0.771599     -2.667448
  C       4.872590     -4.471063     -2.114442
  C       3.642887     -2.442680     -2.425554
  C       3.243620     -5.137779     -6.411473
  C       1.679813     -7.005289     -1.005025
  C      -0.030912     -7.860625     -2.439682
  C       2.052621     -8.300170     -0.668354
  C       0.338499     -9.156200     -2.109671
  C       1.382499     -9.381767     -1.220660
  H       2.085744     -6.300050     -4.202153
  H      -0.264762     -5.674872     -4.317212
  H       0.097226     -4.009202     -3.911959
  H       0.905020     -4.684882     -1.686267
  H       1.661404     -3.783214     -5.858035
  H       1.111962     -5.392208     -6.287150
  H       5.167039     -1.585193     -0.428377
  H       6.100792     -3.076306     -0.215589
  H       4.067412     -6.209916     -3.069467
  H       1.882601     -2.574819     -3.623518
  H      -1.320866     -5.219773     -0.729414
  H      -1.916659     -5.656717     -2.334988
  H      -1.436514     -3.991261     -1.995291
  H       8.060318     -3.478233     -1.483551
  H       8.615146     -2.267996     -2.671463
  H       7.200623     -3.283568     -3.037126
  H       7.938244     -1.734677      0.188205
  H       6.986979     -0.260443     -0.139858
  H       8.504251     -0.561393     -1.031171
  H       5.773757     -0.043098     -2.213417
  H       5.937520     -1.300298     -3.471914
  H       7.330742     -0.277309     -3.052404
  H       5.698798     -5.014052     -1.668620
  H       3.499381     -1.387325     -2.220726
  H       3.223513     -4.893317     -7.475425
  H       3.506248     -6.194992     -6.317271
  H       4.046908     -4.555150     -5.953813
  H       2.216393     -6.164529     -0.579738
  H      -0.847598     -7.700607     -3.135888
  H       2.870128     -8.460946      0.025404
  H      -0.190617     -9.994735     -2.547879
  H       1.670190    -10.394105     -0.962338
  F       2.482032     -1.904492      0.504390
  F       0.514252     -2.365372     -0.282595
  F       0.911746     -4.431174      0.987373
  F      -0.024912     -3.230929      2.525616
  F       0.959951     -0.680435      2.739265
  F      -0.733465     -0.899726      1.392399
  F       1.020798      0.295489     -0.621097
  F      -0.037368      1.398560      0.925969
  F       1.810680     -4.214432      3.847971
  F       2.901264     -2.504814      3.075515
  F       2.904250     -5.861992      2.109534
  F       4.423238     -4.605245      2.978195
  F       3.767803     -4.254128      0.952946
  O       4.311237      0.166319      1.730847
  O       3.957482      0.717719     -0.402873
  C       1.196223     -2.089928      0.837605
  C       0.605009     -0.776805      1.444402
  C       1.077094     -3.356241      1.773921
  C       1.011244      0.553789      0.711998
  C       2.291861     -3.647107      2.733572
  C       2.262779      1.261653      1.176194
  C       3.372428     -4.622066      2.164979
  C       3.622798      0.644579      0.800893
  H       2.186148      1.390462      2.253791
  H       2.209264      2.246131      0.708403
80
Coordinates from ORCA-job R4N+FHEA-_wb E -2667.277398360492
  N       6.870114     -1.747308     -1.628092
  C       1.833858     -5.235004     -4.275451
  C       0.412526     -5.041978     -3.733796
  C       0.234989     -5.347650     -2.242524
  C       2.860370     -4.482650     -3.457142
  C       1.897875     -4.846713     -5.757860
  C       5.677424     -2.394099     -0.951856
  C       4.730138     -3.111200     -1.867311
  C       0.634498     -6.765284     -1.891315
  C       3.950444     -5.144234     -2.902392
  C       2.727915     -3.116416     -3.213998
  C      -1.194727     -5.041611     -1.798795
  C       7.749983     -2.772211     -2.249272
  C       7.632075     -1.023023     -0.573732
  C       6.443466     -0.771991     -2.667287
  C       4.872225     -4.471063     -2.114936
  C       3.643617     -2.442255     -2.425960
  C       3.240222     -5.138094     -6.412208
  C       1.679994     -7.005014     -1.004724
  C      -0.027534     -7.862009     -2.441905
  C       2.054915     -8.299436     -0.668914
  C       0.344105     -9.157163     -2.112995
  C       1.387633     -9.381669     -1.223245
  H       2.084632     -6.299087     -4.201721
  H      -0.266002     -5.673454     -4.316810
  H       0.096103     -4.008466     -3.909736
  H       0.902008     -4.685460     -1.684330
  H       1.659901     -3.782170     -5.857369
  H       1.108737     -5.390570     -6.285767
  H       5.168227     -1.585858     -0.429361
  H       6.100921     -3.076835     -0.216317
  H       4.065833     -6.209705     -3.069068
  H       1.882678     -2.573648     -3.622870
  H      -1.323477     -5.223864     -0.729696
  H      -1.917636     -5.661507     -2.335537
  H      -1.440607     -3.995410     -1.995274
  H       8.061001     -3.479120     -1.483214
  H       8.617593     -2.268385     -2.669591
  H       7.203485     -3.283341     -3.037666
  H       7.939061     -1.735798      0.188380
  H       6.986911     -0.262092     -0.138746
  H       8.504560     -0.561348     -1.029964
  H       5.774823     -0.043974     -2.213635
  H       5.940390     -1.300399     -3.472573
  H       7.332568     -0.276987     -3.051339
  H       5.698123     -5.014590     -1.669215
  H       3.500514     -1.386823     -2.221304
  H       3.219246     -4.893066     -7.476002
  H       3.501880     -6.195620     -6.318971
  H       4.044788     -4.556634     -5.955368
  H       2.214541     -6.163660     -0.578078
  H      -0.843794     -7.702846     -3.138814
  H       2.871975     -8.459246      0.025588
  H      -0.182893     -9.996217     -2.552733
  H       1.677012    -10.393733     -0.965753
  F       2.482336     -1.904411      0.506110
  F       0.515255     -2.364107     -0.283179
  F       0.909431     -4.429734      0.988683
  F      -0.027214     -3.227857      2.525436
  F       0.959548     -0.679647      2.738867
  F      -0.733425     -0.897899      1.391411
  F       1.019700      0.297933     -0.620852
  F      -0.034633      1.401012      0.928679
  F       1.806683     -4.210933      3.849629
  F       2.897537     -2.501935      3.076554
  F       2.901040     -5.860234      2.114022
  F       4.419890     -4.603007      2.981894
  F       3.765577     -4.254291      0.956137
  O       4.313964      0.162936      1.725398
  O       3.956180      0.716175     -0.406946
  C       1.196080     -2.088867      0.837572
  C       0.605009     -0.775626      1.444139
  C       1.074960     -3.354585      1.774480
  C       1.012078      0.554903      0.712218
  C       2.288835     -3.644668      2.735267
  C       2.265466      1.260069      1.175933
  C       3.369601     -4.620498      2.168229
  C       3.623841      0.642247      0.797346
  H       2.190763      1.386872      2.253892
  H       2.212507      2.245517      0.710150
80
Coordinates from ORCA-job R4N+FHEA-_wb E -2667.277414493451
  N       6.873579     -1.748614     -1.627546
  C       1.829816     -5.232304     -4.274353
  C       0.409246     -5.040605     -3.730572
  C       0.231564     -5.350985     -2.240379
  C       2.857713     -4.480951     -3.456482
  C       1.890912     -4.842131     -5.756199
  C       5.680274     -2.395082     -0.954088
  C       4.731758     -3.111054     -1.869566
  C       0.636776     -6.767893     -1.892370
  C       3.947681     -5.143626     -2.902673
  C       2.727243     -3.114563     -3.213157
  C      -1.200264     -5.052928     -1.798204
  C       7.754359     -2.773589     -2.247170
  C       7.634112     -1.024790     -0.571866
  C       6.448762     -0.773149     -2.667349
  C       4.871450     -4.471229     -2.116687
  C       3.645222     -2.441040     -2.427044
  C       3.230721     -5.135069     -6.414830
  C       1.680697     -7.005234     -1.003294
  C      -0.018146     -7.866204     -2.448206
  C       2.061262     -8.298754     -0.670333
  C       0.359013     -9.160507     -2.122133
  C       1.401094     -9.382586     -1.230057
  H       2.081377     -6.296300     -4.202351
  H      -0.269896     -5.669783     -4.315425
  H       0.092623     -4.006559     -3.903218
  H       0.894678     -4.687537     -1.678925
  H       1.654387     -3.777141     -5.854406
  H       1.099583     -5.383984     -6.282935
  H       5.170400     -1.587728     -0.430689
  H       6.100923     -3.078921     -0.217825
  H       4.061905     -6.209281     -3.068968
  H       1.882159     -2.570679     -3.620930
  H      -1.329753     -5.236187     -0.729352
  H      -1.919420     -5.676409     -2.335854
  H      -1.452040     -4.008085     -1.994588
  H       8.062468     -3.481689     -1.481026
  H       8.623840     -2.270442     -2.664467
  H       7.210006     -3.283632     -3.037709
  H       7.941857     -1.738249      0.189330
  H       6.987766     -0.265565     -0.135645
  H       8.506171     -0.561233     -1.026976
  H       5.778490     -0.045783     -2.215083
  H       5.947945     -1.301474     -3.474149
  H       7.338207     -0.277182     -3.049384
  H       5.696874     -5.016036     -1.671599
  H       3.503335     -1.385342     -2.222918
  H       3.207216     -4.887612     -7.478039
  H       3.490580     -6.193332     -6.324949
  H       4.038107     -4.556359     -5.959540
  H       2.209476     -6.162423     -0.572364
  H      -0.833074     -7.709072     -3.147151
  H       2.877024     -8.456368      0.026184
  H      -0.162403    -10.000775     -2.566195
  H       1.694777    -10.394015     -0.974910
  F       2.483018     -1.904413      0.511729
  F       0.518217     -2.362137     -0.283626
  F       0.903145     -4.426525      0.994020
  F      -0.034217     -3.220069      2.526574
  F       0.955670     -0.674532      2.737729
  F      -0.733858     -0.891578      1.385398
  F       1.019065      0.301610     -0.622609
  F      -0.027211      1.407406      0.930416
  F       1.795100     -4.204862      3.856276
  F       2.888793     -2.497532      3.083772
  F       2.891692     -5.857742      2.127942
  F       4.410674     -4.599276      2.994158
  F       3.759088     -4.256140      0.966586
  O       4.324997      0.160827      1.709606
  O       3.953568      0.712734     -0.420654
  C       1.195501     -2.086424      0.839082
  C       0.604811     -0.771553      1.442302
  C       1.069237     -3.350392      1.778049
  C       1.015662      0.557575      0.710388
  C       2.280397     -3.640344      2.742307
  C       2.273078      1.257365      1.172493
  C       3.361379     -4.618194      2.179173
  C       3.628380      0.638698      0.785629
  H       2.202961      1.379950      2.251225
  H       2.220660      2.244988      0.711162
80
Coordinates from ORCA-job R4N+FHEA-_wb E -2667.277424291857
  N       6.875917     -1.750550     -1.627302
  C       1.825902     -5.230368     -4.273520
  C       0.406076     -5.039121     -3.727744
  C       0.229288     -5.353050     -2.238204
  C       2.855123     -4.479890     -3.456571
  C       1.884473     -4.838663     -5.755111
  C       5.681504     -2.396765     -0.955784
  C       4.732654     -3.111372     -1.871984
  C       0.639821     -6.769134     -1.893106
  C       3.945161     -5.143505     -2.903824
  C       2.726398     -3.113238     -3.213338
  C      -1.204373     -5.062212     -1.796842
  C       7.757221     -2.776291     -2.245245
  C       7.635297     -1.026777     -0.570557
  C       6.452857     -0.775376     -2.668308
  C       4.870540     -4.471834     -2.118933
  C       3.646191     -2.440333     -2.428655
  C       3.222541     -5.132593     -6.416823
  C       1.682222     -7.004342     -1.001621
  C      -0.008108     -7.868708     -2.454675
  C       2.068546     -8.297133     -0.672205
  C       0.374833     -9.162272     -2.132169
  C       1.415471     -9.382284     -1.237799
  H       2.077619     -6.294444     -4.202900
  H      -0.273983     -5.666655     -4.313364
  H       0.089708     -4.004567     -3.897810
  H       0.889399     -4.688071     -1.674922
  H       1.649002     -3.773310     -5.851917
  H       1.091491     -5.379148     -6.280817
  H       5.171294     -1.589749     -0.431777
  H       6.100426     -3.081660     -0.219413
  H       4.058389     -6.209291     -3.070043
  H       1.881479     -2.568476     -3.620300
  H      -1.333974     -5.246152     -0.728117
  H      -1.919838     -5.689551     -2.334960
  H      -1.461770     -4.018800     -1.993681
  H       8.063123     -3.484594     -1.478396
  H       8.627963     -2.273876     -2.660864
  H       7.213866     -3.285938     -3.036723
  H       7.943077     -1.740721      0.190204
  H       6.988036     -0.268491     -0.134001
  H       8.507245     -0.562325     -1.024973
  H       5.781684     -0.047943     -2.217447
  H       5.953561     -1.304238     -3.475701
  H       7.342988     -0.279531     -3.048927
  H       5.695817     -5.017530     -1.674649
  H       3.505613     -1.384364     -2.225090
  H       3.197249     -4.883404     -7.479619
  H       3.481059     -6.191374     -6.329170
  H       4.031735     -4.555726     -5.962418
  H       2.205459     -6.160229     -0.566433
  H      -0.821697     -7.713240     -3.155546
  H       2.883156     -8.453018      0.026045
  H      -0.140980    -10.003582     -2.580797
  H       1.713565    -10.393146     -0.985526
  F       2.482935     -1.904083      0.517184
  F       0.519642     -2.360230     -0.282962
  F       0.897671     -4.423360      0.999691
  F      -0.041298     -3.212480      2.528069
  F       0.951691     -0.669135      2.737509
  F      -0.734647     -0.884952      1.380417
  F       1.017843      0.305234     -0.623794
  F      -0.020417      1.414015      0.932702
  F       1.783619     -4.198372      3.863417
  F       2.881130     -2.493286      3.090998
  F       2.882334     -5.855527      2.142037
  F       4.401687     -4.595931      3.006495
  F       3.752512     -4.258019      0.977054
  O       4.334120      0.157336      1.696158
  O       3.951607      0.708403     -0.432516
  C       1.194181     -2.083795      0.841368
  C       0.604316     -0.767169      1.441092
  C       1.063780     -3.345941      1.782152
  C       1.019141      0.560491      0.709414
  C       2.272245     -3.636034      2.749571
  C       2.280111      1.255245      1.169654
  C       3.353131     -4.616092      2.190388
  C       3.632742      0.635004      0.775561
  H       2.214038      1.374251      2.249049
  H       2.228806      2.244762      0.712172
80
Coordinates from ORCA-job R4N+FHEA-_wb E -2667.277428148872
  N       6.876398     -1.751140     -1.627418
  C       1.824745     -5.229673     -4.274101
  C       0.405257     -5.039119     -3.727023
  C       0.229446     -5.354153     -2.237399
  C       2.854343     -4.479625     -3.457412
  C       1.882015     -4.836501     -5.755511
  C       5.681222     -2.397596     -0.956501
  C       4.732711     -3.111506     -1.873527
  C       0.641511     -6.769981     -1.893131
  C       3.944620     -5.143413     -2.905355
  C       2.725872     -3.112956     -3.214031
  C      -1.204747     -5.065687     -1.795933
  C       7.758094     -2.777120     -2.244671
  C       7.635093     -1.027388     -0.570082
  C       6.454300     -0.776156     -2.669098
  C       4.870448     -4.471953     -2.120843
  C       3.646116     -2.440255     -2.429764
  C       3.219865     -5.129306     -6.418289
  C       1.682321     -7.004998     -0.999598
  C      -0.003788     -7.869688     -2.457639
  C       2.069846     -8.297807     -0.671579
  C       0.380382     -9.163182     -2.136319
  C       1.419652     -9.383036     -1.240343
  H       2.076581     -6.293771     -4.204802
  H      -0.275085     -5.666310     -4.312648
  H       0.088752     -4.004443     -3.895998
  H       0.888887     -4.688507     -1.674095
  H       1.646098     -3.771120     -5.850867
  H       1.088875     -5.376904     -6.281055
  H       5.171196     -1.590656     -0.432078
  H       6.100318     -3.083082     -0.220762
  H       4.057716     -6.209160     -3.071950
  H       1.880863     -2.568078     -3.620655
  H      -1.333953     -5.249358     -0.727114
  H      -1.918662     -5.695037     -2.333774
  H      -1.464396     -4.023005     -1.993625
  H       8.063574     -3.485071     -1.477323
  H       8.628908     -2.274622     -2.660037
  H       7.214878     -3.286934     -3.036139
  H       7.942450     -1.741570      0.190623
  H       6.987426     -0.269309     -0.133818
  H       8.507199     -0.562826     -1.024098
  H       5.783282     -0.048253     -2.218859
  H       5.955176     -1.305363     -3.476373
  H       7.345048     -0.281086     -3.049311
  H       5.696169     -5.017651     -1.677357
  H       3.506041     -1.384178     -2.226321
  H       3.193851     -4.879308     -7.480873
  H       3.478799     -6.188055     -6.331476
  H       4.028933     -4.552363     -5.963753
  H       2.203299     -6.160787     -0.561803
  H      -0.816156     -7.714339     -3.159943
  H       2.883274     -8.453718      0.028053
  H      -0.133294    -10.004587     -2.587220
  H       1.718858    -10.393851     -0.989192
  F       2.482767     -1.904730      0.519890
  F       0.519908     -2.360335     -0.281536
  F       0.895608     -4.422559      1.003764
  F      -0.044413     -3.209107      2.529502
  F       0.950093     -0.666293      2.737755
  F      -0.734657     -0.882095      1.378496
  F       1.017001      0.305342     -0.624555
  F      -0.017314      1.416246      0.933133
  F       1.778546     -4.194849      3.868054
  F       2.878520     -2.491595      3.094949
  F       2.878214     -5.854900      2.150156
  F       4.397710     -4.594656      3.013348
  F       3.749522     -4.259425      0.983097
  O       4.338335      0.156775      1.690528
  O       3.951403      0.705524     -0.437988
  C       1.193539     -2.083241      0.843210
  C       0.604343     -0.765470      1.440796
  C       1.061570     -3.344131      1.785090
  C       1.020984      0.561123      0.708665
  C       2.268796     -3.634164      2.754048
  C       2.283250      1.254406      1.167228
  C       3.349461     -4.615559      2.196897
  C       3.635169      0.633478      0.770796
  H       2.218855      1.372787      2.246793
  H       2.232397      2.244346      0.710605
80
Coordinates from ORCA-job R4N+FHEA-_wb E -2667.277433164161
  N       6.875954     -1.753836     -1.627387
  C       1.822551     -5.228641     -4.276037
  C       0.403341     -5.039806     -3.727267
  C       0.229913     -5.355398     -2.237313
  C       2.852493     -4.479435     -3.459216
  C       1.878420     -4.832886     -5.757003
  C       5.679526     -2.399951     -0.956928
  C       4.731499     -3.112642     -1.875184
  C       0.644847     -6.770436     -1.893153
  C       3.942629     -5.143851     -2.907704
  C       2.724654     -3.112703     -3.215644
  C      -1.204405     -5.069565     -1.794178
  C       7.757671     -2.780488     -2.243718
  C       7.633915     -1.030250     -0.569336
  C       6.455425     -0.778986     -2.669885
  C       4.868883     -4.473058     -2.123174
  C       3.645208     -2.440685     -2.431240
  C       3.216613     -5.122617     -6.420614
  C       1.685085     -7.003556     -0.998443
  C       0.002491     -7.871349     -2.458783
  C       2.076140     -8.295685     -0.671905
  C       0.390041     -9.164101     -2.138623
  C       1.429526     -9.382050     -1.242451
  H       2.074671     -6.292803     -4.208969
  H      -0.276961     -5.667584     -4.312224
  H       0.085813     -4.005290     -3.895273
  H       0.889021     -4.688342     -1.675273
  H       1.641000     -3.767642     -5.849937
  H       1.085765     -5.373612     -6.282893
  H       5.170380     -1.592587     -0.432461
  H       6.099151     -3.086041     -0.222080
  H       4.055236     -6.209542     -3.075034
  H       1.879943     -2.567405     -3.622312
  H      -1.331851     -5.252981     -0.725120
  H      -1.917010     -5.701264     -2.330999
  H      -1.466654     -4.027661     -1.992459
  H       8.062936     -3.487698     -1.475623
  H       8.628409     -2.278112     -2.659351
  H       7.214182     -3.290707     -3.034768
  H       7.939824     -1.744524      0.191832
  H       6.986162     -0.271622     -0.134170
  H       8.506829     -0.566452     -1.022622
  H       5.785292     -0.049909     -2.220281
  H       5.955834     -1.308320     -3.476782
  H       7.347174     -0.285592     -3.049915
  H       5.695054     -5.018921     -1.680716
  H       3.506189     -1.384427     -2.227870
  H       3.189872     -4.871571     -7.482913
  H       3.477191     -6.181032     -6.334738
  H       4.024573     -4.544665     -5.965360
  H       2.202921     -6.158408     -0.558780
  H      -0.809681     -7.717499     -3.161605
  H       2.889473     -8.450354      0.028105
  H      -0.120976    -10.006487     -2.590731
  H       1.731612    -10.392296     -0.992471
  F       2.481609     -1.905353      0.522022
  F       0.518960     -2.360240     -0.280289
  F       0.893845     -4.421108      1.008029
  F      -0.049159     -3.205170      2.530073
  F       0.946473     -0.662920      2.737538
  F      -0.735383     -0.877241      1.374411
  F       1.017710      0.306687     -0.625549
  F      -0.012401      1.420397      0.933107
  F       1.771396     -4.188256      3.873804
  F       2.875042     -2.488256      3.098585
  F       2.871233     -5.853284      2.160246
  F       4.391559     -4.593139      3.022027
  F       3.744831     -4.260941      0.990708
  O       4.342666      0.154015      1.686903
  O       3.953056      0.700429     -0.441784
  C       1.191864     -2.082146      0.844653
  C       0.603566     -0.762794      1.439645
  C       1.058307     -3.341337      1.788044
  C       1.023870      0.562628      0.707771
  C       2.263840     -3.630613      2.759305
  C       2.287768      1.253125      1.165274
  C       3.343795     -4.614434      2.205082
  C       3.638742      0.630148      0.767480
  H       2.224482      1.371004      2.244965
  H       2.238772      2.243506      0.709442
80
Coordinates from ORCA-job R4N+FHEA-_wb E -2667.277431868541
  N       6.875014     -1.755114     -1.627587
  C       1.822151     -5.228522     -4.277612
  C       0.403156     -5.040628     -3.727979
  C       0.231054     -5.355723     -2.237793
  C       2.852097     -4.479515     -3.460709
  C       1.877251     -4.831499     -5.758290
  C       5.678288     -2.401095     -0.957012
  C       4.730455     -3.113323     -1.875684
  C       0.646883     -6.770342     -1.893337
  C       3.942222     -5.144043     -2.909405
  C       2.724103     -3.112868     -3.216781
  C      -1.203005     -5.070364     -1.793463
  C       7.756543     -2.781868     -2.243945
  C       7.632901     -1.031724     -0.569430
  C       6.454840     -0.780149     -2.670069
  C       4.868211     -4.473561     -2.124365
  C       3.644330     -2.441148     -2.431784
  C       3.215756     -5.119113     -6.422218
  C       1.686515     -7.002734     -0.997808
  C       0.005724     -7.871702     -2.459433
  C       2.077914     -8.294602     -0.670785
  C       0.393445     -9.164202     -2.138595
  C       1.432293     -9.381435     -1.241542
  H       2.074588     -6.292691     -4.211577
  H      -0.277024     -5.669172     -4.312239
  H       0.084819     -4.006363     -3.895966
  H       0.890420     -4.688067     -1.676781
  H       1.638627     -3.766431     -5.850104
  H       1.085077     -5.372657     -6.284427
  H       5.169709     -1.593334     -0.432498
  H       6.098441     -3.087376     -0.222686
  H       4.054882     -6.209616     -3.077341
  H       1.879469     -2.567543     -3.623572
  H      -1.329275     -5.253655     -0.724252
  H      -1.915642     -5.702605     -2.329591
  H      -1.465808     -4.028623     -1.991733
  H       8.062429     -3.488673     -1.475729
  H       8.626903     -2.279439     -2.660293
  H       7.212682     -3.292470     -3.034496
  H       7.938048     -1.745939      0.192091
  H       6.985374     -0.272560     -0.134827
  H       8.506314     -0.568530     -1.022378
  H       5.785549     -0.050410     -2.220328
  H       5.954434     -1.309195     -3.476644
  H       7.346864     -0.287600     -3.050543
  H       5.694653     -5.019373     -1.682356
  H       3.505544     -1.384918     -2.228196
  H       3.188586     -4.867713     -7.484409
  H       3.477691     -6.177217     -6.336674
  H       4.022877     -4.540262     -5.966628
  H       2.203292     -6.157296     -0.557451
  H      -0.806032     -7.718370     -3.162869
  H       2.890704     -8.448870      0.029939
  H      -0.116880    -10.006933     -2.590828
  H       1.734789    -10.391457     -0.991174
  F       2.480814     -1.905920      0.521947
  F       0.517950     -2.360528     -0.279908
  F       0.893391     -4.420828      1.009874
  F      -0.051151     -3.203779      2.529935
  F       0.944508     -0.662279      2.737203
  F      -0.735857     -0.875419      1.372190
  F       1.019124      0.307174     -0.625841
  F      -0.010086      1.421883      0.932804
  F       1.768943     -4.184174      3.876593
  F       2.873862     -2.486133      3.099145
  F       2.868830     -5.852348      2.165237
  F       4.389333     -4.591826      3.025914
  F       3.743198     -4.261563      0.994110
  O       4.343763      0.151712      1.687854
  O       3.954960      0.697612     -0.441094
  C       1.191008     -2.081963      0.844764
  C       0.602995     -0.762077      1.438921
  C       1.056967     -3.340333      1.789071
  C       1.025239      0.562944      0.707511
  C       2.262036     -3.628592      2.761473
  C       2.289726      1.251965      1.165363
  C       3.341807     -4.613678      2.208801
  C       3.640391      0.627913      0.768079
  H       2.226262      1.369785      2.245064
  H       2.241972      2.242463      0.709686
80
Coordinates from ORCA-job R4N+FHEA-_wb E -2667.277434593981
  N       6.873091     -1.753927     -1.628568
  C       1.824211     -5.229733     -4.279403
  C       0.405273     -5.041030     -3.729982
  C       0.233607     -5.354187     -2.239445
  C       2.853823     -4.480276     -3.462643
  C       1.879911     -4.833742     -5.760282
  C       5.677138     -2.400790     -0.957108
  C       4.729742     -3.113548     -1.875674
  C       0.647125     -6.769128     -1.893891
  C       3.944190     -5.144237     -2.911290
  C       2.724458     -3.113889     -3.218133
  C      -1.199473     -5.065771     -1.794028
  C       7.754902     -2.779773     -2.245801
  C       7.630983     -1.030136     -0.570845
  C       6.451637     -0.778957     -2.670419
  C       4.869118     -4.473446     -2.125318
  C       3.643370     -2.441921     -2.431877
  C       3.219069     -5.120929     -6.423075
  C       1.685719     -7.002763     -0.997541
  C       0.004343     -7.869695     -2.459545
  C       2.073412     -8.295144     -0.668251
  C       0.388158     -9.162724     -2.136336
  C       1.425412     -9.381231     -1.237761
  H       2.076338     -6.293937     -4.212549
  H      -0.275113     -5.670267     -4.313249
  H       0.087154     -4.006868     -3.899036
  H       0.894644     -4.687133     -1.679730
  H       1.640664     -3.768884     -5.852906
  H       1.088325     -5.375660     -6.286506
  H       5.168667     -1.592960     -0.432640
  H       6.098648     -3.086648     -0.223230
  H       4.057685     -6.209601     -3.079920
  H       1.879489     -2.569214     -3.625099
  H      -1.324895     -5.248366     -0.724608
  H      -1.913880     -5.696788     -2.329236
  H      -1.460197     -4.023556     -1.992417
  H       8.062875     -3.486010     -1.477893
  H       8.624069     -2.276456     -2.663560
  H       7.210668     -3.291259     -3.035540
  H       7.935971     -1.743800      0.191254
  H       6.983565     -0.270491     -0.136874
  H       8.504583     -0.567274     -1.023772
  H       5.782957     -0.049172     -2.219862
  H       5.950165     -1.307747     -3.476494
  H       7.343121     -0.286326     -3.052043
  H       5.696068     -5.018654     -1.683529
  H       3.503672     -1.385982     -2.227490
  H       3.192358     -4.870965     -7.485601
  H       3.481892     -6.178686     -6.335942
  H       4.025332     -4.540806     -5.967566
  H       2.204090     -6.158009     -0.557543
  H      -0.806436     -7.715286     -3.163896
  H       2.885154     -8.450600      0.033411
  H      -0.123941    -10.004799     -2.587771
  H       1.725079    -10.391612     -0.985459
  F       2.480380     -1.907368      0.520746
  F       0.516689     -2.362218     -0.278749
  F       0.894886     -4.422663      1.010942
  F      -0.050071     -3.205806      2.530545
  F       0.944745     -0.664454      2.738147
  F      -0.735819     -0.877280      1.373608
  F       1.020101      0.305670     -0.624535
  F      -0.010624      1.419995      0.933482
  F       1.771353     -4.183035      3.877951
  F       2.875675     -2.486007      3.097894
  F       2.871066     -5.852894      2.166569
  F       4.391158     -4.591630      3.026584
  F       3.744839     -4.262155      0.994812
  O       4.341899      0.149902      1.692989
  O       3.956492      0.695938     -0.436503
  C       1.191022     -2.083528      0.845044
  C       0.602905     -0.763864      1.439993
  C       1.057971     -3.341824      1.789678
  C       1.024942      0.561381      0.708789
  C       2.263695     -3.628797      2.761997
  C       2.289016      1.250629      1.167400
  C       3.343627     -4.614134      2.209609
  C       3.640068      0.626310      0.772179
  H       2.224526      1.369251      2.246972
  H       2.241703      2.240756      0.710878
80
Coordinates from ORCA-job R4N+FHEA-_wb E -2667.277436962889
  N       6.872855     -1.753637     -1.628678
  C       1.824545     -5.229547     -4.280155
  C       0.405670     -5.040828     -3.730512
  C       0.234300     -5.353960     -2.239923
  C       2.854182     -4.480197     -3.463250
  C       1.880097     -4.833575     -5.760988
  C       5.677221     -2.400880     -0.957186
  C       4.729734     -3.113818     -1.875542
  C       0.647301     -6.769047     -1.894243
  C       3.944523     -5.144257     -2.911938
  C       2.724704     -3.113899     -3.218382
  C      -1.198391     -5.064842     -1.793800
  C       7.755024     -2.779058     -2.245998
  C       7.630511     -1.029523     -0.571035
  C       6.450980     -0.778808     -2.670460
  C       4.869297     -4.473623     -2.125609
  C       3.643344     -2.442132     -2.431661
  C       3.219259     -5.120403     -6.423906
  C       1.685487     -7.002917     -0.997460
  C       0.003956     -7.869485     -2.459530
  C       2.072159     -8.295392     -0.667326
  C       0.387040     -9.162623     -2.135795
  C       1.423760     -9.381347     -1.236641
  H       2.076788     -6.293714     -4.213284
  H      -0.274829     -5.669993     -4.313731
  H       0.087442     -4.006703     -3.899562
  H       0.895760     -4.687273     -1.680257
  H       1.640535     -3.768784     -5.853750
  H       1.088621     -5.375654     -6.287236
  H       5.168564     -1.593185     -0.432707
  H       6.098735     -3.086641     -0.223197
  H       4.058080     -6.209587     -3.080818
  H       1.879728     -2.569181     -3.625260
  H      -1.323315     -5.247448     -0.724307
  H      -1.913594     -5.695276     -2.328636
  H      -1.458578     -4.022405     -1.991830
  H       8.063389     -3.485251     -1.478202
  H       8.624013     -2.275469     -2.663831
  H       7.211047     -3.290800     -3.035763
  H       7.935532     -1.742905      0.191329
  H       6.982961     -0.269840     -0.137317
  H       8.504136     -0.566619     -1.023875
  H       5.781971     -0.049297     -2.219928
  H       5.949744     -1.307677     -3.476638
  H       7.342181     -0.285714     -3.052158
  H       5.696176     -5.018963     -1.683850
  H       3.503314     -1.386347     -2.226742
  H       3.192393     -4.870403     -7.486423
  H       3.482425     -6.178088     -6.336913
  H       4.025490     -4.540136     -5.968490
  H       2.204335     -6.158345     -0.557686
  H      -0.806485     -7.714911     -3.164231
  H       2.883557     -8.451004      0.034718
  H      -0.125331    -10.004571     -2.587144
  H       1.722609    -10.391784     -0.983599
  F       2.480487     -1.908295      0.520735
  F       0.516801     -2.363540     -0.278416
  F       0.895369     -4.423537      1.012062
  F      -0.049853     -3.206267      2.531194
  F       0.944900     -0.664582      2.737843
  F      -0.735713     -0.878093      1.373449
  F       1.020965      0.304129     -0.625196
  F      -0.010729      1.418963      0.931738
  F       1.771671     -4.182280      3.879164
  F       2.875888     -2.485664      3.097967
  F       2.870998     -5.853030      2.168151
  F       4.391189     -4.591690      3.028054
  F       3.745142     -4.262722      0.996105
  O       4.341438      0.149308      1.693651
  O       3.957280      0.695528     -0.435989
  C       1.191230     -2.084387      0.845233
  C       0.603043     -0.764537      1.439797
  C       1.058215     -3.342384      1.790378
  C       1.025001      0.560421      0.707977
  C       2.263928     -3.628687      2.762852
  C       2.288850      1.250005      1.167002
  C       3.343739     -4.614307      2.210919
  C       3.640079      0.625836      0.772527
  H       2.223896      1.368961      2.246495
  H       2.241465      2.239997      0.710155
80
Coordinates from ORCA-job R4N+FHEA-_wb E -2667.277436659420
  N       6.872817     -1.753344     -1.628747
  C       1.824325     -5.228643     -4.281963
  C       0.405752     -5.039715     -3.731538
  C       0.235143     -5.353288     -2.240991
  C       2.854452     -4.479924     -3.464822
  C       1.879239     -4.832565     -5.762615
  C       5.677844     -2.401637     -0.957801
  C       4.729898     -3.114762     -1.875754
  C       0.647616     -6.768623     -1.895224
  C       3.944937     -5.144410     -2.914192
  C       2.724781     -3.113937     -3.218478
  C      -1.196782     -5.063147     -1.793217
  C       7.756145     -2.777827     -2.245804
  C       7.629487     -1.028540     -0.570852
  C       6.450311     -0.778878     -2.670587
  C       4.869658     -4.474297     -2.127147
  C       3.643233     -2.442788     -2.431073
  C       3.217920     -5.119249     -6.426454
  C       1.685026     -7.001936     -0.997407
  C       0.004165     -7.869314     -2.459930
  C       2.071700     -8.294217     -0.666288
  C       0.387673     -9.162299     -2.135733
  C       1.423898     -9.380487     -1.235767
  H       2.076548     -6.292773     -4.215170
  H      -0.275258     -5.668223     -4.314801
  H       0.087417     -4.005613     -3.900310
  H       0.897211     -4.687386     -1.681009
  H       1.639532     -3.767789     -5.855576
  H       1.087504     -5.374504     -6.288700
  H       5.168461     -1.594760     -0.433010
  H       6.098827     -3.087439     -0.223502
  H       4.058615     -6.209626     -3.083892
  H       1.879620     -2.568959     -3.624613
  H      -1.320493     -5.245568     -0.723515
  H      -1.913629     -5.692642     -2.326984
  H      -1.456252     -4.020349     -1.990620
  H       8.064697     -3.484075     -1.478112
  H       8.625133     -2.273745     -2.663108
  H       7.213219     -3.289996     -3.036044
  H       7.934590     -1.741455      0.191943
  H       6.981274     -0.269128     -0.137621
  H       8.503140     -0.565206     -1.023203
  H       5.779835     -0.050378     -2.220543
  H       5.950536     -1.308132     -3.477425
  H       7.340949     -0.284291     -3.051709
  H       5.696364     -5.020155     -1.685697
  H       3.502336     -1.387447     -2.224511
  H       3.190355     -4.868842     -7.488874
  H       3.481315     -6.176957     -6.340256
  H       4.024680     -4.539243     -5.971616
  H       2.203893     -6.157159     -0.558129
  H      -0.805794     -7.715149     -3.165246
  H       2.882727     -8.449275      0.036327
  H      -0.124095    -10.004481     -2.587327
  H       1.722539    -10.390782     -0.981842
  F       2.480608     -1.911350      0.521983
  F       0.517063     -2.367324     -0.276996
  F       0.895457     -4.425600      1.016587
  F      -0.050573     -3.206253      2.533644
  F       0.944745     -0.663817      2.736978
  F      -0.735613     -0.879225      1.372498
  F       1.023322      0.299425     -0.627529
  F      -0.009959      1.416906      0.926236
  F       1.770548     -4.179176      3.884089
  F       2.875053     -2.484123      3.099682
  F       2.869138     -5.853264      2.175436
  F       4.389619     -4.591558      3.034730
  F       3.744966     -4.265074      1.001870
  O       4.341533      0.146857      1.692569
  O       3.959190      0.693797     -0.437158
  C       1.191349     -2.086627      0.846489
  C       0.603332     -0.765747      1.439113
  C       1.057797     -3.343335      1.793365
  C       1.025783      0.557892      0.705125
  C       2.263081     -3.627812      2.766720
  C       2.289498      1.247896      1.164727
  C       3.342582     -4.614667      2.216877
  C       3.640774      0.623804      0.771136
  H       2.223917      1.367448      2.244102
  H       2.241988      2.237665      0.707317
80
Coordinates from ORCA-job R4N+FHEA-_wb E -2667.277437623666
  N       6.872561     -1.753330     -1.628689
  C       1.824503     -5.228655     -4.282067
  C       0.405823     -5.039776     -3.731813
  C       0.235354     -5.352727     -2.241174
  C       2.854510     -4.479906     -3.464871
  C       1.879618     -4.832467     -5.762722
  C       5.677736     -2.401783     -0.957590
  C       4.729930     -3.114809     -1.875676
  C       0.647460     -6.768089     -1.895153
  C       3.945062     -5.144347     -2.914326
  C       2.724721     -3.113933     -3.218345
  C      -1.196425     -5.061988     -1.793267
  C       7.756016     -2.777853     -2.245566
  C       7.629157     -1.028143     -0.570980
  C       6.449787     -0.779186     -2.670744
  C       4.869799     -4.474286     -2.127294
  C       3.643174     -2.442840     -2.430868
  C       3.218309     -5.119452     -6.426448
  C       1.685200     -7.001528     -0.997733
  C       0.003750     -7.868727     -2.459693
  C       2.071529     -8.293854     -0.666394
  C       0.386765     -9.161732     -2.135056
  C       1.423125     -9.380035     -1.235325
  H       2.076718     -6.292831     -4.215301
  H      -0.275052     -5.668713     -4.314820
  H       0.087344     -4.005772     -3.901036
  H       0.897769     -4.686794     -1.681713
  H       1.640214     -3.767623     -5.855554
  H       1.087792     -5.374183     -6.288871
  H       5.168267     -1.594959     -0.432642
  H       6.099007     -3.087612     -0.223486
  H       4.058832     -6.209517     -3.084151
  H       1.879505     -2.568954     -3.624372
  H      -1.320037     -5.244184     -0.723528
  H      -1.913525     -5.691355     -2.326853
  H      -1.455514     -4.019141     -1.990827
  H       8.064762     -3.483768     -1.477650
  H       8.624810     -2.273667     -2.663125
  H       7.212993     -3.290328     -3.035519
  H       7.934294     -1.740867      0.191965
  H       6.980835     -0.268687     -0.137997
  H       8.502735     -0.564885     -1.023554
  H       5.779149     -0.050794     -2.220788
  H       5.950125     -1.308839     -3.477413
  H       7.340360     -0.284523     -3.051908
  H       5.696587     -5.020129     -1.685969
  H       3.502214     -1.387530     -2.224111
  H       3.190919     -4.868936     -7.488849
  H       3.481398     -6.177237     -6.340280
  H       4.025134     -4.539682     -5.971450
  H       2.204451     -6.156816     -0.558791
  H      -0.806388     -7.714478     -3.164800
  H       2.882677     -8.449015      0.036043
  H      -0.125457    -10.003877     -2.586216
  H       1.721560    -10.390366     -0.981336
  F       2.480745     -1.911824      0.521757
  F       0.517013     -2.368176     -0.276776
  F       0.896051     -4.426208      1.016803
  F      -0.050087     -3.206788      2.533754
  F       0.944947     -0.664331      2.736855
  F      -0.735474     -0.880094      1.372625
  F       1.023717      0.298338     -0.627813
  F      -0.010612      1.415920      0.925205
  F       1.771174     -4.179850      3.884196
  F       2.875657     -2.484716      3.099987
  F       2.869885     -5.853741      2.175460
  F       4.390260     -4.592085      3.034861
  F       3.745667     -4.265451      1.001985
  O       4.340981      0.147571      1.693255
  O       3.959210      0.694022     -0.436722
  C       1.191525     -2.087252      0.846533
  C       0.603457     -0.766378      1.438987
  C       1.058327     -3.343840      1.793512
  C       1.025645      0.557278      0.704806
  C       2.263674     -3.628368      2.766857
  C       2.288838      1.248085      1.164427
  C       3.343249     -4.615127      2.216988
  C       3.640453      0.624173      0.771469
  H       2.222904      1.368157      2.243715
  H       2.241085      2.237576      0.706481
80
Coordinates from ORCA-job R4N+FHEA-_wb E -2667.277438899984
  N       6.872237     -1.753214     -1.628388
  C       1.824606     -5.228173     -4.282540
  C       0.405840     -5.039212     -3.732399
  C       0.235840     -5.351133     -2.241549
  C       2.854539     -4.479690     -3.465074
  C       1.880022     -4.831012     -5.762982
  C       5.677808     -2.402400     -0.957249
  C       4.730260     -3.115072     -1.875723
  C       0.647301     -6.766545     -1.895166
  C       3.945481     -5.144082     -2.915264
  C       2.724377     -3.113883     -3.217527
  C      -1.195637     -5.059318     -1.793174
  C       7.756426     -2.777560     -2.244708
  C       7.628265     -1.027076     -0.570840
  C       6.449018     -0.779794     -2.671026
  C       4.870401     -4.474305     -2.128248
  C       3.643044     -2.443095     -2.430060
  C       3.217969     -5.120316     -6.427278
  C       1.685231     -7.000220     -0.998092
  C       0.003528     -7.867033     -2.459880
  C       2.070848     -8.292623     -0.666261
  C       0.385411     -9.160090     -2.134253
  C       1.421474     -9.378626     -1.234326
  H       2.076599     -6.292496     -4.216390
  H      -0.275064     -5.668736     -4.314893
  H       0.087354     -4.005261     -3.902271
  H       0.899010     -4.685249     -1.683075
  H       1.642765     -3.765616     -5.854829
  H       1.086945     -5.370814     -6.289161
  H       5.167947     -1.596119     -0.431453
  H       6.099767     -3.088538     -0.223825
  H       4.059519     -6.209108     -3.085640
  H       1.878787     -2.568847     -3.622713
  H      -1.318919     -5.241174     -0.723354
  H      -1.913259     -5.688416     -2.326355
  H      -1.454048     -4.016368     -1.990913
  H       8.065469     -3.482789     -1.476296
  H       8.624820     -2.272881     -2.662443
  H       7.213541     -3.290719     -3.034289
  H       7.933488     -1.739394      0.192418
  H       6.979386     -0.267766     -0.138463
  H       8.501641     -0.563722     -1.023700
  H       5.777576     -0.051949     -2.221464
  H       5.950183     -1.310404     -3.477599
  H       7.339461     -0.284612     -3.051783
  H       5.697485     -5.020194     -1.687508
  H       3.501887     -1.387955     -2.222475
  H       3.190926     -4.868578     -7.489400
  H       3.478624     -6.178788     -6.342239
  H       4.026136     -4.542853     -5.971774
  H       2.205242     -6.155587     -0.559889
  H      -0.806550     -7.712600     -3.165037
  H       2.881994     -8.447948      0.036112
  H      -0.127497    -10.002144     -2.584827
  H       1.719363    -10.389040     -0.980066
  F       2.481343     -1.913982      0.521954
  F       0.517394     -2.371728     -0.275770
  F       0.897228     -4.428486      1.019226
  F      -0.048824     -3.207853      2.535281
  F       0.945530     -0.664956      2.735952
  F      -0.735121     -0.882664      1.372473
  F       1.024943      0.293579     -0.629802
  F      -0.012402      1.412511      0.920291
  F       1.772672     -4.180528      3.885982
  F       2.876968     -2.485609      3.101157
  F       2.871692     -5.854973      2.177967
  F       4.391690     -4.592983      3.037191
  F       3.747719     -4.267149      1.004008
  O       4.339158      0.148653      1.694029
  O       3.959568      0.694004     -0.436647
  C       1.192113     -2.089601      0.847124
  C       0.603780     -0.768337      1.438180
  C       1.059569     -3.345398      1.795052
  C       1.025257      0.554765      0.702498
  C       2.265085     -3.629450      2.768380
  C       2.286993      1.248014      1.162019
  C       3.344908     -4.616308      2.219090
  C       3.639570      0.624540      0.771168
  H       2.219963      1.369866      2.241017
  H       2.238571      2.236590      0.702291
80
Coordinates from ORCA-job R4N+FHEA-_wb E -2667.277441092480
  N       6.872640     -1.753308     -1.627964
  C       1.824192     -5.227534     -4.282479
  C       0.405395     -5.038521     -3.732372
  C       0.235379     -5.350396     -2.241511
  C       2.854359     -4.479226     -3.465168
  C       1.879727     -4.830313     -5.762940
  C       5.678207     -2.402818     -0.957191
  C       4.730674     -3.115101     -1.876024
  C       0.647044     -6.765737     -1.895121
  C       3.945436     -5.143775     -2.915860
  C       2.724406     -3.113447     -3.217309
  C      -1.196102     -5.058748     -1.793133
  C       7.757357     -2.777469     -2.243910
  C       7.628177     -1.026947     -0.570183
  C       6.449584     -0.779997     -2.670816
  C       4.870655     -4.474266     -2.128982
  C       3.643331     -2.442937     -2.429896
  C       3.217473     -5.120385     -6.427306
  C       1.685741     -6.999154     -0.998882
  C       0.002543     -7.866406     -2.458630
  C       2.071613     -8.291422     -0.666825
  C       0.384681     -9.159343     -2.132811
  C       1.421747     -9.377609     -1.233992
  H       2.076045     -6.291873     -4.216396
  H      -0.275405     -5.668150     -4.314810
  H       0.086891     -4.004601     -3.902372
  H       0.898492     -4.684333     -1.683173
  H       1.643139     -3.764772     -5.854654
  H       1.086335     -5.369658     -6.289130
  H       5.168155     -1.596978     -0.430988
  H       6.100154     -3.089236     -0.224043
  H       4.059388     -6.208785     -3.086454
  H       1.878731     -2.568227     -3.622065
  H      -1.319398     -5.240722     -0.723329
  H      -1.913635     -5.687871     -2.326411
  H      -1.454566     -4.015793     -1.990771
  H       8.066164     -3.482601     -1.475316
  H       8.625809     -2.272540     -2.661230
  H       7.214877     -3.290725     -3.033699
  H       7.933421     -1.739255      0.193079
  H       6.978904     -0.267917     -0.137925
  H       8.501480     -0.563308     -1.022879
  H       5.777491     -0.052562     -2.221576
  H       5.951558     -1.310866     -3.477704
  H       7.340072     -0.284366     -3.050883
  H       5.697760     -5.020351     -1.688538
  H       3.502210     -1.387881     -2.221896
  H       3.190658     -4.868147     -7.489314
  H       3.477270     -6.179095     -6.342711
  H       4.026080     -4.543734     -5.971534
  H       2.205986     -6.154345     -0.561324
  H      -0.808226     -7.712228     -3.163044
  H       2.883376     -8.446466      0.034902
  H      -0.128751    -10.001552     -2.582493
  H       1.719794    -10.387956     -0.979651
  F       2.481663     -1.915062      0.521794
  F       0.517785     -2.373459     -0.275901
  F       0.897775     -4.429719      1.019986
  F      -0.048199     -3.208503      2.535630
  F       0.946090     -0.665437      2.735120
  F      -0.735002     -0.884186      1.372321
  F       1.025114      0.291287     -0.631087
  F      -0.013567      1.410683      0.917781
  F       1.773341     -4.180974      3.886233
  F       2.877387     -2.485975      3.101184
  F       2.872378     -5.855520      2.178512
  F       4.392215     -4.593428      3.037874
  F       3.748807     -4.267966      1.004486
  O       4.337732      0.148448      1.693887
  O       3.959630      0.694172     -0.436970
  C       1.192410     -2.090806      0.846899
  C       0.603876     -0.769453      1.437491
  C       1.060101     -3.346256      1.795296
  C       1.024740      0.553444      0.701053
  C       2.265693     -3.629964      2.768559
  C       2.285839      1.247797      1.160515
  C       3.345639     -4.616861      2.219530
  C       3.638816      0.624477      0.770600
  H       2.218321      1.370435      2.239410
  H       2.237131      2.235960      0.699945
80
Coordinates from ORCA-job R4N+FHEA-_wb E -2667.277439801021
  N       6.873693     -1.753166     -1.626867
  C       1.823527     -5.226517     -4.282154
  C       0.404672     -5.036601     -3.732590
  C       0.233787     -5.347855     -2.241617
  C       2.854225     -4.478484     -3.465320
  C       1.879559     -4.830104     -5.762905
  C       5.679285     -2.403495     -0.957097
  C       4.731690     -3.115062     -1.876658
  C       0.645512     -6.762955     -1.894540
  C       3.945561     -5.143249     -2.916935
  C       2.724608     -3.112800     -3.216770
  C      -1.197870     -5.056088     -1.794097
  C       7.759584     -2.776692     -2.242270
  C       7.628133     -1.026759     -0.568264
  C       6.451023     -0.779707     -2.669821
  C       4.871366     -4.474108     -2.130382
  C       3.644023     -2.442666     -2.429572
  C       3.217063     -5.121973     -6.426907
  C       1.687085     -6.995623     -1.001357
  C      -0.001956     -7.864167     -2.453674
  C       2.073520     -8.287540     -0.668729
  C       0.381169     -9.156769     -2.127736
  C       1.421439     -9.374262     -1.232412
  H       2.074759     -6.290918     -4.215547
  H      -0.275981     -5.666174     -4.315062
  H       0.086715     -4.002663     -3.903218
  H       0.896542     -4.681261     -1.683348
  H       1.644238     -3.764352     -5.855126
  H       1.085745     -5.368975     -6.288993
  H       5.168852     -1.598891     -0.429941
  H       6.101234     -3.090628     -0.224617
  H       4.059441     -6.208228     -3.087925
  H       1.878701     -2.567289     -3.620645
  H      -1.321844     -5.237947     -0.724338
  H      -1.915092     -5.685192     -2.327787
  H      -1.456107     -4.013117     -1.991993
  H       8.067946     -3.481847     -1.473505
  H       8.628168     -2.271120     -2.658552
  H       7.218123     -3.289992     -3.032710
  H       7.933330     -1.739285      0.194842
  H       6.978094     -0.268413     -0.136016
  H       8.501384     -0.562380     -1.020252
  H       5.777237     -0.053469     -2.221109
  H       5.955026     -1.310739     -3.477790
  H       7.341524     -0.282679     -3.048027
  H       5.698601     -5.020489     -1.690575
  H       3.502909     -1.387735     -2.220804
  H       3.190932     -4.869443     -7.488861
  H       3.475261     -6.181076     -6.342442
  H       4.026362     -4.546529     -5.970817
  H       2.208855     -6.150340     -0.566517
  H      -0.815192     -7.710644     -3.155374
  H       2.887531     -8.441870      0.030555
  H      -0.134135     -9.999404     -2.574478
  H       1.719833    -10.384414     -0.977692
  F       2.482367     -1.917693      0.520568
  F       0.518680     -2.378072     -0.276695
  F       0.899803     -4.433385      1.020951
  F      -0.045647     -3.211412      2.536273
  F       0.947756     -0.667914      2.733207
  F      -0.734833     -0.889104      1.372557
  F       1.025180      0.285709     -0.633676
  F      -0.017345      1.405305      0.912361
  F       1.776669     -4.183105      3.885608
  F       2.879248     -2.487356      3.100059
  F       2.875620     -5.857057      2.177574
  F       4.394795     -4.594605      3.037787
  F       3.752637     -4.269526      1.004064
  O       4.333328      0.148221      1.694841
  O       3.959309      0.694815     -0.436527
  C       1.193229     -2.094243      0.845766
  C       0.603938     -0.773064      1.436064
  C       1.062100     -3.349171      1.795142
  C       1.022768      0.549750      0.698112
  C       2.268304     -3.631790      2.767750
  C       2.282085      1.247125      1.157658
  C       3.348708     -4.618321      2.218843
  C       3.636180      0.624491      0.770387
  H       2.213223      1.371723      2.236281
  H       2.232447      2.234207      0.694889
80
Coordinates from ORCA-job R4N+FHEA-_wb E -2667.277441652180
  N       6.874026     -1.753324     -1.626317
  C       1.823207     -5.225945     -4.282163
  C       0.404464     -5.035434     -3.732612
  C       0.233238     -5.346418     -2.241597
  C       2.854297     -4.478082     -3.465643
  C       1.879160     -4.830168     -5.763069
  C       5.679637     -2.404067     -0.957047
  C       4.732062     -3.115240     -1.876958
  C       0.645197     -6.761361     -1.894116
  C       3.945690     -5.143115     -2.917674
  C       2.724966     -3.112417     -3.216935
  C      -1.198593     -5.054687     -1.794641
  C       7.760236     -2.776460     -2.241836
  C       7.627997     -1.027042     -0.567314
  C       6.451376     -0.779733     -2.669110
  C       4.871682     -4.474223     -2.131134
  C       3.644429     -2.442598     -2.429557
  C       3.216440     -5.122611     -6.427260
  C       1.687963     -6.993626     -1.002238
  C      -0.003015     -7.862768     -2.451897
  C       2.074817     -8.285375     -0.669521
  C       0.380499     -9.155246     -2.125912
  C       1.421955     -9.372358     -1.231834
  H       2.074073     -6.290413     -4.215200
  H      -0.276323     -5.665005     -4.314964
  H       0.086732     -4.001469     -3.903477
  H       0.895695     -4.679713     -1.683182
  H       1.644038     -3.764392     -5.855690
  H       1.085139     -5.369044     -6.288819
  H       5.169189     -1.599704     -0.429477
  H       6.101492     -3.091599     -0.224908
  H       4.059394     -6.208079     -3.088893
  H       1.879071     -2.566727     -3.620589
  H      -1.322915     -5.236255     -0.724882
  H      -1.915601     -5.683981     -2.328400
  H      -1.456889     -4.011802     -1.992926
  H       8.068704     -3.481752     -1.473254
  H       8.628781     -2.270619     -2.657891
  H       7.219055     -3.289702     -3.032537
  H       7.933066     -1.739647      0.195769
  H       6.977712     -0.268859     -0.135095
  H       8.501365     -0.562392     -1.018809
  H       5.777043     -0.053933     -2.220535
  H       5.956002     -1.310680     -3.477522
  H       7.341757     -0.282097     -3.046799
  H       5.699009     -5.020750     -1.691683
  H       3.503402     -1.387751     -2.220449
  H       3.190119     -4.870519     -7.489314
  H       3.474414     -6.181741     -6.342431
  H       4.025974     -4.547145     -5.971633
  H       2.210204     -6.148159     -0.568365
  H      -0.817181     -7.709517     -3.152566
  H       2.889762     -8.439417      0.028747
  H      -0.135397     -9.998063     -2.571619
  H       1.720622    -10.382404     -0.976990
  F       2.482711     -1.919295      0.520518
  F       0.519311     -2.380506     -0.276630
  F       0.900523     -4.435178      1.022136
  F      -0.044990     -3.212589      2.536850
  F       0.947804     -0.668608      2.732342
  F      -0.734868     -0.891419      1.372034
  F       1.025336      0.282753     -0.635110
  F      -0.018704      1.402859      0.909524
  F       1.777682     -4.183450      3.886437
  F       2.879869     -2.487798      3.100144
  F       2.876606     -5.857738      2.178462
  F       4.395452     -4.595080      3.039057
  F       3.754037     -4.270411      1.005062
  O       4.331978      0.148337      1.694966
  O       3.959409      0.694568     -0.436721
  C       1.193650     -2.095986      0.845707
  C       0.603819     -0.774713      1.435355
  C       1.062696     -3.350526      1.795687
  C       1.022001      0.547816      0.696459
  C       2.269079     -3.632416      2.768334
  C       2.280705      1.246342      1.156048
  C       3.349641     -4.618982      2.219731
  C       3.635342      0.624255      0.769961
  H       2.211272      1.371785      2.234528
  H       2.230637      2.232986      0.692396
80
Coordinates from ORCA-job R4N+FHEA-_wb E -2667.277442034384
  N       6.874169     -1.754294     -1.625983
  C       1.822454     -5.225417     -4.282410
  C       0.404019     -5.034590     -3.732304
  C       0.232831     -5.345382     -2.241234
  C       2.853947     -4.477779     -3.466159
  C       1.877641     -4.830055     -5.763402
  C       5.679525     -2.405117     -0.957145
  C       4.731889     -3.115669     -1.877358
  C       0.646056     -6.759900     -1.893442
  C       3.945315     -5.143222     -2.918516
  C       2.724964     -3.112125     -3.217436
  C      -1.199525     -5.054869     -1.795114
  C       7.760136     -2.777245     -2.241984
  C       7.628009     -1.028581     -0.566607
  C       6.451702     -0.780322     -2.668379
  C       4.871335     -4.474660     -2.131771
  C       3.644555     -2.442583     -2.429975
  C       3.214589     -5.122267     -6.428404
  C       1.689137     -6.991497     -1.001749
  C      -0.000449     -7.861664     -2.452357
  C       2.077175     -8.283032     -0.669524
  C       0.384146     -9.153948     -2.126858
  C       1.425372     -9.370412     -1.232311
  H       2.073106     -6.289942     -4.215342
  H      -0.277044     -5.664334     -4.314297
  H       0.086173     -4.000655     -3.903187
  H       0.894417     -4.678086     -1.682521
  H       1.642024     -3.764364     -5.856211
  H       1.083432     -5.369227     -6.288528
  H       5.169475     -1.600457     -0.429396
  H       6.101091     -3.093118     -0.225281
  H       4.058676     -6.208167     -3.090009
  H       1.879236     -2.566244     -3.621187
  H      -1.324193     -5.235861     -0.725310
  H      -1.915646     -5.685256     -2.328789
  H      -1.458917     -4.012422     -1.994267
  H       8.068870     -3.482839     -1.473793
  H       8.628649     -2.271424     -2.658150
  H       7.218879     -3.290238     -3.032839
  H       7.932671     -1.741374      0.196459
  H       6.977879     -0.270238     -0.134365
  H       8.501749     -0.563994     -1.017492
  H       5.777663     -0.054333     -2.219705
  H       5.956043     -1.310744     -3.476995
  H       7.342067     -0.282734     -3.046182
  H       5.698735     -5.021362     -1.692668
  H       3.503935     -1.387719     -2.220927
  H       3.187296     -4.871166     -7.490666
  H       3.473265     -6.181175     -6.342860
  H       4.024130     -4.545925     -5.973928
  H       2.210704     -6.145783     -0.567648
  H      -0.814411     -7.708864     -3.153356
  H       2.892262     -8.436686      0.028670
  H      -0.130640     -9.997055     -2.573280
  H       1.724977    -10.380259     -0.977770
  F       2.482690     -1.920587      0.521454
  F       0.519741     -2.381965     -0.276177
  F       0.899886     -4.435922      1.024340
  F      -0.046096     -3.212046      2.537638
  F       0.946374     -0.668044      2.731840
  F      -0.735223     -0.891756      1.370347
  F       1.025591      0.281591     -0.636142
  F      -0.018039      1.402601      0.908160
  F       1.776443     -4.181608      3.888886
  F       2.878963     -2.486836      3.101210
  F       2.875614     -5.857436      2.181974
  F       4.394193     -4.594369      3.042533
  F       3.753681     -4.270901      1.008038
  O       4.332887      0.147865      1.693909
  O       3.959725      0.692799     -0.437981
  C       1.193570     -2.096801      0.846257
  C       0.603401     -0.775041      1.434720
  C       1.061868     -3.350658      1.797045
  C       1.022209      0.547003      0.695318
  C       2.268059     -3.631632      2.770364
  C       2.281276      1.245072      1.154878
  C       3.348701     -4.618688      2.222732
  C       3.635863      0.623081      0.768832
  H       2.211952      1.370585      2.233327
  H       2.231362      2.231744      0.691243
80
Coordinates from ORCA-job R4N+FHEA-_wb E -2667.277442704381
  N       6.874134     -1.754237     -1.625919
  C       1.822668     -5.225648     -4.282563
  C       0.404167     -5.034733     -3.732594
  C       0.232753     -5.345051     -2.241422
  C       2.854086     -4.477883     -3.466250
  C       1.877931     -4.830248     -5.763546
  C       5.679366     -2.405082     -0.957061
  C       4.731850     -3.115607     -1.877389
  C       0.645885     -6.759479     -1.893169
  C       3.945509     -5.143225     -2.918551
  C       2.724984     -3.112224     -3.217594
  C      -1.199725     -5.054365     -1.795726
  C       7.759994     -2.777200     -2.242093
  C       7.628129     -1.028769     -0.566507
  C       6.451727     -0.780045     -2.668141
  C       4.871386     -4.474608     -2.131712
  C       3.644566     -2.442565     -2.430181
  C       3.214971     -5.122389     -6.428396
  C       1.689193     -6.990973     -1.001719
  C      -0.001259     -7.861321     -2.451244
  C       2.077249     -8.282506     -0.669445
  C       0.383264     -9.153585     -2.125539
  C       1.425095     -9.369933     -1.231695
  H       2.073317     -6.290177     -4.215465
  H      -0.276875     -5.664621     -4.314464
  H       0.086361     -4.000823     -3.903744
  H       0.894244     -4.677572     -1.682762
  H       1.642258     -3.764575     -5.856334
  H       1.083768     -5.369468     -6.288709
  H       5.169381     -1.600393     -0.429284
  H       6.100994     -3.093133     -0.225279
  H       4.058940     -6.208150     -3.090047
  H       1.879244     -2.566428     -3.621441
  H      -1.324673     -5.234940     -0.725878
  H      -1.915713     -5.684957     -2.329331
  H      -1.459064     -4.012005     -1.995374
  H       8.068794     -3.482866     -1.473991
  H       8.628470     -2.271373     -2.658324
  H       7.218619     -3.290085     -3.032901
  H       7.932628     -1.741692      0.196503
  H       6.978197     -0.270294     -0.134244
  H       8.501966     -0.564375     -1.017402
  H       5.777865     -0.053987     -2.219289
  H       5.955903     -1.310279     -3.476773
  H       7.342157     -0.282569     -3.045954
  H       5.698797     -5.021223     -1.692515
  H       3.503961     -1.387651     -2.221286
  H       3.187710     -4.871485     -7.490705
  H       3.473769     -6.181251     -6.342633
  H       4.024392     -4.545873     -5.973934
  H       2.211105     -6.145206     -0.568018
  H      -0.815613     -7.708583     -3.151812
  H       2.892624     -8.436139      0.028405
  H      -0.131981     -9.996750     -2.571323
  H       1.724742    -10.379744     -0.977072
  F       2.482742     -1.920748      0.521127
  F       0.519617     -2.382281     -0.276355
  F       0.900117     -4.436306      1.024063
  F      -0.045674     -3.212514      2.537550
  F       0.946612     -0.668697      2.731828
  F      -0.735208     -0.892404      1.370630
  F       1.025477      0.281355     -0.636025
  F      -0.018562      1.401988      0.908296
  F       1.777011     -4.182220      3.888359
  F       2.879174     -2.487125      3.100874
  F       2.876464     -5.857617      2.181040
  F       4.394767     -4.594484      3.041912
  F       3.754268     -4.270610      1.007468
  O       4.332437      0.148069      1.694580
  O       3.959463      0.692710     -0.437444
  C       1.193633     -2.097139      0.846050
  C       0.603439     -0.775522      1.434729
  C       1.062188     -3.351037      1.796768
  C       1.021953      0.546667      0.695477
  C       2.268486     -3.632014      2.769877
  C       2.280785      1.245020      1.155150
  C       3.349287     -4.618783      2.222071
  C       3.635494      0.623135      0.769349
  H       2.211276      1.370653      2.233582
  H       2.230779      2.231630      0.691396
80
Coordinates from ORCA-job R4N+FHEA-_wb E -2667.277442792270
  N       6.874143     -1.754733     -1.625844
  C       1.822389     -5.225797     -4.282596
  C       0.403884     -5.034662     -3.732647
  C       0.232304     -5.344805     -2.241419
  C       2.853761     -4.477975     -3.466276
  C       1.877749     -4.830352     -5.763559
  C       5.678979     -2.405195     -0.957005
  C       4.731502     -3.115620     -1.877409
  C       0.646084     -6.759007     -1.892984
  C       3.945069     -5.143315     -2.918325
  C       2.724743     -3.112268     -3.217816
  C      -1.200462     -5.054722     -1.796195
  C       7.759596     -2.778035     -2.242078
  C       7.628478     -1.029727     -0.566382
  C       6.452160     -0.780205     -2.667925
  C       4.870861     -4.474703     -2.131397
  C       3.644442     -2.442512     -2.430574
  C       3.214918     -5.122398     -6.428157
  C       1.689556     -6.989987     -1.001613
  C      -0.000728     -7.861205     -2.450831
  C       2.078401     -8.281358     -0.669650
  C       0.384540     -9.153303     -2.125318
  C       1.426772     -9.369112     -1.231830
  H       2.072974     -6.290343     -4.215453
  H      -0.277308     -5.664430     -4.314452
  H       0.086303     -4.000682     -3.903803
  H       0.893312     -4.676932     -1.682622
  H       1.641986     -3.764722     -5.856391
  H       1.083679     -5.369657     -6.288787
  H       5.169217     -1.600193     -0.429462
  H       6.100424     -3.093256     -0.225117
  H       4.058381     -6.208268     -3.089685
  H       1.879086     -2.566482     -3.621858
  H      -1.325700     -5.235075     -0.726337
  H      -1.915983     -5.685787     -2.329845
  H      -1.460253     -4.012548     -1.996215
  H       8.068176     -3.483826     -1.473987
  H       8.628231     -2.272527     -2.658367
  H       7.217982     -3.290705     -3.032820
  H       7.932548     -1.742856      0.196604
  H       6.978990     -0.270886     -0.134153
  H       8.502576     -0.565834     -1.017274
  H       5.778783     -0.053791     -2.218888
  H       5.955909     -1.310065     -3.476525
  H       7.342846     -0.283227     -3.045816
  H       5.698138     -5.021322     -1.691945
  H       3.504058     -1.387456     -2.222124
  H       3.187720     -4.871793     -7.490539
  H       3.473912     -6.181192     -6.342065
  H       4.024171     -4.545634     -5.973714
  H       2.211251     -6.144003     -0.567961
  H      -0.815355     -7.708847     -3.151171
  H       2.893980     -8.434644      0.028028
  H      -0.130450     -9.996728     -2.570917
  H       1.727130    -10.378758     -0.977387
  F       2.482687     -1.920414      0.521057
  F       0.519505     -2.382027     -0.276510
  F       0.899922     -4.436073      1.023789
  F      -0.045602     -3.212397      2.537544
  F       0.946385     -0.668808      2.731941
  F      -0.735368     -0.892341      1.370645
  F       1.024990      0.281938     -0.635708
  F      -0.018697      1.402207      0.909108
  F       1.777034     -4.182776      3.887851
  F       2.878965     -2.487236      3.100998
  F       2.876861     -5.857449      2.180056
  F       4.394909     -4.594396      3.041400
  F       3.754388     -4.269833      1.007044
  O       4.332574      0.148425      1.694583
  O       3.958932      0.692411     -0.437506
  C       1.193555     -2.096935      0.845984
  C       0.603320     -0.775425      1.434778
  C       1.062186     -3.350899      1.796616
  C       1.021795      0.546909      0.695870
  C       2.268492     -3.632145      2.769558
  C       2.280717      1.245098      1.155483
  C       3.349440     -4.618549      2.221515
  C       3.635327      0.623178      0.769399
  H       2.211336      1.370575      2.233956
  H       2.230729      2.231807      0.691935
