56
Coordinates from ORCA-job R4N+Cl-_altA_r2 E -1372.331796123673
  N          -2.47292308283995     -0.13607452049854     -3.92517189056770
  C           1.26454692404788      1.03607166674172      1.42622457085294
  C           2.06239138179524     -0.07212224286936      2.13077598462798
  C           1.20459633703465     -1.18340422256097      2.75663441855608
  C           0.35376842575957      0.48588904418186      0.35120023861130
  C           2.21719164414344      2.10316339045663      0.85730992356132
  C          -2.24180531816640     -1.07205542213702     -2.73069498735156
  C          -1.34543543690830     -0.51402916401566     -1.66755218899450
  C           0.18907431512595     -0.63900587424712      3.73961125514311
  C          -1.02301094205175      0.71734082390321      0.39150166093637
  C           0.86776391370248     -0.26345158597496     -0.71348360265407
  C           2.10191968101565     -2.23567181947013      3.42013815530531
  C          -3.16587559978986      1.12089211367130     -3.50062518523497
  C          -3.33961867794368     -0.87451854095684     -4.90502188333753
  C          -1.17380865922183      0.20696378821679     -4.59170196180606
  C          -1.86427326232955      0.22139346565762     -0.59979519529426
  C           0.03185917872858     -0.75879475463371     -1.70580217151495
  C           1.49308474765369      3.29167809785869      0.23268890925996
  C           0.59005320801333      0.12698038260350      4.84077217912056
  C          -1.17384921864799     -0.89647615044401      3.57236523187961
  C          -0.34579145070432      0.62294873084194      5.74371888143728
  C          -2.11479324513769     -0.40241844284450      4.47480564966611
  C          -1.70380784535798      0.36120296606297      5.56383178054886
  H           0.62563605806723      1.52646884664370      2.17508970922762
  H           2.68258831043429      0.39047111342255      2.91061839834333
  H           2.75645268080606     -0.53291469184208      1.41464750374350
  H           0.64435559756136     -1.67478686082288      1.94917417570085
  H           2.87689812399721      1.63418398082696      0.11417313832640
  H           2.86264429124536      2.45198531764449      1.67431349617420
  H          -1.81190857783355     -1.98135070050436     -3.16707047405344
  H          -3.23931321486960     -1.28478598218790     -2.33498269161445
  H          -1.44272429543218      1.28663978786324      1.21779540083796
  H           1.93416211603338     -0.46904828540722     -0.76550732600441
  H           2.69398675003304     -1.79048604582290      4.22827690745421
  H           2.79632058910918     -2.66429442898680      2.68850439740889
  H           1.50640894604372     -3.05078166048172      3.84524814980377
  H          -3.36274575270842      1.71949178634030     -4.39252238232448
  H          -2.51889247895261      1.67413290527222     -2.81826297555097
  H          -4.10393384743798      0.85686272591164     -3.00760706921651
  H          -4.28092223466022     -1.13082291832206     -4.41386759470148
  H          -2.80737553447310     -1.77779290204131     -5.21738862165789
  H          -3.52642696939360     -0.22290202959770     -5.76084799040851
  H          -0.67028334225675     -0.72668946895041     -4.86011830675588
  H          -0.56393592389412      0.79435346137110     -3.90375687962500
  H          -1.39721974547260      0.79521997621343     -5.48450301893976
  H          -2.93492316052518      0.40233136774068     -0.54039525164238
  H           0.44645140001837     -1.34799388110479     -2.52054239255038
  H           0.81482447508710      3.76165087296541      0.95497753653560
  H           0.89666963698313      2.98674024558906     -0.63466459867105
  H           2.20513425258458      4.05278733036166     -0.10375757001227
  H           1.64534419736354      0.34107820875689      4.99386572266971
  H          -1.50177100243159     -1.48804380034842      2.72000259220426
  H          -0.01499904029599      1.21740802608773      6.59144057811170
  H          -3.17032113913114     -0.61337569567795      4.32410816011309
  H          -2.43415421849009      0.74994996713348      6.26810147777053
  Cl         -0.58015367593016     -3.48309560818949     -5.02086650674772
