56
Coordinates from ORCA-job R4N+Cl-_altA_r2 E -1372.325684286096
  N      -2.492195     -0.163701     -3.792084
  C       1.335705      1.055590      1.425334
  C       2.131714     -0.062753      2.112994
  C       1.235272     -1.175089      2.674743
  C       0.419271      0.504793      0.364475
  C       2.289325      2.105160      0.834870
  C      -2.226794     -1.082914     -2.645189
  C      -1.309352     -0.514375     -1.596968
  C       0.166500     -0.628776      3.587941
  C      -0.951106      0.718746      0.440640
  C       0.911645     -0.235119     -0.705604
  C       2.080234     -2.218728      3.410678
  C      -3.162775      1.062532     -3.336953
  C      -3.355145     -0.872885     -4.749011
  C      -1.231536      0.181259     -4.463707
  C      -1.806152      0.214149     -0.522313
  C       0.060899     -0.740909     -1.670230
  C       1.539677      3.306112      0.270916
  C       0.490095      0.129286      4.707460
  C      -1.173551     -0.886115      3.327890
  C      -0.499231      0.622795      5.538853
  C      -2.166434     -0.394692      4.157671
  C      -1.831993      0.363894      5.265997
  H       0.718757      1.547212      2.185946
  H       2.721171      0.375148      2.920648
  H       2.830992     -0.507963      1.402468
  H       0.740392     -1.671029      1.831912
  H       2.890215      1.648399      0.046096
  H       2.971315      2.439855      1.619454
  H      -1.779390     -1.987648     -3.065299
  H      -3.187532     -1.337835     -2.195551
  H      -1.353740      1.277469      1.272762
  H       1.970583     -0.430228     -0.786367
  H       2.603812     -1.769108      4.250803
  H       2.816077     -2.651385      2.736616
  H       1.446873     -3.017841      3.789416
  H      -3.364909      1.705255     -4.190154
  H      -2.525152      1.592965     -2.634081
  H      -4.102404      0.811719     -2.850935
  H      -4.291010     -1.156687     -4.274902
  H      -2.843941     -1.772236     -5.091718
  H      -3.560614     -0.236344     -5.605527
  H      -0.745048     -0.735055     -4.797514
  H      -0.571839      0.704975     -3.777193
  H      -1.432846      0.809171     -5.327333
  H      -2.868296      0.377271     -0.420695
  H       0.456626     -1.335504     -2.481555
  H       0.943392      3.780436      1.047000
  H       0.875668      2.996092     -0.532230
  H       2.239659      4.039222     -0.122161
  H       1.524606      0.339807      4.934823
  H      -1.440819     -1.476491      2.462708
  H      -0.229708      1.211524      6.403585
  H      -3.202840     -0.604878      3.938517
  H      -2.603928      0.749880      5.914982
  Cl     -0.663065     -3.355337     -4.957520
56
Coordinates from ORCA-job R4N+Cl-_altA_r2 E -1372.330558783461
  N      -2.512826     -0.150572     -3.826870
  C       1.357139      1.079851      1.426729
  C       2.133354     -0.038457      2.149237
  C       1.253310     -1.168318      2.718951
  C       0.434529      0.530978      0.364720
  C       2.330014      2.113529      0.830097
  C      -2.233644     -1.058848     -2.639711
  C      -1.308100     -0.484465     -1.602075
  C       0.160734     -0.654425      3.632280
  C      -0.936374      0.784003      0.420604
  C       0.921326     -0.244728     -0.690048
  C       2.124064     -2.201370      3.449038
  C      -3.191984      1.103678     -3.397561
  C      -3.403433     -0.896695     -4.761444
  C      -1.248478      0.187100     -4.540579
  C      -1.799280      0.277205     -0.542476
  C       0.063112     -0.747994     -1.657690
  C       1.611741      3.310782      0.205813
  C       0.461613      0.114215      4.759865
  C      -1.178038     -0.954977      3.371873
  C      -0.547760      0.575321      5.597989
  C      -2.191318     -0.496690      4.209094
  C      -1.879344      0.273056      5.324793
  H       0.735092      1.595797      2.170548
  H       2.715610      0.414171      2.962040
  H       2.854851     -0.485295      1.453113
  H       0.767183     -1.673950      1.874687
  H       2.954833      1.625383      0.071220
  H       2.998384      2.462279      1.627584
  H      -1.794998     -1.975014     -3.053429
  H      -3.200071     -1.295742     -2.183858
  H      -1.335005      1.374540      1.241414
  H       1.982977     -0.469875     -0.755119
  H       2.642672     -1.742614      4.297485
  H       2.876469     -2.615392      2.768957
  H       1.510449     -3.025682      3.827157
  H      -3.409488      1.710874     -4.278764
  H      -2.541523      1.664388     -2.725115
  H      -4.125479      0.857579     -2.886150
  H      -4.334353     -1.159862     -4.253961
  H      -2.891795     -1.808508     -5.085972
  H      -3.623851     -0.273425     -5.630689
  H      -0.767008     -0.743940     -4.858729
  H      -0.582860      0.741981     -3.876620
  H      -1.480575      0.796058     -5.416950
  H      -2.865871      0.471464     -0.459317
  H       0.454873     -1.366160     -2.462006
  H       0.985765      3.816066      0.949462
  H       0.968702      2.989585     -0.621608
  H       2.333361      4.036229     -0.183030
  H       1.496296      0.359753      4.987375
  H      -1.429601     -1.548216      2.494242
  H      -0.294544      1.174160      6.468864
  H      -3.227352     -0.738754      3.986983
  H      -2.667704      0.635124      5.978946
  Cl     -0.688669     -3.406087     -4.945983
56
Coordinates from ORCA-job R4N+Cl-_altA_r2 E -1372.331335420161
  N      -2.508401     -0.151041     -3.835328
  C       1.351564      1.084134      1.431806
  C       2.129753     -0.033255      2.148981
  C       1.260882     -1.168730      2.717350
  C       0.423170      0.538418      0.370752
  C       2.324464      2.121861      0.842111
  C      -2.249617     -1.054946     -2.629334
  C      -1.324854     -0.477691     -1.596896
  C       0.164974     -0.663195      3.632222
  C      -0.948910      0.797428      0.425046
  C       0.908588     -0.241547     -0.684694
  C       2.143421     -2.198131      3.438311
  C      -3.173499      1.123831     -3.421876
  C      -3.413311     -0.898242     -4.769115
  C      -1.227801      0.162517     -4.547375
  C      -1.814367      0.293756     -0.540944
  C       0.047905     -0.743321     -1.653681
  C       1.616516      3.320900      0.210586
  C       0.463852      0.115726      4.756310
  C      -1.174224     -0.975272      3.377563
  C      -0.547380      0.570013      5.599547
  C      -2.189717     -0.524146      4.220128
  C      -1.879583      0.251960      5.334605
  H       0.728096      1.597744      2.177998
  H       2.713560      0.420359      2.962129
  H       2.854414     -0.475086      1.450580
  H       0.773009     -1.674120      1.872861
  H       2.960571      1.631603      0.091945
  H       2.987419      2.467658      1.646735
  H      -1.825292     -1.981326     -3.037141
  H      -3.229070     -1.262573     -2.187058
  H      -1.346110      1.391610      1.245591
  H       1.970627     -0.469784     -0.747911
  H       2.661880     -1.739147      4.288820
  H       2.899995     -2.601085      2.754222
  H       1.541877     -3.033169      3.815249
  H      -3.380344      1.713518     -4.318052
  H      -2.509966      1.683632     -2.760371
  H      -4.108400      0.889689     -2.906562
  H      -4.348066     -1.130808     -4.252659
  H      -2.912904     -1.822001     -5.079290
  H      -3.618898     -0.272205     -5.640701
  H      -0.760354     -0.780186     -4.853782
  H      -0.566523      0.719363     -3.879905
  H      -1.457959      0.770374     -5.425902
  H      -2.881205      0.494140     -0.464073
  H       0.439252     -1.357397     -2.462573
  H       0.972993      3.823697      0.943178
  H       0.988951      3.008821     -0.633148
  H       2.342507      4.052865     -0.160566
  H       1.498178      0.373820      4.975894
  H      -1.424308     -1.571984      2.501371
  H      -0.295404      1.175697      6.466930
  H      -3.225004     -0.776792      4.002961
  H      -2.668813      0.607920      5.992151
  Cl     -0.721005     -3.476778     -4.919592
56
Coordinates from ORCA-job R4N+Cl-_altA_r2 E -1372.331588199376
  N      -2.506928     -0.152106     -3.845457
  C       1.344913      1.080945      1.434720
  C       2.121469     -0.036684      2.149751
  C       1.255200     -1.170594      2.721167
  C       0.418508      0.539837      0.368982
  C       2.319718      2.121254      0.854929
  C      -2.242459     -1.058723     -2.636410
  C      -1.321428     -0.475835     -1.607031
  C       0.164385     -0.663322      3.640900
  C      -0.953448      0.800483      0.416663
  C       0.908562     -0.239381     -0.685703
  C       2.140065     -2.201072      3.435126
  C      -3.175826      1.122178     -3.427787
  C      -3.416989     -0.903250     -4.776376
  C      -1.228924      0.167338     -4.565396
  C      -1.815286      0.295529     -0.552458
  C       0.051992     -0.741639     -1.658058
  C       1.620917      3.319989      0.218129
  C       0.470922      0.119806      4.760649
  C      -1.176359     -0.975817      3.396660
  C      -0.534386      0.577452      5.609066
  C      -2.186274     -0.521154      4.244437
  C      -1.868696      0.258786      5.354194
  H       0.717658      1.591868      2.179924
  H       2.708581      0.416830      2.960509
  H       2.845164     -0.479467      1.450983
  H       0.759933     -1.674068      1.879525
  H       2.966720      1.630745      0.114099
  H       2.974753      2.464096      1.667132
  H      -1.819484     -1.981534     -3.051907
  H      -3.226439     -1.262342     -2.203261
  H      -1.353725      1.394300      1.235577
  H       1.970442     -0.467875     -0.742584
  H       2.662094     -1.744438      4.284585
  H       2.895070     -2.600978      2.748096
  H       1.543410     -3.038689      3.813162
  H      -3.393980      1.701748     -4.327430
  H      -2.503937      1.685110     -2.778021
  H      -4.101169      0.877775     -2.901238
  H      -4.345967     -1.129605     -4.247848
  H      -2.914142     -1.825027     -5.085764
  H      -3.625239     -0.270816     -5.642135
  H      -0.761181     -0.773634     -4.873159
  H      -0.574456      0.730903     -3.898291
  H      -1.476730      0.775740     -5.438471
  H      -2.882245      0.495366     -0.483073
  H       0.446632     -1.355622     -2.464712
  H       0.960330      3.817346      0.938987
  H       1.010753      3.015996     -0.640510
  H       2.349767      4.058092     -0.133988
  H       1.506490      0.378503      4.971099
  H      -1.432198     -1.575114      2.524625
  H      -0.276386      1.186399      6.471885
  H      -3.222534     -0.774226      4.034770
  H      -2.653174      0.616644      6.015649
  Cl     -0.707330     -3.498952     -4.943505
56
Coordinates from ORCA-job R4N+Cl-_altA_r2 E -1372.331656106538
  N      -2.500028     -0.152456     -3.854576
  C       1.334871      1.080969      1.435416
  C       2.115049     -0.037568      2.143924
  C       1.250636     -1.171272      2.718152
  C       0.408901      0.541718      0.368428
  C       2.306056      2.126855      0.859910
  C      -2.247753     -1.055902     -2.639224
  C      -1.328273     -0.473550     -1.609296
  C       0.167694     -0.663555      3.646879
  C      -0.962974      0.799354      0.416730
  C       0.900562     -0.233221     -0.688437
  C       2.137258     -2.205298      3.423311
  C      -3.161387      1.128814     -3.446760
  C      -3.410786     -0.901912     -4.786410
  C      -1.216158      0.153134     -4.569380
  C      -1.823316      0.295027     -0.553420
  C       0.045450     -0.735925     -1.661062
  C       1.604832      3.325391      0.228680
  C       0.484197      0.115922      4.766051
  C      -1.174900     -0.972063      3.411953
  C      -0.513325      0.574458      5.622040
  C      -2.177207     -0.516214      4.267297
  C      -1.849854      0.260459      5.375745
  H       0.706774      1.586615      2.183319
  H       2.706940      0.414304      2.951733
  H       2.834953     -0.479496      1.441199
  H       0.747609     -1.671244      1.879010
  H       2.955908      1.640938      0.118801
  H       2.959776      2.467323      1.673984
  H      -1.830327     -1.981655     -3.052622
  H      -3.237435     -1.249540     -2.214918
  H      -1.364408      1.390049      1.236992
  H       1.962897     -0.457959     -0.745834
  H       2.664943     -1.752598      4.270988
  H       2.887834     -2.603830      2.731128
  H       1.542427     -3.043316      3.802423
  H      -3.376209      1.701030     -4.351657
  H      -2.484562      1.691807     -2.802669
  H      -4.086943      0.892102     -2.917721
  H      -4.343331     -1.115789     -4.259483
  H      -2.911820     -1.828432     -5.085530
  H      -3.607187     -0.270977     -5.655648
  H      -0.755022     -0.793190     -4.868197
  H      -0.563404      0.716330     -3.900708
  H      -1.458053      0.758028     -5.446301
  H      -2.890578      0.491410     -0.484257
  H       0.441524     -1.346823     -2.469028
  H       0.937531      3.814435      0.948620
  H       1.000723      3.026521     -0.635522
  H       2.331064      4.070054     -0.114209
  H       1.521785      0.370672      4.969671
  H      -1.438321     -1.569953      2.541506
  H      -0.247578      1.180585      6.484216
  H      -3.215312     -0.766260      4.064459
  H      -2.628534      0.619019      6.043264
  Cl     -0.716075     -3.534232     -4.927547
56
Coordinates from ORCA-job R4N+Cl-_altA_r2 E -1372.331699871379
  N      -2.495076     -0.152039     -3.866483
  C       1.324010      1.075555      1.435338
  C       2.106639     -0.043674      2.139851
  C       1.241013     -1.173475      2.720234
  C       0.401808      0.537020      0.364711
  C       2.292143      2.127339      0.865143
  C      -2.243143     -1.058539     -2.653212
  C      -1.326842     -0.477202     -1.620342
  C       0.169622     -0.659458      3.659041
  C      -0.970950      0.787416      0.412257
  C       0.898713     -0.229900     -0.695293
  C       2.126873     -2.212967      3.417650
  C      -3.156774      1.127205     -3.455469
  C      -3.403541     -0.900626     -4.800394
  C      -1.211566      0.154122     -4.579974
  C      -1.826850      0.283739     -0.561610
  C       0.048047     -0.732465     -1.671171
  C       1.587218      3.326756      0.241512
  C       0.501002      0.116650      4.775856
  C      -1.176526     -0.958513      3.435637
  C      -0.485606      0.581647      5.640064
  C      -2.168062     -0.495990      4.299269
  C      -1.825994      0.277662      5.404727
  H       0.693514      1.575893      2.184593
  H       2.704378      0.407164      2.943677
  H       2.821163     -0.488203      1.433676
  H       0.727710     -1.669751      1.885192
  H       2.943669      1.647158      0.121979
  H       2.945029      2.464775      1.681048
  H      -1.825036     -1.981246     -3.072182
  H      -3.234317     -1.255187     -2.234027
  H      -1.376583      1.372117      1.234578
  H       1.962265     -0.448140     -0.752256
  H       2.663632     -1.764215      4.261468
  H       2.869868     -2.615137      2.719648
  H       1.530460     -3.047720      3.800936
  H      -3.377471      1.699551     -4.358753
  H      -2.477615      1.690964     -2.814488
  H      -4.078941      0.888390     -2.921675
  H      -4.336922     -1.114788     -4.275308
  H      -2.901977     -1.826420     -5.096397
  H      -3.596069     -0.269578     -5.670171
  H      -0.750575     -0.792658     -4.876613
  H      -0.559854      0.717457     -3.910785
  H      -1.453514      0.757388     -5.457874
  H      -2.895164      0.474301     -0.493897
  H       0.448553     -1.338469     -2.480356
  H       0.915491      3.807189      0.962862
  H       0.986766      3.032735     -0.626642
  H       2.310626      4.077410     -0.093858
  H       1.542011      0.363378      4.970989
  H      -1.451314     -1.555427      2.568224
  H      -0.208356      1.185053      6.500404
  H      -3.209425     -0.738862      4.105134
  H      -2.596416      0.641586      6.078739
  Cl     -0.704614     -3.547878     -4.939806
56
Coordinates from ORCA-job R4N+Cl-_altA_r2 E -1372.331733789478
  N      -2.488753     -0.151030     -3.883674
  C       1.309284      1.069236      1.434679
  C       2.094383     -0.050740      2.135493
  C       1.227122     -1.175437      2.723989
  C       0.392249      0.530888      0.359444
  C       2.273921      2.127758      0.870516
  C      -2.237525     -1.061298     -2.673214
  C      -1.325740     -0.482029     -1.635427
  C       0.172141     -0.653758      3.677357
  C      -0.982129      0.771710      0.406053
  C       0.895918     -0.226211     -0.704348
  C       2.112602     -2.223318      3.409321
  C      -3.151811      1.125642     -3.470171
  C      -3.392784     -0.899318     -4.821229
  C      -1.204582      0.156054     -4.593858
  C      -1.832488      0.268912     -0.572912
  C       0.050734     -0.728367     -1.684863
  C       1.563513      3.328400      0.255771
  C       0.524462      0.116528      4.791609
  C      -1.179199     -0.939975      3.470098
  C      -0.446980      0.589018      5.668493
  C      -2.155681     -0.469757      4.346486
  C      -1.792863      0.298502      5.448808
  H       0.675649      1.563601      2.185110
  H       2.699211      0.399085      2.934484
  H       2.802255     -0.498979      1.425156
  H       0.699785     -1.665899      1.894301
  H       2.926517      1.654649      0.123878
  H       2.926072      2.462305      1.688171
  H      -1.816988     -1.980340     -3.097827
  H      -3.229334     -1.263874     -2.258445
  H      -1.393291      1.348721      1.231042
  H       1.961063     -0.436513     -0.760942
  H       2.663526     -1.780424      4.247030
  H       2.843474     -2.631083      2.701842
  H       1.513499     -3.053116      3.799066
  H      -3.377522      1.699357     -4.371402
  H      -2.472490      1.690851     -2.830545
  H      -4.071844      0.885411     -2.933274
  H      -4.328606     -1.115412     -4.301356
  H      -2.887547     -1.824527     -5.112670
  H      -3.580145     -0.270114     -5.693369
  H      -0.742500     -0.791411     -4.886472
  H      -0.553726      0.719725     -3.924210
  H      -1.443265      0.756362     -5.474599
  H      -2.902175      0.452245     -0.506639
  H       0.457147     -1.327399     -2.496275
  H       0.889406      3.800106      0.980584
  H       0.964391      3.038250     -0.614602
  H       2.283410      4.084783     -0.074262
  H       1.570100      0.352580      4.974800
  H      -1.470034     -1.533884      2.605884
  H      -0.153622      1.187706      6.526801
  H      -3.201545     -0.702680      4.164690
  H      -2.551522      0.668703      6.132695
  Cl     -0.688013     -3.561099     -4.951659
56
Coordinates from ORCA-job R4N+Cl-_altA_r2 E -1372.331750074249
  N      -2.485550     -0.149577     -3.895422
  C       1.299873      1.064020      1.433714
  C       2.086083     -0.055530      2.134236
  C       1.218356     -1.176607      2.729024
  C       0.386363      0.524757      0.355711
  C       2.262871      2.125989      0.872994
  C      -2.232910     -1.064189     -2.688654
  C      -1.324584     -0.487140     -1.646413
  C       0.173897     -0.649625      3.691099
  C      -0.989382      0.759408      0.401264
  C       0.894593     -0.226645     -0.710094
  C       2.104350     -2.229192      3.406963
  C      -3.151258      1.123963     -3.478056
  C      -3.386328     -0.897386     -4.836345
  C      -1.201318      0.161409     -4.603527
  C      -1.836149      0.257167     -0.581394
  C       0.052974     -0.728230     -1.694227
  C       1.549522      3.327738      0.262747
  C       0.539369      0.118364      4.802833
  C      -1.180780     -0.928358      3.494438
  C      -0.422673      0.596017      5.687580
  C      -2.147876     -0.452907      4.378702
  C      -1.772027      0.313086      5.478445
  H       0.663815      1.555597      2.183982
  H       2.694788      0.394881      2.930024
  H       2.790337     -0.506728      1.422083
  H       0.682269     -1.664204      1.903237
  H       2.915760      1.656845      0.124076
  H       2.914502      2.459281      1.691599
  H      -1.809169     -1.979858     -3.117700
  H      -3.223987     -1.273157     -2.275227
  H      -1.404304      1.331831      1.227680
  H       1.960707     -0.432492     -0.766178
  H       2.665725     -1.788946      4.239243
  H       2.826088     -2.641873      2.692867
  H       1.503638     -3.055030      3.802886
  H      -3.379320      1.700646     -4.376918
  H      -2.473691      1.689484     -2.836677
  H      -4.070805      0.881054     -2.941312
  H      -4.323581     -1.117057     -4.320472
  H      -2.878289     -1.821423     -5.127210
  H      -3.572159     -0.268636     -5.709200
  H      -0.736410     -0.785136     -4.895103
  H      -0.551343      0.725581     -3.933421
  H      -1.438308      0.760801     -5.485362
  H      -2.906679      0.436544     -0.516333
  H       0.463474     -1.322409     -2.507266
  H       0.876299      3.796212      0.990578
  H       0.949037      3.038673     -0.607137
  H       2.267839      4.085936     -0.066807
  H       1.587757      0.348549      4.978049
  H      -1.481650     -1.520822      2.632641
  H      -0.119267      1.192727      6.543861
  H      -3.196478     -0.680036      4.205125
  H      -2.523189      0.687490      6.168402
  Cl     -0.673693     -3.561766     -4.964223
56
Coordinates from ORCA-job R4N+Cl-_altA_r2 E -1372.331759088288
  N      -2.483189     -0.147760     -3.902713
  C       1.293797      1.061037      1.432790
  C       2.081337     -0.057128      2.134159
  C       1.215268     -1.176968      2.733400
  C       0.381727      0.520310      0.354112
  C       2.255587      2.124454      0.872902
  C      -2.232420     -1.065040     -2.697689
  C      -1.326126     -0.490414     -1.652033
  C       0.175984     -0.648107      3.699946
  C      -0.994698      0.753114      0.398485
  C       0.891864     -0.229758     -0.711879
  C       2.103581     -2.230427      3.407370
  C      -3.148672      1.125507     -3.484338
  C      -3.383011     -0.893753     -4.846248
  C      -1.197446      0.163418     -4.608465
  C      -1.839910      0.251651     -0.586300
  C       0.051743     -0.730673     -1.698046
  C       1.540497      3.326361      0.263801
  C       0.547537      0.120248      4.809628
  C      -1.180147     -0.925293      3.509578
  C      -0.410148      0.599681      5.698588
  C      -2.142841     -0.448080      4.398041
  C      -1.760997      0.318231      5.495805
  H       0.656370      1.551715      2.182624
  H       2.691612      0.394982      2.927876
  H       2.784307     -0.509527      1.421328
  H       0.674950     -1.664434      1.910231
  H       2.908535      1.657044      0.122869
  H       2.906850      2.458187      1.691641
  H      -1.807638     -1.979848     -3.127828
  H      -3.223503     -1.275753     -2.285050
  H      -1.411238      1.324407      1.224981
  H       1.958233     -0.434861     -0.767289
  H       2.671431     -1.789992      4.235292
  H       2.819590     -2.645941      2.689062
  H       1.503352     -3.054257      3.808451
  H      -3.374030      1.704504     -4.382489
  H      -2.472666      1.689434     -2.839828
  H      -4.070111      0.882924     -2.950531
  H      -4.322027     -1.113238     -4.333403
  H      -2.875738     -1.818407     -5.137011
  H      -3.566651     -0.264886     -5.719579
  H      -0.731266     -0.783043     -4.898714
  H      -0.548119      0.727713     -3.937738
  H      -1.431626      0.762577     -5.491248
  H      -2.910642      0.430653     -0.522325
  H       0.464072     -1.322887     -2.511696
  H       0.869590      3.795020      0.993773
  H       0.937507      3.036272     -0.604096
  H       2.258063      4.084285     -0.068190
  H       1.596993      0.349414      4.980134
  H      -1.485573     -1.518048      2.649575
  H      -0.102144      1.196586      6.553169
  H      -3.192555     -0.674065      4.229411
  H      -2.508534      0.694002      6.189032
  Cl     -0.669581     -3.562051     -4.967924
56
Coordinates from ORCA-job R4N+Cl-_altA_r2 E -1372.331765154541
  N      -2.480514     -0.146162     -3.909858
  C       1.287280      1.057071      1.432014
  C       2.076492     -0.059338      2.134120
  C       1.212346     -1.177733      2.738309
  C       0.376613      0.514773      0.352836
  C       2.247583      2.121993      0.872724
  C      -2.231512     -1.066684     -2.707021
  C      -1.327707     -0.494312     -1.657703
  C       0.178261     -0.646438      3.708957
  C      -1.000458      0.745150      0.396205
  C       0.888925     -0.233076     -0.713738
  C       2.102988     -2.231558      3.408822
  C      -3.146640      1.126311     -3.489627
  C      -3.379295     -0.889686     -4.856638
  C      -1.193423      0.166843     -4.612917
  C      -1.843948      0.244558     -0.590777
  C       0.050527     -0.733001     -1.702153
  C       1.531023      3.323536      0.263867
  C       0.556019      0.122311      4.816416
  C      -1.179332     -0.921160      3.524580
  C      -0.397135      0.604305      5.709127
  C      -2.137471     -0.441311      4.416729
  C      -1.749486      0.325253      5.512360
  H       0.648398      1.546787      2.181368
  H       2.688465      0.394830      2.925417
  H       2.778037     -0.513043      1.420600
  H       0.667673     -1.665539      1.918142
  H       2.901176      1.656073      0.122262
  H       2.898065      2.456631      1.691710
  H      -1.805170     -1.980230     -3.138428
  H      -3.222912     -1.279096     -2.295920
  H      -1.418792      1.314478      1.223222
  H       1.955598     -0.436910     -0.768638
  H       2.677357     -1.790397      4.231933
  H       2.813169     -2.650212      2.686529
  H       1.503599     -3.053248      3.815631
  H      -3.368313      1.708118     -4.386915
  H      -2.472679      1.687815     -2.840866
  H      -4.070257      0.882665     -2.960019
  H      -4.319680     -1.109162     -4.346239
  H      -2.873031     -1.814481     -5.148853
  H      -3.561341     -0.259084     -5.729112
  H      -0.724901     -0.778608     -4.902833
  H      -0.546052      0.731741     -3.940743
  H      -1.426103      0.766680     -5.495660
  H      -2.914948      0.422430     -0.527579
  H       0.464819     -1.322621     -2.516726
  H       0.862052      3.792796      0.995289
  H       0.926012      3.032178     -0.602221
  H       2.247939      4.081094     -0.070410
  H       1.606579      0.349844      4.982430
  H      -1.489427     -1.514184      2.666458
  H      -0.084370      1.201404      6.561876
  H      -3.188354     -0.665416      4.252770
  H      -2.493322      0.703023      6.208512
  Cl     -0.663292     -3.558909     -4.974218
56
Coordinates from ORCA-job R4N+Cl-_altA_r2 E -1372.331770186798
  N      -2.476974     -0.144775     -3.916293
  C       1.280467      1.053627      1.431318
  C       2.072004     -0.060810      2.133678
  C       1.210244     -1.178296      2.742570
  C       0.370854      0.509606      0.352089
  C       2.238703      2.120187      0.871832
  C      -2.231833     -1.067955     -2.714851
  C      -1.330361     -0.497952     -1.662060
  C       0.180866     -0.645184      3.717147
  C      -1.006576      0.738267      0.394390
  C       0.884918     -0.236870     -0.714590
  C       2.103484     -2.231927      3.409891
  C      -3.142602      1.127901     -3.495117
  C      -3.375167     -0.884789     -4.866529
  C      -1.187893      0.168666     -4.615854
  C      -1.848554      0.238541     -0.594409
  C       0.048021     -0.736012     -1.704747
  C       1.520244      3.320220      0.262043
  C       0.564256      0.123285      4.822906
  C      -1.177926     -0.917522      3.538167
  C      -0.384640      0.607290      5.719094
  C      -2.131800     -0.435606      4.433757
  C      -1.738249      0.330676      5.527625
  H       0.640423      1.542297      2.180431
  H       2.685601      0.395476      2.922494
  H       2.772192     -0.515343      1.419330
  H       0.661586     -1.666682      1.925357
  H       2.893540      1.655399      0.121744
  H       2.888053      2.456684      1.690937
  H      -1.804738     -1.981037     -3.146484
  H      -3.224419     -1.280020     -2.306415
  H      -1.426338      1.306299      1.221585
  H       1.951760     -0.439936     -0.768805
  H       2.683464     -1.789846      4.228563
  H       2.808622     -2.652907      2.684042
  H       1.505554     -3.052101      3.821843
  H      -3.358671      1.712477     -4.391948
  H      -2.470398      1.685894     -2.841574
  H      -4.069124      0.884130     -2.970706
  H      -4.317124     -1.102757     -4.358359
  H      -2.871173     -1.810275     -5.160313
  H      -3.554656     -0.251682     -5.737736
  H      -0.717634     -0.776087     -4.905087
  H      -0.542987      0.734012     -3.941642
  H      -1.418648      0.769353     -5.498526
  H      -2.919693      0.415868     -0.532157
  H       0.463807     -1.323957     -2.519758
  H       0.852137      3.790056      0.993882
  H       0.914220      3.026899     -0.602654
  H       2.236159      4.077826     -0.074199
  H       1.615798      0.349058      4.985000
  H      -1.492264     -1.510564      2.681649
  H      -0.067500      1.204096      6.570425
  H      -3.183703     -0.657883      4.273961
  H      -2.478685      0.710002      6.226535
  Cl     -0.659519     -3.556226     -4.978069
56
Coordinates from ORCA-job R4N+Cl-_altA_r2 E -1372.331773999666
  N      -2.473414     -0.143490     -3.921735
  C       1.274065      1.049859      1.430825
  C       2.068266     -0.062578      2.133106
  C       1.208609     -1.179113      2.746549
  C       0.365413      0.504075      0.351662
  C       2.229825      2.118298      0.870661
  C      -2.232110     -1.069451     -2.721771
  C      -1.332786     -0.501877     -1.665770
  C       0.183476     -0.643875      3.724457
  C      -1.012240      0.730912      0.393151
  C       0.881139     -0.240769     -0.715305
  C       2.103946     -2.232265      3.411620
  C      -3.138891      1.129012     -3.498980
  C      -3.370815     -0.879661     -4.875640
  C      -1.182644      0.171118     -4.617668
  C      -1.852737      0.232010     -0.597259
  C       0.045735     -0.739157     -1.706982
  C       1.509035      3.315968      0.259307
  C       0.572067      0.123918      4.828822
  C      -1.176405     -0.913038      3.549849
  C      -0.372845      0.610367      5.727731
  C      -2.126318     -0.428612      4.448151
  C      -1.727621      0.337012      5.540497
  H       0.633114      1.537358      2.179924
  H       2.683544      0.395674      2.919422
  H       2.766964     -0.517954      1.417906
  H       0.656357     -1.668227      1.932190
  H       2.886355      1.654381      0.121545
  H       2.877865      2.457163      1.689813
  H      -1.804249     -1.981878     -3.153965
  H      -3.226160     -1.281105     -2.316734
  H      -1.433339      1.297476      1.220649
  H       1.948193     -0.442650     -0.768969
  H       2.688232     -1.789239      4.226651
  H       2.805230     -2.655112      2.683175
  H       1.507432     -3.051262      3.827828
  H      -3.349894      1.716667     -4.394948
  H      -2.468274      1.683334     -2.840775
  H      -4.067906      0.884505     -2.979437
  H      -4.313943     -1.096931     -4.369347
  H      -2.868640     -1.805302     -5.171736
  H      -3.548064     -0.243272     -5.744890
  H      -0.710632     -0.772696     -4.906853
  H      -0.540502      0.736641     -3.940967
  H      -1.412055      0.772986     -5.499866
  H      -2.924035      0.408511     -0.535890
  H       0.462827     -1.325620     -2.522353
  H       0.840069      3.785571      0.990466
  H       0.903596      3.020530     -0.605028
  H       2.223551      4.074527     -0.077669
  H       1.624594      0.347202      4.987745
  H      -1.494696     -1.505918      2.694730
  H      -0.051618      1.206560      6.577930
  H      -3.179206     -0.648470      4.291704
  H      -2.464974      0.718284      6.241565
  Cl     -0.655356     -3.551302     -4.983686
56
Coordinates from ORCA-job R4N+Cl-_altA_r2 E -1372.331776225158
  N      -2.471024     -0.142563     -3.924736
  C       1.269996      1.047277      1.430543
  C       2.066150     -0.063837      2.132595
  C       1.207653     -1.179718      2.748987
  C       0.361934      0.500257      0.351522
  C       2.223849      2.117105      0.869515
  C      -2.232404     -1.070510     -2.725763
  C      -1.334384     -0.504727     -1.667779
  C       0.185209     -0.642914      3.728944
  C      -1.015802      0.725902      0.392633
  C       0.878664     -0.243567     -0.715642
  C       2.104069     -2.232543      3.412928
  C      -3.136709      1.129510     -3.500621
  C      -3.367433     -0.876103     -4.881424
  C      -1.179142      0.173209     -4.617858
  C      -1.855356      0.227487     -0.598717
  C       0.044221     -0.741539     -1.708152
  C       1.501084      3.312443      0.256424
  C       0.577206      0.123910      4.832715
  C      -1.175399     -0.909318      3.556681
  C      -0.365099      0.612188      5.733183
  C      -2.122745     -0.423025      4.456565
  C      -1.720678      0.341684      5.548182
  H       0.628679      1.533976      2.179796
  H       2.682631      0.395560      2.917251
  H       2.763725     -0.519852      1.416788
  H       0.653134     -1.669231      1.936434
  H       2.881862      1.653491      0.121547
  H       2.870820      2.458071      1.688634
  H      -1.804013     -1.982360     -3.158621
  H      -3.227591     -1.282004     -2.323517
  H      -1.437707      1.291513      1.220340
  H       1.945887     -0.444477     -0.768925
  H       2.690343     -1.789093      4.226238
  H       2.803629     -2.656169      2.683311
  H       1.508386     -3.051058      3.831177
  H      -3.345005      1.719399     -4.395710
  H      -2.467090      1.681568     -2.839546
  H      -4.067042      0.884233     -2.983875
  H      -4.311169     -1.093934     -4.376522
  H      -2.865720     -1.801355     -5.179351
  H      -3.543280     -0.237229     -5.749102
  H      -0.706122     -0.769982     -4.907299
  H      -0.538889      0.738394     -3.939096
  H      -1.407532      0.775989     -5.499675
  H      -2.926773      0.403353     -0.538002
  H       0.462023     -1.327237     -2.523678
  H       0.829840      3.781037      0.986104
  H       0.897620      3.015304     -0.608682
  H       2.214267      4.072524     -0.079903
  H       1.630453      0.344924      4.989903
  H      -1.496314     -1.501721      2.702242
  H      -0.041190      1.207565      6.582911
  H      -3.176315     -0.640768      4.301896
  H      -2.456072      0.724437      6.250471
  Cl     -0.652204     -3.546382     -4.988858
56
Coordinates from ORCA-job R4N+Cl-_altA_r2 E -1372.331778124186
  N      -2.469333     -0.141412     -3.926684
  C       1.266904      1.044774      1.430254
  C       2.064696     -0.065112      2.132324
  C       1.207019     -1.180327      2.751319
  C       0.359284      0.496541      0.351499
  C       2.219121      2.115673      0.868095
  C      -2.232544     -1.071585     -2.728930
  C      -1.335586     -0.507606     -1.669241
  C       0.186629     -0.641953      3.732655
  C      -1.018515      0.721307      0.392371
  C       0.876764     -0.246595     -0.715780
  C       2.104184     -2.232716      3.414777
  C      -3.135987      1.129579     -3.500753
  C      -3.364171     -0.872875     -4.886241
  C      -1.176616      0.176360     -4.617078
  C      -1.857336      0.223283     -0.599724
  C       0.043081     -0.744199     -1.708945
  C       1.494520      3.308444      0.252629
  C       0.581298      0.124095      4.835974
  C      -1.174592     -0.905778      3.561912
  C      -0.359006      0.614196      5.737411
  C      -2.119978     -0.417640      4.462806
  C      -1.715267      0.346314      5.553874
  H       0.625449      1.531022      2.179625
  H       2.682172      0.395287      2.915580
  H       2.761307     -0.521883      1.416126
  H       0.650789     -1.670299      1.940243
  H       2.878647      1.651905      0.121577
  H       2.864971      2.458951      1.687136
  H      -1.803418     -1.982530     -3.162985
  H      -3.228591     -1.283662     -2.329205
  H      -1.441025      1.286216      1.220224
  H       1.944145     -0.446677     -0.768670
  H       2.691488     -1.788872      4.227091
  H       2.802926     -2.656805      2.684658
  H       1.509087     -3.050957      3.834347
  H      -3.343066      1.721618     -4.394679
  H      -2.467397      1.680185     -2.837439
  H      -4.066979      0.882948     -2.985875
  H      -4.308178     -1.092898     -4.382809
  H      -2.861596     -1.796982     -5.186265
  H      -3.539360     -0.231610     -5.752259
  H      -0.702624     -0.766106     -4.907326
  H      -0.537977      0.740761     -3.936158
  H      -1.404092      0.780227     -5.498366
  H      -2.928862      0.398647     -0.539657
  H       0.461361     -1.329367     -2.524593
  H       0.819890      3.775601      0.980089
  H       0.894146      3.009431     -0.613980
  H       2.206339      4.070428     -0.082290
  H       1.635162      0.342976      4.991945
  H      -1.497594     -1.497730      2.707962
  H      -0.033010      1.208908      6.586793
  H      -3.174111     -0.633422      4.309299
  H      -2.449173      0.730534      6.256905
  Cl     -0.648267     -3.539524     -4.996164
56
Coordinates from ORCA-job R4N+Cl-_altA_r2 E -1372.331779998605
  N      -2.468093     -0.139758     -3.928133
  C       1.264154      1.042062      1.429795
  C       2.063388     -0.066450      2.132322
  C       1.206550     -1.180931      2.754065
  C       0.356860      0.492429      0.351516
  C       2.214950      2.113671      0.866181
  C      -2.232677     -1.072760     -2.732050
  C      -1.336813     -0.510870     -1.670511
  C       0.187965     -0.640911      3.736440
  C      -1.021008      0.716706      0.392091
  C       0.874918     -0.250489     -0.715658
  C       2.104542     -2.232665      3.417333
  C      -3.136550      1.129462     -3.499953
  C      -3.360529     -0.869448     -4.891133
  C      -1.174496      0.180925     -4.615350
  C      -1.859236      0.219064     -0.600688
  C       0.041862     -0.747671     -1.709458
  C       1.488668      3.303579      0.247433
  C       0.584983      0.124834      4.839132
  C      -1.173822     -0.902544      3.567074
  C      -0.353599      0.616807      5.741296
  C      -2.117521     -0.412520      4.468743
  C      -1.710486      0.351116      5.559133
  H       0.622660      1.528269      2.179125
  H       2.681731      0.395122      2.914203
  H       2.759157     -0.524168      1.415939
  H       0.648836     -1.671591      1.944443
  H       2.876073      1.649309      0.121445
  H       2.859498      2.459692      1.685099
  H      -1.802528     -1.982418     -3.167837
  H      -3.229357     -1.286139     -2.334667
  H      -1.443986      1.281250      1.219947
  H       1.942416     -0.450089     -0.768014
  H       2.692663     -1.788226      4.228726
  H       2.802672     -2.657251      2.686914
  H       1.510000     -3.050617      3.838264
  H      -3.343290      1.723712     -4.392487
  H      -2.469337      1.679206     -2.834525
  H      -4.067887      0.880846     -2.986647
  H      -4.304676     -1.093240     -4.389633
  H      -2.855807     -1.791619     -5.193658
  H      -3.535607     -0.225653     -5.755284
  H      -0.699349     -0.760612     -4.906903
  H      -0.537504      0.744103     -3.931877
  H      -1.400821      0.786287     -5.495897
  H      -2.930839      0.394217     -0.541363
  H       0.460475     -1.332472     -2.525208
  H       0.809926      3.769229      0.972040
  H       0.892176      3.002185     -0.621059
  H       2.199121      4.067577     -0.085837
  H       1.639398      0.341922      4.993913
  H      -1.498677     -1.494286      2.713686
  H      -0.025804      1.211226      6.590190
  H      -3.172148     -0.626651      4.316311
  H      -2.443092      0.736811      6.262715
  Cl     -0.642970     -3.530474     -5.006280
56
Coordinates from ORCA-job R4N+Cl-_altA_r2 E -1372.331781873986
  N      -2.467285     -0.137501     -3.929202
  C       1.261610      1.039027      1.429079
  C       2.062081     -0.067871      2.132633
  C       1.206258     -1.181519      2.757423
  C       0.354487      0.487731      0.351549
  C       2.211257      2.110860      0.863668
  C      -2.232871     -1.074068     -2.735396
  C      -1.338238     -0.514617     -1.671678
  C       0.189265     -0.639779      3.740505
  C      -1.023451      0.711990      0.391688
  C       0.872941     -0.255539     -0.715219
  C       2.105324     -2.232256      3.420770
  C      -3.138494      1.129220     -3.498390
  C      -3.356369     -0.865656     -4.896415
  C      -1.172659      0.187133     -4.612605
  C      -1.861240      0.214769     -0.601728
  C       0.040357     -0.752185     -1.709672
  C       1.483603      3.297758      0.240752
  C       0.588302      0.126471      4.842167
  C      -1.173016     -0.899948      3.572659
  C      -0.348821      0.620332      5.744858
  C      -2.115273     -0.408023      4.474895
  C      -1.706240      0.356056      5.564256
  H       0.620101      1.525688      2.178107
  H       2.681142      0.395216      2.913072
  H       2.757171     -0.526724      1.416302
  H       0.647254     -1.673271      1.949346
  H       2.873959      1.645487      0.120946
  H       2.854352      2.460035      1.682391
  H      -1.801379     -1.982040     -3.173402
  H      -3.229945     -1.289400     -2.340089
  H      -1.446745      1.276581      1.219360
  H       1.940478     -0.455169     -0.766904
  H       2.694446     -1.786792      4.230901
  H       2.802650     -2.657662      2.690048
  H       1.511416     -3.049726      3.843582
  H      -3.345410      1.725718     -4.389402
  H      -2.473195      1.678583     -2.830706
  H      -4.070038      0.877865     -2.986756
  H      -4.300594     -1.094641     -4.397408
  H      -2.848261     -1.785058     -5.201916
  H      -3.531892     -0.219049     -5.758383
  H      -0.695961     -0.753125     -4.905984
  H      -0.537601      0.748771     -3.926054
  H      -1.397612      0.794597     -5.492055
  H      -2.932862      0.390121     -0.543194
  H       0.459157     -1.336784     -2.525503
  H       0.800719      3.762331      0.962186
  H       0.891160      2.993380     -0.629514
  H       2.192858      4.063449     -0.091238
  H       1.643161      0.342413      4.995617
  H      -1.499473     -1.491998      2.720092
  H      -0.019516      1.215095      6.592938
  H      -3.170302     -0.621071      4.323671
  H      -2.437700      0.743207      6.268247
  Cl     -0.635933     -3.519319     -5.019486
56
Coordinates from ORCA-job R4N+Cl-_altA_r2 E -1372.331783360940
  N      -2.466971     -0.135319     -3.929646
  C       1.259869      1.036613      1.428289
  C       2.061099     -0.068881      2.133069
  C       1.206253     -1.181872      2.760330
  C       0.352659      0.483846      0.351621
  C       2.208902      2.108114      0.861188
  C      -2.233324     -1.075020     -2.737960
  C      -1.339701     -0.517683     -1.672311
  C       0.190217     -0.638922      3.743672
  C      -1.025295      0.708611      0.391305
  C       0.871165     -0.260289     -0.714531
  C       2.106396     -2.231539      3.423942
  C      -3.140943      1.129101     -3.496880
  C      -3.352705     -0.862516     -4.900719
  C      -1.171286      0.192899     -4.609486
  C      -1.862966      0.211769     -0.602478
  C       0.038722     -0.756431     -1.709422
  C       1.480552      3.292764      0.234535
  C       0.590382      0.128521      4.844155
  C      -1.172319     -0.898930      3.577216
  C      -0.345916      0.623613      5.747118
  C      -2.113741     -0.405762      4.479733
  C      -1.703593      0.359430      5.567960
  H       0.618369      1.524065      2.176846
  H       2.680543      0.395663      2.912369
  H       2.755860     -0.528647      1.416964
  H       0.646495     -1.674837      1.953489
  H       2.872640      1.641670      0.120034
  H       2.850880      2.459946      1.679643
  H      -1.800740     -1.981584     -3.177765
  H      -3.230555     -1.291981     -2.343928
  H      -1.448615      1.273693      1.218650
  H       1.938631     -0.460526     -0.765665
  H       2.696609     -1.784850      4.232641
  H       2.802751     -2.657946      2.692868
  H       1.513091     -3.048420      3.848789
  H      -3.347991      1.727150     -4.386845
  H      -2.477589      1.678496     -2.827270
  H      -4.072715      0.875208     -2.986878
  H      -4.297061     -1.096163     -4.404120
  H      -2.841174     -1.779261     -5.208639
  H      -3.528841     -0.213576     -5.760832
  H      -0.693078     -0.746133     -4.904469
  H      -0.538091      0.753252     -3.920139
  H      -1.394918      0.802482     -5.487815
  H      -2.934519      0.387757     -0.544483
  H       0.457472     -1.341097     -2.525267
  H       0.795208      3.757338      0.953664
  H       0.890635      2.985599     -0.636508
  H       2.189185      4.059073     -0.097378
  H       1.645430      0.344419      4.996445
  H      -1.499667     -1.491790      2.725548
  H      -0.015795      1.219277      6.594263
  H      -3.168957     -0.618727      4.329623
  H      -2.434356      0.747507      6.272181
  Cl     -0.629462     -3.510084     -5.031311
56
Coordinates from ORCA-job R4N+Cl-_altA_r2 E -1372.331784377834
  N      -2.467063     -0.133954     -3.929399
  C       1.259357      1.035533      1.427729
  C       2.060792     -0.069198      2.133401
  C       1.206554     -1.181910      2.761799
  C       0.351841      0.481933      0.351761
  C       2.208316      2.106401      0.859485
  C      -2.234009     -1.075257     -2.738891
  C      -1.340803     -0.519098     -1.672188
  C       0.190611     -0.638594      3.744955
  C      -1.026053      0.707454      0.391173
  C       0.870066     -0.263160     -0.713843
  C       2.107374     -2.230796      3.425808
  C      -3.142838      1.129204     -3.496025
  C      -3.350541     -0.860942     -4.902808
  C      -1.170581      0.196258     -4.606975
  C      -1.863930      0.210867     -0.602612
  C       0.037423     -0.758975     -1.708808
  C       1.479952      3.290117      0.230741
  C       0.590769      0.130148      4.844565
  C      -1.171880     -0.899555      3.579293
  C      -0.345499      0.625483      5.747492
  C      -2.113250     -0.406137      4.481753
  C      -1.703107      0.360294      5.569163
  H       0.617917      1.523744      2.175883
  H       2.680246      0.396253      2.912169
  H       2.755594     -0.529343      1.417545
  H       0.646751     -1.675791      1.955524
  H       2.872288      1.639208      0.118997
  H       2.849876      2.459643      1.677650
  H      -1.801081     -1.981266     -3.179403
  H      -3.231253     -1.292747     -2.345145
  H      -1.449119      1.273203      1.218208
  H       1.937390     -0.464242     -0.764781
  H       2.698334     -1.783118      4.233435
  H       2.802984     -2.658005      2.694493
  H       1.514449     -3.047217      3.852090
  H      -3.349700      1.727716     -4.385733
  H      -2.480810      1.678849     -2.825306
  H      -4.074872      0.873837     -2.987223
  H      -4.295093     -1.097072     -4.407750
  H      -2.836772     -1.776075     -5.211776
  H      -3.527068     -0.210793     -5.761950
  H      -0.691374     -0.742025     -4.902690
  H      -0.538705      0.756077     -3.915953
  H      -1.393354      0.807207     -5.484581
  H      -2.935357      0.387656     -0.544717
  H       0.455914     -1.343928     -2.524601
  H       0.794531      3.755721      0.949140
  H       0.890248      2.981216     -0.639848
  H       2.188632      4.055883     -0.102296
  H       1.645730      0.346905      4.996265
  H      -1.499212     -1.493358      2.728274
  H      -0.015410      1.222151      6.593950
  H      -3.168409     -0.619859      4.332283
  H      -2.433789      0.748535      6.273384
  Cl     -0.625878     -3.505992     -5.037700
56
Coordinates from ORCA-job R4N+Cl-_altA_r2 E -1372.331785067385
  N      -2.467306     -0.133385     -3.928848
  C       1.259604      1.035301      1.427440
  C       2.060964     -0.069197      2.133546
  C       1.206912     -1.181826      2.762137
  C       0.351755      0.481401      0.351903
  C       2.208712      2.105587      0.858552
  C      -2.234635     -1.075088     -2.738765
  C      -1.341401     -0.519368     -1.671733
  C       0.190635     -0.638559      3.744925
  C      -1.026043      0.707524      0.391248
  C       0.869619     -0.264359     -0.713379
  C       2.107920     -2.230307      3.426612
  C      -3.144153      1.129254     -3.495613
  C      -3.349518     -0.860607     -4.903339
  C      -1.170404      0.197806     -4.605303
  C      -1.864224      0.211085     -0.602360
  C       0.036674     -0.760003     -1.708212
  C       1.480620      3.289263      0.229192
  C       0.590265      0.131156      4.844037
  C      -1.171678     -0.900651      3.579531
  C      -0.346337      0.626270      5.746753
  C      -2.113364     -0.407454      4.481747
  C      -1.703741      0.359926      5.568699
  H       0.618257      1.524017      2.175363
  H       2.680294      0.396629      2.912188
  H       2.755921     -0.529380      1.417854
  H       0.647405     -1.676228      1.955965
  H       2.872427      1.638017      0.118075
  H       2.850384      2.459233      1.676447
  H      -1.801873     -1.981139     -3.179243
  H      -3.231855     -1.292364     -2.344805
  H      -1.448793      1.273775      1.218106
  H       1.936807     -0.466121     -0.764400
  H       2.699227     -1.782022      4.233644
  H       2.803121     -2.658062      2.695231
  H       1.515113     -3.046423      3.853624
  H      -3.350606      1.727691     -4.385461
  H      -2.482922      1.679100     -2.824285
  H      -4.076438      0.873105     -2.987677
  H      -4.294232     -1.097611     -4.409005
  H      -2.834557     -1.774980     -5.212441
  H      -3.526246     -0.210007     -5.762105
  H      -0.690452     -0.740032     -4.901071
  H      -0.539479      0.757803     -3.913533
  H      -1.392920      0.809334     -5.482570
  H      -2.935529      0.388513     -0.544285
  H       0.454876     -1.345274     -2.523926
  H       0.796556      3.756282      0.947955
  H       0.889671      2.979641     -0.640291
  H       2.189676      4.053958     -0.105455
  H       1.645039      0.348896      4.995618
  H      -1.498573     -1.495211      2.728871
  H      -0.016647      1.223698      6.592829
  H      -3.168374     -0.622050      4.332494
  H      -2.434652      0.747991      6.272774
  Cl     -0.624373     -3.505457     -5.039850
56
Coordinates from ORCA-job R4N+Cl-_altA_r2 E -1372.331785612043
  N      -2.467479     -0.133243     -3.928357
  C       1.259970      1.035264      1.427291
  C       2.061253     -0.069236      2.133509
  C       1.207126     -1.181781      2.762014
  C       0.351863      0.481301      0.351995
  C       2.209179      2.105185      0.857990
  C      -2.235145     -1.074856     -2.738369
  C      -1.341731     -0.519308     -1.671312
  C       0.190577     -0.638546      3.744530
  C      -1.025845      0.707741      0.391410
  C       0.869438     -0.264788     -0.713172
  C       2.108015     -2.230145      3.426891
  C      -3.145214      1.129092     -3.495419
  C      -3.348773     -0.860794     -4.903488
  C      -1.170369      0.198749     -4.604079
  C      -1.864273      0.211395     -0.602022
  C       0.036255     -0.760340     -1.707832
  C       1.481289      3.289069      0.228726
  C       0.589802      0.131677      4.843403
  C      -1.171599     -0.901299      3.579190
  C      -0.347050      0.626617      5.745931
  C      -2.113526     -0.408278      4.481193
  C      -1.704302      0.359611      5.567920
  H       0.618749      1.524231      2.175151
  H       2.680539      0.396673      2.912122
  H       2.756263     -0.529393      1.417862
  H       0.647855     -1.676399      1.955817
  H       2.872534      1.637455      0.117307
  H       2.851167      2.458820      1.675639
  H      -1.802695     -1.981152     -3.178563
  H      -3.232393     -1.291699     -2.344229
  H      -1.448351      1.274234      1.218222
  H       1.936536     -0.466934     -0.764384
  H       2.699426     -1.781584      4.233673
  H       2.803045     -2.658247      2.695556
  H       1.515153     -3.046067      3.854163
  H      -3.351080      1.727496     -4.385410
  H      -2.484656      1.678969     -2.823467
  H      -4.077787      0.872325     -2.988355
  H      -4.293602     -1.098216     -4.409572
  H      -2.833018     -1.774721     -5.212447
  H      -3.525579     -0.209969     -5.762062
  H      -0.689555     -0.738697     -4.899526
  H      -0.540396      0.759346     -3.911917
  H      -1.392943      0.810321     -5.481293
  H      -2.935494      0.389204     -0.543699
  H       0.454231     -1.345858     -2.523476
  H       0.798813      3.757331      0.948172
  H       0.888797      2.979266     -0.639628
  H       2.190698      4.052781     -0.107380
  H       1.644442      0.349996      4.995032
  H      -1.498145     -1.496287      2.728697
  H      -0.017644      1.224441      6.591831
  H      -3.168434     -0.623377      4.331983
  H      -2.435406      0.747552      6.271853
  Cl     -0.623399     -3.505837     -5.040208
56
Coordinates from ORCA-job R4N+Cl-_altA_r2 E -1372.331786296241
  N      -2.467612     -0.133230     -3.927905
  C       1.260325      1.035147      1.427136
  C       2.061570     -0.069439      2.133318
  C       1.207211     -1.181811      2.761740
  C       0.351946      0.481192      0.352057
  C       2.209562      2.104786      0.857378
  C      -2.235783     -1.074585     -2.737882
  C      -1.342107     -0.519236     -1.670891
  C       0.190547     -0.638462      3.744098
  C      -1.025663      0.707849      0.391643
  C       0.869222     -0.265103     -0.713094
  C       2.107794     -2.230226      3.426994
  C      -3.146660      1.128650     -3.495361
  C      -3.347603     -0.861253     -4.903882
  C      -1.170285      0.200010     -4.602582
  C      -1.864338      0.211607     -0.601612
  C       0.035807     -0.760571     -1.707545
  C       1.481783      3.288901      0.228472
  C       0.589587      0.132008      4.842821
  C      -1.171553     -0.901488      3.578789
  C      -0.347357      0.626922      5.745221
  C      -2.113569     -0.408498      4.480651
  C      -1.704525      0.359650      5.567228
  H       0.619313      1.524282      2.175043
  H       2.680938      0.396429      2.911870
  H       2.756499     -0.529627      1.417635
  H       0.648038     -1.676485      1.955526
  H       2.872505      1.636916      0.116435
  H       2.852001      2.458300      1.674728
  H      -1.803754     -1.981247     -3.177670
  H      -3.233149     -1.290865     -2.343729
  H      -1.447932      1.274472      1.218478
  H       1.936246     -0.467514     -0.764563
  H       2.699200     -1.781570      4.233697
  H       2.802773     -2.658606      2.695774
  H       1.514764     -3.045987      3.854296
  H      -3.351563      1.727247     -4.385423
  H      -2.487161      1.678449     -2.822320
  H      -4.079718      0.871008     -2.989672
  H      -4.292545     -1.099437     -4.410553
  H      -2.830748     -1.774592     -5.212621
  H      -3.524434     -0.210166     -5.762236
  H      -0.687991     -0.736860     -4.897266
  H      -0.541784      0.761731     -3.909986
  H      -1.392990      0.811161     -5.480044
  H      -2.935486      0.389716     -0.543009
  H       0.453543     -1.346336     -2.523124
  H       0.801043      3.758410      0.948728
  H       0.887550      2.979110     -0.638679
  H       2.191502      4.051654     -0.109133
  H       1.644159      0.350583      4.994506
  H      -1.497915     -1.496712      2.728392
  H      -0.018048      1.224936      6.591017
  H      -3.168433     -0.623796      4.331468
  H      -2.435718      0.747593      6.271057
  Cl     -0.621875     -3.505921     -5.040006
56
Coordinates from ORCA-job R4N+Cl-_altA_r2 E -1372.331787293067
  N      -2.467804     -0.133303     -3.927479
  C       1.260706      1.034925      1.426930
  C       2.061890     -0.069854      2.132957
  C       1.207132     -1.181947      2.761329
  C       0.351989      0.481084      0.352076
  C       2.209979      2.104296      0.856655
  C      -2.236695     -1.074216     -2.737231
  C      -1.342648     -0.519109     -1.670424
  C       0.190548     -0.638318      3.743664
  C      -1.025503      0.708012      0.391925
  C       0.868882     -0.265416     -0.713117
  C       2.107233     -2.230608      3.426866
  C      -3.148949      1.127807     -3.495565
  C      -3.345717     -0.862164     -4.904691
  C      -1.170173      0.201919     -4.600519
  C      -1.864473      0.211903     -0.601136
  C       0.035193     -0.760793     -1.707300
  C       1.482290      3.288664      0.228281
  C       0.589677      0.132141      4.842315
  C      -1.171554     -0.901206      3.578396
  C      -0.347172      0.627199      5.744686
  C      -2.113478     -0.408083      4.480225
  C      -1.704343      0.360070      5.566727
  H       0.620038      1.524216      2.174995
  H       2.681480      0.395829      2.911419
  H       2.756591     -0.530177      1.417169
  H       0.647882     -1.676482      1.955105
  H       2.872455      1.636219      0.115445
  H       2.852995      2.457580      1.673660
  H      -1.805260     -1.981410     -3.176471
  H      -3.234276     -1.289770     -2.343231
  H      -1.447490      1.274753      1.218811
  H       1.935836     -0.468075     -0.764866
  H       2.698503     -1.782086      4.233714
  H       2.802310     -2.659151      2.695834
  H       1.513911     -3.046262      3.853930
  H      -3.352347      1.726869     -4.385637
  H      -2.491231      1.677524     -2.820719
  H      -4.082812      0.868874     -2.992061
  H      -4.290754     -1.101902     -4.412308
  H      -2.827061     -1.774567     -5.213114
  H      -3.522608     -0.210811     -5.762811
  H      -0.685350     -0.734092     -4.893632
  H      -0.544002      0.765635     -3.907433
  H      -1.393006      0.811832     -5.478793
  H      -2.935548      0.390327     -0.542260
  H       0.452616     -1.346870     -2.522806
  H       0.803281      3.759374      0.949372
  H       0.886266      2.979087     -0.637705
  H       2.192281      4.050529     -0.110752
  H       1.644259      0.350628      4.994020
  H      -1.497937     -1.496454      2.728023
  H      -0.017743      1.225198      6.590437
  H      -3.168366     -0.623264      4.331086
  H      -2.435498      0.748141      6.270517
  Cl     -0.619294     -3.505152     -5.039106
56
Coordinates from ORCA-job R4N+Cl-_altA_r2 E -1372.331788772486
  N      -2.468238     -0.133468     -3.927078
  C       1.261216      1.034631      1.426649
  C       2.062182     -0.070524      2.132412
  C       1.206838     -1.182237      2.760737
  C       0.352032      0.481124      0.352027
  C       2.210681      2.103664      0.855900
  C      -2.238009     -1.073665     -2.736271
  C      -1.343437     -0.518758     -1.669866
  C       0.190555     -0.638172      3.743202
  C      -1.025309      0.708588      0.392195
  C       0.868373     -0.265723     -0.713214
  C       2.106294     -2.231394      3.426351
  C      -3.152612      1.126412     -3.496269
  C      -3.342939     -0.863882     -4.905973
  C      -1.170167      0.204684     -4.597700
  C      -1.864684      0.212649     -0.600621
  C       0.034311     -0.760986     -1.707049
  C       1.483214      3.288399      0.228203
  C       0.590080      0.131998      4.841878
  C      -1.171649     -0.900476      3.577981
  C      -0.346480      0.627374      5.744346
  C      -2.113287     -0.407049      4.479920
  C      -1.703758      0.360823      5.566445
  H       0.621061      1.524134      2.174986
  H       2.682133      0.394768      2.910805
  H       2.756514     -0.531123      1.416468
  H       0.647309     -1.676369      1.954484
  H       2.872619      1.635248      0.114437
  H       2.854380      2.456513      1.672569
  H      -1.807426     -1.981614     -3.174803
  H      -3.235885     -1.288281     -2.342512
  H      -1.446907      1.275567      1.219107
  H       1.935242     -0.468742     -0.765200
  H       2.697283     -1.783317      4.233635
  H       2.801652     -2.659916      2.695567
  H       1.512540     -3.047021      3.852852
  H      -3.353811      1.726176     -4.386352
  H      -2.497755      1.676220     -2.818707
  H      -4.087719      0.865663     -2.996049
  H      -4.287982     -1.106440     -4.414999
  H      -2.821378     -1.774796     -5.213956
  H      -3.520123     -0.212387     -5.763901
  H      -0.681247     -0.730104     -4.887836
  H      -0.547548      0.771825     -3.904211
  H      -1.393069      0.811955     -5.477769
  H      -2.935679      0.391502     -0.541539
  H       0.451271     -1.347528     -2.522453
  H       0.805635      3.760058      0.950015
  H       0.885667      2.979349     -0.636920
  H       2.193465      4.049575     -0.111865
  H       1.644763      0.350018      4.993536
  H      -1.498297     -1.495495      2.727548
  H      -0.016699      1.225138      6.590120
  H      -3.168274     -0.621775      4.330844
  H      -2.434730      0.749141      6.270286
  Cl     -0.615082     -3.502862     -5.036990
56
Coordinates from ORCA-job R4N+Cl-_altA_r2 E -1372.331790580394
  N      -2.469061     -0.133721     -3.926782
  C       1.261866      1.034391      1.426358
  C       2.062338     -0.071337      2.131816
  C       1.206344     -1.182680      2.760052
  C       0.352154      0.481513      0.351878
  C       2.211838      2.103002      0.855492
  C      -2.239479     -1.073008     -2.735079
  C      -1.344324     -0.518045     -1.669322
  C       0.190510     -0.638149      3.742758
  C      -1.025033      0.709879      0.392291
  C       0.867824     -0.265877     -0.713355
  C       2.105169     -2.232513      3.425393
  C      -3.157309      1.124618     -3.497537
  C      -3.339900     -0.866426     -4.907352
  C      -1.170501      0.207738     -4.594698
  C      -1.864884      0.214108     -0.600250
  C       0.033309     -0.761021     -1.706827
  C       1.484886      3.288275      0.228422
  C       0.590654      0.131503      4.841578
  C      -1.171889     -0.899512      3.577545
  C      -0.345501      0.627314      5.744244
  C      -2.113125     -0.405658      4.479709
  C      -1.702980      0.361685      5.566385
  H       0.622278      1.524170      2.174990
  H       2.682681      0.393379      2.910246
  H       2.756277     -0.532308      1.415727
  H       0.646394     -1.676190      1.953718
  H       2.873289      1.634166      0.113849
  H       2.856105      2.455169      1.672021
  H      -1.809842     -1.981758     -3.172946
  H      -3.237604     -1.286681     -2.341427
  H      -1.446166      1.277294      1.219139
  H       1.934597     -0.469428     -0.765402
  H       2.695856     -1.785148      4.233306
  H       2.800879     -2.660814      2.694807
  H       1.510939     -3.048187      3.851164
  H      -3.356100      1.725041     -4.387723
  H      -2.506006      1.674916     -2.816916
  H      -4.093876      0.861891     -3.001092
  H      -4.284721     -1.112881     -4.417904
  H      -2.814635     -1.775407     -5.214957
  H      -3.517906     -0.215079     -5.765211
  H      -0.676396     -0.725700     -4.880463
  H      -0.552163      0.779574     -3.901246
  H      -1.393378      0.810930     -5.477572
  H      -2.935799      0.393487     -0.541133
  H       0.449686     -1.348147     -2.522115
  H       0.807647      3.760075      0.950479
  H       0.886933      2.980087     -0.636739
  H       2.195373      4.049307     -0.111530
  H       1.645518      0.348745      4.993135
  H      -1.499011     -1.494068      2.726966
  H      -0.015232      1.224668      6.590121
  H      -3.168268     -0.619659      4.330671
  H      -2.433664      0.750315      6.270359
  Cl     -0.609458     -3.498745     -5.033635
56
Coordinates from ORCA-job R4N+Cl-_altA_r2 E -1372.331792270286
  N      -2.470187     -0.134061     -3.926618
  C       1.262576      1.034388      1.426165
  C       2.062293     -0.072010      2.131385
  C       1.205774     -1.183134      2.759409
  C       0.352428      0.482330      0.351646
  C       2.213360      2.102542      0.855734
  C      -2.240574     -1.072478     -2.733932
  C      -1.344968     -0.517032     -1.668931
  C       0.190335     -0.638314      3.742340
  C      -1.024639      0.711797      0.392096
  C       0.867489     -0.265708     -0.713472
  C       2.104185     -2.233643      3.424163
  C      -3.161698      1.122920     -3.498997
  C      -3.337812     -0.869245     -4.908134
  C      -1.171274      0.209908     -4.592573
  C      -1.864925      0.216112     -0.600173
  C       0.032548     -0.760770     -1.706665
  C       1.487230      3.288520      0.229078
  C       0.591058      0.130721      4.841432
  C      -1.172281     -0.898676      3.577027
  C      -0.344757      0.626899      5.744307
  C      -2.113178     -0.404448      4.479423
  C      -1.702457      0.362247      5.566380
  H       0.623382      1.524459      2.174968
  H       2.682874      0.392087      2.910017
  H       2.755997     -0.533292      1.415242
  H       0.645444     -1.675992      1.952922
  H       2.874475      1.633373      0.113973
  H       2.857878      2.453863      1.672431
  H      -1.811604     -1.981749     -3.171420
  H      -3.238740     -1.285533     -2.340017
  H      -1.445337      1.279796      1.218777
  H       1.934165     -0.469886     -0.765361
  H       2.694798     -1.787028      4.232586
  H       2.800047     -2.661684      2.693567
  H       1.509576     -3.049351      3.849396
  H      -3.358775      1.723553     -4.389454
  H      -2.513476      1.674117     -2.816127
  H      -4.099423      0.858721     -3.005491
  H      -4.282109     -1.119546     -4.419633
  H      -2.809150     -1.776346     -5.215749
  H      -3.517306     -0.218318     -5.766012
  H      -0.672442     -0.722522     -4.873590
  H      -0.556664      0.786597     -3.899836
  H      -1.394108      0.808583     -5.478541
  H      -2.935779      0.395994     -0.541194
  H       0.448367     -1.348464     -2.521842
  H       0.808979      3.759455      0.950779
  H       0.890332      2.981336     -0.637184
  H       2.197950      4.050013     -0.109395
  H       1.646112      0.347122      4.992935
  H      -1.499898     -1.492663      2.726238
  H      -0.014083      1.223770      6.590376
  H      -3.168476     -0.617681      4.330316
  H      -2.432868      0.751125      6.270514
  Cl     -0.603536     -3.493680     -5.029873
56
Coordinates from ORCA-job R4N+Cl-_altA_r2 E -1372.331793480281
  N      -2.471196     -0.134443     -3.926532
  C       1.263141      1.034653      1.426130
  C       2.062123     -0.072304      2.131221
  C       1.205319     -1.183410      2.758908
  C       0.352780      0.483304      0.351418
  C       2.214717      2.102456      0.856460
  C      -2.240966     -1.072274     -2.733148
  C      -1.345168     -0.516080     -1.668746
  C       0.190059     -0.638574      3.741952
  C      -1.024227      0.713625      0.391730
  C       0.867489     -0.265231     -0.713536
  C       2.103584     -2.234402      3.423050
  C      -3.164211      1.121887     -3.500046
  C      -3.337402     -0.871373     -4.907971
  C      -1.172167      0.210344     -4.591937
  C      -1.864787      0.217912     -0.600320
  C       0.032269     -0.760293     -1.706577
  C       1.489403      3.289128      0.230019
  C       0.591091      0.129890      4.841391
  C      -1.172707     -0.898180      3.576419
  C      -0.344576      0.626215      5.744389
  C      -2.113458     -0.403785      4.478945
  C      -1.702427      0.362308      5.566252
  H       0.624033      1.524915      2.174923
  H       2.682711      0.391331      2.910149
  H       2.755828     -0.533686      1.415111
  H       0.644813     -1.675816      1.952241
  H       2.875653      1.633211      0.114560
  H       2.859195      2.453020      1.673501
  H      -1.812114     -1.981614     -3.170587
  H      -3.238961     -1.285160     -2.338677
  H      -1.444641      1.282124      1.218226
  H       1.934094     -0.469905     -0.765205
  H       2.694491     -1.788292      4.231575
  H       2.799208     -2.662382      2.692196
  H       1.508778     -3.050034      3.848202
  H      -3.360827      1.722158     -4.390884
  H      -2.517450      1.674028     -2.816534
  H      -4.102389      0.857198     -3.007619
  H      -4.281041     -1.124068     -4.419428
  H      -2.806835     -1.777238     -5.216119
  H      -3.518647     -0.220833     -5.765800
  H      -0.670685     -0.721795     -4.869366
  H      -0.559572      0.790518     -3.900330
  H      -1.395039      0.805657     -5.480181
  H      -2.935607      0.398103     -0.541491
  H       0.447723     -1.348364     -2.521683
  H       0.809615      3.758776      0.951132
  H       0.894196      2.982739     -0.637693
  H       2.200347      4.051277     -0.106499
  H       1.646269      0.345656      4.992984
  H      -1.500638     -1.491662      2.725396
  H      -0.013728      1.222639      6.590717
  H      -3.168852     -0.616437      4.329642
  H      -2.432687      0.751280      6.270502
  Cl     -0.598794     -3.489621     -5.027027
56
Coordinates from ORCA-job R4N+Cl-_altA_r2 E -1372.331794367337
  N      -2.471920     -0.134855     -3.926407
  C       1.263537      1.035058      1.426181
  C       2.061960     -0.072324      2.131177
  C       1.204987     -1.183506      2.758442
  C       0.353105      0.484211      0.351246
  C       2.215696      2.102625      0.857218
  C      -2.240986     -1.072288     -2.732609
  C      -1.345139     -0.515341     -1.668617
  C       0.189757     -0.638803      3.741529
  C      -1.023867      0.715055      0.391389
  C       0.867644     -0.264645     -0.713554
  C       2.103187     -2.234853      3.422107
  C      -3.165164      1.121405     -3.500633
  C      -3.337984     -0.872744     -4.907249
  C      -1.172890      0.209595     -4.592108
  C      -1.864594      0.219254     -0.600471
  C       0.032248     -0.759774     -1.706484
  C       1.490995      3.289906      0.230997
  C       0.590904      0.129071      4.841374
  C      -1.173097     -0.897808      3.575684
  C      -0.344732      0.625371      5.744435
  C      -2.113821     -0.403418      4.478263
  C      -1.702674      0.362069      5.565973
  H       0.624348      1.525401      2.174882
  H       2.682431      0.390995      2.910400
  H       2.755788     -0.533620      1.415112
  H       0.644455     -1.675621      1.951595
  H       2.876472      1.633502      0.115087
  H       2.860102      2.452589      1.674558
  H      -1.811888     -1.981461     -3.170098
  H      -3.238744     -1.285200     -2.337538
  H      -1.444101      1.283911      1.217739
  H       1.934195     -0.469655     -0.765099
  H       2.694638     -1.789032      4.230409
  H       2.798285     -2.663000      2.690858
  H       1.508274     -3.050299      3.847482
  H      -3.362051      1.721015     -4.391879
  H      -2.518630      1.674292     -2.817512
  H      -4.103321      0.856864     -3.008056
  H      -4.280968     -1.126619     -4.418046
  H      -2.806662     -1.777856     -5.216308
  H      -3.520956     -0.222329     -5.764829
  H      -0.670365     -0.722769     -4.866950
  H      -0.561158      0.792099     -3.901691
  H      -1.395873      0.802681     -5.481835
  H      -2.935388      0.399621     -0.541682
  H       0.447477     -1.348102     -2.521529
  H       0.810082      3.758516      0.951722
  H       0.897103      2.984049     -0.637796
  H       2.202176      4.052487     -0.103998
  H       1.646149      0.344347      4.993207
  H      -1.501183     -1.490816      2.724391
  H      -0.013849      1.221328      6.591082
  H      -3.169272     -0.615601      4.328677
  H      -2.432866      0.751028      6.270301
  Cl     -0.594722     -3.486913     -5.025133
56
Coordinates from ORCA-job R4N+Cl-_altA_r2 E -1372.331795088122
  N      -2.472408     -0.135308     -3.926145
  C       1.263858      1.035498      1.426245
  C       2.061905     -0.072230      2.131122
  C       1.204738     -1.183489      2.757897
  C       0.353387      0.484985      0.351138
  C       2.216375      2.102891      0.857723
  C      -2.240982     -1.072362     -2.732094
  C      -1.345087     -0.514786     -1.668409
  C       0.189462     -0.638948      3.740990
  C      -1.023543      0.716123      0.391181
  C       0.867810     -0.264079     -0.713548
  C       2.102788     -2.235170      3.421270
  C      -3.165380      1.121175     -3.500866
  C      -3.338839     -0.873643     -4.906331
  C      -1.173393      0.208398     -4.592379
  C      -1.864414      0.220222     -0.600483
  C       0.032266     -0.759310     -1.706330
  C       1.492059      3.290702      0.231877
  C       0.590631      0.128241      4.841312
  C      -1.173443     -0.897351      3.574733
  C      -0.345024      0.624433      5.744393
  C      -2.114194     -0.403055      4.477316
  C      -1.703022      0.361742      5.565496
  H       0.624586      1.525854      2.174873
  H       2.682234      0.390833      2.910610
  H       2.755876     -0.533337      1.415074
  H       0.644260     -1.675365      1.950862
  H       2.876897      1.633958      0.115251
  H       2.860870      2.452368      1.675188
  H      -1.811503     -1.981355     -3.169529
  H      -3.238538     -1.285302     -2.336534
  H      -1.443622      1.285220      1.217446
  H       1.934310     -0.469326     -0.765123
  H       2.694827     -1.789549      4.229244
  H       2.797282     -2.663618      2.689631
  H       1.507745     -3.050377      3.846904
  H      -3.362701      1.720106     -4.392477
  H      -2.518534      1.674541     -2.818446
  H      -4.103344      0.856972     -3.007732
  H      -4.281190     -1.128197     -4.416256
  H      -2.807241     -1.778156     -5.216546
  H      -3.523447     -0.223034     -5.763425
  H      -0.670529     -0.724427     -4.864994
  H      -0.562165      0.792742     -3.903061
  H      -1.396536      0.799794     -5.483202
  H      -2.935173      0.400735     -0.541591
  H       0.447308     -1.347889     -2.521291
  H       0.810897      3.758880      0.952630
  H       0.898575      2.985212     -0.637310
  H       2.203517      4.053297     -0.102452
  H       1.645913      0.343046      4.993524
  H      -1.501584     -1.489841      2.723099
  H      -0.014150      1.219843      6.591427
  H      -3.169686     -0.614763      4.327369
  H      -2.433199      0.750642      6.269869
  Cl     -0.590377     -3.485094     -5.023739
56
Coordinates from ORCA-job R4N+Cl-_altA_r2 E -1372.331795637122
  N      -2.472713     -0.135753     -3.925743
  C       1.264170      1.035875      1.426277
  C       2.062013     -0.072132      2.131004
  C       1.204570     -1.183426      2.757279
  C       0.353622      0.485572      0.351103
  C       2.216841      2.103127      0.857830
  C      -2.241147     -1.072363     -2.731503
  C      -1.345116     -0.514376     -1.668085
  C       0.189213     -0.638999      3.740355
  C      -1.023250      0.716863      0.391172
  C       0.867905     -0.263626     -0.713537
  C       2.102327     -2.235441      3.420568
  C      -3.165462      1.121006     -3.500841
  C      -3.339480     -0.874246     -4.905512
  C      -1.173691      0.207365     -4.592357
  C      -1.864278      0.220887     -0.600299
  C       0.032210     -0.758952     -1.706118
  C       1.492707      3.291363      0.232519
  C       0.590352      0.127477      4.841162
  C      -1.173722     -0.896812      3.573619
  C      -0.345349      0.623546      5.744225
  C      -2.114527     -0.402636      4.476172
  C      -1.703382      0.361456      5.564833
  H       0.624931      1.526225      2.174924
  H       2.682236      0.390693      2.910707
  H       2.756081     -0.533039      1.414935
  H       0.644182     -1.675057      1.950046
  H       2.877011      1.634316      0.114983
  H       2.861652      2.452220      1.675207
  H      -1.811344     -1.981319     -3.168660
  H      -3.238594     -1.285260     -2.335676
  H      -1.443172      1.286095      1.217419
  H       1.934357     -0.469040     -0.765281
  H       2.694731     -1.790019      4.228358
  H       2.796421     -2.664152      2.688704
  H       1.507085     -3.050467      3.846240
  H      -3.362974      1.719491     -4.392698
  H      -2.518300      1.674548     -2.818884
  H      -4.103289      0.857027     -3.007336
  H      -4.281275     -1.129427     -4.414697
  H      -2.807673     -1.778183     -5.216862
  H      -3.525432     -0.223220     -5.761996
  H      -0.670614     -0.725923     -4.862921
  H      -0.563004      0.793296     -3.903895
  H      -1.397010      0.797297     -5.484103
  H      -2.934992      0.401556     -0.541190
  H       0.447061     -1.347807     -2.520975
  H       0.812294      3.759860      0.953749
  H       0.898544      2.986151     -0.636287
  H       2.204461      4.053521     -0.102145
  H       1.645656      0.341833      4.993823
  H      -1.501837     -1.488768      2.721603
  H      -0.014489      1.218387      6.591659
  H      -3.170052     -0.613875      4.325834
  H      -2.433585      0.750285      6.269209
  Cl     -0.585745     -3.483927     -5.022512
56
Coordinates from ORCA-job R4N+Cl-_altA_r2 E -1372.331795955504
  N      -2.472844     -0.136016     -3.925379
  C       1.264407      1.036064      1.426264
  C       2.062223     -0.072089      2.130869
  C       1.204547     -1.183385      2.756824
  C       0.353742      0.485847      0.351144
  C       2.217073      2.103223      0.857599
  C      -2.241480     -1.072233     -2.730993
  C      -1.345259     -0.514143     -1.667758
  C       0.189095     -0.639002      3.739854
  C      -1.023074      0.717215      0.391334
  C       0.867871     -0.263430     -0.713512
  C       2.102025     -2.235602      3.420202
  C      -3.165597      1.120928     -3.500716
  C      -3.339689     -0.874486     -4.905088
  C      -1.173778      0.206902     -4.592051
  C      -1.864241      0.221230     -0.600011
  C       0.032050     -0.758794     -1.705921
  C       1.492959      3.291676      0.232752
  C       0.590153      0.127050      4.840957
  C      -1.173841     -0.896497      3.572756
  C      -0.345623      0.623034      5.743965
  C      -2.114722     -0.402414      4.475252
  C      -1.703657      0.361265      5.564213
  H       0.625321      1.526421      2.175018
  H       2.682407      0.390576      2.910684
  H       2.756312     -0.532883      1.414763
  H       0.644251     -1.674844      1.949439
  H       2.876938      1.634382      0.114514
  H       2.862268      2.452113      1.674767
  H      -1.811566     -1.981338     -3.167728
  H      -3.238937     -1.285022     -2.335167
  H      -1.442868      1.286493      1.217605
  H       1.934289     -0.468946     -0.765444
  H       2.694377     -1.790333      4.228091
  H       2.796144     -2.664353      2.688381
  H       1.506608     -3.050615      3.845633
  H      -3.362884      1.719353     -4.392648
  H      -2.518395      1.674357     -2.818716
  H      -4.103479      0.856991     -3.007306
  H      -4.281153     -1.130239     -4.413946
  H      -2.807681     -1.778019     -5.217141
  H      -3.526301     -0.223081     -5.761128
  H      -0.670492     -0.726667     -4.861203
  H      -0.563567      0.793827     -3.904008
  H      -1.397181      0.795794     -5.484448
  H      -2.934915      0.402048     -0.540703
  H       0.446745     -1.347865     -2.520699
  H       0.813762      3.760952      0.954611
  H       0.897547      2.986640     -0.635254
  H       2.204915      4.053230     -0.102860
  H       1.645456      0.341166      4.993940
  H      -1.501860     -1.488127      2.720476
  H      -0.014796      1.217540      6.591641
  H      -3.170258     -0.613396      4.324645
  H      -2.433932      0.750035      6.268543
  Cl     -0.582287     -3.483440     -5.021507
56
Coordinates from ORCA-job R4N+Cl-_altA_r2 E -1372.331796123673
  N      -2.472923     -0.136075     -3.925172
  C       1.264547      1.036072      1.426225
  C       2.062391     -0.072122      2.130776
  C       1.204596     -1.183404      2.756634
  C       0.353768      0.485889      0.351200
  C       2.217192      2.103163      0.857310
  C      -2.241805     -1.072055     -2.730695
  C      -1.345435     -0.514029     -1.667552
  C       0.189074     -0.639006      3.739611
  C      -1.023011      0.717341      0.391502
  C       0.867764     -0.263452     -0.713484
  C       2.101920     -2.235672      3.420138
  C      -3.165876      1.120892     -3.500625
  C      -3.339619     -0.874519     -4.905022
  C      -1.173809      0.206964     -4.591702
  C      -1.864273      0.221393     -0.599795
  C       0.031859     -0.758795     -1.705802
  C       1.493085      3.291678      0.232689
  C       0.590053      0.126980      4.840772
  C      -1.173849     -0.896476      3.572365
  C      -0.345791      0.622949      5.743719
  C      -2.114793     -0.402418      4.474806
  C      -1.703808      0.361203      5.563832
  H       0.625636      1.526469      2.175090
  H       2.682588      0.390471      2.910618
  H       2.756453     -0.532915      1.414648
  H       0.644356     -1.674787      1.949174
  H       2.876898      1.634184      0.114173
  H       2.862644      2.451985      1.674313
  H      -1.811909     -1.981351     -3.167070
  H      -3.239313     -1.284786     -2.334983
  H      -1.442724      1.286640      1.217795
  H       1.934162     -0.469048     -0.765507
  H       2.693987     -1.790486      4.228277
  H       2.796321     -2.664294      2.688504
  H       1.506409     -3.050782      3.845248
  H      -3.362746      1.719492     -4.392522
  H      -2.518892      1.674133     -2.818263
  H      -4.103934      0.856863     -3.007607
  H      -4.280922     -1.130823     -4.413868
  H      -2.807376     -1.777793     -5.217389
  H      -3.526427     -0.222902     -5.760848
  H      -0.670283     -0.726689     -4.860118
  H      -0.563936      0.794353     -3.903757
  H      -1.397220      0.795220     -5.484503
  H      -2.934923      0.402331     -0.540395
  H       0.446451     -1.347994     -2.520542
  H       0.814824      3.761651      0.954978
  H       0.896670      2.986740     -0.634665
  H       2.205134      4.052787     -0.103758
  H       1.645344      0.341078      4.993866
  H      -1.501771     -1.488044      2.720003
  H      -0.014999      1.217408      6.591441
  H      -3.170321     -0.613376      4.324108
  H      -2.434154      0.749950      6.268101
  Cl     -0.580154     -3.483096     -5.020867
