29
Coordinates from ORCA-job PFOS_wb E -2626.601741265737
  S           2.67082583357944      1.77772022566985      0.20927164747958
  F           0.14271648751319      0.05254840008160     -1.08097474351864
  F           0.13315168957232     -2.00535574197415     -1.78408872605486
  F           1.17150355971152     -2.92816757984960      0.40652495766977
  F           0.94129655486315     -1.05675209859860      1.48158201493307
  F          -1.37871839536582     -2.41597589354898      0.81935705505761
  F          -2.22030986132449     -1.91914846404989     -1.11328736576323
  F           3.43017056950986     -2.21845508357922      0.02836303820772
  F           2.59847696350797     -1.00180812957869     -1.56006623288033
  F          -3.06883351145390     -0.70614215139093      1.38996933894147
  F          -1.28683091104870      0.51136698352119      1.20409705199477
  F           4.57046178796759      0.05738507791386     -0.12125180277498
  F           3.46939687953017     -0.18960939959718      1.73971661378183
  F          -4.14792033485841      0.12530528811837     -0.72619248841562
  F          -2.29721119873402      0.78079491868694     -1.65769086425765
  F          -4.04758255469287      2.74340556140652     -0.77630491151591
  F          -2.05813885224948      2.81817179638496      0.04832514880350
  F          -3.70383726100565      2.10143570796261      1.25751685403186
  O           1.42467489297998      1.78688795526818      0.93848846411935
  O           2.54699651839252      1.93255008838439     -1.22251030270260
  O           3.72380954617126      2.56518940753575      0.81280849205365
  C           0.01264640149329     -1.22497243996470     -0.70211192707282
  C           1.17639633716232     -1.59393763529759      0.27725643194128
  C          -1.44194792008587     -1.46322612184471     -0.12085017578754
  C           2.62035024721912     -1.17359191915759     -0.22857796317298
  C          -2.17046660707609     -0.22606831594747      0.51909296504878
  C           3.33250474225436      0.05861260943294      0.42346613939771
  C          -2.95236541299109      0.68171533119131     -0.49388215952034
  C          -3.19131719054178      2.12992262282080      0.03205244997556
