56
Coordinates from ORCA-job R4N+Cl-_altB_r2 E -1372.326040279352
  N      -2.244599     -1.024035     -3.455947
  C       1.370302      1.396261      1.478482
  C       2.112138      0.135302      1.945476
  C       1.171155     -1.056685      2.166252
  C       0.571642      1.130722      0.229340
  C       2.359726      2.550986      1.260799
  C      -1.755687      0.380937     -3.320953
  C      -0.937323      0.633755     -2.083853
  C       0.061625     -0.720207      3.130830
  C      -0.803551      1.332810      0.216845
  C       1.182996      0.694397     -0.940484
  C       1.956995     -2.274560      2.660672
  C      -1.119260     -1.963330     -3.565059
  C      -3.071094     -1.100230     -4.670223
  C      -3.076876     -1.380708     -2.298708
  C      -1.549319      1.090016     -0.922031
  C       0.441591      0.452371     -2.081864
  C       1.648998      3.856546      0.924248
  C      -1.266253     -0.842818      2.742163
  C       0.334393     -0.289200      4.424072
  C      -2.295817     -0.536604      3.614781
  C      -0.691163      0.017449      5.300014
  C      -2.010934     -0.103373      4.897990
  H       0.673357      1.693222      2.270603
  H       2.636753      0.365173      2.874301
  H       2.862610     -0.144941      1.204631
  H       0.714576     -1.310528      1.203722
  H       3.048771      2.297079      0.453821
  H       2.946580      2.685721      2.171799
  H      -2.641484      1.021363     -3.304626
  H      -1.165629      0.613798     -4.208494
  H      -1.297186      1.687501      1.110616
  H       2.251617      0.546180     -0.965202
  H       2.718450     -2.551620      1.936038
  H       1.288567     -3.120026      2.805565
  H       2.444278     -2.058947      3.608136
  H      -0.509924     -1.915543     -2.666028
  H      -0.508179     -1.709690     -4.427758
  H      -1.499345     -2.974905     -3.684464
  H      -3.451544     -2.110269     -4.797461
  H      -2.486776     -0.819992     -5.542692
  H      -3.913041     -0.415264     -4.572350
  H      -2.489484     -1.332090     -1.385677
  H      -3.474654     -2.384037     -2.424303
  H      -3.906321     -0.677474     -2.227134
  H      -2.615002      1.270846     -0.918870
  H       0.947523      0.134961     -2.981027
  H       0.966852      4.137054      1.724274
  H       1.072106      3.754793      0.007315
  H       2.369590      4.659747      0.790905
  H      -1.499483     -1.175328      1.740843
  H       1.357277     -0.186893      4.754741
  H      -3.322275     -0.632780      3.291418
  H      -0.461321      0.353842      6.300653
  H      -2.812001      0.139000      5.580818
  Cl     -5.197812      1.429336     -3.091546
56
Coordinates from ORCA-job R4N+Cl-_altB_r2 E -1372.330904901068
  N      -2.285889     -1.041443     -3.447370
  C       1.383658      1.444430      1.472594
  C       2.111934      0.177323      1.962745
  C       1.199723     -1.044958      2.183948
  C       0.589044      1.181902      0.213862
  C       2.387653      2.594984      1.270817
  C      -1.735423      0.372449     -3.342469
  C      -0.918460      0.649117     -2.108087
  C       0.064018     -0.754450      3.142168
  C      -0.784071      1.428779      0.177042
  C       1.203086      0.696914     -0.943443
  C       2.027078     -2.242123      2.674342
  C      -1.186938     -2.044056     -3.523922
  C      -3.102025     -1.111452     -4.693179
  C      -3.166183     -1.353103     -2.285062
  C      -1.528637      1.170655     -0.966678
  C       0.461997      0.437212     -2.088898
  C       1.710952      3.922291      0.925738
  C      -1.261585     -0.946881      2.748231
  C       0.310554     -0.300452      4.440729
  C      -2.314773     -0.685050      3.619975
  C      -0.738257     -0.036943      5.314945
  C      -2.056279     -0.226052      4.907261
  H       0.676645      1.753583      2.254465
  H       2.628151      0.418022      2.900783
  H       2.885736     -0.097738      1.234615
  H       0.755140     -1.313502      1.216891
  H       3.093684      2.325706      0.475077
  H       2.967889      2.713018      2.194667
  H      -2.605986      1.039397     -3.360407
  H      -1.130898      0.545513     -4.238148
  H      -1.278716      1.825219      1.060197
  H       2.274629      0.514272     -0.951974
  H       2.808052     -2.490047      1.947563
  H       1.389171     -3.121236      2.812376
  H       2.507789     -2.015158      3.631804
  H      -0.593040     -2.012506     -2.609595
  H      -0.550549     -1.823770     -4.384357
  H      -1.620661     -3.039744     -3.638130
  H      -3.513937     -2.116984     -4.803456
  H      -2.477784     -0.874706     -5.557829
  H      -3.920058     -0.387381     -4.621746
  H      -2.588707     -1.319290     -1.359554
  H      -3.592673     -2.350322     -2.413011
  H      -3.972285     -0.612518     -2.247339
  H      -2.596701      1.375054     -0.977755
  H       0.967034      0.068519     -2.978299
  H       1.010532      4.216072      1.715511
  H       1.149933      3.844300     -0.011429
  H       2.452537      4.719750      0.814565
  H      -1.473698     -1.299981      1.740923
  H       1.333290     -0.144643      4.775842
  H      -3.339662     -0.836963      3.291672
  H      -0.527313      0.318942      6.319923
  H      -2.875806     -0.018067      5.589657
  Cl     -5.175784      1.557188     -3.193390
56
Coordinates from ORCA-job R4N+Cl-_altB_r2 E -1372.331654476186
  N      -2.292558     -1.033938     -3.450981
  C       1.394068      1.431807      1.477508
  C       2.122349      0.168246      1.969060
  C       1.215543     -1.053491      2.196072
  C       0.587045      1.166414      0.226068
  C       2.397524      2.581246      1.270310
  C      -1.753804      0.391703     -3.327548
  C      -0.934871      0.649970     -2.094964
  C       0.068319     -0.753437      3.138460
  C      -0.789670      1.405718      0.201160
  C       1.195774      0.688423     -0.940153
  C       2.046120     -2.241809      2.702431
  C      -1.174543     -2.023733     -3.545230
  C      -3.112420     -1.094969     -4.705405
  C      -3.169030     -1.377247     -2.285070
  C      -1.542366      1.152233     -0.941241
  C       0.447414      0.436475     -2.084762
  C       1.729280      3.909668      0.916667
  C      -1.254952     -0.954540      2.734385
  C       0.301814     -0.272575      4.432489
  C      -2.318948     -0.681801      3.593870
  C      -0.757524      0.001820      5.294175
  C      -2.073592     -0.200656      4.877967
  H       0.689242      1.744420      2.261754
  H       2.641219      0.413054      2.906365
  H       2.898713     -0.109020      1.242092
  H       0.777775     -1.333760      1.228061
  H       3.107611      2.301131      0.479550
  H       2.978914      2.698971      2.194794
  H      -2.635148      1.045768     -3.336330
  H      -1.156749      0.567970     -4.227803
  H      -1.279603      1.793720      1.092259
  H       2.269292      0.511675     -0.957783
  H       2.837409     -2.490688      1.984974
  H       1.416012     -3.127738      2.842005
  H       2.518562     -2.004892      3.663632
  H      -0.586751     -1.999926     -2.625550
  H      -0.543524     -1.771011     -4.401362
  H      -1.603482     -3.019455     -3.680450
  H      -3.504835     -2.107944     -4.824360
  H      -2.480153     -0.841552     -5.560124
  H      -3.937705     -0.379508     -4.620735
  H      -2.580116     -1.355982     -1.365948
  H      -3.573370     -2.380971     -2.437651
  H      -3.984255     -0.646256     -2.235533
  H      -2.613064      1.347478     -0.942114
  H       0.945055      0.072905     -2.981822
  H       1.020129      4.209233      1.698470
  H       1.177101      3.837104     -0.027859
  H       2.473658      4.707015      0.812410
  H      -1.455024     -1.323920      1.729706
  H       1.322280     -0.105991      4.772524
  H      -3.340769     -0.842975      3.258125
  H      -0.556189      0.376800      6.295028
  H      -2.900400      0.015945      5.549921
  Cl     -5.235679      1.551966     -3.156108
56
Coordinates from ORCA-job R4N+Cl-_altB_r2 E -1372.331889985230
  N      -2.297696     -1.029276     -3.441408
  C       1.389529      1.434760      1.477557
  C       2.120353      0.174864      1.969452
  C       1.222506     -1.052404      2.195021
  C       0.584588      1.168533      0.225269
  C       2.389376      2.586476      1.273348
  C      -1.741204      0.395900     -3.334490
  C      -0.928267      0.653308     -2.101553
  C       0.072072     -0.761785      3.136072
  C      -0.790833      1.413405      0.193715
  C       1.197038      0.683780     -0.936833
  C       2.061635     -2.233958      2.699173
  C      -1.189245     -2.034625     -3.516238
  C      -3.111429     -1.098641     -4.703294
  C      -3.184848     -1.347293     -2.273339
  C      -1.539119      1.161856     -0.952278
  C       0.453352      0.432698     -2.084335
  C       1.723134      3.909171      0.904287
  C      -1.249070     -0.979744      2.734425
  C       0.301726     -0.275191      4.429131
  C      -2.315263     -0.716009      3.594358
  C      -0.759649     -0.009707      5.291000
  C      -2.074097     -0.227759      4.876586
  H       0.680710      1.745482      2.259218
  H       2.638572      0.421714      2.906568
  H       2.900294     -0.098587      1.244870
  H       0.785306     -1.335168      1.227275
  H       3.110581      2.300892      0.494632
  H       2.961381      2.709141      2.202870
  H      -2.617945      1.054603     -3.359376
  H      -1.140495      0.541344     -4.237430
  H      -1.282280      1.804895      1.081869
  H       2.269218      0.501492     -0.948004
  H       2.858445     -2.472163      1.984805
  H       1.442842     -3.128205      2.833216
  H       2.528960     -1.996916      3.662630
  H      -0.615835     -2.008918     -2.588244
  H      -0.549481     -1.790238     -4.367558
  H      -1.635303     -3.022649     -3.649453
  H      -3.509190     -2.110997     -4.803997
  H      -2.461976     -0.867990     -5.550848
  H      -3.926187     -0.371150     -4.632125
  H      -2.592712     -1.323383     -1.356783
  H      -3.592208     -2.349976     -2.422277
  H      -3.990500     -0.606421     -2.239790
  H      -2.609000      1.358767     -0.957720
  H       0.950666      0.063037     -2.978340
  H       0.996825      4.208544      1.669910
  H       1.190353      3.835760     -0.051009
  H       2.464393      4.710586      0.813226
  H      -1.444534     -1.354136      1.731287
  H       1.320589     -0.097150      4.766427
  H      -3.334948     -0.889821      3.259950
  H      -0.561126      0.370411      6.289985
  H      -2.902098     -0.018490      5.548568
  Cl     -5.230776      1.616427     -3.204570
56
Coordinates from ORCA-job R4N+Cl-_altB_r2 E -1372.331941224893
  N      -2.295767     -1.028195     -3.441005
  C       1.391193      1.430391      1.479515
  C       2.122826      0.171146      1.970269
  C       1.224190     -1.054943      2.197460
  C       0.583437      1.164716      0.228981
  C       2.390065      2.582393      1.272024
  C      -1.745784      0.400672     -3.328514
  C      -0.931873      0.656311     -2.096549
  C       0.072168     -0.760733      3.135263
  C      -0.791373      1.409755      0.200127
  C       1.194241      0.683260     -0.934950
  C       2.060612     -2.235417      2.706684
  C      -1.182821     -2.027645     -3.525045
  C      -3.112479     -1.094210     -4.700929
  C      -3.178892     -1.357689     -2.273619
  C      -1.540914      1.161717     -0.945272
  C       0.449638      0.436308     -2.081922
  C       1.723983      3.901748      0.895028
  C      -1.247738     -0.978471      2.731746
  C       0.299595     -0.270774      4.427055
  C      -2.314984     -0.710918      3.588236
  C      -0.762790     -0.001677      5.285449
  C      -2.076078     -0.219387      4.868934
  H       0.683726      1.741402      2.262110
  H       2.643071      0.417882      2.905952
  H       2.901516     -0.103102      1.245170
  H       0.788109     -1.340073      1.230045
  H       3.113903      2.293023      0.497515
  H       2.959885      2.709208      2.202116
  H      -2.628008      1.051306     -3.348757
  H      -1.150810      0.549642     -4.234508
  H      -1.281020      1.799279      1.089825
  H       2.266078      0.501199     -0.947652
  H       2.860642     -2.474318      1.996676
  H       1.442371     -3.129862      2.839205
  H       2.523764     -1.997404      3.671486
  H      -0.611741     -2.008206     -2.595762
  H      -0.544192     -1.770298     -4.373018
  H      -1.625658     -3.015365     -3.668962
  H      -3.505947     -2.107799     -4.802848
  H      -2.463646     -0.857683     -5.546961
  H      -3.927891     -0.369163     -4.622145
  H      -2.582862     -1.338334     -1.360073
  H      -3.581218     -2.360891     -2.431325
  H      -3.986139     -0.619856     -2.234690
  H      -2.610062      1.360885     -0.949177
  H       0.944559      0.069489     -2.978042
  H       0.990220      4.201195      1.653029
  H       1.199903      3.826354     -0.064493
  H       2.463384      4.705075      0.808723
  H      -1.440923     -1.355421      1.729464
  H       1.317819     -0.093176      4.765472
  H      -3.333875     -0.884433      3.251997
  H      -0.565954      0.381150      6.283477
  H      -2.905066     -0.007090      5.538374
  Cl     -5.247261      1.616119     -3.185780
56
Coordinates from ORCA-job R4N+Cl-_altB_r2 E -1372.331964505327
  N      -2.293299     -1.028263     -3.440011
  C       1.388967      1.429098      1.479504
  C       2.122366      0.170537      1.969265
  C       1.223714     -1.055719      2.197027
  C       0.582225      1.163671      0.228230
  C       2.386272      2.582908      1.272200
  C      -1.743402      0.400859     -3.330506
  C      -0.930335      0.657874     -2.098647
  C       0.072372     -0.761627      3.135824
  C      -0.791976      1.409722      0.198046
  C       1.193970      0.682294     -0.934878
  C       2.059609     -2.236204      2.706449
  C      -1.181359     -2.027893     -3.523900
  C      -3.112498     -1.095250     -4.697624
  C      -3.174756     -1.353625     -2.271191
  C      -1.540166      1.163043     -0.948097
  C       0.450784      0.436277     -2.082406
  C       1.718611      3.899846      0.890897
  C      -1.247433     -0.979515      2.733356
  C       0.300628     -0.271955      4.427248
  C      -2.313775     -0.712298      3.590412
  C      -0.760844     -0.003120      5.286133
  C      -2.074031     -0.220908      4.870546
  H       0.681182      1.738609      2.262194
  H       2.643797      0.417136      2.904172
  H       2.900079     -0.103408      1.243273
  H       0.786969     -1.340744      1.229992
  H       3.112785      2.293254      0.500526
  H       2.953486      2.712351      2.203453
  H      -2.627573      1.048573     -3.351289
  H      -1.150576      0.548099     -4.238100
  H      -1.282228      1.798943      1.087429
  H       2.265604      0.499440     -0.945977
  H       2.860948     -2.474014      1.997685
  H       1.441716     -3.131015      2.837049
  H       2.521123     -1.999089      3.672057
  H      -0.611936     -2.010436     -2.593580
  H      -0.540865     -1.769511     -4.370084
  H      -1.624032     -3.015248     -3.670414
  H      -3.510006     -2.107579     -4.795054
  H      -2.464891     -0.862291     -5.545487
  H      -3.924511     -0.366932     -4.617099
  H      -2.577146     -1.333267     -1.358711
  H      -3.580626     -2.355620     -2.426886
  H      -3.979279     -0.613124     -2.233287
  H      -2.608996      1.363784     -0.953203
  H       0.945892      0.070019     -2.978540
  H       0.977908      4.196600      1.643023
  H       1.202295      3.823449     -0.072562
  H       2.455733      4.705775      0.810447
  H      -1.441100     -1.356547      1.731244
  H       1.319112     -0.094390      4.764708
  H      -3.332815     -0.885947      3.254823
  H      -0.563417      0.379605      6.284029
  H      -2.902520     -0.008678      5.540568
  Cl     -5.244627      1.631547     -3.188872
56
Coordinates from ORCA-job R4N+Cl-_altB_r2 E -1372.331978406880
  N      -2.290305     -1.030209     -3.440551
  C       1.388061      1.428260      1.479592
  C       2.122098      0.169699      1.968672
  C       1.222359     -1.055984      2.196802
  C       0.581707      1.163255      0.227912
  C       2.384913      2.582882      1.272321
  C      -1.743771      0.400162     -3.330565
  C      -0.930501      0.658535     -2.099133
  C       0.071804     -0.761018      3.136505
  C      -0.792217      1.410413      0.197366
  C       1.193530      0.681854     -0.935044
  C       2.057002     -2.237475      2.706147
  C      -1.177472     -2.027513     -3.527934
  C      -3.112976     -1.095888     -4.695460
  C      -3.169123     -1.356757     -2.270681
  C      -1.540243      1.164239     -0.948910
  C       0.450557      0.436369     -2.082674
  C       1.716507      3.898977      0.889088
  C      -1.248421     -0.976599      2.734280
  C       0.301217     -0.272833      4.428188
  C      -2.314019     -0.708721      3.591934
  C      -0.759495     -0.003313      5.287658
  C      -2.073063     -0.218892      4.872343
  H       0.680559      1.737118      2.262669
  H       2.644425      0.415841      2.903180
  H       2.898825     -0.104596      1.241820
  H       0.785003     -1.340257      1.229874
  H       3.112398      2.293129      0.501629
  H       2.951023      2.713512      2.204098
  H      -2.631386      1.043301     -3.349339
  H      -1.153725      0.550933     -4.239362
  H      -1.282526      1.799644      1.086739
  H       2.265120      0.498491     -0.945603
  H       2.858947     -2.475291      1.997989
  H       1.438122     -3.131826      2.835346
  H       2.517770     -2.001444      3.672367
  H      -0.608107     -2.013615     -2.597450
  H      -0.536147     -1.765392     -4.372403
  H      -1.617519     -3.015421     -3.679011
  H      -3.514016     -2.106901     -4.791850
  H      -2.468792     -0.862828     -5.545904
  H      -3.922832     -0.365576     -4.610521
  H      -2.570696     -1.337253     -1.358734
  H      -3.578177     -2.357437     -2.426410
  H      -3.972145     -0.614670     -2.230697
  H      -2.608908      1.366064     -0.954278
  H       0.945456      0.070401     -2.979073
  H       0.971186      4.193457      1.637570
  H       1.205399      3.822521     -0.077147
  H       2.452510      4.706396      0.813123
  H      -1.443010     -1.352448      1.731846
  H       1.320161     -0.096978      4.765307
  H      -3.333454     -0.880609      3.256530
  H      -0.561266      0.378232      6.285879
  H      -2.901010     -0.006056      5.542909
  Cl     -5.244207      1.639204     -3.183548
56
Coordinates from ORCA-job R4N+Cl-_altB_r2 E -1372.331983914090
  N      -2.289127     -1.031926     -3.440717
  C       1.387656      1.428833      1.479359
  C       2.121740      0.170256      1.968614
  C       1.221927     -1.055532      2.196437
  C       0.581757      1.163733      0.227427
  C       2.384483      2.583643      1.272590
  C      -1.743760      0.398923     -3.330832
  C      -0.930432      0.657987     -2.099611
  C       0.071604     -0.760923      3.136585
  C      -0.792145      1.411800      0.196374
  C       1.193626      0.681214     -0.935168
  C       2.056719     -2.237437      2.705012
  C      -1.176500     -2.028884     -3.528945
  C      -3.113418     -1.096814     -4.694631
  C      -3.167303     -1.357789     -2.270128
  C      -1.540200      1.165000     -0.949912
  C       0.450620      0.435180     -2.082820
  C       1.715914      3.899988      0.889615
  C      -1.248909     -0.975531      2.734184
  C       0.301385     -0.273920      4.428741
  C      -2.314433     -0.708001      3.592300
  C      -0.759250     -0.004735      5.288683
  C      -2.073085     -0.219454      4.873299
  H       0.680054      1.737579      2.262412
  H       2.643760      0.416380      2.903360
  H       2.898590     -0.104014      1.241798
  H       0.784463     -1.339182      1.229358
  H       3.111916      2.294271      0.501620
  H       2.950476      2.714111      2.204501
  H      -2.632827      1.040212     -3.349226
  H      -1.154252      0.551512     -4.239693
  H      -1.282517      1.801926      1.085384
  H       2.265208      0.497395     -0.945367
  H       2.858528     -2.474975      1.996494
  H       1.437513     -3.131705      2.833809
  H       2.517748     -2.001860      3.671302
  H      -0.607095     -2.016643     -2.598383
  H      -0.534391     -1.766107     -4.372702
  H      -1.615823     -3.016945     -3.681684
  H      -3.517733     -2.106613     -4.790369
  H      -2.470804     -0.865062     -5.546663
  H      -3.921358     -0.364350     -4.608265
  H      -2.568944     -1.339219     -1.358049
  H      -3.579420     -2.357309     -2.425283
  H      -3.968682     -0.613811     -2.229012
  H      -2.608892      1.366968     -0.955517
  H       0.945568      0.068399     -2.978929
  H       0.969344      4.193355      1.637382
  H       1.206211      3.823937     -0.077479
  H       2.451819      4.707718      0.815306
  H      -1.443879     -1.350347      1.731367
  H       1.320487     -0.098704      4.765912
  H      -3.334025     -0.879176      3.256875
  H      -0.560815      0.375826      6.287286
  H      -2.900885     -0.006954      5.544222
  Cl     -5.241081      1.646868     -3.182818
56
Coordinates from ORCA-job R4N+Cl-_altB_r2 E -1372.331986545500
  N      -2.288864     -1.033013     -3.440707
  C       1.387906      1.429447      1.479173
  C       2.121636      0.170764      1.968837
  C       1.222004     -1.055195      2.196303
  C       0.581955      1.164216      0.227359
  C       2.385046      2.583909      1.272574
  C      -1.744486      0.398244     -3.330304
  C      -0.930895      0.657412     -2.099275
  C       0.071437     -0.760852      3.136162
  C      -0.792029      1.412605      0.196381
  C       1.193554      0.680975     -0.935206
  C       2.057170     -2.237066      2.704618
  C      -1.176124     -2.029629     -3.529668
  C      -3.113878     -1.097309     -4.694343
  C      -3.166699     -1.359338     -2.269773
  C      -1.540450      1.165167     -0.949682
  C       0.450192      0.434505     -2.082711
  C       1.716747      3.900885      0.890644
  C      -1.249105     -0.975060      2.733163
  C       0.300889     -0.274316      4.428651
  C      -2.314981     -0.707634      3.591102
  C      -0.760107     -0.005249      5.288436
  C      -2.073960     -0.219598      4.872519
  H       0.680301      1.738524      2.262157
  H       2.643024      0.417026      2.903948
  H       2.898954     -0.103466      1.242422
  H       0.784864     -1.338754      1.229020
  H       3.111789      2.294784      0.500788
  H       2.951590      2.713742      2.204254
  H      -2.634320      1.038547     -3.348487
  H      -1.154855      0.552281     -4.238870
  H      -1.282223      1.803371      1.085245
  H       2.265140      0.496992     -0.945600
  H       2.858603     -2.474684      1.995656
  H       1.437886     -3.131275      2.833814
  H       2.518693     -2.001264      3.670679
  H      -0.606378     -2.018008     -2.599273
  H      -0.534101     -1.766422     -4.373402
  H      -1.615167     -3.017776     -3.682972
  H      -3.519635     -2.106542     -4.790174
  H      -2.471809     -0.866257     -5.547006
  H      -3.920943     -0.363825     -4.607591
  H      -2.568186     -1.342233     -1.357729
  H      -3.580244     -2.358213     -2.425318
  H      -3.967218     -0.614446     -2.226946
  H      -2.609218      1.366818     -0.955122
  H       0.945100      0.067102     -2.978625
  H       0.971060      4.194282      1.639332
  H       1.206074      3.825203     -0.076025
  H       2.453135      4.708162      0.815856
  H      -1.443917     -1.349414      1.730118
  H       1.319904     -0.099344      4.766298
  H      -3.334522     -0.878496      3.255307
  H      -0.561965      0.374911      6.287272
  H      -2.901958     -0.007260      5.543277
  Cl     -5.239288      1.651154     -3.181151
56
Coordinates from ORCA-job R4N+Cl-_altB_r2 E -1372.331988812032
  N      -2.289065     -1.033809     -3.440222
  C       1.388216      1.430224      1.478995
  C       2.121605      0.171472      1.969079
  C       1.222423     -1.054851      2.196003
  C       0.582137      1.164806      0.227367
  C       2.385671      2.584257      1.272469
  C      -1.745027      0.397597     -3.329750
  C      -0.931252      0.656855     -2.098851
  C       0.071345     -0.761012      3.135276
  C      -0.791925      1.413248      0.196495
  C       1.193485      0.680928     -0.935143
  C       2.058188     -2.236388      2.704247
  C      -1.176506     -2.030611     -3.529358
  C      -3.114383     -1.097949     -4.693814
  C      -3.166712     -1.360090     -2.268933
  C      -1.540637      1.165183     -0.949333
  C       0.449839      0.433972     -2.082489
  C       1.717634      3.901888      0.891885
  C      -1.249031     -0.975232      2.731479
  C       0.300065     -0.274780      4.428071
  C      -2.315453     -0.708087      3.588955
  C      -0.761492     -0.006013      5.287413
  C      -2.075172     -0.220347      4.870726
  H       0.680560      1.739652      2.261860
  H       2.642146      0.417928      2.904641
  H       2.899604     -0.102504      1.243237
  H       0.785862     -1.338555      1.228472
  H       3.111552      2.295451      0.499710
  H       2.952976      2.713356      2.203785
  H      -2.635123      1.037537     -3.348332
  H      -1.154793      0.552101     -4.237880
  H      -1.281967      1.804575      1.085213
  H       2.265062      0.496832     -0.945769
  H       2.859193     -2.474070      1.994824
  H       1.439084     -3.130647      2.834115
  H       2.520213     -2.000085      3.669979
  H      -0.606292     -2.018820     -2.599252
  H      -0.534918     -1.767772     -4.373551
  H      -1.615924     -3.018691     -3.682155
  H      -3.521304     -2.106754     -4.789322
  H      -2.472128     -0.868351     -5.546750
  H      -3.920559     -0.363399     -4.607735
  H      -2.567659     -1.344893     -1.357176
  H      -3.581650     -2.358304     -2.424995
  H      -3.966129     -0.614141     -2.224086
  H      -2.609477      1.366447     -0.954669
  H       0.944828      0.066013     -2.978145
  H       0.973785      4.195770      1.642224
  H       1.204906      3.826438     -0.073741
  H       2.454624      4.708477      0.815592
  H      -1.443373     -1.349316      1.728240
  H       1.318849     -0.099788      4.766421
  H      -3.334820     -0.878933      3.252604
  H      -0.563923      0.373896      6.286467
  H      -2.903559     -0.008287      5.541097
  Cl     -5.236471      1.656669     -3.180081
56
Coordinates from ORCA-job R4N+Cl-_altB_r2 E -1372.331991163160
  N      -2.289382     -1.034368     -3.439315
  C       1.388538      1.430928      1.478860
  C       2.121617      0.172073      1.969199
  C       1.222869     -1.054622      2.195473
  C       0.582235      1.165437      0.227425
  C       2.386321      2.584510      1.272246
  C      -1.745512      0.397077     -3.329154
  C      -0.931583      0.656618     -2.098391
  C       0.071127     -0.761255      3.133972
  C      -0.791875      1.413725      0.196733
  C       1.193350      0.681243     -0.935081
  C       2.059109     -2.235736      2.703938
  C      -1.176913     -2.031360     -3.528767
  C      -3.115039     -1.098785     -4.692719
  C      -3.166384     -1.360719     -2.267462
  C      -1.540807      1.165202     -0.948855
  C       0.449490      0.433921     -2.082267
  C       1.718518      3.902735      0.893103
  C      -1.248952     -0.975547      2.729245
  C       0.298899     -0.275259      4.427034
  C      -2.315992     -0.708636      3.586027
  C      -0.763293     -0.006745      5.285704
  C      -2.076670     -0.221088      4.868073
  H       0.680878      1.740662      2.261642
  H       2.641328      0.418618      2.905204
  H       2.900286     -0.101534      1.243917
  H       0.787032     -1.338605      1.227683
  H       3.111284      2.296006      0.498513
  H       2.954501      2.712885      2.203115
  H      -2.635709      1.036832     -3.348398
  H      -1.154641      0.551420     -4.236926
  H      -1.281783      1.805342      1.085394
  H       2.264909      0.497097     -0.945981
  H       2.859783     -2.473553      1.994221
  H       1.440240     -3.130051      2.834507
  H       2.521443     -1.998862      3.669382
  H      -0.605774     -2.018674     -2.599260
  H      -0.536434     -1.769171     -4.373986
  H      -1.616849     -3.019421     -3.680165
  H      -3.522677     -2.107369     -4.787472
  H      -2.472379     -0.870922     -5.545828
  H      -3.920477     -0.363361     -4.607804
  H      -2.566078     -1.348037     -1.356470
  H      -3.582729     -2.358209     -2.424367
  H      -3.964543     -0.613687     -2.219733
  H      -2.609691      1.366151     -0.954126
  H       0.944615      0.065638     -2.977710
  H       0.977103      4.197454      1.645501
  H       1.203059      3.827389     -0.071071
  H       2.456132      4.708526      0.814617
  H      -1.442642     -1.349471      1.725832
  H       1.317382     -0.100233      4.766239
  H      -3.335120     -0.879498      3.248974
  H      -0.566429      0.372983      6.284961
  H      -2.905551     -0.009228      5.537883
  Cl     -5.233010      1.662625     -3.177904
56
Coordinates from ORCA-job R4N+Cl-_altB_r2 E -1372.331993509131
  N      -2.289737     -1.034640     -3.437994
  C       1.388694      1.431503      1.478823
  C       2.121701      0.172588      1.969137
  C       1.223274     -1.054452      2.194652
  C       0.582299      1.166029      0.227429
  C       2.386615      2.584886      1.272102
  C      -1.745379      0.396587     -3.328912
  C      -0.931487      0.656716     -2.098231
  C       0.070838     -0.761570      3.132414
  C      -0.791800      1.414124      0.196740
  C       1.193384      0.681780     -0.935003
  C       2.059715     -2.235218      2.703512
  C      -1.177516     -2.032095     -3.527779
  C      -3.115909     -1.099764     -4.690946
  C      -3.165668     -1.360643     -2.265284
  C      -1.540697      1.165395     -0.948746
  C       0.449550      0.434196     -2.082121
  C       1.718832      3.903399      0.894011
  C      -1.248876     -0.976023      2.726798
  C       0.297629     -0.275824      4.425705
  C      -2.316492     -0.709454      3.582864
  C      -0.765149     -0.007659      5.283670
  C      -2.078154     -0.222105      4.865111
  H       0.681009      1.741281      2.261561
  H       2.640786      0.419028      2.905498
  H       2.900874     -0.100532      1.244237
  H       0.788159     -1.338640      1.226603
  H       3.111019      2.296652      0.497783
  H       2.955402      2.712816      2.202647
  H      -2.635364      1.036573     -3.349159
  H      -1.153998      0.549734     -4.236564
  H      -1.281710      1.805795      1.085362
  H       2.264921      0.497612     -0.945981
  H       2.860443     -2.473002      1.993889
  H       1.441104     -3.129658      2.834282
  H       2.521844     -1.998044      3.668952
  H      -0.605013     -2.017919     -2.599166
  H      -0.538606     -1.771103     -4.374517
  H      -1.618175     -3.020164     -3.676875
  H      -3.524042     -2.108258     -4.784366
  H      -2.472899     -0.873805     -5.544299
  H      -3.920719     -0.363602     -4.607406
  H      -2.563535     -1.350700     -1.355455
  H      -3.583808     -2.357243     -2.422983
  H      -3.962282     -0.612296     -2.214373
  H      -2.609565      1.366315     -0.954176
  H       0.944876      0.065804     -2.977391
  H       0.979512      4.198914      1.648118
  H       1.200991      3.828005     -0.068854
  H       2.456794      4.708650      0.813520
  H      -1.441835     -1.349814      1.723211
  H       1.315811     -0.100705      4.765713
  H      -3.335355     -0.880410      3.245096
  H      -0.568990      0.371889      6.283121
  H      -2.907539     -0.010482      5.534353
  Cl     -5.228645      1.668641     -3.174926
56
Coordinates from ORCA-job R4N+Cl-_altB_r2 E -1372.331995984341
  N      -2.290014     -1.034672     -3.436372
  C       1.388722      1.431917      1.478879
  C       2.121888      0.172994      1.968936
  C       1.223585     -1.054307      2.193611
  C       0.582439      1.166558      0.227334
  C       2.386560      2.585419      1.272140
  C      -1.744557      0.396146     -3.329076
  C      -0.930895      0.657142     -2.098437
  C       0.070463     -0.761885      3.130717
  C      -0.791579      1.414654      0.196407
  C       1.193696      0.682346     -0.934923
  C       2.059861     -2.234913      2.702980
  C      -1.178158     -2.032751     -3.526696
  C      -3.117104     -1.100747     -4.688508
  C      -3.164415     -1.359988     -2.262472
  C      -1.540222      1.165957     -0.949134
  C       0.450091      0.434611     -2.082076
  C       1.718612      3.903869      0.894450
  C      -1.248863     -0.976602      2.724277
  C       0.296291     -0.276366      4.424202
  C      -2.317018     -0.710500      3.579668
  C      -0.767024     -0.008661      5.281495
  C      -2.079637     -0.223351      4.862072
  H       0.680971      1.741471      2.261603
  H       2.640610      0.419122      2.905549
  H       2.901354     -0.099609      1.244207
  H       0.789142     -1.338507      1.225291
  H       3.110949      2.297347      0.497799
  H       2.955488      2.713259      2.202606
  H      -2.634074      1.036732     -3.350557
  H      -1.152935      0.547233     -4.236906
  H      -1.281600      1.806276      1.084969
  H       2.265201      0.498089     -0.945719
  H       2.861197     -2.472387      1.993970
  H       1.441466     -3.129564      2.833151
  H       2.521107     -1.997872      3.668836
  H      -0.603816     -2.016743     -2.599276
  H      -0.541169     -1.773350     -4.375329
  H      -1.619546     -3.020906     -3.672854
  H      -3.525493     -2.109271     -4.780281
  H      -2.474218     -0.876312     -5.542351
  H      -3.921553     -0.364163     -4.605973
  H      -2.560084     -1.352805     -1.354076
  H      -3.584868     -2.355501     -2.420822
  H      -3.959260     -0.610092     -2.208322
  H      -2.609012      1.367204     -0.954933
  H       0.945567      0.066141     -2.977211
  H       0.980379      4.199866      1.649399
  H       1.199483      3.828360     -0.067678
  H       2.456560      4.709000      0.812834
  H      -1.441040     -1.350267      1.720500
  H       1.314200     -0.101062      4.764889
  H      -3.335609     -0.881651      3.241209
  H      -0.571550      0.370727      6.281127
  H      -2.909506     -0.012038      5.530795
  Cl     -5.223928      1.673494     -3.170515
56
Coordinates from ORCA-job R4N+Cl-_altB_r2 E -1372.331998990861
  N      -2.290334     -1.034559     -3.434305
  C       1.388760      1.432334      1.479042
  C       2.122344      0.173531      1.968763
  C       1.224109     -1.054065      2.192369
  C       0.582858      1.167066      0.227164
  C       2.386239      2.586316      1.272461
  C      -1.742856      0.395607     -3.329609
  C      -0.929652      0.657691     -2.098952
  C       0.070090     -0.762262      3.128670
  C      -0.791008      1.415551      0.195674
  C       1.194470      0.682665     -0.934730
  C       2.059971     -2.234608      2.702421
  C      -1.179247     -2.033691     -3.525362
  C      -3.118918     -1.101606     -4.685205
  C      -3.162847     -1.358506     -2.258806
  C      -1.539219      1.166999     -0.950073
  C       0.451259      0.434781     -2.082004
  C       1.717930      3.904346      0.894442
  C      -1.248741     -0.977591      2.721194
  C       0.294652     -0.276868      4.422365
  C      -2.317637     -0.712261      3.575775
  C      -0.769394     -0.009917      5.278838
  C      -2.081503     -0.225254      4.858368
  H       0.680840      1.741420      2.261735
  H       2.640772      0.419229      2.905620
  H       2.902069     -0.098469      1.244142
  H       0.790505     -1.338101      1.223659
  H       3.111204      2.298304      0.498682
  H       2.954767      2.714434      2.203141
  H      -2.631510      1.037355     -3.352802
  H      -1.151087      0.543604     -4.237824
  H      -1.281222      1.807280      1.084068
  H       2.265920      0.498148     -0.945029
  H       2.862649     -2.471321      1.994679
  H       1.441848     -3.129658      2.831005
  H       2.519466     -1.998090      3.669205
  H      -0.602510     -2.015681     -2.599480
  H      -0.544453     -1.776546     -4.376292
  H      -1.621593     -3.021927     -3.667898
  H      -3.527524     -2.110187     -4.775193
  H      -2.476858     -0.878159     -5.539915
  H      -3.923223     -0.364856     -4.602984
  H      -2.556049     -1.354316     -1.352045
  H      -3.586671     -2.352509     -2.417595
  H      -3.955366     -0.606442     -2.201388
  H      -2.607865      1.368948     -0.956467
  H       0.946771      0.066007     -2.976983
  H       0.979445      4.200321      1.649138
  H       1.198975      3.828707     -0.067743
  H       2.455470      4.709860      0.812937
  H      -1.439835     -1.351155      1.717169
  H       1.312226     -0.101081      4.763783
  H      -3.335855     -0.883899      3.236459
  H      -0.574855      0.369389      6.278674
  H      -2.912001     -0.014492      5.526477
  Cl     -5.218646      1.677279     -3.164032
56
Coordinates from ORCA-job R4N+Cl-_altB_r2 E -1372.332002866092
  N      -2.290798     -1.034374     -3.431697
  C       1.389023      1.432903      1.479318
  C       2.123235      0.174405      1.968840
  C       1.225192     -1.053657      2.191033
  C       0.583740      1.167598      0.227000
  C       2.385895      2.587658      1.273066
  C      -1.740275      0.394916     -3.330331
  C      -0.927756      0.658197     -2.099587
  C       0.069796     -0.762779      3.126048
  C      -0.789892      1.417108      0.194603
  C       1.195777      0.682399     -0.934277
  C       2.060565     -2.234061      2.702094
  C      -1.181073     -2.035105     -3.523731
  C      -3.121629     -1.102104     -4.680900
  C      -3.161189     -1.356101     -2.254167
  C      -1.537605      1.168686     -0.951445
  C       0.453023      0.434292     -2.081714
  C       1.717104      3.904976      0.893954
  C      -1.248319     -0.979332      2.716986
  C       0.292382     -0.277263      4.420005
  C      -2.318446     -0.715188      3.570345
  C      -0.772882     -0.011473      5.275239
  C      -2.084256     -0.228121      4.853219
  H       0.680813      1.741407      2.261916
  H       2.641184      0.419698      2.906049
  H       2.903411     -0.096874      1.244474
  H       0.792883     -1.337473      1.221714
  H       3.111947      2.299568      0.500350
  H       2.953510      2.716399      2.204239
  H      -2.627593      1.038474     -3.355977
  H      -1.148194      0.538804     -4.238966
  H      -1.280287      1.809404      1.082644
  H       2.267122      0.497247     -0.943753
  H       2.865425     -2.469468      1.996367
  H       1.442886     -3.129779      2.828100
  H       2.517334     -1.998257      3.670330
  H      -0.601351     -2.015156     -2.599745
  H      -0.548671     -1.780972     -4.377329
  H      -1.624747     -3.023339     -3.662066
  H      -3.530332     -2.110768     -4.769398
  H      -2.481350     -0.878635     -5.536925
  H      -3.926114     -0.365599     -4.597757
  H      -2.551799     -1.355328     -1.349148
  H      -3.589758     -2.348030     -2.413179
  H      -3.950592     -0.600984     -2.193506
  H      -2.606037      1.371737     -0.958612
  H       0.948354      0.064652     -2.976439
  H       0.976819      4.200300      1.647152
  H       1.200050      3.829242     -0.069237
  H       2.453887      4.711357      0.814038
  H      -1.437734     -1.352902      1.712627
  H       1.309443     -0.100485      4.762455
  H      -3.336078     -0.887800      3.229771
  H      -0.579866      0.367951      6.275324
  H      -2.915727     -0.018258      5.520403
  Cl     -5.213323      1.679377     -3.154405
56
Coordinates from ORCA-job R4N+Cl-_altB_r2 E -1372.332007538097
  N      -2.291512     -1.034219     -3.428758
  C       1.389719      1.433734      1.479703
  C       2.124665      0.175775      1.969457
  C       1.227202     -1.053077      2.189918
  C       0.585146      1.168108      0.227006
  C       2.385848      2.589356      1.273811
  C      -1.737108      0.394043     -3.330932
  C      -0.925437      0.658354     -2.099998
  C       0.069735     -0.763508      3.122855
  C      -0.788185      1.419339      0.193457
  C       1.197503      0.681209     -0.933403
  C       2.062347     -2.232977      2.702473
  C      -1.183890     -2.037149     -3.521944
  C      -3.125255     -1.101841     -4.675953
  C      -3.159954     -1.352865     -2.248974
  C      -1.535499      1.170864     -0.952880
  C       0.455124      0.432745     -2.080971
  C       1.716560      3.905846      0.893061
  C      -1.247354     -0.982004      2.711375
  C       0.289324     -0.277485      4.417147
  C      -2.319418     -0.719416      3.562843
  C      -0.777876     -0.013226      5.270470
  C      -2.088189     -0.231939      4.846120
  H       0.681122      1.741779      2.262106
  H       2.641633      0.420954      2.907244
  H       2.905749     -0.094656      1.245752
  H       0.796898     -1.336892      1.219722
  H       3.113140      2.301058      0.502303
  H       2.952317      2.718945      2.205591
  H      -2.622638      1.039973     -3.359879
  H      -1.144153      0.533266     -4.239694
  H      -1.278649      1.812890      1.080917
  H       2.268671      0.494927     -0.941835
  H       2.869994     -2.466663      1.999308
  H       1.445407     -3.129642      2.825430
  H       2.515700     -1.997609      3.672437
  H      -0.600926     -2.015837     -2.599997
  H      -0.553727     -1.786575     -4.378261
  H      -1.629423     -3.025143     -3.656090
  H      -3.533779     -2.110624     -4.763976
  H      -2.487696     -0.876845     -5.533597
  H      -3.930309     -0.366128     -4.590132
  H      -2.548221     -1.355857     -1.345552
  H      -3.594427     -2.342235     -2.407976
  H      -3.945456     -0.593800     -2.185486
  H      -2.603672      1.375278     -0.960874
  H       0.950039      0.061496     -2.975281
  H       0.973218      4.199935      1.643767
  H       1.202860      3.830063     -0.071935
  H       2.452417      4.713375      0.815958
  H      -1.434305     -1.355786      1.706607
  H       1.305589     -0.099127      4.761186
  H      -3.336176     -0.893559      3.220416
  H      -0.587236      0.366619      6.270860
  H      -2.921137     -0.023304      5.511863
  Cl     -5.209192      1.679149     -3.141379
56
Coordinates from ORCA-job R4N+Cl-_altB_r2 E -1372.332012048023
  N      -2.292192     -1.034231     -3.426382
  C       1.390773      1.434668      1.480059
  C       2.126180      0.177304      1.970609
  C       1.229667     -1.052534      2.189467
  C       0.586657      1.168512      0.227257
  C       2.386436      2.590744      1.274273
  C      -1.734480      0.393225     -3.331044
  C      -0.923536      0.658079     -2.099875
  C       0.069822     -0.764287      3.119819
  C      -0.786366      1.421783      0.192676
  C       1.198996      0.679272     -0.932252
  C       2.065094     -2.231483      2.703810
  C      -1.186772     -2.039176     -3.521028
  C      -3.129043     -1.100708     -4.671624
  C      -3.159154     -1.350068     -2.244599
  C      -1.533584      1.173007     -0.953775
  C       0.456734      0.430416     -2.079853
  C       1.716936      3.906752      0.892155
  C      -1.246129     -0.984813      2.705480
  C       0.285961     -0.277518      4.414463
  C      -2.320465     -0.723584      3.554644
  C      -0.783523     -0.014606      5.265477
  C      -2.092660     -0.235432      4.838368
  H       0.681857      1.742740      2.262190
  H       2.641643      0.422838      2.909163
  H       2.908597     -0.092377      1.248021
  H       0.801764     -1.336817      1.218335
  H       3.114354      2.302165      0.503391
  H       2.952210      2.720983      2.206400
  H      -2.618341      1.041268     -3.363329
  H      -1.140027      0.528835     -4.239372
  H      -1.276694      1.817083      1.079458
  H       2.269928      0.491488     -0.939773
  H       2.875118     -2.463732      2.002858
  H       1.449032     -3.129062      2.824625
  H       2.515550     -1.995741      3.675074
  H      -0.600998     -2.017556     -2.600830
  H      -0.558370     -1.791482     -4.379510
  H      -1.634211     -3.026741     -3.652234
  H      -3.536634     -2.109780     -4.760844
  H      -2.494644     -0.872467     -5.530754
  H      -3.935130     -0.366523     -4.581424
  H      -2.545687     -1.356531     -1.342371
  H      -3.598986     -2.337101     -2.403519
  H      -3.940907     -0.587166     -2.179011
  H      -2.601521      1.378671     -0.962394
  H       0.951153      0.057107     -2.973611
  H       0.970776      4.199626      1.640580
  H       1.206438      3.830982     -0.074573
  H       2.452216      4.715079      0.817700
  H      -1.430364     -1.358985      1.700335
  H       1.301281     -0.097515      4.760489
  H      -3.336240     -0.899297      3.210076
  H      -0.595655      0.365850      6.266172
  H      -2.927312     -0.027901      5.502337
  Cl     -5.208420      1.675830     -3.126378
56
Coordinates from ORCA-job R4N+Cl-_altB_r2 E -1372.332015062162
  N      -2.292248     -1.034472     -3.425606
  C       1.391604      1.435277      1.480186
  C       2.126861      0.178199      1.971699
  C       1.231138     -1.052319      2.189722
  C       0.587489      1.168751      0.227549
  C       2.387455      2.591046      1.274158
  C      -1.733513      0.392793     -3.330762
  C      -0.922864      0.657710     -2.099445
  C       0.069691     -0.764707      3.118143
  C      -0.785327      1.423505      0.192436
  C       1.199517      0.677628     -0.931403
  C       2.067134     -2.230337      2.705392
  C      -1.187955     -2.040120     -3.522127
  C      -3.131645     -1.099409     -4.669358
  C      -3.158057     -1.349360     -2.242487
  C      -1.532705      1.174363     -0.953931
  C       0.457150      0.428561     -2.078973
  C       1.718236      3.907278      0.891853
  C      -1.245536     -0.986065      2.701737
  C       0.283535     -0.277521      4.413062
  C      -2.321404     -0.725239      3.549190
  C      -0.787501     -0.015024      5.262381
  C      -2.095892     -0.236669      4.833250
  H       0.682599      1.743904      2.262075
  H       2.640902      0.424313      2.910913
  H       2.910452     -0.091157      1.250211
  H       0.804954     -1.337333      1.218021
  H       3.114910      2.302256      0.502867
  H       2.953493      2.721280      2.206116
  H      -2.616645      1.041644     -3.364929
  H      -1.137595      0.527417     -4.238306
  H      -1.275423      1.820227      1.078730
  H       2.270241      0.488573     -0.938510
  H       2.877902     -2.462267      2.005191
  H       1.451594     -3.128293      2.826146
  H       2.516649     -1.993552      3.676869
  H      -0.600398     -2.019052     -2.603034
  H      -0.560832     -1.793228     -4.381805
  H      -1.636430     -3.027360     -3.652461
  H      -3.537371     -2.109044     -4.760893
  H      -2.499861     -0.867238     -5.529374
  H      -3.939043     -0.367266     -4.574538
  H      -2.543410     -1.358056     -1.341074
  H      -3.600482     -2.335243     -2.401464
  H      -3.937649     -0.584285     -2.175436
  H      -2.600515      1.380714     -0.962840
  H       0.951352      0.053724     -2.972227
  H       0.971369      4.199806      1.639717
  H       1.208674      3.831590     -0.075397
  H       2.453738      4.715468      0.818128
  H      -1.428081     -1.360493      1.696380
  H       1.298204     -0.096848      4.760672
  H      -3.336562     -0.901565      3.203098
  H      -0.601489      0.365769      6.263304
  H      -2.931693     -0.029490      5.495888
  Cl     -5.211588      1.670309     -3.113301
56
Coordinates from ORCA-job R4N+Cl-_altB_r2 E -1372.332016405531
  N      -2.291662     -1.034798     -3.426193
  C       1.391699      1.435442      1.480084
  C       2.126462      0.178273      1.972133
  C       1.230951     -1.052362      2.190095
  C       0.587424      1.168882      0.227590
  C       2.388094      2.590574      1.273790
  C      -1.733683      0.392654     -3.330725
  C      -0.923033      0.657545     -2.099339
  C       0.069270     -0.764640      3.118082
  C      -0.785312      1.424126      0.192308
  C       1.199244      0.677028     -0.931175
  C       2.067335     -2.230040      2.705993
  C      -1.187325     -2.040058     -3.524289
  C      -3.132455     -1.098836     -4.669144
  C      -3.156613     -1.350256     -2.242434
  C      -1.532756      1.174772     -0.953983
  C       0.456848      0.427912     -2.078769
  C       1.719340      3.907396      0.892265
  C      -1.245906     -0.985262      2.701141
  C       0.282838     -0.277845      4.413207
  C      -2.321978     -0.724031      3.548211
  C      -0.788411     -0.014967      5.262169
  C      -2.096755     -0.235809      4.832476
  H       0.682733      1.744628      2.261823
  H       2.639795      0.424725      2.911654
  H       2.910554     -0.091143      1.251192
  H       0.805117     -1.337778      1.218342
  H       3.114630      2.301784      0.501636
  H       2.954878      2.720329      2.205341
  H      -2.616930      1.041239     -3.365176
  H      -1.136952      0.528062     -4.237645
  H      -1.275336      1.821420      1.078389
  H       2.269865      0.487405     -0.938237
  H       2.877345     -2.462555      2.005141
  H       1.451762     -3.127796      2.828039
  H       2.517707     -1.992455      3.676878
  H      -0.599038     -2.019525     -2.605658
  H      -0.561045     -1.792458     -4.384385
  H      -1.635892     -3.027214     -3.654949
  H      -3.536208     -2.109099     -4.762512
  H      -2.502004     -0.863892     -5.529398
  H      -3.940942     -0.368400     -4.571421
  H      -2.541164     -1.359720     -1.341570
  H      -3.599000     -2.336145     -2.401519
  H      -3.935734     -0.584785     -2.174515
  H      -2.600541      1.381254     -0.963059
  H       0.951284      0.052610     -2.971694
  H       0.973726      4.200436      1.641154
  H       1.208503      3.831791     -0.074317
  H       2.455511      4.714857      0.817437
  H      -1.428362     -1.359458      1.695697
  H       1.297414     -0.097766      4.761382
  H      -3.337107     -0.899757      3.201735
  H      -0.602616      0.365502      6.263254
  H      -2.932718     -0.028322      5.494806
  Cl     -5.215723      1.665618     -3.105932
56
Coordinates from ORCA-job R4N+Cl-_altB_r2 E -1372.332016855487
  N      -2.291023     -1.035041     -3.427072
  C       1.391285      1.435390      1.479941
  C       2.125725      0.178042      1.972054
  C       1.230055     -1.052419      2.190226
  C       0.587011      1.168919      0.227411
  C       2.388018      2.590170      1.273605
  C      -1.733815      0.392508     -3.331135
  C      -0.923192      0.657475     -2.099666
  C       0.068904     -0.764370      3.118744
  C      -0.785721      1.424039      0.192008
  C       1.198902      0.677117     -0.931308
  C       2.066525     -2.230262      2.705627
  C      -1.186361     -2.039887     -3.525865
  C      -3.132221     -1.098908     -4.669777
  C      -3.155561     -1.351137     -2.243127
  C      -1.533008      1.174621     -0.954330
  C       0.456662      0.427964     -2.079003
  C       1.719479      3.907386      0.892887
  C      -1.246574     -0.983642      2.702166
  C       0.283300     -0.278455      4.414051
  C      -2.322119     -0.721905      3.549698
  C      -0.787418     -0.015094      5.263492
  C      -2.096078     -0.234541      4.834121
  H       0.682300      1.744755      2.261595
  H       2.638983      0.424514      2.911600
  H       2.909794     -0.091507      1.251147
  H       0.803744     -1.337778      1.218666
  H       3.114009      2.301554      0.500899
  H       2.955293      2.719515      2.204900
  H      -2.617283      1.040752     -3.365384
  H      -1.136820      0.528648     -4.237780
  H      -1.275875      1.821317      1.078019
  H       2.269516      0.487496     -0.938373
  H       2.875480     -2.463418      2.003801
  H       1.450681     -3.127666      2.828826
  H       2.518124     -1.992527      3.675888
  H      -0.597941     -2.019466     -2.607332
  H      -0.560494     -1.791600     -4.386054
  H      -1.634772     -3.027061     -3.656823
  H      -3.534764     -2.109583     -4.763868
  H      -2.502071     -0.862844     -5.529951
  H      -3.941288     -0.369332     -4.571078
  H      -2.539661     -1.360670     -1.342569
  H      -3.597274     -2.337312     -2.402278
  H      -3.934768     -0.585839     -2.174863
  H      -2.600809      1.381007     -0.963620
  H       0.951528      0.052832     -2.971748
  H       0.975390      4.201052      1.643021
  H       1.206970      3.831776     -0.072797
  H       2.456112      4.714277      0.816650
  H      -1.429743     -1.357246      1.696638
  H       1.298102     -0.099452      4.762094
  H      -3.337519     -0.896575      3.203496
  H      -0.600943      0.364652      6.264720
  H      -2.931656     -0.026656      5.496802
  Cl     -5.217986      1.663507     -3.103590
56
Coordinates from ORCA-job R4N+Cl-_altB_r2 E -1372.332017015394
  N      -2.290564     -1.035177     -3.427793
  C       1.390775      1.435264      1.479830
  C       2.125125      0.177805      1.971834
  C       1.229223     -1.052447      2.190247
  C       0.586641      1.168866      0.227165
  C       2.387576      2.590004      1.273618
  C      -1.733681      0.392343     -3.331717
  C      -0.923172      0.657417     -2.100145
  C       0.068706     -0.764110      3.119480
  C      -0.786107      1.423754      0.191619
  C       1.198728      0.677323     -0.931526
  C       2.065631     -2.230598      2.705032
  C      -1.185669     -2.039832     -3.526776
  C      -3.131779     -1.099137     -4.670473
  C      -3.154961     -1.351627     -2.243838
  C      -1.533170      1.174343     -0.954826
  C       0.456695      0.428137     -2.079343
  C       1.719027      3.907347      0.893356
  C      -1.247111     -0.982182      2.703434
  C       0.284060     -0.279034      4.414929
  C      -2.322044     -0.720079      3.551591
  C      -0.786039     -0.015322      5.264999
  C      -2.095048     -0.233558      4.836136
  H       0.681705      1.744553      2.261428
  H       2.638568      0.424183      2.911293
  H       2.908994     -0.091846      1.250766
  H       0.802283     -1.337571      1.218901
  H       3.113461      2.301588      0.500759
  H       2.954974      2.719158      2.204863
  H      -2.617235      1.040460     -3.365832
  H      -1.136662      0.528767     -4.238299
  H      -1.276444      1.820859      1.077601
  H       2.269366      0.487874     -0.938550
  H       2.873836     -2.464148      2.002490
  H       1.449528     -3.127737      2.828847
  H       2.518120     -1.993057      3.674911
  H      -0.597250     -2.019290     -2.608253
  H      -0.559985     -1.791240     -4.387001
  H      -1.633941     -3.027052     -3.657766
  H      -3.533756     -2.110018     -4.764712
  H      -2.501620     -0.862710     -5.530539
  H      -3.941121     -0.369918     -4.571616
  H      -2.538843     -1.361186     -1.343426
  H      -3.596342     -2.337926     -2.403095
  H      -3.934199     -0.586414     -2.175423
  H      -2.600990      1.380627     -0.964331
  H       0.951912      0.053258     -2.971992
  H       0.975895      4.201396      1.644275
  H       1.205423      3.831689     -0.071732
  H       2.455815      4.714005      0.816214
  H      -1.431040     -1.355182      1.697822
  H       1.299137     -0.100970      4.762639
  H      -3.337734     -0.893823      3.205784
  H      -0.598780      0.363739      6.266337
  H      -2.930169     -0.025390      5.499299
  Cl     -5.218618      1.662913     -3.103087
56
Coordinates from ORCA-job R4N+Cl-_altB_r2 E -1372.332017103297
  N      -2.290204     -1.035255     -3.428479
  C       1.390276      1.435087      1.479735
  C       2.124645      0.177587      1.971636
  C       1.228540     -1.052480      2.190330
  C       0.586341      1.168721      0.226911
  C       2.387015      2.589927      1.273718
  C      -1.733429      0.392206     -3.332337
  C      -0.923079      0.657330     -2.100652
  C       0.068613     -0.763878      3.120242
  C      -0.786432      1.423409      0.191213
  C       1.198647      0.677442     -0.931755
  C       2.064869     -2.230920      2.704562
  C      -1.185157     -2.039814     -3.527561
  C      -3.131384     -1.099287     -4.671172
  C      -3.154543     -1.351960     -2.244558
  C      -1.533281      1.174036     -0.955355
  C       0.456811      0.428256     -2.079696
  C       1.718374      3.907263      0.893653
  C      -1.247518     -0.980971      2.704714
  C       0.284848     -0.279464      4.415784
  C      -2.321896     -0.718563      3.553465
  C      -0.784690     -0.015456      5.266445
  C      -2.094020     -0.232718      4.838093
  H       0.681088      1.744221      2.261277
  H       2.638343      0.423893      2.910967
  H       2.908287     -0.092171      1.250373
  H       0.800999     -1.337370      1.219186
  H       3.113015      2.301680      0.500915
  H       2.954331      2.719021      2.205024
  H      -2.616996      1.040308     -3.366393
  H      -1.136449      0.528741     -4.238922
  H      -1.276944      1.820333      1.077177
  H       2.269317      0.488181     -0.938711
  H       2.872552     -2.464715      2.001503
  H       1.448563     -3.127871      2.828726
  H       2.518013     -1.993632      3.674190
  H      -0.596709     -2.019138     -2.609062
  H      -0.559593     -1.791085     -4.387828
  H      -1.633313     -3.027087     -3.658492
  H      -3.533057     -2.110279     -4.765473
  H      -2.501242     -0.862587     -5.531173
  H      -3.940917     -0.370294     -4.572262
  H      -2.538313     -1.361691     -1.344224
  H      -3.595929     -2.338215     -2.404022
  H      -3.933694     -0.586687     -2.175972
  H      -2.601117      1.380236     -0.965048
  H       0.952278      0.053587     -2.972292
  H       0.975734      4.201501      1.644982
  H       1.204180      3.831553     -0.071112
  H       2.455161      4.713877      0.816040
  H      -1.432122     -1.353475      1.699042
  H       1.300183     -0.102155      4.763119
  H      -3.337845     -0.891560      3.208048
  H      -0.596719      0.363063      6.267852
  H      -2.928719     -0.024324      5.501716
  Cl     -5.218579      1.662735     -3.102680
