56
Coordinates from ORCA-job R4N+Cl-_altB_r2 E -1372.332017103297
  N          -2.29020420649013     -1.03525489403510     -3.42847945006654
  C           1.39027640557808      1.43508673474903      1.47973468892724
  C           2.12464483642833      0.17758677226418      1.97163607981480
  C           1.22854005047440     -1.05247980714322      2.19033031342671
  C           0.58634065027476      1.16872109596361      0.22691130785482
  C           2.38701482864323      2.58992716977586      1.27371821329627
  C          -1.73342859451937      0.39220566265315     -3.33233723639829
  C          -0.92307899013113      0.65732998229911     -2.10065170363640
  C           0.06861280087267     -0.76387790218555      3.12024194915696
  C          -0.78643206816004      1.42340864981055      0.19121318365105
  C           1.19864741824722      0.67744201695850     -0.93175512373997
  C           2.06486920140141     -2.23091956454113      2.70456209693339
  C          -1.18515731777107     -2.03981414142520     -3.52756072333195
  C          -3.13138440648112     -1.09928686498833     -4.67117226894438
  C          -3.15454336995885     -1.35195959610499     -2.24455832798907
  C          -1.53328130008260      1.17403586351461     -0.95535548060736
  C           0.45681131903342      0.42825628909493     -2.07969572235797
  C           1.71837446841416      3.90726302126023      0.89365283282209
  C          -1.24751759329489     -0.98097088762874      2.70471411423088
  C           0.28484788862300     -0.27946415755329      4.41578390114993
  C          -2.32189633074612     -0.71856329836991      3.55346506440899
  C          -0.78468977790994     -0.01545564230620      5.26644474429159
  C          -2.09401989057747     -0.23271826827215      4.83809293309510
  H           0.68108805973956      1.74422059005582      2.26127729234264
  H           2.63834285881855      0.42389268163513      2.91096702852343
  H           2.90828670367225     -0.09217075604676      1.25037323036214
  H           0.80099912105007     -1.33736950621593      1.21918627779608
  H           3.11301466348946      2.30167998268091      0.50091496861947
  H           2.95433111779055      2.71902120291912      2.20502376992323
  H          -2.61699627590712      1.04030750005838     -3.36639312951290
  H          -1.13644903045269      0.52874128325240     -4.23892203331112
  H          -1.27694362973981      1.82033324328154      1.07717656402832
  H           2.26931705895811      0.48818140146681     -0.93871145713993
  H           2.87255184612870     -2.46471471260404      2.00150333426214
  H           1.44856280025489     -3.12787090794541      2.82872599567446
  H           2.51801329663130     -1.99363189755509      3.67419004524065
  H          -0.59670905169014     -2.01913804605318     -2.60906238829141
  H          -0.55959286656638     -1.79108523328627     -4.38782774643374
  H          -1.63331312647151     -3.02708695942297     -3.65849245472694
  H          -3.53305737519494     -2.11027891864212     -4.76547334031262
  H          -2.50124198485099     -0.86258653462071     -5.53117313425473
  H          -3.94091660520912     -0.37029409716781     -4.57226218574028
  H          -2.53831321381522     -1.36169095477678     -1.34422431271173
  H          -3.59592924660724     -2.33821549507520     -2.40402195358089
  H          -3.93369439623764     -0.58668729903220     -2.17597158735591
  H          -2.60111746836423      1.38023562900851     -0.96504772740289
  H           0.95227771064569      0.05358659815731     -2.97229204827682
  H           0.97573399012032      4.20150086878298      1.64498189792926
  H           1.20417957936837      3.83155339724033     -0.07111237943675
  H           2.45516101039652      4.71387716919570      0.81604014828032
  H          -1.43212171210061     -1.35347469397897      1.69904172929515
  H           1.30018294512136     -0.10215537631706      4.76311918825104
  H          -3.33784539741144     -0.89155956445192      3.20804835412197
  H          -0.59671930905675      0.36306340423837      6.26785220720249
  H          -2.92871851883388     -0.02432434528324      5.50171623625425
  Cl         -5.21857928644395      1.66273480211242     -3.10268030890640
