84
-179.4099926619
N  -0.04741486385313586904 -0.66397803941734068189 4.91636038077957948644
C  1.78238935479497162540 -3.29144174344903195362 -0.76074770161136751057
C  2.02915356144359915191 -4.75474619735499359763 -0.35393141493918628404
C  2.53442877076699435435 -4.93713166508251966036 1.08581627597170093935
C  1.13319703536011506806 -2.49308868010548678740 0.33328145404635833859
C  0.96307024901012217022 -3.23913923471170317470 -2.05914979524660202159
C  -0.57310816526709451590 -0.24001972567116719448 3.58201626117749505340
C  0.00824523743161249129 -1.01383379733508816045 2.42770768282543691896
C  3.58286694260041116422 -3.92942306498252147406 1.48378915727979987516
C  1.73872003785813467047 -1.32700408513859180459 0.78470941946317607218
C  -0.06388157365063999726 -2.88968942374954762542 0.91807837391245705749
C  3.09201310780718108262 -6.35254651505395084854 1.26676140657321756322
C  -0.70745038189881781499 0.14712953408993986737 5.95262721038013253860
C  1.40628273620222055129 -0.45270884409366535239 4.99123980148632551135
C  -0.34293834251326138496 -2.08455061927183793458 5.15570444709682451645
C  1.18240126982955917612 -0.59102273655118120477 1.81367679822945171431
C  -0.61814768413591236751 -2.16150746200335897029 1.95428481671058751346
C  0.88514548227073019948 -1.82409541793165663748 -2.61940070012516157405
C  4.68358936853920848620 -3.66043084629684090103 0.67894716048199088565
C  3.48149549285340809135 -3.27109061479636098468 2.70435485990864821204
C  5.64386701351156983009 -2.74597606025809692909 1.07624396701849289748
C  4.44272448867794800265 -2.36357422979639419935 3.10967284139597266446
C  5.52808343420411585356 -2.09574845245813445871 2.29319143227824762121
H  2.75620302037709263843 -2.83974866680619308923 -0.98315653573893801997
H  2.75986144206696160097 -5.15878763463887413110 -1.05996382871880556742
H  1.10850144926630100883 -5.33109934588442335723 -0.47093727436196658465
H  1.68233513915475807465 -4.81816493565137449195 1.76306888087180047009
H  -0.04355366007643195897 -3.62335863573632011025 -1.88074178994142204857
H  1.45666078128956399951 -3.88586689495566561803 -2.78958641831266840327
H  -0.34448243525158417366 0.81833299423589034305 3.45321440435646787037
H  -1.65578030002925769004 -0.37125119847947496421 3.59385790896712364884
H  2.66206506343621596145 -1.01129554405858868016 0.31853363868973633144
H  -0.55894213177396812053 -3.77935008146948892005 0.56164385755887913376
H  2.33802943436596644133 -7.09141156608718148391 1.00793211645684199773
H  3.40659241432567716501 -6.50893324198238421019 2.29532611758642612898
H  3.95340963239596465684 -6.49750679335425740391 0.61693883916240244147
H  -0.34046918589291741419 -0.13941987716023818145 6.93503081977929358715
H  -1.78329042514336277847 -0.00603056598570805586 5.92214753748489464158
H  -0.49788478845046862942 1.20211281483467824494 5.79503813270251022516
H  1.64298728786055092677 0.59615683038949740524 4.83042331389143253517
H  1.91327187648223606686 -1.04155463678168680453 4.23029276333056802883
H  1.76924981787971291602 -0.75059888387500228735 5.97165987207930459846
H  0.13933092049024428660 -2.69743502291107439817 4.39854796920065016508
H  -1.41579037212124281275 -2.25478713974686728605 5.11740935875894997764
H  0.02601846617585223259 -2.37741793373015086743 6.13535855030850552083
H  1.67360572192496181998 0.31556315040773152969 2.12993827396408264008
H  -1.54900990795397852651 -2.49339489521126411731 2.38731414771229921712
H  0.34570350080898915035 -1.81622766964329906969 -3.56278737920997823352
H  1.89092830517969656690 -1.44194241476596052287 -2.79437115014444215078
H  0.38399353342365832864 -1.16060272572853184769 -1.91894176826202134123
H  4.80834132733599606269 -4.14486201903430462323 -0.28141792041960156379
H  2.63844919345968431657 -3.48985007169190986076 3.34211334518833247387
H  6.47358055039383639695 -2.55016656703314881227 0.40938148632084842005
H  4.36018134830726467044 -1.86579486047080589373 4.06296901851569725039
H  6.28381056521304870444 -1.38647022050408530447 2.59469981993028264711
S  5.26497896028990908235 -3.15430055767657568921 -2.51477617187218216444
F  6.56587547020799888742 -0.52254967787151596070 -1.66484173926484024797
F  6.90285893218077362121 1.32140491846916274810 -2.67323880057762020002
F  5.67487731550789842316 0.92327124390055892444 -4.67359299184736531885
F  4.17179015278302411929 -0.35753322398370157575 -3.89751343201499089730
F  3.65816553091332430370 0.47115793320199977900 -1.60410400736161817825
F  4.59154393659714266107 2.28599070370467716273 -2.26381763025472038109
F  6.58462847530576400601 -1.04682782370581772824 -5.70067197249635970735
F  7.50113626417014067727 -1.40983572493776088130 -3.79747118264749650152
F  5.02601768209400745491 0.28314544002961916647 0.57256804530754079607
F  6.56747369378305645427 1.65719464797747506601 -0.07213595752840114284
F  6.34859674392603601234 -3.63343156393478317057 -4.85253179146877400285
F  4.42355701786822219646 -2.65790582235944361500 -4.96809357486589231456
F  3.17336638795449310635 2.52616381508573661918 0.16456509470024283104
F  4.96184147698734534515 3.73438413385635259445 0.00878425428226749239
F  3.73422530344985981188 1.72833634206997488469 2.58185881326678234871
F  4.30091660195220892859 3.78871561341766405206 2.51276897713349756103
F  5.81094865662801307593 2.26379153762291185359 2.45458024317267087255
O  4.42312025858880719653 -4.31537854684163058039 -2.64782615557355205382
O  4.61831800928290725494 -1.95960990376788979361 -2.00778492975297329082
O  6.59011626338907952061 -3.39467004080827461365 -2.00058115726740215479
C  5.95372631614121861077 0.38461384721414465515 -2.43113682128394303916
C  5.48894527814546329125 -0.12580049046718663752 -3.83646330115732325794
C  4.82632813805155169717 1.11563112919468254702 -1.63501690536006227816
C  6.30158127809108670192 -1.32997868334372504329 -4.40273272018066741396
C  5.25547276521366146795 1.38481719455367469074 -0.15637078623289218937
C  5.58827406509715274296 -2.67018376673775925667 -4.28847587317258671646
C  4.47644352281926316550 2.57710429302906263160 0.48270784596700383462
C  4.59246884080724715460 2.58234024773336345859 2.04211331126849504614
