80
Coordinates from ORCA-job PFOA-Cholestyramine_GOAT E -162.529389414520
N      1.5536110000   -0.0180800000   -0.0076170000
C     -2.6385070000   -5.1241070000   -1.1370020000
C     -1.7903560000   -6.3405470000   -0.7057930000
C     -0.3899360000   -6.4351380000   -1.3514150000
C     -1.9398490000   -3.8071580000   -0.8409930000
C     -4.0516880000   -5.1887300000   -0.5220710000
C      0.0618470000   -0.0273790000   -0.0115190000
C     -0.6370880000   -1.3412500000   -0.3028520000
C     -0.4197170000   -6.4500950000   -2.8685200000
C     -1.6026390000   -2.9283610000   -1.8929440000
C     -1.6245550000   -3.4307060000    0.4840070000
C      0.3823110000   -7.6487020000   -0.8223990000
C      2.0965780000   -0.9240560000    1.0339360000
C      2.0087540000    1.3636270000    0.3004740000
C      2.0992260000   -0.3973240000   -1.3338330000
C     -0.9673870000   -1.7088460000   -1.6243470000
C     -0.9890360000   -2.2127480000    0.7481080000
C     -4.9947970000   -4.1021330000   -1.0394190000
C      0.3358410000   -5.5070400000   -3.6023250000
C     -1.1977520000   -7.3950150000   -3.5792130000
C      0.3237430000   -5.5181980000   -5.0051360000
C     -1.2152680000   -7.4020390000   -4.9801020000
C     -0.4505990000   -6.4661820000   -5.6930430000
H     -2.7929440000   -5.2292430000   -2.2386390000
H     -2.3561480000   -7.2719410000   -0.9298320000
H     -1.6780440000   -6.3363240000    0.4007540000
H      0.1816520000   -5.5410770000   -1.0025560000
H     -3.9945330000   -5.1278140000    0.5883260000
H     -4.5125210000   -6.1750090000   -0.7573990000
H     -0.3267270000    0.7205330000   -0.7435170000
H     -0.3269730000    0.3433890000    0.9676530000
H     -1.8341350000   -3.1799390000   -2.9224340000
H     -1.8711600000   -4.0829240000    1.3142850000
H     -0.1380590000   -8.5984040000   -1.0745240000
H      0.4838090000   -7.5984360000    0.2824650000
H      1.4050090000   -7.6854110000   -1.2538380000
H      1.7013020000   -0.6831010000    2.0464550000
H      3.2061010000   -0.8781420000    1.1004300000
H      1.8488410000   -1.9916690000    0.8458830000
H      1.6519140000    1.7249340000    1.2894590000
H      1.6526090000    2.1107200000   -0.4417350000
H      3.1149390000    1.4631770000    0.3233510000
H      1.8543160000   -1.4447340000   -1.6158480000
H      3.2085130000   -0.3260830000   -1.3731820000
H      1.7043180000    0.2495180000   -2.1493080000
H     -0.7281920000   -1.0566390000   -2.4542260000
H     -0.7621010000   -1.9665220000    1.7773410000
H     -4.6249020000   -3.0898710000   -0.7668320000
H     -6.0041370000   -4.2263090000   -0.5957530000
H     -5.0855660000   -4.1579320000   -2.1463290000
H      0.9424690000   -4.7638020000   -3.0976000000
H     -1.7901980000   -8.1330660000   -3.0524780000
H      0.9163030000   -4.8007000000   -5.5583170000
H     -1.8124730000   -8.1364300000   -5.5056830000
H     -0.4584360000   -6.4796410000   -6.7750900000
F     13.7251730000    4.5661210000    0.3585880000
F     13.4298790000    2.7203370000    1.4971580000
F     12.4593970000    2.6869960000   -1.0614160000
F     14.4122680000    3.1834960000   -1.9218260000
F     15.6908640000    3.9967600000    2.1535120000
F     16.0860260000    2.0276800000    1.2654800000
F     13.7700000000    0.6197440000   -2.2885090000
F     15.5219150000    0.8041850000   -0.9687820000
F     17.9666000000    3.8688890000    0.7022180000
F     16.9236240000    3.1991740000   -1.1269900000
F     14.0029370000    0.1744860000    1.2825280000
F     13.8339220000   -1.2790560000   -0.3681710000
F     16.2963940000    6.2372400000    0.7181040000
F     15.5316100000    5.5985170000   -1.2944280000
F     17.7078040000    5.9220870000   -0.9848870000
O     11.2667780000   -0.4964630000   -1.0013970000
O     11.3828630000    0.6249360000    0.9181470000
C     14.1883530000    3.2604920000    0.4657590000
C     13.8244040000    2.5190260000   -0.8540390000
C     15.6695210000    3.3134340000    0.9414320000
C     14.1481800000    1.0028230000   -1.0044410000
C     16.7538300000    3.9560980000    0.0254460000
C     13.4934340000    0.0148020000   -0.0013620000
C     16.5593060000    5.4354580000   -0.3810320000
C     11.9902100000    0.0657550000    0.0156560000
