80
-162.6268389009
N  5.44920108506052613961 0.64506215075513584356 2.45136196476233703123
C  3.43785460107550955300 -4.19084225289797096536 -1.55928922728711838452
C  4.29745899106371620491 -4.63056904293845761345 -2.75321383148732801160
C  4.51353016160808184765 -3.49878083413148610603 -3.76820179341053451694
C  4.04225964607711940602 -2.99530355419971483499 -0.87101790222061614699
C  3.23146631378630067033 -5.35034443438261853032 -0.57430779519034746983
C  5.70936424914570128664 0.52042502090491615796 0.98590039685493602306
C  5.13787546515950133141 -0.72335931226401661842 0.35899084648841950163
C  3.20236585652372918176 -2.93194583247413209648 -4.25417293943248608912
C  3.33422267013796780333 -1.80158947677018321798 -0.81233448273968933417
C  5.31205898518863772750 -3.03341160772765494613 -0.30563140095831287102
C  5.35518358006363470736 -3.99213328568341063729 -4.94830618909935360250
C  4.00578738629689468098 0.58778822511386341620 2.72447238303079952715
C  5.96849119721044196751 1.94702553487610208194 2.89926066514836211496
C  6.12916223184326547369 -0.43041006101303153075 3.18889530412359611944
C  3.87264287310274601950 -0.67923529696064122163 -0.21423457947650359490
C  5.85465439511721186250 -1.91374369249090170442 0.29885010160802849555
C  2.22540833441430629946 -4.99319357153326404131 0.51369191893602661469
C  2.26574564506936670938 -3.73008387263345531082 -4.90104730744567973488
C  2.90637455548012013651 -1.58721731119292552847 -4.06794249580570266289
C  1.06855869339261588813 -3.19918829509639213171 -5.34492830864962265025
C  1.70358079864359623912 -1.05408428975107937298 -4.49832305376381036410
C  0.77914226059396995971 -1.86003456972438918626 -5.14033670871466252805
H  2.45413749740416209377 -3.89680066705243843828 -1.94376402727005848092
H  3.80494163119272954532 -5.47075381072349298250 -3.24443072633016615924
H  5.27114600250314424557 -4.97406589849772817757 -2.40134028256897025244
H  5.06121026650612204634 -2.69205401662898902160 -3.26961440015688831195
H  4.18415417511171039422 -5.61779640470280572373 -0.11559411218714060743
H  2.86831587515371699837 -6.21857003385082940383 -1.12706312079676251869
H  6.78975203183422415520 0.54726019209474530136 0.83590594822636632433
H  5.25280639778932201267 1.38488399685196039712 0.49938559448221570003
H  2.35560920939712348243 -1.74288464375070795143 -1.26233654074070367201
H  5.88984014474908335046 -3.94352510389692145765 -0.34668219952107309778
H  5.51065098515628015718 -3.18574022031273962341 -5.66096403608374743044
H  4.85755945369338171247 -4.81061956309291449685 -5.46140331650448374035
H  6.32384035233967001233 -4.34002156660589832882 -4.59917828601015088452
H  3.60429729594994752162 -0.38462016207659166511 2.45059865731819925827
H  3.48124589186168931221 1.34199108938001532287 2.13959520596437524631
H  3.82055461263869489130 0.76764146488723994377 3.77983759549845244052
H  7.02903752791545510803 2.02630448962315945494 2.67324387628320225829
H  5.82302478405924173188 2.05327813647201118386 3.97140079546925317544
H  5.43515840912613867886 2.74901702743091469472 2.39335616568981945917
H  5.75279248450113733782 -1.39657475996255264761 2.86305312893331409541
H  5.94048031329781078824 -0.31964289047037897085 4.25368233140655327418
H  7.20057721469944223003 -0.38228962853700970692 3.01115105219486389743
H  3.30849571672622788654 0.24155491544357413081 -0.21232422182371460395
H  6.85279164841584265133 -1.96856389596367553629 0.70536213979021233911
H  1.25551964798276083357 -4.76044877399654620120 0.07641926007580374103
H  2.55632283912970637019 -4.12113262962934623346 1.07264241918198655057
H  2.09915601117650485463 -5.82290198485342447299 1.20399369204669470790
H  2.46757410909738084115 -4.77812889170557575369 -5.06136630099833162433
H  3.61943362833840653892 -0.94471615983311418852 -3.57120074894500394436
H  0.35298576944772086517 -3.83011935014818583056 -5.85188991364617194790
H  1.48520358553138076552 -0.00954111608891288626 -4.32223214772766883840
H  -0.16253431771825088692 -1.44830183256980249418 -5.47406521985369476369
F  -0.36343229097431339891 -2.01379074645614020156 0.42139183025236115476
F  -2.31884554206234927420 -1.18902705730144742091 0.01519700382377681472
F  0.62515985972285770256 0.11759980828583349588 -1.36163559024857172552
F  -1.37143126236505952242 0.93935982005458384947 -1.17440436570898332214
F  -1.45046722101137404159 -1.22471908047494704164 -2.81822899721042396948
F  0.18091739484956428918 -2.44511038915018374951 -2.08818618205098305296
F  -1.05215923563364088800 0.43722521415782378273 1.70553465731588449472
F  1.02080903153630297986 0.05578878583852295986 1.25618835114385207774
F  -1.85980792273932360459 -3.96410320273951688463 -0.65660894293848603986
F  -3.29298952870212024990 -2.86649525821393380554 -1.85272554733404626326
F  0.55048218805122461905 2.58819551770504219235 2.08790397384679549120
F  -0.87310803452127316859 2.92267696214009564670 0.48299493689867672996
F  -2.66905019677866706118 -5.21497974171774192342 -2.98541086175718062279
F  -0.56366814059269154669 -4.81361699048565405690 -2.90531118496787588157
F  -1.84524807439719418234 -3.61480702320389646331 -4.15532528541425172364
O  2.59226293500038895701 2.42297382212830703097 0.32824472102708912580
O  1.15029589473793936172 2.91813276770992136022 -1.31794088566765044135
C  -1.06478904652138339770 -1.27903822519686705128 -0.45729489332199152463
C  -0.46116839180675517351 0.15841076148873736718 -0.57077298944161980465
C  -1.06961858118232400194 -2.03753102459022938930 -1.82256060863767865854
C  -0.06428011103699915463 0.72722964607891471545 0.81915350041897339040
C  -2.01582606318127366407 -3.27671256774569163994 -1.80048035232535563743
C  0.25237348577271434547 2.23043398442845441920 0.80391361293801000265
C  -1.75906267024706219892 -4.24720893377654729051 -2.99366103173746234134
C  1.50575388049516689648 2.58489583259520649960 -0.20226200166498456423
