53
Coordinates from ORCA-job R4N+PFOA-_0.15M E -133.637324948600
  C           6.52245988341127     -6.39564901415920     -1.52183702872892
  C           5.75810357596176      0.96530926687507     -1.28852883657662
  F           5.99313656195000     -3.46117160288845      0.24751460774501
  F           5.45049400657161     -1.95818873415442     -1.20883717845594
  F           8.11770807912456     -2.37998268952325      0.79063267871830
  F           8.73433387453368     -2.62735128931833     -1.24136973252065
  F           5.34055665539844     -4.19318694266946     -2.32626274116781
  F           7.13818978268830     -3.30310577307548     -3.07312382793381
  F           7.90962952442169      0.11995847765159      0.54831096009165
  F           9.31043721187922     -0.38385850094931     -0.96413655992233
  F           8.38635166431040     -5.30721722480477     -2.44694306971627
  F           7.98328082515611     -4.97213231684287     -0.35728826894396
  F           6.97113433484212     -0.66185611281702     -2.75000676050630
  F           7.97041022278598      1.18044683661405     -2.24362178850909
  F           5.49281728713763     -6.27574516451769     -0.69520938820476
  F           7.25845987240739     -7.42087036696516     -1.10962529121350
  F           6.05933474407575     -6.69585586905306     -2.72896689139408
  O           5.92900271978299      1.91832211302811     -0.55117669981376
  O           4.77978668223227      0.52571589399640     -1.86418031851172
  C           6.43399475720913     -2.76918307389209     -0.82025481669891
  C           7.77547676253539     -2.04637298521248     -0.46303788743649
  C           6.58976178581755     -3.82822919385315     -1.96956936052687
  C           7.98370315477533     -0.50224810772423     -0.63369163181185
  C           7.39732648614124     -5.10468244288677     -1.56007279125897
  C           7.16054638671528      0.21057758524126     -1.71275910539813
  N           1.62671784802730      1.89234076790187     -1.34956712798784
  C           1.89256685432356      0.76938409709018     -0.40110093877816
  C           0.20957069934278      2.28751094075565     -1.28804343621169
  C           2.46394732621573      3.03572143111560     -0.95548275657820
  C           1.94989876053075      1.50266347309880     -2.73008120744488
  C           1.24909777581133     -0.53761417827118     -0.78063879782449
  C          -0.04437766297904     -0.85241086073310     -0.37871996182970
  C           1.98030484948518     -1.47301080426323     -1.50553272656858
  C          -0.60554849418974     -2.07188076620079     -0.71766023657294
  C           1.42137849124935     -2.69536003197134     -1.83525345766073
  C           0.12442979720085     -2.99342175911417     -1.44878682794944
  H           1.55307529897337      1.07853041620424      0.58896774500246
  H           2.97298213868162      0.61267969826478     -0.35342309620080
  H          -0.04844496510619      2.58695601217394     -0.27537375990014
  H          -0.41601126177354      1.45083689000122     -1.58774536483891
  H           0.03791586585174      3.12328442787119     -1.96168832164958
  H           2.22212238137588      3.34502149149064      0.05847088699140
  H           2.30254496359870      3.86527729563853     -1.63905930625436
  H           3.51723965217925      2.75637265583604     -0.97857999602465
  H           1.30817882450017      0.68360650558714     -3.04369844370572
  H           2.98473663972836      1.17047322747540     -2.78119953992575
  H           1.81116012742323      2.35453152018474     -3.39033318789270
  H          -0.60977081558947     -0.15640960276315      0.22172569881295
  H           2.99920411218637     -1.24615172122497     -1.78589444958495
  H          -1.60929406057710     -2.30825214233637     -0.40063901680442
  H           2.01020232918054     -3.41597738918989     -2.38391277861178
  H          -0.30701869522229     -3.94859433827826     -1.70546612319813
  Cl          5.41135545760571     -0.83169792814288      1.39105470938741
