25
Coordinates from ORCA-job FHEA_Opt E -1754.944983058802
  F           0.78499760364019      2.39692771733728     -0.54129454935286
  F          -0.54385296101462      1.26593446347628     -1.83345878914910
  F           1.94124469458171      0.43516618252203     -1.81908440954513
  F           0.53393629529619     -1.04864094868210     -1.08244078947331
  F          -1.63827643401269      2.39757968040034      0.33492001423818
  F          -0.29341031300402      1.31032207207511      1.65558068712732
  F          -1.33568272201463     -1.03418887719270      0.91853836159655
  F          -2.76679369233665      0.42239210124064      1.65973896755364
  F           1.41035769757972     -0.84126627343467      1.38329130722491
  F           2.51108193400281      0.99485036768425      0.96870203009246
  F           4.23152461171275     -0.30339982624748     -0.60499999105726
  F           3.04122541210154     -2.10747682435296     -0.56293742150536
  F           3.95326946788411     -1.36529601356034      1.24802114091095
  O          -5.19266608567223     -0.46583700245789     -0.19838426874186
  O          -3.84640350380335     -2.24802393711546     -0.22428331677323
  C           0.10578623438302      1.24324981201395     -0.65693993387538
  C          -0.95843115793704      1.24419877251766      0.48615942236317
  C           1.16407566232881      0.09124908694423     -0.77529140417936
  C          -2.00647353686880      0.09313603779398      0.57615535527671
  C           2.09522055328050     -0.16918610707116      0.45081213968809
  C          -2.87629083583973     -0.10645776406428     -0.63831381509790
  C           3.36754037737633     -1.01030058203861      0.11000287407083
  C          -4.07724188791905     -1.02110705141005     -0.32327410808555
  H          -2.27100665903939     -0.55760831281684     -1.42250517874550
  H          -3.22852875470548      0.86634422643880     -0.97365232446100
