25
Coordinates from ORCA-job PFOA_wb E -1953.443553135978
  F      -1.003366      1.972955     -0.138549
  F       0.514598      1.208789     -1.521535
  F       1.368690      1.680859      0.948456
  F      -0.186000      0.398069      1.821198
  F      -1.900317      0.437962     -2.101148
  F      -0.612290     -1.235066     -1.516482
  F       2.160319     -0.652092      2.011209
  F       0.908951     -1.795228      0.625621
  F      -3.165447     -1.566776     -0.956907
  F      -1.901947     -1.501747      0.837034
  F       2.253780     -0.900739     -1.489493
  F       3.552054     -1.752005      0.058107
  F      -3.936295      1.103026     -0.392860
  F      -2.894112      0.915701      1.512906
  F      -4.483883     -0.472781      1.006691
  O       4.422343      0.744407      0.755689
  O       3.634587      1.350597     -1.278110
  C      -0.283498      0.875230     -0.485316
  C       0.630503      0.558601      0.752839
  C      -1.304138     -0.173766     -1.049134
  C       1.626033     -0.650003      0.763585
  C      -2.447930     -0.754669     -0.144752
  C       2.795727     -0.654178     -0.263425
  C      -3.462383      0.237969      0.511174
  C       3.714121      0.624886     -0.266999
25
Coordinates from ORCA-job PFOA_wb E -1953.445627391262
  F      -1.003599      1.955161     -0.125021
  F       0.487508      1.202134     -1.514666
  F       1.352515      1.673930      0.945728
  F      -0.167609      0.378603      1.812702
  F      -1.899391      0.421126     -2.082766
  F      -0.629786     -1.239469     -1.488449
  F       2.161503     -0.656651      1.987534
  F       0.933949     -1.784935      0.598466
  F      -3.159080     -1.571818     -0.929932
  F      -1.922556     -1.474187      0.860179
  F       2.278665     -0.865463     -1.496050
  F       3.547189     -1.743911      0.034192
  F      -3.959188      1.080581     -0.417582
  F      -2.932073      0.944469      1.480797
  F      -4.491877     -0.459895      1.000257
  O       4.447506      0.716155      0.762907
  O       3.679039      1.355410     -1.251603
  C      -0.291897      0.865831     -0.477254
  C       0.632870      0.551802      0.746364
  C      -1.312911     -0.179803     -1.031259
  C       1.637005     -0.644259      0.746146
  C      -2.458148     -0.748256     -0.130612
  C       2.809949     -0.641581     -0.272316
  C      -3.482272      0.244203      0.497555
  C       3.742790      0.620822     -0.255518
25
Coordinates from ORCA-job PFOA_wb E -1953.444934542118
  F      -1.000421      2.003103     -0.168477
  F       0.521875      1.253260     -1.517814
  F       1.348015      1.713204      0.941816
  F      -0.215919      0.469935      1.795281
  F      -1.897308      0.483777     -2.099984
  F      -0.582931     -1.159019     -1.574715
  F       2.113341     -0.592751      2.025031
  F       0.850925     -1.738474      0.688622
  F      -3.109428     -1.551377     -0.992723
  F      -1.821211     -1.528456      0.757348
  F       2.194958     -0.945861     -1.442083
  F       3.459566     -1.785241      0.107911
  F      -3.927501      1.054949     -0.314067
  F      -2.827501      0.839528      1.531132
  F      -4.384136     -0.558781      1.040524
  O       4.408323      0.694942      0.719814
  O       3.598617      1.276712     -1.290430
  C      -0.280605      0.917484     -0.501594
  C       0.610057      0.606390      0.746911
  C      -1.283669     -0.133183     -1.077831
  C       1.582271     -0.614717      0.790115
  C      -2.395113     -0.762331     -0.176014
  C       2.744328     -0.684870     -0.238086
  C      -3.406674      0.183509      0.537727
  C       3.700240      0.558266     -0.288614
25
Coordinates from ORCA-job PFOA_wb E -1953.445564724895
  F      -0.999064      1.973190     -0.139443
  F       0.507509      1.219222     -1.506812
  F       1.342866      1.686435      0.959970
  F      -0.193137      0.404251      1.811428
  F      -1.892681      0.447565     -2.089428
  F      -0.610207     -1.208341     -1.521173
  F       2.149092     -0.627905      2.007617
  F       0.909197     -1.770460      0.643876
  F      -3.141660     -1.560649     -0.961211
  F      -1.891334     -1.498442      0.817284
  F       2.239113     -0.893289     -1.470137
  F       3.517172     -1.750840      0.062313
  F      -3.950823      1.069559     -0.383737
  F      -2.893099      0.907646      1.493355
  F      -4.450960     -0.496400      1.013967
  O       4.454296      0.702577      0.719998
  O       3.649292      1.315403     -1.284377
  C      -0.285710      0.885145     -0.481740
  C       0.620561      0.570021      0.756663
  C      -1.299856     -0.162061     -1.049770
  C       1.617122     -0.633604      0.772048
  C      -2.436518     -0.754673     -0.151747
  C       2.781417     -0.655055     -0.257409
  C      -3.456129      0.222765      0.508993
  C       3.713641      0.607940     -0.270726
25
Coordinates from ORCA-job PFOA_wb E -1953.443904998138
  F      -0.980380      1.910932     -0.093462
  F       0.479238      1.136593     -1.506509
  F       1.368192      1.623074      0.958892
  F      -0.115082      0.286269      1.831168
  F      -1.885461      0.358420     -2.063947
  F      -0.667270     -1.317469     -1.402994
  F       2.225923     -0.717440      1.949348
  F       1.016241     -1.834833      0.530954
  F      -3.201476     -1.581401     -0.869940
  F      -2.018099     -1.415630      0.952385
  F       2.332486     -0.801033     -1.541433
  F       3.624512     -1.715142     -0.048937
  F      -3.978725      1.093471     -0.528168
  F      -3.004120      1.064254      1.403517
  F      -4.568548     -0.352732      0.966707
  O       4.439593      0.757120      0.796016
  O       3.608901      1.483865     -1.162349
  C      -0.285624      0.813661     -0.454045
  C       0.662693      0.493419      0.754132
  C      -1.328208     -0.226546     -0.988146
  C       1.692558     -0.683041      0.712317
  C      -2.509107     -0.732177     -0.090286
  C       2.862719     -0.619241     -0.311165
  C      -3.537667      0.310564      0.450582
  C       3.766811      0.665042     -0.244838
25
Coordinates from ORCA-job PFOA_wb E -1953.445729702840
  F      -0.995051      1.960152     -0.124464
  F       0.496162      1.204568     -1.508250
  F       1.351237      1.673548      0.958070
  F      -0.170083      0.377038      1.815707
  F      -1.889715      0.426748     -2.084895
  F      -0.623676     -1.233286     -1.488647
  F       2.167112     -0.649632      1.992764
  F       0.935532     -1.785179      0.614792
  F      -3.154493     -1.567190     -0.939743
  F      -1.923984     -1.476953      0.852237
  F       2.268846     -0.877814     -1.488773
  F       3.544077     -1.746502      0.039580
  F      -3.963021      1.075987     -0.418304
  F      -2.930508      0.943294      1.476022
  F      -4.485386     -0.466019      0.998584
  O       4.455094      0.716895      0.737799
  O       3.641227      1.358382     -1.255009
  C      -0.286561      0.871004     -0.474629
  C       0.633274      0.553842      0.754370
  C      -1.307622     -0.175319     -1.034098
  C       1.636966     -0.645223      0.755912
  C      -2.455854     -0.748628     -0.136374
  C       2.805099     -0.650126     -0.271057
  C      -3.481653      0.242968      0.495148
  C       3.733081      0.617445     -0.266943
25
Coordinates from ORCA-job PFOA_wb E -1953.445736973161
  F      -1.005187      1.971314     -0.154186
  F       0.494527      1.211453     -1.528053
  F       1.343150      1.687387      0.938429
  F      -0.191923      0.406378      1.796846
  F      -1.906055      0.429635     -2.093943
  F      -0.617853     -1.220804     -1.515280
  F       2.132978     -0.639588      1.994800
  F       0.903144     -1.769124      0.609265
  F      -3.148100     -1.569805     -0.939404
  F      -1.885010     -1.490128      0.831068
  F       2.262852     -0.867874     -1.485941
  F       3.512627     -1.757928      0.051903
  F      -3.957244      1.063766     -0.380951
  F      -2.879435      0.926255      1.487411
  F      -4.441507     -0.486028      1.041872
  O       4.451803      0.686363      0.764687
  O       3.665301      1.345849     -1.233281
  C      -0.292387      0.882476     -0.496187
  C       0.619255      0.571041      0.739262
  C      -1.307515     -0.170356     -1.051656
  C       1.613331     -0.635068      0.753668
  C      -2.437974     -0.756125     -0.141516
  C       2.790450     -0.651719     -0.262538
  C      -3.452470      0.228376      0.517482
  C       3.733342      0.604252     -0.243955
25
Coordinates from ORCA-job PFOA_wb E -1953.445767469419
  F      -0.999305      1.972651     -0.136253
  F       0.499299      1.218267     -1.513032
  F       1.352490      1.685715      0.949814
  F      -0.180260      0.404827      1.811383
  F      -1.895653      0.438611     -2.086025
  F      -0.612285     -1.215044     -1.508889
  F       2.153175     -0.635459      1.998093
  F       0.911365     -1.771371      0.628747
  F      -3.138795     -1.570708     -0.946473
  F      -1.894807     -1.485744      0.836655
  F       2.249968     -0.881321     -1.482390
  F       3.516770     -1.759842      0.048204
  F      -3.962072      1.060746     -0.400764
  F      -2.910626      0.926195      1.482787
  F      -4.460403     -0.491843      1.013692
  O       4.456804      0.692321      0.737151
  O       3.642405      1.341739     -1.253074
  C      -0.286944      0.884770     -0.482060
  C       0.627443      0.570030      0.751269
  C      -1.302354     -0.165711     -1.043262
  C       1.621914     -0.636196      0.761811
  C      -2.439674     -0.753880     -0.142108
  C       2.789220     -0.656967     -0.265553
  C      -3.466562      0.226718      0.504120
  C       3.728987      0.601494     -0.264044
25
Coordinates from ORCA-job PFOA_wb E -1953.445771347081
  F      -1.000763      1.968459     -0.140451
  F       0.494917      1.211738     -1.519043
  F       1.349928      1.683465      0.944694
  F      -0.180055      0.399821      1.806932
  F      -1.899948      0.431467     -2.087963
  F      -0.618714     -1.222571     -1.506570
  F       2.150382     -0.639793      1.994650
  F       0.915908     -1.774167      0.617500
  F      -3.147842     -1.570156     -0.941102
  F      -1.900426     -1.485338      0.839832
  F       2.262135     -0.873104     -1.486497
  F       3.522395     -1.757080      0.046044
  F      -3.962495      1.064553     -0.399204
  F      -2.905379      0.932522      1.481434
  F      -4.460974     -0.482276      1.021558
  O       4.458887      0.692207      0.749039
  O       3.649153      1.352269     -1.239601
  C      -0.289465      0.879854     -0.486113
  C       0.626761      0.566490      0.746310
  C      -1.306821     -0.170739     -1.043711
  C       1.623677     -0.637910      0.756362
  C      -2.444525     -0.753887     -0.139674
  C       2.795482     -0.653389     -0.266213
  C      -3.466580      0.231737      0.506635
  C       3.734462      0.605829     -0.255046
25
Coordinates from ORCA-job PFOA_wb E -1953.445772171719
  F      -1.001291      1.971108     -0.139845
  F       0.495728      1.215879     -1.517938
  F       1.351252      1.685619      0.945208
  F      -0.180673      0.404236      1.807634
  F      -1.899346      0.433593     -2.087337
  F      -0.614953     -1.218667     -1.507613
  F       2.149295     -0.638259      1.995324
  F       0.911290     -1.771388      0.620057
  F      -3.142043     -1.572672     -0.941140
  F      -1.895003     -1.484099      0.839895
  F       2.256909     -0.873601     -1.485910
  F       3.516700     -1.760218      0.045567
  F      -3.964126      1.059553     -0.400346
  F      -2.906773      0.931590      1.480424
  F      -4.458312     -0.487892      1.021235
  O       4.461061      0.686194      0.745775
  O       3.647503      1.349468     -1.240257
  C      -0.288998      0.883173     -0.485525
  C       0.626622      0.569575      0.747146
  C      -1.304847     -0.168425     -1.043775
  C       1.621414     -0.636435      0.757527
  C      -2.441056     -0.754369     -0.139791
  C       2.792070     -0.654960     -0.266234
  C      -3.465911      0.228668      0.505999
  C       3.733588      0.602327     -0.256281
25
Coordinates from ORCA-job PFOA_wb E -1953.445772214381
  F      -1.000763      1.971720     -0.141049
  F       0.496285      1.215669     -1.518441
  F       1.350860      1.686140      0.944885
  F      -0.181431      0.405312      1.807237
  F      -1.900094      0.434999     -2.087356
  F      -0.615384     -1.217657     -1.509931
  F       2.149689     -0.635998      1.996064
  F       0.911381     -1.771107      0.622737
  F      -3.142208     -1.572056     -0.942409
  F      -1.894310     -1.485340      0.838050
  F       2.256186     -0.874469     -1.485030
  F       3.515768     -1.760896      0.046762
  F      -3.963857      1.059625     -0.398636
  F      -2.905460      0.929829      1.481425
  F      -4.457332     -0.489137      1.021745
  O       4.462589      0.684745      0.744486
  O       3.645304      1.349546     -1.239515
  C      -0.288827      0.883407     -0.486182
  C       0.626330      0.570057      0.746976
  C      -1.304980     -0.167866     -1.044650
  C       1.621275     -0.635836      0.758484
  C      -2.440746     -0.754609     -0.140634
  C       2.791633     -0.655517     -0.265540
  C      -3.465177      0.227871      0.506650
  C       3.733371      0.601568     -0.256329
25
Coordinates from ORCA-job PFOA_wb E -1953.445771580163
  F      -1.001254      1.971423     -0.140334
  F       0.495636      1.216101     -1.518303
  F       1.351084      1.686240      0.944836
  F      -0.180882      0.405207      1.807483
  F      -1.899732      0.434165     -2.087345
  F      -0.614980     -1.218097     -1.508716
  F       2.150066     -0.636133      1.995692
  F       0.911548     -1.770976      0.622245
  F      -3.142124     -1.572471     -0.942032
  F      -1.894981     -1.484931      0.838918
  F       2.256488     -0.873770     -1.485529
  F       3.515586     -1.761184      0.046043
  F      -3.964291      1.059287     -0.399768
  F      -2.906337      0.930702      1.480634
  F      -4.457931     -0.488729      1.021376
  O       4.464266      0.683349      0.743943
  O       3.644702      1.350757     -1.238249
  C      -0.289026      0.883412     -0.485836
  C       0.626583      0.570125      0.746995
  C      -1.304914     -0.168201     -1.044148
  C       1.621528     -0.635764      0.758138
  C      -2.441006     -0.754641     -0.140329
  C       2.791890     -0.655439     -0.265892
  C      -3.465722      0.228107      0.506119
  C       3.733904      0.601459     -0.256142
25
Coordinates from ORCA-job PFOA_wb E -1953.445772618439
  F      -1.001560      1.971536     -0.140685
  F       0.495027      1.216122     -1.518920
  F       1.350968      1.686651      0.944287
  F      -0.180817      0.405466      1.807073
  F      -1.900118      0.433545     -2.087414
  F      -0.615044     -1.218331     -1.508238
  F       2.150027     -0.635620      1.995316
  F       0.911515     -1.770566      0.621851
  F      -3.142091     -1.572920     -0.941460
  F      -1.895009     -1.484620      0.839496
  F       2.257123     -0.872687     -1.486038
  F       3.514898     -1.761759      0.045610
  F      -3.964666      1.058968     -0.399904
  F      -2.906889      0.930860      1.480646
  F      -4.458211     -0.488891      1.021427
  O       4.466664      0.680881      0.743914
  O       3.644687      1.352121     -1.235980
  C      -0.289304      0.883530     -0.486176
  C       0.626578      0.570465      0.746499
  C      -1.305140     -0.168378     -1.044021
  C       1.621556     -0.635377      0.757692
  C      -2.441124     -0.754717     -0.139994
  C       2.792179     -0.655342     -0.266053
  C      -3.466041      0.228021      0.506170
  C       3.734895      0.601042     -0.255296
25
Coordinates from ORCA-job PFOA_wb E -1953.445772470908
  F      -1.001857      1.971362     -0.140229
  F       0.494898      1.216545     -1.518613
  F       1.350701      1.686758      0.944757
  F      -0.180947      0.405200      1.807217
  F      -1.899782      0.433407     -2.087466
  F      -0.614678     -1.218354     -1.507984
  F       2.150564     -0.634988      1.995380
  F       0.911720     -1.770495      0.622636
  F      -3.141939     -1.572957     -0.941718
  F      -1.895193     -1.484652      0.839477
  F       2.256762     -0.872740     -1.485993
  F       3.514558     -1.762009      0.045503
  F      -3.964618      1.058895     -0.400381
  F      -2.906881      0.931041      1.480187
  F      -4.458219     -0.488760      1.021172
  O       4.468052      0.679880      0.742632
  O       3.643270      1.352728     -1.235538
  C      -0.289347      0.883590     -0.485933
  C       0.626530      0.570496      0.746727
  C      -1.304953     -0.168437     -1.043945
  C       1.621678     -0.635199      0.757909
  C      -2.441094     -0.754763     -0.140140
  C       2.792057     -0.655463     -0.266095
  C      -3.466037      0.228067      0.505821
  C       3.734855      0.600851     -0.255583
