74
Coordinates from ORCA-job R4N+PFHxA-_r2 E -2389.477031441102
  N       1.127678     -7.709216      0.985586
  C       3.108386     -3.668168     -3.892632
  C       4.584823     -3.247146     -3.978852
  C       5.172580     -2.762507     -2.644155
  C       2.844582     -4.509959     -2.673466
  C       2.685417     -4.398459     -5.175991
  C       2.216847     -6.688204      0.989255
  C       2.407403     -5.969810     -0.320021
  C       4.274369     -1.787522     -1.924716
  C       1.913825     -4.084967     -1.733651
  C       3.534854     -5.691977     -2.431096
  C       6.549934     -2.132468     -2.873896
  C       1.022754     -8.268139      2.342531
  C       1.436924     -8.785404      0.032339
  C      -0.156791     -7.090029      0.628439
  C       1.701690     -4.799188     -0.570946
  C       3.322051     -6.412215     -1.269679
  C       1.186829     -4.673585     -5.205077
  C       3.915437     -2.019961     -0.602429
  C       3.802172     -0.637352     -2.545128
  C       3.103903     -1.135348      0.085502
  C       2.992011      0.252133     -1.862133
  C       2.641104      0.007039     -0.544902
  H       2.500149     -2.761294     -3.800921
  H       4.670877     -2.455440     -4.724809
  H       5.185856     -4.089166     -4.326658
  H       5.301219     -3.631260     -1.990661
  H       3.229171     -5.341056     -5.255204
  H       2.956856     -3.781983     -6.035179
  H       3.143714     -7.191171      1.268644
  H       1.965131     -5.945600      1.750225
  H       1.368063     -3.167233     -1.896265
  H       4.262691     -6.042958     -3.146152
  H       7.213592     -2.843411     -3.359452
  H       6.989761     -1.835654     -1.924750
  H       6.467160     -1.249001     -3.501867
  H       1.968605     -8.714252      2.639708
  H       0.244659     -9.026844      2.370798
  H       0.768861     -7.475159      3.043373
  H       0.638595     -9.523166      0.040515
  H       2.370418     -9.268814      0.309293
  H       1.530689     -8.374251     -0.969636
  H      -0.122079     -6.707537     -0.388215
  H      -0.365342     -6.258722      1.300259
  H      -0.955163     -7.822553      0.710665
  H       1.007626     -4.419193      0.163052
  H       3.895806     -7.309334     -1.093562
  H       0.909444     -5.174951     -6.128797
  H       0.627447     -3.742612     -5.136638
  H       0.898293     -5.302498     -4.366342
  H       4.269322     -2.908932     -0.100146
  H       4.065892     -0.430320     -3.571464
  H       2.817008     -1.342131      1.107564
  H       2.629615      1.142600     -2.355736
  H       2.007229      0.700096     -0.009140
  F       0.112944     -2.004990      0.157310
  F      -0.783002     -0.373468      1.265714
  F      -3.130615     -2.225657      1.445588
  F      -1.733963     -3.717724      0.753664
  F      -2.884222     -0.251934     -0.333945
  F      -2.409909     -2.128668     -1.303652
  F      -1.379127     -1.558069      3.516576
  F      -2.019118     -3.631484      3.465981
  F      -1.795225      0.162705     -2.726248
  F      -0.384756      0.743429     -1.217956
  F      -0.109166     -1.091973     -2.312637
  O       1.136075     -2.315607      2.845276
  O       0.428760     -4.432484      2.636911
  C      -1.058510     -1.479930      0.557507
  C      -1.810829     -2.539327      1.409661
  C      -1.870422     -1.053903     -0.702531
  C      -1.234074     -2.718362      2.821566
  C      -1.010085     -0.294608     -1.754345
  C       0.329083     -3.224104      2.774064
74
Coordinates from ORCA-job R4N+PFHxA-_r2 E -2389.487434737335
  N       1.097786     -7.749036      0.993659
  C       3.114645     -3.674582     -3.892673
  C       4.589283     -3.221740     -3.978387
  C       5.204185     -2.708602     -2.658427
  C       2.846107     -4.523775     -2.673767
  C       2.694553     -4.404531     -5.180450
  C       2.212667     -6.720057      0.991469
  C       2.405326     -5.994588     -0.314001
  C       4.319408     -1.723382     -1.923990
  C       1.907648     -4.103705     -1.732525
  C       3.545336     -5.707268     -2.429078
  C       6.585439     -2.090522     -2.923506
  C       0.999391     -8.310194      2.371866
  C       1.391940     -8.850657      0.034708
  C      -0.202086     -7.116314      0.635789
  C       1.695891     -4.818996     -0.563749
  C       3.329420     -6.433657     -1.264519
  C       1.196584     -4.711510     -5.216788
  C       3.969274     -1.954883     -0.592230
  C       3.833676     -0.571622     -2.546698
  C       3.137105     -1.079160      0.096988
  C       3.015154      0.317560     -1.857875
  C       2.660391      0.064812     -0.535648
  H       2.490835     -2.775559     -3.800903
  H       4.658265     -2.434134     -4.739484
  H       5.204181     -4.060126     -4.330227
  H       5.343097     -3.570753     -1.994726
  H       3.263207     -5.338948     -5.266920
  H       2.961642     -3.776944     -6.040210
  H       3.133027     -7.240865      1.271533
  H       1.965867     -5.982202      1.760434
  H       1.360622     -3.179828     -1.898832
  H       4.286072     -6.054692     -3.145008
  H       7.241112     -2.816269     -3.416732
  H       7.054688     -1.780037     -1.984319
  H       6.496774     -1.210228     -3.568655
  H       1.952605     -8.762499      2.653746
  H       0.212670     -9.066983      2.401058
  H       0.756750     -7.507311      3.072022
  H       0.580432     -9.580516      0.068050
  H       2.330119     -9.336443      0.311915
  H       1.472655     -8.447182     -0.975541
  H      -0.167482     -6.742736     -0.389724
  H      -0.396312     -6.282697      1.313565
  H      -1.001858     -7.854360      0.723830
  H       0.997074     -4.435417      0.176175
  H       3.906977     -7.336985     -1.084241
  H       0.924698     -5.214760     -6.149811
  H       0.611466     -3.788133     -5.142401
  H       0.911393     -5.359280     -4.379816
  H       4.328687     -2.852039     -0.092983
  H       4.088989     -0.367231     -3.583985
  H       2.840939     -1.296401      1.121686
  H       2.639103      1.206914     -2.357043
  H       2.007560      0.750221     -0.002361
  F       0.105253     -2.002883      0.153097
  F      -0.810601     -0.354183      1.261863
  F      -3.134160     -2.194929      1.508942
  F      -1.751010     -3.726184      0.778674
  F      -2.887674     -0.220836     -0.354458
  F      -2.408479     -2.126372     -1.328783
  F      -1.367089     -1.572048      3.549866
  F      -2.008180     -3.661727      3.473186
  F      -1.835724      0.166998     -2.753820
  F      -0.399882      0.764704     -1.236775
  F      -0.117671     -1.094065     -2.343443
  O       1.138000     -2.304321      2.872220
  O       0.418920     -4.449969      2.663128
  C      -1.072520     -1.471380      0.552660
  C      -1.817596     -2.535795      1.431192
  C      -1.879892     -1.041219     -0.722104
  C      -1.224430     -2.730963      2.845929
  C      -1.022766     -0.282193     -1.786543
  C       0.314317     -3.224211      2.800797
74
Coordinates from ORCA-job R4N+PFHxA-_r2 E -2389.490011236283
  N       1.087131     -7.758776      0.992570
  C       3.120280     -3.671292     -3.885535
  C       4.591807     -3.217041     -3.973054
  C       5.219137     -2.699106     -2.662860
  C       2.849571     -4.522291     -2.666126
  C       2.699465     -4.391191     -5.178867
  C       2.216633     -6.728689      0.995029
  C       2.407096     -5.999174     -0.304734
  C       4.343928     -1.705679     -1.925797
  C       1.905539     -4.107384     -1.725289
  C       3.555317     -5.704645     -2.419479
  C       6.604728     -2.100356     -2.946783
  C       0.990789     -8.328037      2.376942
  C       1.380737     -8.863736      0.025289
  C      -0.221263     -7.122004      0.635016
  C       1.694146     -4.822616     -0.553474
  C       3.335287     -6.435907     -1.255677
  C       1.204258     -4.708083     -5.224173
  C       3.998400     -1.929609     -0.589259
  C       3.850283     -0.557940     -2.556054
  C       3.164035     -1.050192      0.098128
  C       3.027805      0.334162     -1.869633
  C       2.677460      0.088835     -0.541782
  H       2.495946     -2.771238     -3.789443
  H       4.657061     -2.432881     -4.740563
  H       5.207554     -4.056257     -4.327227
  H       5.354444     -3.559854     -1.994375
  H       3.279208     -5.319898     -5.276173
  H       2.968096     -3.754720     -6.033323
  H       3.125407     -7.271713      1.271378
  H       1.974165     -6.000825      1.775487
  H       1.356860     -3.184256     -1.896338
  H       4.303094     -6.047398     -3.132467
  H       7.248567     -2.836635     -3.443944
  H       7.092909     -1.787997     -2.016363
  H       6.520847     -1.222776     -3.599665
  H       1.948716     -8.781266      2.643132
  H       0.201623     -9.083470      2.394424
  H       0.751678     -7.522207      3.075533
  H       0.565581     -9.589734      0.070705
  H       2.323047     -9.341970      0.303982
  H       1.451660     -8.452334     -0.983534
  H      -0.181125     -6.754487     -0.392702
  H      -0.411251     -6.292369      1.319590
  H      -1.012456     -7.870727      0.720906
  H       0.993131     -4.439436      0.186795
  H       3.910837     -7.341582     -1.072861
  H       0.934583     -5.198934     -6.166092
  H       0.608663     -3.790507     -5.136682
  H       0.916591     -5.374144     -4.400808
  H       4.361065     -2.826592     -0.089048
  H       4.099594     -0.363035     -3.597991
  H       2.869073     -1.266691      1.123680
  H       2.645562      1.217714     -2.376344
  H       2.016994      0.773030     -0.014592
  F       0.096444     -2.001086      0.151914
  F      -0.836717     -0.345697      1.260678
  F      -3.127322     -2.162777      1.550031
  F      -1.767180     -3.722910      0.794592
  F      -2.902022     -0.228783     -0.353729
  F      -2.414098     -2.149548     -1.317996
  F      -1.369912     -1.577029      3.568635
  F      -2.012779     -3.670179      3.470117
  F      -1.883952      0.143845     -2.765891
  F      -0.429953      0.762403     -1.262635
  F      -0.144570     -1.102744     -2.366065
  O       1.128821     -2.298856      2.904472
  O       0.407748     -4.451992      2.694603
  C      -1.084513     -1.468678      0.550833
  C      -1.819790     -2.528323      1.444360
  C      -1.894397     -1.049828     -0.725369
  C      -1.220133     -2.734104      2.862688
  C      -1.052072     -0.292099     -1.806107
  C       0.289893     -3.218086      2.831282
74
Coordinates from ORCA-job R4N+PFHxA-_r2 E -2389.490956104692
  N       1.082003     -7.763390      0.989962
  C       3.123304     -3.669061     -3.877051
  C       4.593282     -3.217616     -3.968774
  C       5.229299     -2.695003     -2.666528
  C       2.851695     -4.521196     -2.658284
  C       2.700823     -4.380188     -5.173969
  C       2.221402     -6.735884      0.996083
  C       2.409310     -6.001762     -0.298411
  C       4.361108     -1.696240     -1.929805
  C       1.904395     -4.110877     -1.718339
  C       3.560669     -5.702087     -2.411824
  C       6.615305     -2.107588     -2.963966
  C       0.988012     -8.339687      2.374891
  C       1.374129     -8.866329      0.015989
  C      -0.230754     -7.125903      0.637079
  C       1.693972     -4.826130     -0.545900
  C       3.340106     -6.434964     -1.249095
  C       1.209389     -4.702796     -5.224064
  C       4.022582     -1.912486     -0.590430
  C       3.863162     -0.552330     -2.564563
  C       3.192336     -1.028692      0.096079
  C       3.040497      0.341386     -1.880114
  C       2.697686      0.103888     -0.548501
  H       2.500529     -2.768033     -3.776323
  H       4.656428     -2.438806     -4.741885
  H       5.208077     -4.057602     -4.322996
  H       5.363845     -3.552680     -1.993590
  H       3.287750     -5.303413     -5.281571
  H       2.968920     -3.736243     -6.022820
  H       3.119300     -7.299171      1.266008
  H       1.985089     -6.019449      1.788827
  H       1.354240     -3.189435     -1.892963
  H       4.311672     -6.041112     -3.122539
  H       7.250356     -2.849240     -3.463616
  H       7.116378     -1.793608     -2.041319
  H       6.532994     -1.233253     -3.621254
  H       1.948284     -8.793916      2.628821
  H       0.197352     -9.093048      2.383100
  H       0.751986     -7.532881      3.072555
  H       0.559383     -9.591551      0.071045
  H       2.320830     -9.336385      0.291542
  H       1.433757     -8.446998     -0.989893
  H      -0.187651     -6.761436     -0.390681
  H      -0.419171     -6.301456      1.327469
  H      -1.012042     -7.884586      0.722598
  H       0.992388     -4.444715      0.193763
  H       3.914065     -7.340747     -1.064534
  H       0.939842     -5.178395     -6.173597
  H       0.607550     -3.791192     -5.120744
  H       0.922126     -5.385663     -4.415381
  H       4.389125     -2.806866     -0.089211
  H       4.107642     -0.364624     -3.608464
  H       2.902991     -1.242644      1.122593
  H       2.654039      1.219864     -2.391590
  H       2.034968      0.787748     -0.024626
  F       0.087144     -2.001092      0.150893
  F      -0.852121     -0.345141      1.258245
  F      -3.125371     -2.142077      1.574158
  F      -1.787107     -3.719542      0.806389
  F      -2.914222     -0.237192     -0.357973
  F      -2.423068     -2.163084     -1.313353
  F      -1.385134     -1.576026      3.578005
  F      -2.032285     -3.666523      3.467844
  F      -1.915307      0.127658     -2.771011
  F      -0.451653      0.756768     -1.282078
  F      -0.167094     -1.108176     -2.382801
  O       1.117056     -2.301682      2.935420
  O       0.398040     -4.451246      2.727043
  C      -1.095360     -1.469465      0.547759
  C      -1.825421     -2.522493      1.450388
  C      -1.906142     -1.057528     -0.728688
  C      -1.226470     -2.733089      2.874418
  C      -1.074057     -0.301442     -1.818082
  C       0.265607     -3.214573      2.860126
74
Coordinates from ORCA-job R4N+PFHxA-_r2 E -2389.491309926487
  N       1.080484     -7.766478      0.987136
  C       3.125619     -3.668176     -3.870683
  C       4.595611     -3.221226     -3.967372
  C       5.235060     -2.694220     -2.669462
  C       2.855311     -4.520265     -2.651859
  C       2.699725     -4.375062     -5.168638
  C       2.225114     -6.742814      0.995700
  C       2.412382     -6.003984     -0.294880
  C       4.368757     -1.693041     -1.935079
  C       1.907186     -4.112401     -1.712048
  C       3.564940     -5.700553     -2.406622
  C       6.619625     -2.108959     -2.973402
  C       0.988363     -8.348586      2.369888
  C       1.370393     -8.865099      0.007774
  C      -0.233419     -7.128468      0.640042
  C       1.696771     -4.829025     -0.540959
  C       3.344134     -6.434530     -1.245541
  C       1.210173     -4.698415     -5.219010
  C       4.038322     -1.901455     -0.593204
  C       3.865423     -0.554180     -2.573769
  C       3.214111     -1.012974      0.092971
  C       3.045316      0.341661     -1.890518
  C       2.712616      0.113141     -0.555295
  H       2.505431     -2.765844     -3.766745
  H       4.658354     -2.447079     -4.744722
  H       5.208713     -4.062788     -4.319687
  H       5.371110     -3.548946     -1.993201
  H       3.288741     -5.295898     -5.282354
  H       2.966773     -3.727401     -6.014620
  H       3.116596     -7.318600      1.259539
  H       1.994224     -6.035969      1.798204
  H       1.356304     -3.191948     -1.887676
  H       4.316184     -6.038097     -3.117012
  H       7.251628     -2.851772     -3.474042
  H       7.125896     -1.793127     -2.054772
  H       6.536080     -1.236660     -3.632481
  H       1.948747     -8.804914      2.618094
  H       0.196587     -9.100265      2.373858
  H       0.754662     -7.543099      3.069296
  H       0.558249     -9.592403      0.067105
  H       2.320682     -9.330584      0.276983
  H       1.421294     -8.440295     -0.995951
  H      -0.190347     -6.762611     -0.386591
  H      -0.421839     -6.308107      1.334800
  H      -1.008781     -7.892691      0.726457
  H       0.995031     -4.449720      0.198245
  H       3.916888     -7.340457     -1.060709
  H       0.938446     -5.161611     -6.173628
  H       0.606818     -3.789923     -5.102552
  H       0.924362     -5.392442     -4.420382
  H       4.409959     -2.791663     -0.089281
  H       4.104535     -0.372587     -3.619481
  H       2.933277     -1.222230      1.121968
  H       2.654776      1.215841     -2.405469
  H       2.052864      0.799403     -0.031620
  F       0.082004     -2.001078      0.152362
  F      -0.858467     -0.346328      1.257175
  F      -3.129784     -2.130791      1.576936
  F      -1.803750     -3.716291      0.810715
  F      -2.921159     -0.243118     -0.360944
  F      -2.428066     -2.168352     -1.312050
  F      -1.404824     -1.571862      3.580654
  F      -2.054751     -3.660160      3.465537
  F      -1.927592      0.122284     -2.770836
  F      -0.460568      0.753771     -1.289846
  F      -0.177574     -1.108963     -2.390492
  O       1.105169     -2.305445      2.960543
  O       0.390385     -4.448789      2.753915
  C      -1.101243     -1.470449      0.546240
  C      -1.833021     -2.518228      1.449812
  C      -1.911535     -1.061518     -0.730132
  C      -1.240101     -2.729486      2.879660
  C      -1.083388     -0.305464     -1.821715
  C       0.247793     -3.212551      2.881611
74
Coordinates from ORCA-job R4N+PFHxA-_r2 E -2389.491508842341
  N       1.080472     -7.770726      0.984334
  C       3.127000     -3.668627     -3.866566
  C       4.597339     -3.224451     -3.967053
  C       5.236465     -2.693325     -2.670712
  C       2.859101     -4.520800     -2.647635
  C       2.697539     -4.374389     -5.164115
  C       2.228125     -6.751011      0.993973
  C       2.415623     -6.007943     -0.293660
  C       4.369256     -1.691152     -1.939106
  C       1.911963     -4.113787     -1.706815
  C       3.567988     -5.701583     -2.404484
  C       6.619400     -2.105608     -2.976240
  C       0.990622     -8.357746      2.364167
  C       1.366393     -8.865022      0.000271
  C      -0.233279     -7.130977      0.643662
  C       1.701126     -4.832769     -0.537845
  C       3.347129     -6.436909     -1.245014
  C       1.208694     -4.698259     -5.211444
  C       4.047470     -1.891622     -0.594374
  C       3.859823     -0.557586     -2.581577
  C       3.228677     -0.998686      0.091616
  C       3.042880      0.340781     -1.899128
  C       2.720567      0.121292     -0.560288
  H       2.508575     -2.765588     -3.760573
  H       4.660194     -2.453550     -4.747298
  H       5.209550     -4.067340     -4.316784
  H       5.374498     -3.545676     -1.992078
  H       3.287110     -5.294154     -5.281267
  H       2.962145     -3.724827     -6.009211
  H       3.116757     -7.333482      1.252390
  H       2.002065     -6.051659      1.804050
  H       1.361341     -3.193234     -1.881180
  H       4.318007     -6.038842     -3.115927
  H       7.251932     -2.847585     -3.476913
  H       7.126106     -1.788127     -2.058696
  H       6.533769     -1.234186     -3.635721
  H       1.950085     -8.817167      2.609655
  H       0.197614     -9.107927      2.367568
  H       0.759657     -7.554751      3.067202
  H       0.556999     -9.595052      0.061383
  H       2.319381     -9.329255      0.261362
  H       1.410388     -8.436924     -1.002275
  H      -0.192875     -6.761612     -0.381581
  H      -0.421192     -6.313225      1.341721
  H      -1.006427     -7.896989      0.732479
  H       0.999737     -4.455335      0.201641
  H       3.918900     -7.343401     -1.061135
  H       0.933748     -5.152633     -6.169158
  H       0.605063     -3.791636     -5.084484
  H       0.926019     -5.399637     -4.418593
  H       4.424602     -2.777166     -0.086795
  H       4.092824     -0.381784     -3.629431
  H       2.957826     -1.201476      1.124274
  H       2.647746      1.210882     -2.417140
  H       2.066097      0.811316     -0.035349
  F       0.080661     -2.000902      0.154808
  F      -0.859338     -0.346820      1.256109
  F      -3.135573     -2.124059      1.569789
  F      -1.815187     -3.713760      0.810789
  F      -2.922016     -0.243682     -0.365526
  F      -2.428204     -2.167238     -1.315523
  F      -1.420584     -1.566230      3.578054
  F      -2.070527     -3.654188      3.462442
  F      -1.925821      0.124895     -2.770766
  F      -0.459101      0.753466     -1.290751
  F      -0.177625     -1.107300     -2.393440
  O       1.094979     -2.304582      2.978835
  O       0.385427     -4.444045      2.776283
  C      -1.102976     -1.470424      0.544774
  C      -1.839318     -2.514953      1.445887
  C      -1.911313     -1.061440     -0.732588
  C      -1.252590     -2.724466      2.879415
  C      -1.082321     -0.304925     -1.822561
  C       0.236599     -3.208830      2.895754
74
Coordinates from ORCA-job R4N+PFHxA-_r2 E -2389.491701217682
  N       1.080707     -7.779009      0.980250
  C       3.127559     -3.670276     -3.862149
  C       4.597884     -3.226757     -3.966428
  C       5.234637     -2.690141     -2.670960
  C       2.863588     -4.522853     -2.642897
  C       2.694051     -4.376573     -5.158380
  C       2.231220     -6.763855      0.991339
  C       2.419459     -6.015429     -0.292768
  C       4.365821     -1.686441     -1.943163
  C       1.919453     -4.115698     -1.699298
  C       3.570286     -5.705595     -2.403582
  C       6.616175     -2.098510     -2.975967
  C       0.993770     -8.372807      2.356018
  C       1.360126     -8.867810     -0.010254
  C      -0.232186     -7.134959      0.648016
  C       1.707642     -4.838697     -0.533446
  C       3.349504     -6.443301     -1.246047
  C       1.205472     -4.702141     -5.200057
  C       4.057185     -1.874848     -0.593777
  C       3.846915     -0.560729     -2.591463
  C       3.244187     -0.976195      0.091540
  C       3.034194      0.341771     -1.910193
  C       2.726171      0.135192     -0.566149
  H       2.509890     -2.767211     -3.754443
  H       4.660497     -2.459002     -4.749650
  H       5.210177     -4.070790     -4.312588
  H       5.374441     -3.539716     -1.989407
  H       3.284158     -5.295487     -5.278098
  H       2.954503     -3.725693     -6.003693
  H       3.118641     -7.351039      1.243308
  H       2.010490     -6.072905      1.809926
  H       1.370262     -3.193889     -1.870012
  H       4.317634     -6.043231     -3.117565
  H       7.250955     -2.839358     -3.475403
  H       7.120829     -1.778800     -2.058126
  H       6.528382     -1.227935     -3.636082
  H       1.951686     -8.837020      2.598566
  H       0.198870     -9.121004      2.359846
  H       0.766924     -7.573947      3.065200
  H       0.553287     -9.600611      0.051552
  H       2.315550     -9.333054      0.240042
  H       1.396987     -8.436107     -1.011591
  H      -0.196636     -6.759979     -0.375299
  H      -0.418036     -6.319672      1.349984
  H      -1.005598     -7.900297      0.740227
  H       1.007125     -4.463572      0.207301
  H       3.919567     -7.351373     -1.064865
  H       0.926197     -5.148776     -6.160092
  H       0.601523     -3.797324     -5.062481
  H       0.927922     -5.409911     -4.411211
  H       4.442308     -2.753525     -0.080407
  H       4.070150     -0.393779     -3.642855
  H       2.988221     -1.168046      1.130025
  H       2.631628      1.205682     -2.432777
  H       2.079217      0.830819     -0.039422
  F       0.082486     -2.000388      0.159145
  F      -0.858492     -0.345586      1.254640
  F      -3.141949     -2.117073      1.556475
  F      -1.824187     -3.710825      0.808484
  F      -2.916959     -0.239995     -0.373808
  F      -2.422988     -2.163122     -1.322353
  F      -1.438668     -1.559108      3.572262
  F      -2.085147     -3.648296      3.456670
  F      -1.912518      0.130599     -2.773566
  F      -0.448464      0.753732     -1.289790
  F      -0.168689     -1.106251     -2.394437
  O       1.082176     -2.296995      2.999574
  O       0.380714     -4.435933      2.804449
  C      -1.101849     -1.469045      0.542946
  C      -1.845104     -2.511163      1.439797
  C      -1.905785     -1.058854     -0.737258
  C      -1.266202     -2.717738      2.876129
  C      -1.072283     -0.302822     -1.823761
  C       0.226127     -3.201334      2.910196
74
Coordinates from ORCA-job R4N+PFHxA-_r2 E -2389.491891218496
  N       1.081231     -7.791549      0.974831
  C       3.126070     -3.672480     -3.857022
  C       4.595636     -3.226903     -3.964421
  C       5.229111     -2.684602     -2.669627
  C       2.867096     -4.525823     -2.637308
  C       2.689029     -4.380368     -5.151469
  C       2.234253     -6.780530      0.988531
  C       2.423314     -6.025652     -0.291470
  C       4.359555     -1.678069     -1.946048
  C       1.928339     -4.117519     -1.688801
  C       3.570369     -5.711899     -2.403784
  C       6.610398     -2.090500     -2.973193
  C       0.997096     -8.394069      2.345896
  C       1.352663     -8.874168     -0.023651
  C      -0.230175     -7.140507      0.651959
  C       1.715498     -4.845773     -0.526521
  C       3.350352     -6.452903     -1.248227
  C       1.200523     -4.709198     -5.186146
  C       4.067558     -1.850580     -0.590671
  C       3.828470     -0.562533     -2.602168
  C       3.260223     -0.945166      0.093135
  C       3.020519      0.345649     -1.922826
  C       2.729715      0.155587     -0.572453
  H       2.507619     -2.770286     -3.747976
  H       4.657358     -2.461752     -4.750304
  H       5.209105     -4.071541     -4.306887
  H       5.369264     -3.531459     -1.984807
  H       3.280113     -5.298405     -5.272949
  H       2.944127     -3.728707     -5.997855
  H       3.122083     -7.370152      1.233791
  H       2.018197     -6.098075      1.815435
  H       1.381793     -3.193245     -1.853520
  H       4.313644     -6.050320     -3.121789
  H       7.247618     -2.831252     -3.469961
  H       7.111884     -1.768146     -2.054441
  H       6.521556     -1.221168     -3.634916
  H       1.953332     -8.864122      2.584261
  H       0.199712     -9.139787      2.349618
  H       0.775403     -7.600490      3.062866
  H       0.546906     -9.608334      0.037670
  H       2.309521     -9.342594      0.215679
  H       1.383653     -8.437999     -1.023380
  H      -0.200481     -6.759120     -0.369219
  H      -0.411669     -6.327372      1.358208
  H      -1.006575     -7.902578      0.747242
  H       1.016435     -4.473321      0.216657
  H       3.917920     -7.363591     -1.071837
  H       0.916865     -5.151170     -6.147116
  H       0.595780     -3.806057     -5.040266
  H       0.929265     -5.421101     -4.398695
  H       4.462604     -2.720499     -0.069796
  H       4.038879     -0.407504     -3.658129
  H       3.023105     -1.121283      1.139008
  H       2.608267      1.201374     -2.451455
  H       2.091007      0.857962     -0.044511
  F       0.087807     -1.999401      0.165168
  F      -0.857442     -0.342198      1.252566
  F      -3.146819     -2.110782      1.539203
  F      -1.827042     -3.707675      0.804086
  F      -2.905644     -0.232931     -0.386936
  F      -2.411844     -2.158213     -1.331612
  F      -1.459318     -1.551422      3.564793
  F      -2.097383     -3.643635      3.448187
  F      -1.888109      0.135270     -2.781263
  F      -0.428962      0.752694     -1.289813
  F      -0.150802     -1.108788     -2.393849
  O       1.067629     -2.280694      3.021243
  O       0.377352     -4.423973      2.837706
  C      -1.097936     -1.466137      0.540543
  C      -1.848690     -2.507101      1.432642
  C      -1.894794     -1.054945     -0.744669
  C      -1.278984     -2.710109      2.871132
  C      -1.053613     -0.301616     -1.827022
  C       0.217253     -3.189103      2.924609
74
Coordinates from ORCA-job R4N+PFHxA-_r2 E -2389.492074931767
  N       1.082120     -7.808723      0.967471
  C       3.121346     -3.674700     -3.850219
  C       4.589340     -3.224701     -3.959603
  C       5.219116     -2.677113     -2.665532
  C       2.868227     -4.529287     -2.630127
  C       2.681840     -4.384316     -5.142947
  C       2.237635     -6.801506      0.985715
  C       2.427192     -6.038338     -0.289196
  C       4.350382     -1.665877     -1.946925
  C       1.938002     -4.118865     -1.674014
  C       3.566709     -5.720101     -2.405130
  C       6.601754     -2.083720     -2.967160
  C       1.000239     -8.422587      2.333207
  C       1.344430     -8.884200     -0.040939
  C      -0.226906     -7.147628      0.654976
  C       1.724805     -4.853388     -0.515460
  C       3.348782     -6.465357     -1.251661
  C       1.193523     -4.717963     -5.170396
  C       4.079473     -1.817142     -0.584279
  C       3.803826     -0.563837     -2.613455
  C       3.278221     -0.903344      0.096632
  C       3.002045      0.352435     -1.937244
  C       2.732613      0.184152     -0.579394
  H       2.500540     -2.774293     -3.739849
  H       4.649702     -2.461733     -4.747860
  H       5.205022     -4.069349     -4.298425
  H       5.357405     -3.521327     -1.976934
  H       3.274628     -5.301140     -5.266032
  H       2.930841     -3.732035     -5.990746
  H       3.126759     -7.392331      1.223965
  H       2.025315     -6.127505      1.820398
  H       1.395763     -3.190610     -1.830245
  H       4.303990     -6.059612     -3.129033
  H       7.240811     -2.826226     -3.459363
  H       7.099588     -1.758086     -2.047403
  H       6.513862     -1.216512     -3.632107
  H       1.954836     -8.899534      2.564943
  H       0.199475     -9.164867      2.334867
  H       0.784945     -7.635229      3.059198
  H       0.537288     -9.617165      0.018506
  H       2.301223     -9.358045      0.188656
  H       1.371670     -8.441580     -1.038061
  H      -0.203153     -6.759945     -0.364103
  H      -0.400637     -6.336388      1.365938
  H      -1.009048     -7.903788      0.752120
  H       1.028147     -4.484005      0.231732
  H       3.912792     -7.379838     -1.082774
  H       0.906233     -5.159201     -6.130736
  H       0.587219     -3.816391     -5.019797
  H       0.928983     -5.431292     -4.381670
  H       4.486924     -2.675768     -0.053975
  H       3.997876     -0.424894     -3.674924
  H       3.064099     -1.057643      1.151091
  H       2.577715      1.197363     -2.473852
  H       2.102195      0.894469     -0.051851
  F       0.097631     -1.997475      0.172802
  F      -0.856333     -0.336257      1.248659
  F      -3.148469     -2.106310      1.517823
  F      -1.820232     -3.704098      0.797821
  F      -2.888243     -0.225298     -0.406570
  F      -2.393594     -2.155561     -1.342856
  F      -1.483905     -1.542543      3.556576
  F      -2.107147     -3.639672      3.437153
  F      -1.852988      0.134830     -2.795306
  F      -0.401173      0.748250     -1.293495
  F      -0.124032     -1.117537     -2.392618
  O       1.051336     -2.253351      3.043544
  O       0.376775     -4.405831      2.878366
  C      -1.090687     -1.461629      0.536878
  C      -1.848445     -2.502434      1.424460
  C      -1.877832     -1.051774     -0.755628
  C      -1.290192     -2.700970      2.865723
  C      -1.026606     -0.304037     -1.833927
  C       0.210203     -3.170107      2.940487
74
Coordinates from ORCA-job R4N+PFHxA-_r2 E -2389.492208756889
  N       1.083331     -7.823553      0.961537
  C       3.113838     -3.674993     -3.843440
  C       4.580409     -3.220985     -3.953412
  C       5.208711     -2.671252     -2.660097
  C       2.865087     -4.531233     -2.623430
  C       2.673425     -4.384678     -5.135588
  C       2.240255     -6.818220      0.984702
  C       2.429425     -6.048013     -0.286200
  C       4.343386     -1.654259     -1.945341
  C       1.943386     -4.119080     -1.659751
  C       3.559552     -5.726123     -2.406789
  C       6.594328     -2.083365     -2.960409
  C       1.002102     -8.446806      2.323561
  C       1.339799     -8.893667     -0.054729
  C      -0.223380     -7.153922      0.656128
  C       1.731601     -4.858206     -0.503405
  C       3.344770     -6.474957     -1.254774
  C       1.185329     -4.721733     -5.158892
  C       4.088601     -1.788213     -0.577539
  C       3.787088     -0.561826     -2.619900
  C       3.292346     -0.867459      0.100457
  C       2.990234      0.361363     -1.946778
  C       2.736359      0.210209     -0.583844
  H       2.490586     -2.776335     -3.731538
  H       4.639631     -2.459040     -4.742858
  H       5.197787     -4.065271     -4.290560
  H       5.342782     -3.513971     -1.968608
  H       3.267538     -5.300519     -5.260431
  H       2.918501     -3.731757     -5.984076
  H       3.130484     -7.409160      1.218795
  H       2.028818     -6.148628      1.823013
  H       1.405398     -3.187094     -1.808457
  H       4.290980     -6.066399     -3.136391
  H       7.232746     -2.829667     -3.447890
  H       7.090266     -1.755453     -2.040325
  H       6.510102     -1.218444     -3.629078
  H       1.955895     -8.928559      2.548794
  H       0.198499     -9.186044      2.321458
  H       0.791548     -7.663778      3.055676
  H       0.529141     -9.623044      0.001809
  H       2.294898     -9.372845      0.171197
  H       1.367520     -8.444709     -1.049010
  H      -0.202604     -6.763295     -0.362015
  H      -0.388499     -6.343514      1.370090
  H      -1.011450     -7.904089      0.752901
  H       1.037643     -4.491257      0.247943
  H       3.905690     -7.392770     -1.093362
  H       0.896668     -5.166419     -6.117296
  H       0.577697     -3.820723     -5.009377
  H       0.924475     -5.433120     -4.366977
  H       4.504606     -2.638580     -0.040371
  H       3.969120     -0.435764     -3.685160
  H       3.095259     -1.003155      1.160900
  H       2.557552      1.198048     -2.489701
  H       2.109768      0.925598     -0.058367
  F       0.108180     -1.995677      0.177966
  F      -0.856212     -0.331097      1.242421
  F      -3.146154     -2.108712      1.499297
  F      -1.804214     -3.703117      0.792348
  F      -2.873558     -0.224110     -0.426587
  F      -2.375844     -2.159547     -1.352408
  F      -1.503173     -1.535214      3.549745
  F      -2.111059     -3.636967      3.428201
  F      -1.823191      0.125810     -2.811703
  F      -0.378498      0.740253     -1.302028
  F      -0.100539     -1.131104     -2.392909
  O       1.039968     -2.225705      3.055621
  O       0.380423     -4.387603      2.910555
  C      -1.083341     -1.458606      0.532003
  C      -1.843984     -2.500125      1.417470
  C      -1.862555     -1.053422     -0.767084
  C      -1.295467     -2.693690      2.862047
  C      -1.003823     -0.311730     -1.843528
  C       0.207804     -3.151320      2.951668
74
Coordinates from ORCA-job R4N+PFHxA-_r2 E -2389.492349853093
  N       1.086593     -7.842478      0.954440
  C       3.100699     -3.672125     -3.831932
  C       4.566479     -3.216965     -3.943368
  C       5.195690     -2.666988     -2.651544
  C       2.857300     -4.531283     -2.612691
  C       2.657025     -4.378597     -5.124254
  C       2.244631     -6.838458      0.984996
  C       2.432234     -6.058647     -0.280563
  C       4.338117     -1.639758     -1.942244
  C       1.947560     -4.117796     -1.638273
  C       3.547057     -5.731153     -2.408319
  C       6.586903     -2.091753     -2.951175
  C       1.005428     -8.477672      2.312157
  C       1.337965     -8.905814     -0.071444
  C      -0.217172     -7.163094      0.657000
  C       1.739841     -4.862688     -0.484264
  C       3.338033     -6.484837     -1.258285
  C       1.168661     -4.715709     -5.143312
  C       4.102629     -1.750679     -0.568685
  C       3.772575     -0.558682     -2.627425
  C       3.315097     -0.818859      0.104710
  C       2.983866      0.375228     -1.959233
  C       2.749874      0.247695     -0.590424
  H       2.476483     -2.774410     -3.716053
  H       4.625590     -2.456363     -4.734179
  H       5.183655     -4.062050     -4.279447
  H       5.321458     -3.508076     -1.956231
  H       3.250641     -5.294249     -5.253471
  H       2.899121     -3.724269     -5.972521
  H       3.135521     -7.429997      1.214904
  H       2.032232     -6.173157      1.826331
  H       1.415041     -3.181053     -1.777323
  H       4.270117     -6.071802     -3.146077
  H       7.221452     -2.845561     -3.432150
  H       7.082441     -1.761738     -2.031579
  H       6.510556     -1.230234     -3.625407
  H       1.958755     -8.964191      2.528808
  H       0.198644     -9.213285      2.303389
  H       0.799614     -7.699428      3.050638
  H       0.521812     -9.629395     -0.019810
  H       2.290092     -9.391499      0.153046
  H       1.368567     -8.447752     -1.061388
  H      -0.198250     -6.770350     -0.360490
  H      -0.369947     -6.353569      1.374283
  H      -1.012411     -7.905944      0.751929
  H       1.049816     -4.499680      0.273173
  H       3.895133     -7.406785     -1.107440
  H       0.877826     -5.165296     -6.098799
  H       0.561463     -3.813827     -4.996943
  H       0.909612     -5.423300     -4.347278
  H       4.526732     -2.591915     -0.023358
  H       3.940394     -0.449914     -3.696896
  H       3.137381     -0.930375      1.171673
  H       2.543194      1.202259     -2.510462
  H       2.128209      0.970433     -0.069457
  F       0.121260     -1.992789      0.183368
  F      -0.863913     -0.327181      1.232255
  F      -3.143603     -2.122812      1.471456
  F      -1.776041     -3.707096      0.785039
  F      -2.859235     -0.231708     -0.456816
  F      -2.352723     -2.172881     -1.366702
  F      -1.532056     -1.525844      3.538002
  F      -2.116689     -3.634111      3.416514
  F      -1.789046      0.105395     -2.836392
  F      -0.353564      0.725725     -1.319458
  F      -0.072799     -1.153638     -2.396440
  O       1.023725     -2.187247      3.066063
  O       0.387109     -4.360758      2.953348
  C      -1.076493     -1.457930      0.523333
  C      -1.837559     -2.501703      1.406114
  C      -1.845092     -1.062090     -0.784765
  C      -1.303053     -2.685268      2.857138
  C      -0.978044     -0.327710     -1.859757
  C       0.203578     -3.124878      2.966306
74
Coordinates from ORCA-job R4N+PFHxA-_r2 E -2389.492446145060
  N       1.087844     -7.853117      0.951148
  C       3.090411     -3.668512     -3.822772
  C       4.556182     -3.214254     -3.936263
  C       5.187742     -2.664556     -2.646002
  C       2.850444     -4.530294     -2.604541
  C       2.643569     -4.371077     -5.115770
  C       2.247034     -6.850119      0.986535
  C       2.433522     -6.064607     -0.276032
  C       4.336025     -1.630400     -1.939923
  C       1.948695     -4.116532     -1.622948
  C       3.537178     -5.733293     -2.408816
  C       6.582435     -2.098685     -2.946609
  C       1.005629     -8.494594      2.306785
  C       1.337175     -8.912950     -0.079618
  C      -0.213861     -7.168257      0.657326
  C       1.745038     -4.864578     -0.470019
  C       3.332272     -6.490205     -1.260261
  C       1.154885     -4.705983     -5.132880
  C       4.110156     -1.729540     -0.563905
  C       3.768830     -0.553332     -2.629914
  C       3.330437     -0.790078      0.107474
  C       2.987260      0.388004     -1.963770
  C       2.763250      0.272437     -0.592413
  H       2.466644     -2.770911     -3.702993
  H       4.615150     -2.454738     -4.728054
  H       5.172209     -4.060143     -4.272486
  H       5.308345     -3.504450     -1.948271
  H       3.235843     -5.286971     -5.249214
  H       2.884859     -3.715215     -5.963054
  H       3.137180     -7.443072      1.215193
  H       2.033014     -6.185597      1.827984
  H       1.420178     -3.176737     -1.756305
  H       4.254272     -6.074091     -3.152181
  H       7.213337     -2.857933     -3.423607
  H       7.079122     -1.767241     -2.028205
  H       6.511573     -1.239695     -3.624654
  H       1.958626     -8.983439      2.519120
  H       0.196955     -9.227885      2.293231
  H       0.801851     -7.718210      3.047645
  H       0.516467     -9.631578     -0.032288
  H       2.286318     -9.403461      0.146500
  H       1.371997     -8.449196     -1.066638
  H      -0.193781     -6.775208     -0.360084
  H      -0.357773     -6.359012      1.376042
  H      -1.013582     -7.906428      0.750138
  H       1.058169     -4.504270      0.291859
  H       3.886705     -7.414809     -1.116452
  H       0.862726     -5.159204     -6.086208
  H       0.548927     -3.802836     -4.989831
  H       0.895301     -5.410469     -4.334294
  H       4.536598     -2.567454     -0.015345
  H       3.929913     -0.453231     -3.701150
  H       3.161828     -0.889049      1.176918
  H       2.544722      1.211431     -2.518773
  H       2.143559      0.999055     -0.074364
  F       0.131856     -1.990324      0.183952
  F      -0.869062     -0.326283      1.220541
  F      -3.139538     -2.140810      1.450364
  F      -1.750021     -3.714081      0.781032
  F      -2.853898     -0.248028     -0.479907
  F      -2.334500     -2.190910     -1.378090
  F      -1.549182     -1.520451      3.529022
  F      -2.118232     -3.632631      3.409229
  F      -1.771290      0.085560     -2.853960
  F      -0.342766      0.712476     -1.333466
  F      -0.056129     -1.170659     -2.402131
  O       1.015432     -2.163033      3.065316
  O       0.394974     -4.342577      2.978281
  C      -1.071172     -1.460627      0.514911
  C      -1.830071     -2.506353      1.397018
  C      -1.834363     -1.075137     -0.798819
  C      -1.305874     -2.680859      2.853895
  C      -0.964437     -0.343116     -1.872849
  C       0.202657     -3.107995      2.974559
74
Coordinates from ORCA-job R4N+PFHxA-_r2 E -2389.492563523684
  N       1.087646     -7.861884      0.949337
  C       3.078256     -3.662603     -3.811017
  C       4.544576     -3.211584     -3.928600
  C       5.180252     -2.662355     -2.640530
  C       2.842468     -4.528089     -2.594479
  C       2.625726     -4.359069     -5.105051
  C       2.249166     -6.861047      0.989292
  C       2.434770     -6.070381     -0.270590
  C       4.335295     -1.620723     -1.937466
  C       1.949411     -4.114622     -1.605000
  C       3.525840     -5.734493     -2.408762
  C       6.578074     -2.106477     -2.943628
  C       1.003354     -8.508171      2.303386
  C       1.335178     -8.918916     -0.085153
  C      -0.211520     -7.171449      0.658127
  C       1.751320     -4.865822     -0.453196
  C       3.325323     -6.495243     -1.262230
  C       1.136467     -4.689268     -5.119627
  C       4.115711     -1.711209     -0.560003
  C       3.771163     -0.544168     -2.630465
  C       3.346832     -0.762881      0.110390
  C       2.998967      0.405427     -1.965306
  C       2.782667      0.299265     -0.592178
  H       2.456672     -2.764297     -3.685242
  H       4.603274     -2.453422     -4.721572
  H       5.157982     -4.058887     -4.265828
  H       5.296135     -3.500798     -1.940298
  H       3.215324     -5.275635     -5.244886
  H       2.866635     -3.700665     -5.950434
  H       3.136960     -7.457202      1.217843
  H       2.033178     -6.195744      1.829581
  H       1.425675     -3.171524     -1.732764
  H       4.236122     -6.075309     -3.158414
  H       7.204299     -2.871603     -3.417055
  H       7.077290     -1.773596     -2.027226
  H       6.512866     -1.250224     -3.625558
  H       1.955619     -8.999213      2.513196
  H       0.192773     -9.239046      2.285213
  H       0.800891     -7.732628      3.045319
  H       0.509076     -9.631576     -0.043466
  H       2.280252     -9.415528      0.143945
  H       1.376217     -8.449878     -1.069285
  H      -0.187729     -6.778055     -0.359118
  H      -0.345361     -6.362362      1.378087
  H      -1.015761     -7.904732      0.748305
  H       1.068591     -4.508949      0.314120
  H       3.876467     -7.422844     -1.126035
  H       0.841876     -5.145231     -6.070844
  H       0.533012     -3.784228     -4.979272
  H       0.875441     -5.391023     -4.319210
  H       4.540903     -2.548687     -0.009995
  H       3.927882     -0.450439     -3.702769
  H       3.183692     -0.853094      1.181177
  H       2.558529      1.228265     -2.522671
  H       2.165962      1.030356     -0.076778
  F       0.146183     -1.986705      0.180948
  F      -0.876754     -0.328932      1.203471
  F      -3.132452     -2.172551      1.422645
  F      -1.712804     -3.728591      0.777395
  F      -2.853132     -0.279353     -0.508024
  F      -2.310837     -2.220788     -1.393564
  F      -1.565402     -1.515400      3.514938
  F      -2.117754     -3.631896      3.401710
  F      -1.757824      0.058927     -2.873901
  F      -0.337884      0.695172     -1.350368
  F      -0.039466     -1.188845     -2.412948
  O       1.009146     -2.139040      3.054771
  O       0.408019     -4.323423      3.001596
  C      -1.064442     -1.468481      0.502741
  C      -1.818076     -2.517635      1.384442
  C      -1.823664     -1.097838     -0.816797
  C      -1.306844     -2.678192      2.849143
  C      -0.953649     -0.363942     -1.889299
  C       0.203739     -3.091333      2.981672
74
Coordinates from ORCA-job R4N+PFHxA-_r2 E -2389.492652787087
  N       1.085334     -7.866596      0.948807
  C       3.069616     -3.657259     -3.800910
  C       4.536503     -3.209656     -3.923188
  C       5.175383     -2.660037     -2.636875
  C       2.837972     -4.526146     -2.586068
  C       2.610490     -4.348486     -5.095442
  C       2.250572     -6.869761      0.990869
  C       2.436422     -6.075654     -0.266804
  C       4.335064     -1.613175     -1.935903
  C       1.951636     -4.113096     -1.590416
  C       3.518199     -5.735550     -2.408613
  C       6.574694     -2.109740     -2.942311
  C       0.999299     -8.515307      2.301549
  C       1.329285     -8.921925     -0.087849
  C      -0.211167     -7.170576      0.660065
  C       1.757901     -4.867300     -0.440162
  C       3.320500     -6.499958     -1.264268
  C       1.120781     -4.675044     -5.105907
  C       4.117690     -1.699032     -0.557826
  C       3.775748     -0.535206     -2.630313
  C       3.358402     -0.743175      0.112251
  C       3.011390      0.420836     -1.965607
  C       2.799298      0.320548     -0.591473
  H       2.450765     -2.757973     -3.669413
  H       4.594747     -2.452652     -4.717211
  H       5.147333     -4.058355     -4.261229
  H       5.288950     -3.497093     -1.934706
  H       3.197771     -5.265472     -5.241415
  H       2.849851     -3.687316     -5.939088
  H       3.135293     -7.470472      1.218747
  H       2.035024     -6.204351      1.831198
  H       1.431765     -3.167388     -1.713629
  H       4.223032     -6.076267     -3.163295
  H       7.197828     -2.878425     -3.413873
  H       7.075935     -1.775917     -2.027423
  H       6.512613     -1.255186     -3.626512
  H       1.950078     -9.009224      2.510973
  H       0.186768     -9.243896      2.281671
  H       0.798526     -7.740248      3.044417
  H       0.499442     -9.630398     -0.050000
  H       2.271267     -9.424173      0.141391
  H       1.374182     -8.450157     -1.070464
  H      -0.184003     -6.775146     -0.356302
  H      -0.337285     -6.361907      1.381615
  H      -1.018711     -7.900064      0.749372
  H       1.079060     -4.513591      0.331932
  H       3.868369     -7.430287     -1.134090
  H       0.822468     -5.130022     -6.056414
  H       0.519503     -3.769004     -4.963578
  H       0.860191     -5.377164     -4.305754
  H       4.539655     -2.537626     -0.007198
  H       3.930554     -0.445097     -3.703136
  H       3.197396     -0.829629      1.183609
  H       2.574790      1.244878     -2.524107
  H       2.188035      1.057014     -0.077285
  F       0.159732     -1.982495      0.176154
  F      -0.885220     -0.333882      1.188311
  F      -3.124692     -2.205014      1.397382
  F      -1.678916     -3.744951      0.774850
  F      -2.855288     -0.312215     -0.531727
  F      -2.288748     -2.249978     -1.408181
  F      -1.576326     -1.513256      3.500400
  F      -2.114441     -3.633686      3.395880
  F      -1.751277      0.037265     -2.889188
  F      -0.338605      0.681420     -1.363092
  F      -0.026704     -1.199969     -2.424918
  O       1.006229     -2.122288      3.040367
  O       0.421956     -4.309643      3.018694
  C      -1.058109     -1.478168      0.491492
  C      -1.805752     -2.531540      1.372649
  C      -1.815452     -1.120535     -0.832548
  C      -1.305899     -2.678357      2.843754
  C      -0.947428     -0.381058     -1.902927
  C       0.206527     -3.080154      2.986133
74
Coordinates from ORCA-job R4N+PFHxA-_r2 E -2389.492730528770
  N       1.080683     -7.868877      0.948912
  C       3.064279     -3.653062     -3.792455
  C       4.531310     -3.207430     -3.919373
  C       5.171902     -2.656304     -2.634389
  C       2.836818     -4.525047     -2.579194
  C       2.598566     -4.340473     -5.086882
  C       2.251457     -6.878310      0.990860
  C       2.438503     -6.081654     -0.264669
  C       4.334155     -1.606134     -1.935011
  C       1.956095     -4.112140     -1.578397
  C       3.513497     -5.737525     -2.408875
  C       6.571549     -2.107778     -2.941582
  C       0.993302     -8.518439      2.300351
  C       1.318137     -8.923182     -0.089266
  C      -0.212794     -7.166031      0.663279
  C       1.765192     -4.869670     -0.430324
  C       3.317179     -6.505765     -1.266953
  C       1.108775     -4.666174     -5.091329
  C       4.116652     -1.689427     -0.556732
  C       3.779866     -0.526189     -2.630246
  C       3.365234     -0.727205      0.113158
  C       3.022123      0.435215     -1.965923
  C       2.811727      0.338753     -0.591209
  H       2.447648     -2.753105     -3.655988
  H       4.588617     -2.451305     -4.714280
  H       5.140512     -4.057062     -4.257690
  H       5.284965     -3.491987     -1.930597
  H       3.184765     -5.257169     -5.238412
  H       2.834354     -3.676377     -5.929232
  H       3.132728     -7.484881      1.216382
  H       2.039746     -6.214229      1.833238
  H       1.439432     -3.164261     -1.697065
  H       4.213731     -6.078190     -3.167823
  H       7.193322     -2.878036     -3.412395
  H       7.073825     -1.773245     -2.027530
  H       6.510385     -1.254118     -3.626883
  H       1.941750     -9.016635      2.510284
  H       0.178217     -9.244263      2.281463
  H       0.795642     -7.743825      3.044629
  H       0.485751     -9.628780     -0.052931
  H       2.257991     -9.430942      0.136714
  H       1.364117     -8.450671     -1.071544
  H      -0.183452     -6.766777     -0.351496
  H      -0.332993     -6.358256      1.387069
  H      -1.023165     -7.892096      0.753569
  H       1.090314     -4.518776      0.346230
  H       3.861351     -7.438970     -1.142053
  H       0.805707     -5.116934     -6.042355
  H       0.508530     -3.760540     -4.942367
  H       0.851498     -5.371669     -4.293091
  H       4.534498     -2.529579     -0.005416
  H       3.934129     -0.438292     -3.703340
  H       3.204852     -0.812804      1.184748
  H       2.589964      1.261192     -2.525011
  H       2.208683      1.081894     -0.076964
  F       0.173023     -1.977049      0.170596
  F      -0.894643     -0.339792      1.175704
  F      -3.115758     -2.235832      1.375360
  F      -1.648196     -3.761739      0.772458
  F      -2.858121     -0.344153     -0.552335
  F      -2.266795     -2.277204     -1.421949
  F      -1.583006     -1.514966      3.486752
  F      -2.107223     -3.639270      3.390503
  F      -1.748145      0.020140     -2.901043
  F      -0.342241      0.671330     -1.371891
  F      -0.015239     -1.205036     -2.436888
  O       1.006378     -2.109794      3.023670
  O       0.437780     -4.299895      3.032294
  C      -1.051655     -1.488216      0.481513
  C      -1.792645     -2.546900      1.362064
  C      -1.808088     -1.141833     -0.846450
  C      -1.302322     -2.681401      2.837768
  C      -0.943003     -0.394430     -1.914047
  C       0.212068     -3.072834      2.988197
74
Coordinates from ORCA-job R4N+PFHxA-_r2 E -2389.492794525524
  N       1.074754     -7.869152      0.949512
  C       3.062279     -3.650420     -3.786678
  C       4.528892     -3.204598     -3.916944
  C       5.169641     -2.651574     -2.632698
  C       2.838174     -4.524822     -2.574658
  C       2.591551     -4.335842     -5.080610
  C       2.252019     -6.886094      0.989454
  C       2.440406     -6.087598     -0.264201
  C       4.332779     -1.599749     -1.934454
  C       1.961784     -4.111635     -1.569996
  C       3.511202     -5.740168     -2.409750
  C       6.569194     -2.102600     -2.940596
  C       0.986540     -8.518398      2.299912
  C       1.303706     -8.923110     -0.089844
  C      -0.215771     -7.158931      0.667270
  C       1.771848     -4.872406     -0.424342
  C       3.314994     -6.511932     -1.270058
  C       1.102093     -4.663854     -5.078367
  C       4.113251     -1.682133     -0.556369
  C       3.782869     -0.517858     -2.630275
  C       3.366262     -0.715772      0.113091
  C       3.029540      0.447376     -1.966519
  C       2.817919      0.352492     -0.591734
  H       2.446598     -2.750390     -3.646827
  H       4.584975     -2.448833     -4.712328
  H       5.137866     -4.054455     -4.255010
  H       5.282941     -3.486219     -1.927729
  H       3.178230     -5.251522     -5.236299
  H       2.822316     -3.669193     -5.922334
  H       3.130225     -7.498790      1.210605
  H       2.047393     -6.224631      1.835666
  H       1.447219     -3.162285     -1.684211
  H       4.208002     -6.080887     -3.171914
  H       7.190929     -2.873103     -3.411229
  H       7.071399     -1.767680     -2.026603
  H       6.507653     -1.249246     -3.626240
  H       1.932352     -9.021659      2.510140
  H       0.168453     -9.241064      2.283887
  H       0.793326     -7.744046      3.045817
  H       0.469731     -9.626852     -0.052352
  H       2.242475     -9.435542      0.130585
  H       1.348168     -8.451226     -1.072631
  H      -0.186025     -6.755320     -0.345724
  H      -0.332462     -6.352404      1.393603
  H      -1.028476     -7.882102      0.759737
  H       1.100693     -4.523420      0.355951
  H       3.855520     -7.447871     -1.149532
  H       0.794243     -5.108617     -6.030712
  H       0.501507     -3.759945     -4.920002
  H       0.850392     -5.374544     -4.282894
  H       4.526873     -2.523753     -0.004076
  H       3.937966     -0.430895     -3.703394
  H       3.205182     -0.802619      1.184621
  H       2.601639      1.275441     -2.525870
  H       2.223803      1.102188     -0.076545
  F       0.183989     -1.970694      0.165356
  F      -0.904281     -0.344882      1.167230
  F      -3.106674     -2.259651      1.360756
  F      -1.624379     -3.775692      0.769577
  F      -2.860993     -0.370035     -0.568025
  F      -2.248112     -2.298857     -1.432621
  F      -1.584446     -1.520932      3.476985
  F      -2.096084     -3.648603      3.385418
  F      -1.747832      0.007875     -2.909425
  F      -0.348006      0.665662     -1.376887
  F      -0.006128     -1.205143     -2.446498
  O       1.009768     -2.101363      3.007176
  O       0.454468     -4.294663      3.041100
  C      -1.046324     -1.496231      0.474065
  C      -1.780342     -2.560710      1.354369
  C      -1.802531     -1.158540     -0.856983
  C      -1.295598     -2.687063      2.832074
  C      -0.940501     -0.403221     -1.921990
  C       0.220763     -3.069402      2.986908
74
Coordinates from ORCA-job R4N+PFHxA-_r2 E -2389.492844692146
  N       1.069226     -7.870090      0.949794
  C       3.060562     -3.648574     -3.781588
  C       4.526381     -3.201139     -3.913776
  C       5.166514     -2.646395     -2.629977
  C       2.839297     -4.525086     -2.570601
  C       2.586402     -4.332676     -5.075101
  C       2.253077     -6.894899      0.987760
  C       2.442045     -6.093783     -0.263731
  C       4.330568     -1.592602     -1.933361
  C       1.967673     -4.111266     -1.561957
  C       3.508414     -5.743340     -2.410917
  C       6.566747     -2.098231     -2.937600
  C       0.980673     -8.520634      2.298775
  C       1.288621     -8.923098     -0.092036
  C      -0.218250     -7.151761      0.671855
  C       1.777985     -4.875329     -0.418700
  C       3.312402     -6.518464     -1.273204
  C       1.097465     -4.664509     -5.066657
  C       4.109613     -1.672757     -0.555328
  C       3.783789     -0.509977     -2.630804
  C       3.364952     -0.703093      0.112701
  C       3.033770      0.458932     -1.968518
  C       2.820448      0.366269     -0.593690
  H       2.444712     -2.749003     -3.639251
  H       4.581349     -2.445592     -4.709516
  H       5.136058     -4.050852     -4.251092
  H       5.278874     -3.480139     -1.923716
  H       3.174355     -5.246994     -5.234193
  H       2.811850     -3.663885     -5.916553
  H       3.128757     -7.513643      1.202435
  H       2.057564     -6.237018      1.838993
  H       1.454775     -3.160602     -1.670990
  H       4.201710     -6.084258     -3.176306
  H       7.188467     -2.869529     -3.407124
  H       7.068153     -1.762775     -2.023307
  H       6.505644     -1.245528     -3.624165
  H       1.924001     -9.029584      2.507025
  H       0.159102     -9.239519      2.284947
  H       0.793190     -7.747334      3.047312
  H       0.452796     -9.624590     -0.052311
  H       2.226555     -9.439980      0.122063
  H       1.330564     -8.450837     -1.074870
  H      -0.189759     -6.744394     -0.339635
  H      -0.332047     -6.346669      1.400824
  H      -1.033575     -7.871820      0.766435
  H       1.110771     -4.527386      0.365255
  H       3.849308     -7.457142     -1.157425
  H       0.785381     -5.103587     -6.020285
  H       0.495900     -3.762773     -4.899025
  H       0.851926     -5.380243     -4.273685
  H       4.520035     -2.514685     -0.001028
  H       3.939584     -0.424726     -3.704031
  H       3.204080     -0.789656      1.184437
  H       2.609200      1.288108     -2.528860
  H       2.234285      1.122002     -0.078043
  F       0.193549     -1.963347      0.161027
  F      -0.914118     -0.347916      1.160178
  F      -3.097308     -2.277737      1.350399
  F      -1.603845     -3.785990      0.765152
  F      -2.862443     -0.390792     -0.583165
  F      -2.231115     -2.316954     -1.441638
  F      -1.583858     -1.528542      3.469810
  F      -2.082401     -3.659438      3.379056
  F      -1.745469     -0.004308     -2.918770
  F      -0.352547      0.661139     -1.382162
  F       0.003610     -1.205930     -2.453648
  O       1.014277     -2.091575      2.992579
  O       0.472636     -4.289128      3.050256
  C      -1.041786     -1.501459      0.467470
  C      -1.768465     -2.571629      1.347907
  C      -1.797090     -1.171962     -0.866710
  C      -1.286693     -2.693089      2.826276
  C      -0.936923     -0.411062     -1.929727
  C       0.231843     -3.065554      2.983944
74
Coordinates from ORCA-job R4N+PFHxA-_r2 E -2389.492890257607
  N       1.064081     -7.871072      0.950599
  C       3.058242     -3.646416     -3.776424
  C       4.523281     -3.197220     -3.909503
  C       5.162862     -2.641377     -2.626072
  C       2.839085     -4.525187     -2.566568
  C       2.581751     -4.328704     -5.069994
  C       2.254627     -6.904021      0.986462
  C       2.443055     -6.099572     -0.262842
  C       4.328245     -1.585043     -1.931615
  C       1.972768     -4.110743     -1.553625
  C       3.504169     -5.746328     -2.412257
  C       6.564596     -2.096058     -2.932943
  C       0.975345     -8.523391      2.298461
  C       1.273552     -8.923409     -0.094119
  C      -0.220324     -7.144643      0.677206
  C       1.783314     -4.877855     -0.412465
  C       3.308709     -6.524576     -1.276266
  C       1.093278     -4.664031     -5.056747
  C       4.104893     -1.663094     -0.553916
  C       3.785276     -0.501522     -2.630989
  C       3.361191     -0.690946      0.112076
  C       3.037688      0.470764     -1.970647
  C       2.821076      0.379681     -0.596108
  H       2.441862     -2.747467     -3.631756
  H       4.577483     -2.441865     -4.705527
  H       5.133860     -4.046731     -4.245970
  H       5.272938     -3.474364     -1.918443
  H       3.170896     -5.241734     -5.232387
  H       2.802735     -3.657962     -5.911050
  H       3.127912     -7.529029      1.193022
  H       2.069963     -6.249832      1.843039
  H       1.461332     -3.158881     -1.656966
  H       4.193725     -6.087546     -3.180984
  H       7.185785     -2.869162     -3.400277
  H       7.065028     -1.759778     -2.018383
  H       6.505235     -1.244579     -3.621272
  H       1.916444     -9.038071      2.503092
  H       0.149897     -9.237903      2.286141
  H       0.794392     -7.750795      3.049355
  H       0.434986     -9.621461     -0.051483
  H       2.210297     -9.444824      0.114521
  H       1.313286     -8.450057     -1.076569
  H      -0.193849     -6.734954     -0.333376
  H      -0.331408     -6.341052      1.408521
  H      -1.038570     -7.861371      0.773168
  H       1.120627     -4.530060      0.375325
  H       3.842173     -7.465876     -1.165635
  H       0.777761     -5.098325     -6.011433
  H       0.490878     -3.764197     -4.881333
  H       0.852957     -5.383905     -4.265848
  H       4.511907     -2.505276      0.002595
  H       3.942863     -0.417646     -3.704105
  H       3.199773     -0.777080      1.183807
  H       2.616980      1.301162     -2.532166
  H       2.240821      1.140206     -0.080616
  F       0.202287     -1.954810      0.156238
  F      -0.924988     -0.349975      1.152719
  F      -3.086984     -2.294845      1.342961
  F      -1.583230     -3.794701      0.758574
  F      -2.864465     -0.410813     -0.598952
  F      -2.215208     -2.334622     -1.450398
  F      -1.580089     -1.538173      3.463910
  F      -2.064816     -3.672160      3.371128
  F      -1.742683     -0.018579     -2.930025
  F      -0.358283      0.656608     -1.388894
  F       0.013229     -1.208075     -2.459451
  O       1.021063     -2.080897      2.976685
  O       0.494540     -4.283156      3.058138
  C      -1.038167     -1.505350      0.460405
  C      -1.755910     -2.581512      1.341435
  C      -1.792463     -1.184784     -0.876804
  C      -1.274467     -2.700240      2.819689
  C      -0.933848     -0.419551     -1.938355
  C       0.246540     -3.061598      2.978174
74
Coordinates from ORCA-job R4N+PFHxA-_r2 E -2389.492937028487
  N       1.059493     -7.871771      0.952854
  C       3.054499     -3.643067     -3.770415
  C       4.519103     -3.193137     -3.903967
  C       5.158947     -2.637032     -2.620989
  C       2.836866     -4.524676     -2.562105
  C       2.575892     -4.321994     -5.064776
  C       2.256775     -6.913182      0.985836
  C       2.443201     -6.104837     -0.261381
  C       4.326530     -1.577313     -1.929044
  C       1.976519     -4.109942     -1.544346
  C       3.497704     -5.748820     -2.413818
  C       6.562887     -2.096884     -2.927178
  C       0.970772     -8.525049      2.300559
  C       1.259073     -8.924509     -0.094195
  C      -0.221793     -7.137814      0.683838
  C       1.787779     -4.879869     -0.404965
  C       3.303243     -6.530090     -1.279446
  C       1.087548     -4.658780     -5.048552
  C       4.098572     -1.654475     -0.552181
  C       3.789946     -0.491448     -2.629998
  C       3.355181     -0.680428      0.111510
  C       3.043977      0.483719     -1.971785
  C       2.821506      0.392630     -0.598113
  H       2.438042     -2.744522     -3.622757
  H       4.573023     -2.438019     -4.700254
  H       5.130023     -4.042723     -4.239901
  H       5.265478     -3.469376     -1.911955
  H       3.165262     -5.234230     -5.231065
  H       2.794100     -3.649173     -5.904867
  H       3.127456     -7.544963      1.182809
  H       2.084605     -6.262450      1.847712
  H       1.466545     -3.156890     -1.641575
  H       4.183020     -6.090428     -3.186193
  H       7.182604     -2.873001     -3.391427
  H       7.062721     -1.759544     -2.012679
  H       6.506736     -1.247208     -3.618074
  H       1.909909     -9.045067      2.500814
  H       0.141159     -9.234700      2.289671
  H       0.796825     -7.751791      3.052427
  H       0.416667     -9.617639     -0.048157
  H       2.193965     -9.450699      0.110791
  H       1.297631     -8.449933     -1.076089
  H      -0.197551     -6.727457     -0.326505
  H      -0.330105     -6.335679      1.417129
  H      -1.043165     -7.851088      0.780183
  H       1.130499     -4.531331      0.387011
  H       3.833344     -7.473954     -1.174502
  H       0.769285     -5.089001     -6.004143
  H       0.485236     -3.759986     -4.867182
  H       0.850385     -5.381781     -4.259539
  H       4.500777     -2.497830      0.006092
  H       3.951408     -0.407746     -3.702559
  H       3.191182     -0.766978      1.182797
  H       2.628824      1.316275     -2.534272
  H       2.244486      1.156302     -0.083480
  F       0.210642     -1.944888      0.149757
  F      -0.937884     -0.352300      1.143407
  F      -3.075419     -2.315060      1.335911
  F      -1.560171     -3.803627      0.748444
  F      -2.868347     -0.433452     -0.616710
  F      -2.199353     -2.353849     -1.460858
  F      -1.573257     -1.550680      3.457134
  F      -2.042721     -3.687793      3.360357
  F      -1.740249     -0.035565     -2.943995
  F      -0.366748      0.651822     -1.397795
  F       0.022659     -1.211151     -2.465086
  O       1.030369     -2.070161      2.957355
  O       0.521761     -4.277023      3.063899
  C      -1.035538     -1.509252      0.451458
  C      -1.742075     -2.592226      1.332994
  C      -1.788857     -1.198833     -0.888670
  C      -1.258750     -2.709565      2.810772
  C      -0.932074     -0.429183     -1.948811
  C       0.265203     -3.058242      2.968724
74
Coordinates from ORCA-job R4N+PFHxA-_r2 E -2389.492983051022
  N       1.056653     -7.874572      0.955841
  C       3.047541     -3.638125     -3.761805
  C       4.512408     -3.189844     -3.896014
  C       5.153370     -2.634140     -2.613587
  C       2.831662     -4.523398     -2.555686
  C       2.565699     -4.311330     -5.057658
  C       2.259906     -6.923938      0.986059
  C       2.442812     -6.110319     -0.258525
  C       4.324409     -1.569452     -1.925108
  C       1.979187     -4.108566     -1.531638
  C       3.487518     -5.751123     -2.415441
  C       6.560168     -2.101528     -2.919302
  C       0.968559     -8.529997      2.303390
  C       1.246896     -8.927386     -0.093988
  C      -0.221177     -7.133477      0.691953
  C       1.792366     -4.881619     -0.393886
  C       3.295194     -6.535664     -1.282876
  C       1.076910     -4.646081     -5.039818
  C       4.092854     -1.643459     -0.548698
  C       3.794294     -0.482230     -2.628885
  C       3.351326     -0.665848      0.111749
  C       3.051234      0.497271     -1.973729
  C       2.824632      0.408936     -0.600596
  H       2.432363     -2.739357     -3.609652
  H       4.567026     -2.435354     -4.692831
  H       5.122310     -4.040371     -4.231578
  H       5.255007     -3.465611     -1.902753
  H       3.153454     -5.223645     -5.229234
  H       2.783084     -3.635927     -5.895870
  H       3.127844     -7.562639      1.172514
  H       2.100183     -6.276751      1.853056
  H       1.471755     -3.153578     -1.622045
  H       4.167014     -6.093292     -3.192658
  H       7.177360     -2.882011     -3.379455
  H       7.059906     -1.762764     -2.005300
  H       6.508888     -1.254299     -3.613602
  H       1.906106     -9.054820      2.498303
  H       0.134948     -9.234825      2.292874
  H       0.801365     -7.756224      3.056131
  H       0.399647     -9.614317     -0.045760
  H       2.179100     -9.459059      0.108748
  H       1.285782     -8.450379     -1.074637
  H      -0.199196     -6.723546     -0.318581
  H      -0.324957     -6.332542      1.427093
  H      -1.046197     -7.842708      0.787947
  H       1.141676     -4.531891      0.403042
  H       3.821448     -7.482416     -1.184939
  H       0.756079     -5.072990     -5.996001
  H       0.476320     -3.746934     -4.854527
  H       0.840272     -5.371026     -4.252475
  H       4.490402     -2.487442      0.011936
  H       3.958875     -0.400473     -3.701096
  H       3.185339     -0.750106      1.182911
  H       2.641719      1.331177     -2.538322
  H       2.249092      1.175594     -0.088675
  F       0.220469     -1.933479      0.142046
  F      -0.951918     -0.354752      1.130413
  F      -3.062652     -2.340195      1.322796
  F      -1.531764     -3.812828      0.733731
  F      -2.871604     -0.459409     -0.639629
  F      -2.180020     -2.375018     -1.475584
  F      -1.568785     -1.563937      3.446170
  F      -2.019309     -3.704761      3.344655
  F      -1.733788     -0.054902     -2.962440
  F      -0.373727      0.646053     -1.410399
  F       0.035410     -1.216026     -2.471817
  O       1.038612     -2.056199      2.937595
  O       0.552931     -4.267006      3.073334
  C      -1.032273     -1.513273      0.439154
  C      -1.726758     -2.603669      1.319790
  C      -1.783341     -1.214490     -0.904569
  C      -1.242777     -2.719254      2.798081
  C      -0.927988     -0.440291     -1.962631
  C       0.284633     -3.052559      2.958872
74
Coordinates from ORCA-job R4N+PFHxA-_r2 E -2389.493022957505
  N       1.055204     -7.876214      0.960225
  C       3.041288     -3.633257     -3.754389
  C       4.507137     -3.188452     -3.889127
  C       5.149638     -2.633604     -2.607070
  C       2.825987     -4.521870     -2.550563
  C       2.556273     -4.300383     -5.051919
  C       2.262455     -6.930923      0.986966
  C       2.441604     -6.113350     -0.255876
  C       4.323485     -1.564939     -1.921405
  C       1.979813     -4.107057     -1.521544
  C       3.477726     -5.752489     -2.416882
  C       6.558496     -2.107141     -2.912786
  C       0.969063     -8.532836      2.308133
  C       1.238739     -8.929554     -0.091135
  C      -0.220502     -7.131130      0.700908
  C       1.795170     -4.881911     -0.384497
  C       3.287254     -6.539078     -1.285560
  C       1.066675     -4.630466     -5.034091
  C       4.087121     -1.637748     -0.545752
  C       3.800298     -0.475662     -2.626992
  C       3.347250     -0.657375      0.112050
  C       3.059044      0.506817     -1.974335
  C       2.827886      0.419697     -0.601994
  H       2.428493     -2.733616     -3.597986
  H       4.563224     -2.434576     -4.686374
  H       5.114991     -4.040378     -4.224754
  H       5.247456     -3.464404     -1.894944
  H       3.141217     -5.213554     -5.228299
  H       2.774922     -3.622626     -5.887907
  H       3.128193     -7.574852      1.165303
  H       2.112302     -6.285720      1.857083
  H       1.475129     -3.150331     -1.607435
  H       4.152308     -6.095417     -3.197935
  H       7.173291     -2.891188     -3.369922
  H       7.058765     -1.767388     -1.999482
  H       6.511420     -1.261762     -3.609577
  H       1.905977     -9.060144      2.498884
  H       0.133093     -9.234736      2.298348
  H       0.806429     -7.758287      3.060946
  H       0.387304     -9.611105     -0.041970
  H       2.168291     -9.465904      0.110898
  H       1.278893     -8.450755     -1.070806
  H      -0.200527     -6.722257     -0.310117
  H      -0.319917     -6.330749      1.436917
  H      -1.048099     -7.837404      0.796785
  H       1.150236     -4.530322      0.416428
  H       3.810338     -7.488068     -1.192807
  H       0.744157     -5.055476     -5.990528
  H       0.468779     -3.729850     -4.847633
  H       0.828001     -5.355942     -4.247888
  H       4.479700     -2.483261      0.015991
  H       3.968778     -0.394594     -3.698596
  H       3.176927     -0.740812      1.182511
  H       2.655048      1.342349     -2.540439
  H       2.250825      1.187178     -0.093119
  F       0.228235     -1.923081      0.134084
  F      -0.963877     -0.357417      1.119027
  F      -3.052081     -2.364520      1.310061
  F      -1.507211     -3.820760      0.717326
  F      -2.876074     -0.481798     -0.657807
  F      -2.164264     -2.391008     -1.489854
  F      -1.564656     -1.577863      3.434893
  F      -1.998083     -3.721843      3.328278
  F      -1.730996     -0.067861     -2.977279
  F      -0.382562      0.644466     -1.420893
  F       0.044054     -1.216086     -2.478222
  O       1.045971     -2.046875      2.920435
  O       0.580724     -4.259723      3.077762
  C      -1.029994     -1.516673      0.427684
  C      -1.714066     -2.614360      1.305976
  C      -1.779775     -1.226505     -0.918396
  C      -1.228960     -2.729558      2.784538
  C      -0.927020     -0.446476     -1.974210
  C       0.301377     -3.049591      2.948542
74
Coordinates from ORCA-job R4N+PFHxA-_r2 E -2389.493060624208
  N       1.054731     -7.876867      0.965149
  C       3.036330     -3.629365     -3.748667
  C       4.503473     -3.188754     -3.883800
  C       5.147334     -2.634804     -2.601828
  C       2.821000     -4.520547     -2.546824
  C       2.548362     -4.291167     -5.047699
  C       2.264216     -6.934549      0.988162
  C       2.440116     -6.114608     -0.253689
  C       4.323188     -1.563239     -1.918238
  C       1.979622     -4.105445     -1.514128
  C       3.469352     -5.753507     -2.418104
  C       6.557470     -2.112520     -2.907681
  C       0.971919     -8.534215      2.313336
  C       1.233317     -8.930355     -0.087201
  C      -0.220011     -7.129863      0.710625
  C       1.797082     -4.881108     -0.377141
  C       3.280182     -6.541181     -1.287588
  C       1.057820     -4.615569     -5.030584
  C       4.081999     -1.635786     -0.543313
  C       3.806173     -0.472031     -2.625116
  C       3.343617     -0.653080      0.112295
  C       3.065755      0.512388     -1.974642
  C       2.830575      0.425943     -0.603048
  H       2.426411     -2.728467     -3.588810
  H       4.561426     -2.435353     -4.681326
  H       5.108832     -4.042265     -4.219683
  H       5.242559     -3.465115     -1.888848
  H       3.130079     -5.205609     -5.227826
  H       2.769273     -3.611486     -5.881557
  H       3.128415     -7.581899      1.161242
  H       2.120127     -6.290171      1.859822
  H       1.478095     -3.146869     -1.597648
  H       4.139965     -6.097420     -3.202044
  H       7.170326     -2.898973     -3.363201
  H       7.058562     -1.772533     -1.994935
  H       6.513567     -1.268069     -3.605719
  H       1.908900     -9.062325      2.501081
  H       0.135060     -9.235003      2.304991
  H       0.812047     -7.759300      3.066309
  H       0.378661     -9.607832     -0.038405
  H       2.160489     -9.470868      0.114214
  H       1.274933     -8.450287     -1.066181
  H      -0.202079     -6.721217     -0.300585
  H      -0.314855     -6.329610      1.447126
  H      -1.049197     -7.834101      0.807317
  H       1.156931     -4.527410      0.426852
  H       3.800458     -7.492006     -1.198192
  H       0.734207     -5.039739     -5.987035
  H       0.462872     -3.712997     -4.844647
  H       0.815932     -5.340696     -4.245071
  H       4.470022     -2.483076      0.018824
  H       3.978349     -0.391263     -3.696120
  H       3.167735     -0.736189      1.181858
  H       2.666227      1.349172     -2.542014
  H       2.250444      1.193091     -0.097316
  F       0.234752     -1.913638      0.126895
  F      -0.973103     -0.360366      1.110890
  F      -3.043554     -2.387087      1.296609
  F      -1.486413     -3.827428      0.699648
  F      -2.880322     -0.499052     -0.669940
  F      -2.151307     -2.400644     -1.502970
  F      -1.563394     -1.592892      3.423771
  F      -1.980752     -3.739776      3.311088
  F      -1.731636     -0.072755     -2.987055
  F      -0.392017      0.648028     -1.427861
  F       0.049478     -1.209758     -2.484161
  O       1.051173     -2.041486      2.908172
  O       0.603736     -4.255442      3.079097
  C      -1.027748     -1.519278      0.418037
  C      -1.703780     -2.624487      1.292044
  C      -1.777111     -1.233887     -0.929200
  C      -1.218640     -2.740695      2.770861
  C      -0.928138     -0.446514     -1.982477
  C       0.314175     -3.049147      2.939687
74
Coordinates from ORCA-job R4N+PFHxA-_r2 E -2389.493083253058
  N       1.053507     -7.883637      0.982118
  C       3.019072     -3.610549     -3.719560
  C       4.492030     -3.192242     -3.861383
  C       5.141643     -2.640229     -2.581023
  C       2.804786     -4.515813     -2.528317
  C       2.503858     -4.240273     -5.023233
  C       2.271858     -6.952962      0.994244
  C       2.438307     -6.124011     -0.243271
  C       4.326158     -1.554601     -1.908564
  C       1.982456     -4.101472     -1.480985
  C       3.439696     -5.758109     -2.420749
  C       6.557732     -2.135969     -2.887032
  C       0.980853     -8.545199      2.329522
  C       1.212286     -8.935502     -0.075202
  C      -0.216115     -7.125728      0.745457
  C       1.808734     -4.882306     -0.346208
  C       3.256557     -6.552279     -1.294154
  C       1.006427     -4.525809     -4.994473
  C       4.071344     -1.617210     -0.535232
  C       3.827060     -0.462339     -2.625924
  C       3.338435     -0.622677      0.108064
  C       3.089506      0.532084     -1.988106
  C       2.843084      0.456927     -0.618070
  H       2.427009     -2.702107     -3.538135
  H       4.558759     -2.442285     -4.661387
  H       5.084683     -4.054988     -4.195696
  H       5.225162     -3.467152     -1.862814
  H       3.061396     -5.164687     -5.226569
  H       2.732978     -3.551189     -5.847186
  H       3.130206     -7.611981      1.150899
  H       2.145985     -6.312635      1.871510
  H       1.492399     -3.136436     -1.554189
  H       4.095133     -6.103731     -3.216461
  H       7.162507     -2.932798     -3.335123
  H       7.061394     -1.794845     -1.976147
  H       6.526809     -1.295943     -3.590876
  H       1.916706     -9.078449      2.507046
  H       0.139938     -9.241045      2.326111
  H       0.831725     -7.770756      3.085126
  H       0.346502     -9.598733     -0.028164
  H       2.130774     -9.492093      0.121186
  H       1.258316     -8.450670     -1.051658
  H      -0.204362     -6.715179     -0.265164
  H      -0.292030     -6.325920      1.484210
  H      -1.052272     -7.820748      0.846882
  H       1.185677     -4.522964      0.468286
  H       3.765931     -7.510171     -1.219224
  H       0.661804     -4.929232     -5.952627
  H       0.436459     -3.610930     -4.789792
  H       0.753623     -5.256925     -4.218124
  H       4.445492     -2.466329      0.033283
  H       4.008782     -0.389962     -3.695873
  H       3.147894     -0.697388      1.175819
  H       2.702360      1.368344     -2.564646
  H       2.255097      1.227234     -0.126767
  F       0.262815     -1.885706      0.098393
  F      -1.008779     -0.378170      1.069949
  F      -3.009326     -2.477124      1.233788
  F      -1.401766     -3.859154      0.640657
  F      -2.888101     -0.578627     -0.733628
  F      -2.092618     -2.456496     -1.555364
  F      -1.570612     -1.645906      3.376853
  F      -1.924920     -3.803301      3.247632
  F      -1.723616     -0.119025     -3.039795
  F      -0.418884      0.640046     -1.471470
  F       0.080268     -1.210264     -2.515380
  O       1.061122     -2.016355      2.865700
  O       0.681269     -4.233149      3.094544
  C      -1.015656     -1.537675      0.376010
  C      -1.663255     -2.667542      1.237621
  C      -1.759314     -1.278205     -0.979812
  C      -1.187277     -2.780232      2.720835
  C      -0.922542     -0.469787     -2.026701
  C       0.352871     -3.043142      2.914399
74
Coordinates from ORCA-job R4N+PFHxA-_r2 E -2389.493139052310
  N       1.053485     -7.882938      0.975568
  C       3.025647     -3.618720     -3.728563
  C       4.496342     -3.192006     -3.868769
  C       5.143522     -2.637227     -2.588325
  C       2.811868     -4.518598     -2.533214
  C       2.518140     -4.260261     -5.029905
  C       2.268659     -6.947704      0.992867
  C       2.439678     -6.121883     -0.245614
  C       4.325001     -1.555953     -1.912719
  C       1.983396     -4.103125     -1.490605
  C       3.450507     -5.758166     -2.418687
  C       6.557336     -2.126007     -2.894765
  C       0.978814     -8.547332      2.320716
  C       1.217283     -8.931700     -0.083284
  C      -0.217909     -7.127098      0.736476
  C       1.806530     -4.882308     -0.355019
  C       3.264966     -6.550190     -1.290914
  C       1.022505     -4.557675     -5.002951
  C       4.077294     -1.619157     -0.538137
  C       3.818155     -0.465722     -2.628094
  C       3.342989     -0.627399      0.108316
  C       3.079668      0.526048     -1.987172
  C       2.839060      0.449679     -0.616060
  H       2.427393     -2.712831     -3.554692
  H       4.559694     -2.441688     -4.668736
  H       5.093821     -4.051687     -4.202563
  H       5.231783     -3.464435     -1.870938
  H       3.082868     -5.182246     -5.224671
  H       2.744017     -3.575074     -5.857949
  H       3.129328     -7.602100      1.156496
  H       2.133954     -6.306408      1.868302
  H       1.490936     -3.139464     -1.567544
  H       4.110410     -6.103741     -3.210856
  H       7.165193     -2.919056     -3.345529
  H       7.060057     -1.784990     -1.983293
  H       6.521127     -1.284523     -3.596710
  H       1.915029     -9.079663      2.499726
  H       0.139607     -9.245355      2.314811
  H       0.826518     -7.776399      3.079167
  H       0.355618     -9.600455     -0.037170
  H       2.138913     -9.484012      0.111159
  H       1.260552     -8.446229     -1.059578
  H      -0.205461     -6.714632     -0.273310
  H      -0.297630     -6.327211      1.475231
  H      -1.051842     -7.824724      0.838429
  H       1.177586     -4.525077      0.456417
  H       3.776982     -7.506322     -1.211175
  H       0.682780     -4.966670     -5.960496
  H       0.445543     -3.646388     -4.802411
  H       0.774061     -5.287221     -4.223660
  H       4.457634     -2.466153      0.029564
  H       3.995147     -0.392588     -3.698826
  H       3.158869     -0.701554      1.177260
  H       2.686564      1.360878     -2.561814
  H       2.254669      1.219954     -0.120268
  F       0.255809     -1.894435      0.109323
  F      -0.995751     -0.372464      1.084828
  F      -3.020460     -2.448272      1.249440
  F      -1.427747     -3.849508      0.658221
  F      -2.882786     -0.550218     -0.711918
  F      -2.109571     -2.436247     -1.538477
  F      -1.575497     -1.629413      3.390633
  F      -1.946874     -3.784486      3.266093
  F      -1.725360     -0.101143     -3.021096
  F      -0.407593      0.644971     -1.456307
  F       0.071943     -1.207288     -2.506238
  O       1.053308     -2.022094      2.886059
  O       0.652836     -4.239151      3.094866
  C      -1.017500     -1.531526      0.390395
  C      -1.675999     -2.654552      1.254251
  C      -1.762664     -1.262057     -0.962805
  C      -1.201150     -2.767745      2.736989
  C      -0.922175     -0.459783     -2.011456
  C       0.336369     -3.043489      2.927568
74
Coordinates from ORCA-job R4N+PFHxA-_r2 E -2389.493179455934
  N       1.049628     -7.885547      0.973431
  C       3.025583     -3.621178     -3.725752
  C       4.495034     -3.190946     -3.867026
  C       5.140908     -2.632199     -2.587627
  C       2.813946     -4.520178     -2.529304
  C       2.517621     -4.265900     -5.025583
  C       2.266887     -6.952330      0.994047
  C       2.440678     -6.125242     -0.242936
  C       4.322505     -1.549421     -1.914251
  C       1.988119     -4.103024     -1.484797
  C       3.450052     -5.761134     -2.416502
  C       6.554864     -2.120839     -2.894431
  C       0.976615     -8.559918      2.312946
  C       1.207008     -8.926568     -0.093134
  C      -0.220269     -7.123353      0.742524
  C       1.811155     -4.883304     -0.349917
  C       3.264037     -6.554321     -1.289504
  C       1.022325     -4.566764     -4.994858
  C       4.078687     -1.607168     -0.538786
  C       3.813545     -0.462028     -2.632771
  C       3.345731     -0.612835      0.105574
  C       3.076339      0.532190     -1.994081
  C       2.838668      0.460771     -0.622082
  H       2.425435     -2.716286     -3.552977
  H       4.556821     -2.442011     -4.668443
  H       5.094615     -4.049998     -4.198795
  H       5.229438     -3.457598     -1.868090
  H       3.083622     -5.187452     -5.218940
  H       2.740241     -3.581625     -5.855213
  H       3.126898     -7.607594      1.158026
  H       2.130780     -6.312616      1.870524
  H       1.498651     -3.137579     -1.559901
  H       4.107712     -6.107490     -3.210304
  H       7.163190     -2.914258     -3.344038
  H       7.056861     -1.778553     -1.983007
  H       6.517964     -1.280348     -3.597610
  H       1.911746     -9.096265      2.486051
  H       0.136251     -9.256653      2.304549
  H       0.827832     -7.796622      3.079554
  H       0.344651     -9.594680     -0.048979
  H       2.128235     -9.482651      0.093010
  H       1.247624     -8.435495     -1.066770
  H      -0.210669     -6.706455     -0.265462
  H      -0.293551     -6.324054      1.483067
  H      -1.056005     -7.818148      0.848521
  H       1.184030     -4.526304      0.463196
  H       3.773297     -7.512112     -1.211630
  H       0.680473     -4.974776     -5.952073
  H       0.444664     -3.656674     -4.791074
  H       0.777724     -5.297268     -4.215190
  H       4.460856     -2.451482      0.031771
  H       3.988206     -0.392899     -3.704186
  H       3.164888     -0.681468      1.175369
  H       2.681369      1.364696     -2.570874
  H       2.258057      1.234223     -0.126674
  F       0.263806     -1.890539      0.110965
  F      -0.996269     -0.374340      1.085341
  F      -3.014018     -2.456344      1.240000
  F      -1.414113     -3.853172      0.655683
  F      -2.876943     -0.555515     -0.716065
  F      -2.097316     -2.440398     -1.540937
  F      -1.584691     -1.634712      3.387829
  F      -1.944779     -3.791795      3.260746
  F      -1.720573     -0.103371     -3.022202
  F      -0.404356      0.645574     -1.456648
  F       0.080360     -1.204261     -2.508551
  O       1.049111     -2.013673      2.890974
  O       0.656687     -4.232876      3.106172
  C      -1.011193     -1.532942      0.389827
  C      -1.668447     -2.659550      1.251424
  C      -1.754905     -1.265136     -0.964909
  C      -1.201000     -2.770810      2.735976
  C      -0.915618     -0.460234     -2.012540
  C       0.336477     -3.038582      2.934213
74
Coordinates from ORCA-job R4N+PFHxA-_r2 E -2389.493212842209
  N       1.045367     -7.888191      0.974156
  C       3.024880     -3.620966     -3.718739
  C       4.494197     -3.191709     -3.861850
  C       5.139252     -2.629031     -2.583851
  C       2.814388     -4.521376     -2.523126
  C       2.511358     -4.262989     -5.017702
  C       2.265675     -6.958047      0.996673
  C       2.441197     -6.129113     -0.238604
  C       4.321775     -1.542311     -1.915471
  C       1.993886     -4.102291     -1.475068
  C       3.446013     -5.764897     -2.414303
  C       6.554580     -2.120874     -2.890685
  C       0.977198     -8.574430      2.307117
  C       1.191902     -8.919641     -0.102516
  C      -0.222828     -7.117917      0.757185
  C       1.817608     -4.883696     -0.340947
  C       3.259994     -6.559629     -1.288281
  C       1.014989     -4.559503     -4.980342
  C       4.078589     -1.592564     -0.539643
  C       3.812522     -0.458735     -2.639878
  C       3.345653     -0.594612      0.099345
  C       3.075138      0.538954     -2.006631
  C       2.837270      0.474438     -0.634230
  H       2.426349     -2.715425     -3.543538
  H       4.556505     -2.445101     -4.665439
  H       5.093779     -4.052067     -4.190416
  H       5.225638     -3.451850     -1.861000
  H       3.073682     -5.186274     -5.213535
  H       2.732244     -3.578360     -5.847451
  H       3.124633     -7.615007      1.159619
  H       2.129284     -6.320165      1.874420
  H       1.509680     -3.134342     -1.547385
  H       4.100095     -6.112243     -3.210703
  H       7.162115     -2.916596     -3.337378
  H       7.055895     -1.776872     -1.979510
  H       6.519362     -1.282456     -3.596486
  H       1.911296     -9.115688      2.470646
  H       0.135015     -9.269050      2.297399
  H       0.834813     -7.819572      3.083281
  H       0.327603     -9.585422     -0.059328
  H       2.112057     -9.481447      0.072050
  H       1.228295     -8.421046     -1.072482
  H      -0.219205     -6.696565     -0.249062
  H      -0.284961     -6.319367      1.499918
  H      -1.061048     -7.808489      0.870157
  H       1.195167     -4.525475      0.475234
  H       3.765106     -7.519896     -1.213606
  H       0.666225     -4.961346     -5.937662
  H       0.442050     -3.648112     -4.768331
  H       0.772445     -5.292533     -4.202293
  H       4.460731     -2.433708      0.035672
  H       3.986992     -0.395522     -3.711721
  H       3.164196     -0.656125      1.169477
  H       2.679510      1.368160     -2.587758
  H       2.257771      1.250662     -0.141742
  F       0.275828     -1.881633      0.109206
  F      -1.003251     -0.379950      1.082382
  F      -3.002080     -2.480286      1.221593
  F      -1.386790     -3.861935      0.641806
  F      -2.872631     -0.571998     -0.727436
  F      -2.076430     -2.451391     -1.550334
  F      -1.597950     -1.653180      3.378644
  F      -1.933325     -3.814027      3.243367
  F      -1.716795     -0.111212     -3.029482
  F      -0.407621      0.647574     -1.462238
  F       0.092249     -1.198042     -2.514895
  O       1.044040     -2.002053      2.894007
  O       0.671712     -4.224744      3.118089
  C      -1.003442     -1.537112      0.384193
  C      -1.654382     -2.672759      1.240306
  C      -1.744885     -1.273687     -0.973066
  C      -1.196447     -2.783295      2.727087
  C      -0.909533     -0.462100     -2.018830
  C       0.341599     -3.034150      2.937832
74
Coordinates from ORCA-job R4N+PFHxA-_r2 E -2389.493230268364
  N       1.035685     -7.888278      0.979951
  C       3.024361     -3.618142     -3.705609
  C       4.494086     -3.192911     -3.852072
  C       5.138538     -2.623984     -2.576569
  C       2.814733     -4.522253     -2.512453
  C       2.499470     -4.252254     -5.003784
  C       2.263818     -6.966779      1.001842
  C       2.440872     -6.135246     -0.231379
  C       4.322606     -1.530066     -1.917593
  C       2.004403     -4.100030     -1.457762
  C       3.436674     -5.771327     -2.411617
  C       6.556540     -2.122732     -2.883469
  C       0.977102     -8.592298      2.303123
  C       1.159114     -8.904882     -0.112833
  C      -0.228712     -7.102592      0.788928
  C       1.829145     -4.883417     -0.325262
  C       3.249939     -6.569049     -1.287490
  C       1.000842     -4.538019     -4.955068
  C       4.074318     -1.570471     -0.542523
  C       3.817333     -0.450685     -2.651543
  C       3.338987     -0.567730      0.086274
  C       3.077647      0.551960     -2.028465
  C       2.832879      0.495890     -0.656760
  H       2.430406     -2.710708     -3.524470
  H       4.558114     -2.450469     -4.659425
  H       5.092536     -4.056216     -4.175185
  H       5.220321     -3.442270     -1.847915
  H       3.053517     -5.179167     -5.206020
  H       2.718571     -3.566129     -5.832683
  H       3.119671     -7.628943      1.160252
  H       2.131368     -6.332332      1.882481
  H       1.529440     -3.127603     -1.524315
  H       4.083632     -6.120963     -3.212911
  H       7.162163     -2.923231     -3.324265
  H       7.056881     -1.775310     -1.973040
  H       6.525228     -1.288547     -3.594525
  H       1.908508     -9.143381      2.448741
  H       0.129998     -9.281029      2.294190
  H       0.849487     -7.849337      3.093351
  H       0.290009     -9.564408     -0.067990
  H       2.076413     -9.477613      0.040827
  H       1.187234     -8.394037     -1.076642
  H      -0.236447     -6.674847     -0.214665
  H      -0.270303     -6.305863      1.535511
  H      -1.071648     -7.785032      0.914588
  H       1.217365     -4.521646      0.496706
  H       3.746611     -7.534212     -1.219173
  H       0.639031     -4.926585     -5.912992
  H       0.438230     -3.623730     -4.726974
  H       0.760358     -5.276409     -4.181383
  H       4.452780     -2.408039      0.040474
  H       3.996156     -0.395244     -3.723127
  H       3.150113     -0.621431      1.155531
  H       2.684434      1.377305     -2.616734
  H       2.252457      1.275098     -0.169994
  F       0.297538     -1.862279      0.102849
  F      -1.022164     -0.394910      1.076892
  F      -2.976302     -2.536044      1.187249
  F      -1.329362     -3.881515      0.609464
  F      -2.869379     -0.611163     -0.749740
  F      -2.035728     -2.475616     -1.570951
  F      -1.619483     -1.704249      3.362697
  F      -1.898658     -3.872355      3.201449
  F      -1.714566     -0.128203     -3.043966
  F      -0.423183      0.652518     -1.472171
  F       0.112650     -1.182353     -2.526606
  O       1.038791     -1.984963      2.892445
  O       0.709986     -4.214177      3.131070
  C      -0.990861     -1.547529      0.371807
  C      -1.624477     -2.703494      1.215945
  C      -1.728530     -1.293282     -0.989831
  C      -1.181053     -2.817596      2.705695
  C      -0.902951     -0.465653     -2.031155
  C       0.358507     -3.031927      2.936652
74
Coordinates from ORCA-job R4N+PFHxA-_r2 E -2389.493255833816
  N       1.039907     -7.888232      0.978679
  C       3.023957     -3.618376     -3.709480
  C       4.493999     -3.193307     -3.854697
  C       5.139102     -2.626793     -2.578393
  C       2.813610     -4.521576     -2.515861
  C       2.502267     -4.253700     -5.008296
  C       2.264926     -6.963734      1.000096
  C       2.440440     -6.132916     -0.233804
  C       4.323355     -1.534310     -1.916974
  C       2.000745     -4.100265     -1.462947
  C       3.438121     -5.769222     -2.413072
  C       6.556727     -2.124862     -2.885137
  C       0.979630     -8.585788      2.305880
  C       1.170062     -8.910063     -0.109009
  C      -0.225894     -7.107848      0.780740
  C       1.825130     -4.883059     -0.329850
  C       3.251860     -6.565892     -1.288324
  C       1.004147     -4.541471     -4.963874
  C       4.075903     -1.577508     -0.541712
  C       3.817696     -0.453522     -2.648278
  C       3.341022     -0.576121      0.089657
  C       3.078394      0.547668     -2.022632
  C       2.834913      0.489226     -0.650911
  H       2.429340     -2.711160     -3.529617
  H       4.558193     -2.449834     -4.661064
  H       5.092095     -4.056225     -4.179394
  H       5.221307     -3.446456     -1.851402
  H       3.058278     -5.179678     -5.209365
  H       2.722767     -3.567803     -5.837053
  H       3.121943     -7.624050      1.159590
  H       2.130665     -6.328250      1.879874
  H       1.523177     -3.128963     -1.530977
  H       4.086937     -6.118303     -3.213038
  H       7.162402     -2.924695     -3.326988
  H       7.057470     -1.778212     -1.974652
  H       6.525244     -1.289843     -3.595172
  H       1.912029     -9.133803      2.456237
  H       0.133559     -9.275695      2.297884
  H       0.848669     -7.837276      3.090385
  H       0.302665     -9.571668     -0.062964
  H       2.088831     -9.478536      0.050831
  H       1.199329     -8.402825     -1.074653
  H      -0.231479     -6.682914     -0.224037
  H      -0.272855     -6.310986      1.526599
  H      -1.067132     -7.793139      0.902688
  H       1.210710     -4.522104      0.490829
  H       3.751049     -7.529621     -1.218405
  H       0.646491     -4.933679     -5.921872
  H       0.438855     -3.627684     -4.740801
  H       0.762043     -5.278309     -4.189274
  H       4.455009     -2.416235      0.039142
  H       3.995725     -0.395882     -3.719855
  H       3.153502     -0.632145      1.159121
  H       2.684941      1.374128     -2.609135
  H       2.253323      1.266791     -0.162994
  F       0.289973     -1.867502      0.105503
  F      -1.018219     -0.391306      1.079458
  F      -2.985085     -2.521871      1.194797
  F      -1.345822     -3.876020      0.616662
  F      -2.871403     -0.599373     -0.742929
  F      -2.048605     -2.467328     -1.566140
  F      -1.615110     -1.690201      3.365850
  F      -1.911590     -3.856014      3.211964
  F      -1.714989     -0.121300     -3.039053
  F      -0.419213      0.652028     -1.467648
  F       0.106513     -1.185641     -2.521894
  O       1.038146     -1.990434      2.896452
  O       0.699037     -4.218239      3.127284
  C      -0.996023     -1.544578      0.375317
  C      -1.634414     -2.695154      1.221335
  C      -1.734186     -1.286820     -0.984973
  C      -1.187280     -2.808837      2.710752
  C      -0.905301     -0.463387     -2.026749
  C       0.352256     -3.033704      2.937631
74
Coordinates from ORCA-job R4N+PFHxA-_r2 E -2389.493273286425
  N       1.041824     -7.886334      0.979255
  C       3.024462     -3.618130     -3.712144
  C       4.494962     -3.193954     -3.856505
  C       5.140725     -2.628808     -2.579920
  C       2.812812     -4.520728     -2.518226
  C       2.504949     -4.253904     -5.011529
  C       2.265201     -6.960490      0.999479
  C       2.439340     -6.130661     -0.235347
  C       4.325163     -1.536744     -1.917765
  C       1.998937     -4.099469     -1.466230
  C       3.437883     -5.768040     -2.414328
  C       6.558375     -2.127375     -2.886629
  C       0.981699     -8.580116      2.309134
  C       1.174312     -8.911071     -0.105897
  C      -0.224903     -7.108593      0.779207
  C       1.822649     -4.881711     -0.332739
  C       3.251553     -6.563846     -1.289089
  C       1.007146     -4.542834     -4.970358
  C       4.075327     -1.582783     -0.543039
  C       3.821353     -0.454142     -2.647438
  C       3.339483     -0.582822      0.089209
  C       3.081342      0.545871     -2.020826
  C       2.835401      0.484578     -0.649764
  H       2.429841     -2.710762     -3.533170
  H       4.559648     -2.450179     -4.662528
  H       5.092536     -4.056977     -4.181803
  H       5.222563     -3.449099     -1.853647
  H       3.062176     -5.179272     -5.211997
  H       2.726608     -3.568166     -5.840130
  H       3.122939     -7.619658      1.159582
  H       2.129808     -6.324102      1.878433
  H       1.520367     -3.128580     -1.534663
  H       4.087455     -6.117307     -3.213538
  H       7.163829     -2.927403     -3.328335
  H       7.059306     -1.780668     -1.976298
  H       6.527344     -1.292426     -3.596725
  H       1.914345     -9.127255      2.460721
  H       0.135310     -9.269539      2.302879
  H       0.850967     -7.827560      3.089853
  H       0.308310     -9.574216     -0.057082
  H       2.094644     -9.476335      0.055835
  H       1.202012     -8.405413     -1.072378
  H      -0.230882     -6.685569     -0.226315
  H      -0.273499     -6.312349      1.525324
  H      -1.065131     -7.795441      0.899844
  H       1.207940     -4.520608      0.487713
  H       3.751716     -7.526986     -1.218377
  H       0.652331     -4.936686     -5.928713
  H       0.440225     -3.629463     -4.750029
  H       0.763789     -5.279068     -4.195665
  H       4.453111     -2.422929      0.036563
  H       4.001144     -0.394257     -3.718574
  H       3.149802     -0.642253      1.158072
  H       2.689462      1.373793     -2.606286
  H       2.251992      1.260391     -0.161328
  F       0.285563     -1.868273      0.108169
  F      -1.019625     -0.391334      1.083852
  F      -2.989539     -2.520489      1.197311
  F      -1.351273     -3.874798      0.617792
  F      -2.874544     -0.595108     -0.737668
  F      -2.054721     -2.462636     -1.563988
  F      -1.615323     -1.689378      3.368452
  F      -1.917301     -3.853994      3.214653
  F      -1.716950     -0.115184     -3.033666
  F      -0.420699      0.654044     -1.460945
  F       0.102771     -1.182876     -2.517126
  O       1.035734     -1.994359      2.901729
  O       0.695200     -4.222546      3.122211
  C      -1.000028     -1.543759      0.378374
  C      -1.639155     -2.693885      1.223170
  C      -1.738192     -1.283450     -0.981105
  C      -1.190842     -2.809011      2.712687
  C      -0.908225     -0.459899     -2.021769
  C       0.348933     -3.037021      2.938007
74
Coordinates from ORCA-job R4N+PFHxA-_r2 E -2389.493295773664
  N       1.042047     -7.884650      0.980947
  C       3.023102     -3.617007     -3.712316
  C       4.494203     -3.194553     -3.856394
  C       5.140817     -2.629660     -2.580101
  C       2.810801     -4.519240     -2.518142
  C       2.505064     -4.252675     -5.012268
  C       2.265286     -6.959594      0.999650
  C       2.437906     -6.129521     -0.235418
  C       4.326579     -1.535766     -1.919523
  C       1.999651     -4.096876     -1.464655
  C       3.433508     -5.767963     -2.415801
  C       6.559344     -2.131230     -2.886824
  C       0.984008     -8.578321      2.311867
  C       1.171791     -8.909669     -0.104748
  C      -0.224197     -7.105910      0.784561
  C       1.822995     -4.879618     -0.331412
  C       3.247575     -6.563745     -1.290591
  C       1.007672     -4.543200     -4.973980
  C       4.073120     -1.582086     -0.545445
  C       3.826883     -0.451743     -2.649622
  C       3.337066     -0.581531      0.085407
  C       3.087294      0.549271     -2.024261
  C       2.837374      0.487609     -0.654074
  H       2.428965     -2.709264     -3.533600
  H       4.559732     -2.451452     -4.662933
  H       5.090790     -4.058367     -4.181321
  H       5.220655     -3.449534     -1.853178
  H       3.063582     -5.177189     -5.213040
  H       2.727332     -3.566687     -5.840514
  H       3.123026     -7.618918      1.158772
  H       2.129710     -6.323363      1.878711
  H       1.522368     -3.124900     -1.530803
  H       4.080944     -6.118337     -3.216188
  H       7.163817     -2.933107     -3.326407
  H       7.060288     -1.783317     -1.976995
  H       6.530312     -1.297688     -3.598610
  H       1.915733     -9.127759      2.460240
  H       0.135192     -9.264614      2.307903
  H       0.858137     -7.823397      3.091112
  H       0.306723     -9.573599     -0.051514
  H       2.093739     -9.472995      0.054090
  H       1.194879     -8.403028     -1.070787
  H      -0.233401     -6.683163     -0.220960
  H      -0.269295     -6.311558      1.532721
  H      -1.064768     -7.792343      0.905716
  H       1.211341     -4.517527      0.490870
  H       3.746372     -7.527679     -1.221521
  H       0.655436     -4.937921     -5.932897
  H       0.439003     -3.630610     -4.755421
  H       0.763571     -5.279510     -4.199718
  H       4.447811     -2.423230      0.034642
  H       4.009550     -0.391451     -3.720225
  H       3.143822     -0.642806      1.153511
  H       2.699034      1.378429     -2.610346
  H       2.252733      1.263154     -0.166767
  F       0.285797     -1.863090      0.112260
  F      -1.028129     -0.395372      1.088766
  F      -2.988927     -2.535367      1.188788
  F      -1.341078     -3.878472      0.611977
  F      -2.876988     -0.601001     -0.738467
  F      -2.048916     -2.463199     -1.567572
  F      -1.624661     -1.701472      3.367845
  F      -1.917449     -3.866493      3.207309
  F      -1.713710     -0.109719     -3.029524
  F      -0.423429      0.657322     -1.451091
  F       0.107062     -1.174897     -2.511235
  O       1.028100     -1.992716      2.911565
  O       0.700139     -4.223112      3.121756
  C      -1.002122     -1.545416      0.379811
  C      -1.637839     -2.700469      1.218949
  C      -1.737523     -1.284526     -0.980694
  C      -1.193603     -2.817766      2.710312
  C      -0.907020     -0.455955     -2.016780
  C       0.347060     -3.039277      2.940513
74
Coordinates from ORCA-job R4N+PFHxA-_r2 E -2389.493320314149
  N       1.041128     -7.880957      0.983997
  C       3.022937     -3.616369     -3.712911
  C       4.494785     -3.195983     -3.856803
  C       5.142140     -2.630658     -2.581082
  C       2.809288     -4.518043     -2.518410
  C       2.506221     -4.252083     -5.013279
  C       2.264967     -6.957131      1.000677
  C       2.436467     -6.127524     -0.234993
  C       4.328981     -1.534557     -1.922993
  C       2.001552     -4.093656     -1.463272
  C       3.428761     -5.768533     -2.417227
  C       6.561636     -2.135459     -2.887967
  C       0.986754     -8.577040      2.314497
  C       1.165832     -8.904320     -0.104102
  C      -0.224735     -7.100098      0.794299
  C       1.824379     -4.876328     -0.330010
  C       3.242964     -6.563809     -1.291699
  C       1.009303     -4.544606     -4.977307
  C       4.068855     -1.581817     -0.550248
  C       3.835547     -0.448356     -2.653950
  C       3.331594     -0.580742      0.078158
  C       3.095748      0.553866     -2.030780
  C       2.838491      0.490875     -0.662093
  H       2.429633     -2.707960     -3.534751
  H       4.561435     -2.453850     -4.664120
  H       5.090185     -4.060954     -4.180776
  H       5.219842     -3.449694     -1.853013
  H       3.066126     -5.175694     -5.214263
  H       2.728690     -3.565749     -5.841192
  H       3.122685     -7.616685      1.158810
  H       2.129590     -6.320889      1.879743
  H       1.526464     -3.120509     -1.526921
  H       4.073765     -6.120650     -3.218761
  H       7.165072     -2.939409     -3.325092
  H       7.062523     -1.786091     -1.978687
  H       6.534684     -1.303589     -3.601743
  H       1.917104     -9.130251      2.456964
  H       0.134928     -9.259477      2.313107
  H       0.867918     -7.821961      3.094684
  H       0.302314     -9.569772     -0.045761
  H       2.089945     -9.465783      0.048357
  H       1.181869     -8.395530     -1.069118
  H      -0.238531     -6.675974     -0.210511
  H      -0.265031     -6.308361      1.545366
  H      -1.065764     -7.785798      0.916910
  H       1.217064     -4.512226      0.494502
  H       3.739794     -7.528828     -1.223990
  H       0.659365     -4.939666     -5.936899
  H       0.438781     -3.633011     -4.759739
  H       0.764999     -5.281461     -4.203696
  H       4.438471     -2.424562      0.030698
  H       4.023390     -0.387141     -3.723595
  H       3.131811     -0.645283      1.144799
  H       2.713215      1.385066     -2.617713
  H       2.252552      1.266378     -0.176365
  F       0.286476     -1.854936      0.118882
  F      -1.041745     -0.401606      1.097447
  F      -2.987646     -2.557495      1.178288
  F      -1.326362     -3.884332      0.603337
  F      -2.881094     -0.610390     -0.738792
  F      -2.038962     -2.464172     -1.571870
  F      -1.640330     -1.722554      3.368001
  F      -1.914258     -3.889050      3.195612
  F      -1.710804     -0.100767     -3.021955
  F      -0.429419      0.663635     -1.435084
  F       0.112459     -1.160801     -2.502669
  O       1.016308     -1.989377      2.925826
  O       0.706906     -4.223558      3.118819
  C      -1.004984     -1.548012      0.383136
  C      -1.635479     -2.711375      1.213932
  C      -1.736619     -1.286088     -0.979064
  C      -1.197148     -2.832103      2.707015
  C      -0.906290     -0.448849     -2.008254
  C       0.344300     -3.041889      2.943545
74
Coordinates from ORCA-job R4N+PFHxA-_r2 E -2389.493351744455
  N       1.039097     -7.878363      0.987408
  C       3.020725     -3.615869     -3.711587
  C       4.493262     -3.197471     -3.855966
  C       5.141402     -2.630500     -2.581349
  C       2.806903     -4.516996     -2.516617
  C       2.504595     -4.251750     -5.012114
  C       2.264984     -6.957255      1.002557
  C       2.435856     -6.126883     -0.232845
  C       4.330662     -1.530010     -1.927692
  C       2.005868     -4.089495     -1.457676
  C       3.421052     -5.770479     -2.418632
  C       6.562621     -2.140593     -2.888513
  C       0.989719     -8.581357      2.314789
  C       1.155047     -8.896805     -0.106207
  C      -0.225096     -7.092379      0.808768
  C       1.829262     -4.872770     -0.324677
  C       3.236210     -6.565908     -1.293096
  C       1.008348     -4.547320     -4.977298
  C       4.063452     -1.575195     -0.556249
  C       3.845735     -0.442015     -2.661598
  C       3.326819     -0.570871      0.067743
  C       3.107538      0.563970     -2.042633
  C       2.842528      0.502737     -0.675385
  H       2.428348     -2.706797     -3.533688
  H       4.561019     -2.456937     -4.664648
  H       5.087192     -4.064051     -4.178303
  H       5.215783     -3.447641     -1.850816
  H       3.066241     -5.174134     -5.213813
  H       2.726176     -3.564588     -5.839583
  H       3.121987     -7.618266      1.158443
  H       2.131087     -6.322030      1.882554
  H       1.534902     -3.113903     -1.516788
  H       4.061048     -6.125060     -3.223071
  H       7.164201     -2.947899     -3.321966
  H       7.063516     -1.789300     -1.979975
  H       6.538996     -1.311206     -3.605266
  H       1.917640     -9.140964      2.447560
  H       0.133682     -9.258434      2.315482
  H       0.880933     -7.829830      3.099801
  H       0.292733     -9.563390     -0.043313
  H       2.080924     -9.458160      0.035639
  H       1.162403     -8.383675     -1.069016
  H      -0.244156     -6.663493     -0.193872
  H      -0.257628     -6.304491      1.564278
  H      -1.067836     -7.775718      0.933012
  H       1.228835     -4.505668      0.503379
  H       3.729132     -7.533130     -1.228542
  H       0.660371     -4.943181     -5.937282
  H       0.435424     -3.637112     -4.760627
  H       0.764876     -5.284793     -4.204052
  H       4.426306     -2.419126      0.027182
  H       4.039067     -0.382149     -3.730345
  H       3.120468     -0.636077      1.133080
  H       2.732251      1.396722     -2.632051
  H       2.257214      1.280880     -0.193154
  F       0.290332     -1.841967      0.129155
  F      -1.062777     -0.410862      1.106880
  F      -2.983349     -2.591673      1.158362
  F      -1.300036     -3.893593      0.591354
  F      -2.883987     -0.628548     -0.745820
  F      -2.016669     -2.469560     -1.580907
  F      -1.667799     -1.753118      3.365470
  F      -1.907858     -3.922430      3.176936
  F      -1.700255     -0.090442     -3.014488
  F      -0.433643      0.670071     -1.413774
  F       0.126339     -1.142791     -2.491548
  O       0.996149     -1.977927      2.946932
  O       0.718283     -4.217284      3.121412
  C      -1.006811     -1.552479      0.386170
  C      -1.629692     -2.728112      1.205120
  C      -1.730885     -1.291364     -0.980262
  C      -1.202725     -2.851702      2.701393
  C      -0.900065     -0.441090     -1.998367
  C       0.339515     -3.040357      2.950501
74
Coordinates from ORCA-job R4N+PFHxA-_r2 E -2389.493391666025
  N       1.038119     -7.875081      0.990912
  C       3.019378     -3.616504     -3.711637
  C       4.492682     -3.200148     -3.856489
  C       5.141492     -2.631537     -2.582985
  C       2.805122     -4.516862     -2.516147
  C       2.503456     -4.252644     -5.012172
  C       2.265963     -6.955914      1.004692
  C       2.436498     -6.125462     -0.230643
  C       4.333154     -1.526601     -1.933928
  C       2.010254     -4.085988     -1.453909
  C       3.414670     -5.772783     -2.420189
  C       6.564517     -2.146935     -2.890406
  C       0.993984     -8.585853      2.314068
  C       1.146061     -8.887724     -0.108503
  C      -0.225015     -7.084940      0.822865
  C       1.835008     -4.868817     -0.320331
  C       3.231022     -6.567624     -1.294082
  C       1.007811     -4.550958     -4.977618
  C       4.057077     -1.570202     -0.564247
  C       3.858323     -0.436170     -2.670946
  C       3.321233     -0.562250      0.055019
  C       3.122054      0.574006     -2.056484
  C       2.847653      0.514047     -0.690967
  H       2.428147     -2.706549     -3.534243
  H       4.561691     -2.460989     -4.666331
  H       5.084931     -4.068500     -4.177179
  H       5.212642     -3.446693     -1.849898
  H       3.066550     -5.174027     -5.214346
  H       2.723971     -3.564569     -5.839169
  H       3.122416     -7.618136      1.158671
  H       2.134037     -6.321304      1.885440
  H       1.543281     -3.108395     -1.509505
  H       4.050233     -6.129906     -3.227033
  H       7.164038     -2.957492     -3.320669
  H       7.065596     -1.794329     -1.982451
  H       6.544258     -1.319690     -3.609726
  H       1.919572     -9.151568      2.437007
  H       0.134421     -9.258480      2.316505
  H       0.894528     -7.839884      3.105549
  H       0.285328     -9.556093     -0.042432
  H       2.073581     -9.449113      0.022282
  H       1.145028     -8.370510     -1.069154
  H      -0.247528     -6.648807     -0.176580
  H      -0.252376     -6.301586      1.583382
  H      -1.069001     -7.766808      0.946674
  H       1.241193     -4.497758      0.510648
  H       3.720441     -7.536761     -1.231551
  H       0.661360     -4.948329     -5.937574
  H       0.432669     -3.641864     -4.762336
  H       0.765354     -5.288521     -4.204088
  H       4.411681     -2.415965      0.021575
  H       4.058375     -0.377371     -3.738536
  H       3.107147     -0.628345      1.118796
  H       2.755155      1.408828     -2.648288
  H       2.263825      1.295879     -0.212956
  F       0.291259     -1.829104      0.144440
  F      -1.087839     -0.420225      1.119649
  F      -2.982812     -2.624467      1.140005
  F      -1.278051     -3.902127      0.581776
  F      -2.887994     -0.645669     -0.752123
  F      -1.993812     -2.473251     -1.588536
  F      -1.702704     -1.785291      3.364934
  F      -1.903588     -3.957499      3.159465
  F      -1.687620     -0.075248     -3.002761
  F      -0.436657      0.676910     -1.385562
  F       0.140280     -1.123117     -2.476196
  O       0.968473     -1.963220      2.974785
  O       0.725037     -4.208497      3.121897
  C      -1.011542     -1.556663      0.392517
  C      -1.628064     -2.744644      1.198854
  C      -1.726098     -1.295411     -0.979159
  C      -1.213240     -2.871000      2.697830
  C      -0.893322     -0.431137     -1.983994
  C       0.329025     -3.036166      2.959710
74
Coordinates from ORCA-job R4N+PFHxA-_r2 E -2389.493439909194
  N       1.038815     -7.875241      0.992896
  C       3.015683     -3.616985     -3.710185
  C       4.489574     -3.202362     -3.856196
  C       5.139214     -2.632317     -2.583826
  C       2.802551     -4.517301     -2.514538
  C       2.498143     -4.252417     -5.010570
  C       2.268892     -6.958041      1.006399
  C       2.438993     -6.126167     -0.227878
  C       4.334618     -1.521859     -1.939631
  C       2.014275     -4.083936     -1.448185
  C       3.408231     -5.775361     -2.421778
  C       6.564602     -2.154305     -2.891220
  C       0.998042     -8.593318      2.311349
  C       1.140367     -8.882251     -0.111658
  C      -0.222866     -7.081283      0.832532
  C       1.842523     -4.866748     -0.313902
  C       3.226925     -6.570433     -1.295503
  C       1.002723     -4.551681     -4.974270
  C       4.051850     -1.561564     -0.571247
  C       3.870328     -0.429446     -2.680660
  C       3.319653     -0.547806      0.043231
  C       3.138540      0.586802     -2.070950
  C       2.857156      0.530632     -0.706532
  H       2.425726     -2.706272     -3.532161
  H       4.559539     -2.464356     -4.667029
  H       5.080054     -4.072411     -4.175606
  H       5.206468     -3.445260     -1.847880
  H       3.061342     -5.173471     -5.213936
  H       2.717349     -3.563178     -5.836936
  H       3.124302     -7.622306      1.157696
  H       2.140598     -6.324479      1.888446
  H       1.551089     -3.104187     -1.500304
  H       4.038851     -6.134242     -3.231771
  H       7.161275     -2.968623     -3.318429
  H       7.066136     -1.801175     -1.983673
  H       6.548593     -1.329048     -3.612954
  H       1.921615     -9.163965      2.426899
  H       0.136070     -9.263001      2.314187
  H       0.904984     -7.853799      3.109593
  H       0.279505     -9.550583     -0.045844
  H       2.067590     -9.446059      0.011023
  H       1.135355     -8.361714     -1.070520
  H      -0.244584     -6.635886     -0.162897
  H      -0.248148     -6.302656      1.598103
  H      -1.068463     -7.761757      0.952453
  H       1.254703     -4.491677      0.519537
  H       3.712820     -7.541533     -1.235711
  H       0.656038     -4.951108     -5.933368
  H       0.426761     -3.642796     -4.760469
  H       0.761334     -5.288398     -4.199512
  H       4.398206     -2.408800      0.017385
  H       4.075687     -0.373461     -3.747417
  H       3.100809     -0.611314      1.106266
  H       2.780085      1.423322     -2.665561
  H       2.277333      1.318704     -0.233911
  F       0.291738     -1.818149      0.161575
  F      -1.113455     -0.428370      1.128360
  F      -2.983819     -2.652768      1.120975
  F      -1.259071     -3.909949      0.576645
  F      -2.889374     -0.663871     -0.763976
  F      -1.968829     -2.480412     -1.596470
  F      -1.740995     -1.811492      3.363219
  F      -1.902260     -3.986339      3.145578
  F      -1.669038     -0.064843     -2.994897
  F      -0.433561      0.677902     -1.361140
  F       0.157713     -1.111539     -2.461734
  O       0.935973     -1.942079      3.002087
  O       0.729316     -4.192415      3.126970
  C      -1.016372     -1.561081      0.397782
  C      -1.628547     -2.758814      1.193737
  C      -1.719228     -1.302068     -0.980645
  C      -1.226836     -2.885081      2.695833
  C      -0.882370     -0.426454     -1.972485
  C       0.314953     -3.025708      2.971098
74
Coordinates from ORCA-job R4N+PFHxA-_r2 E -2389.493493090218
  N       1.043494     -7.876898      0.993734
  C       3.012501     -3.617438     -3.709769
  C       4.487144     -3.205676     -3.857379
  C       5.138094     -2.635466     -2.585857
  C       2.800533     -4.518485     -2.514652
  C       2.490680     -4.250087     -5.009887
  C       2.274517     -6.959803      1.007035
  C       2.443324     -6.126845     -0.226314
  C       4.337728     -1.519659     -1.945617
  C       2.016424     -4.084154     -1.445449
  C       3.404768     -5.777317     -2.424079
  C       6.566053     -2.164560     -2.893004
  C       1.004272     -8.598207      2.309272
  C       1.143276     -8.880904     -0.113109
  C      -0.218284     -7.082794      0.835377
  C       1.849516     -4.866009     -0.309547
  C       3.226241     -6.572250     -1.297360
  C       0.994520     -4.545381     -4.969711
  C       4.047959     -1.556361     -0.578669
  C       3.884861     -0.424493     -2.690001
  C       3.320222     -0.536723      0.031823
  C       3.158158      0.597744     -2.084370
  C       2.869745      0.544549     -0.721057
  H       2.424943     -2.705503     -3.529734
  H       4.558277     -2.468304     -4.668709
  H       5.075355     -4.077517     -4.176196
  H       5.201300     -3.446693     -1.847618
  H       3.050891     -5.172535     -5.215178
  H       2.709698     -3.559988     -5.835562
  H       3.129212     -7.625597      1.156034
  H       2.150455     -6.326570      1.890017
  H       1.555466     -3.103383     -1.496426
  H       4.032311     -6.136873     -3.236224
  H       7.159272     -2.982576     -3.318063
  H       7.068453     -1.812143     -1.985620
  H       6.554637     -1.340714     -3.616472
  H       1.927359     -9.170260      2.422452
  H       0.142232     -9.268015      2.312099
  H       0.912469     -7.862933      3.111595
  H       0.281466     -9.548373     -0.049808
  H       2.069214     -9.447426      0.006997
  H       1.138764     -8.359458     -1.071497
  H      -0.234572     -6.627511     -0.155788
  H      -0.248173     -6.309299      1.606072
  H      -1.064060     -7.764371      0.946718
  H       1.265349     -4.486870      0.524843
  H       3.710216     -7.544420     -1.238941
  H       0.644604     -4.945773     -5.927309
  H       0.421237     -3.634662     -4.756312
  H       0.752979     -5.280386     -4.193244
  H       4.385593     -2.405718      0.012003
  H       4.095923     -0.370736     -3.755774
  H       3.097208     -0.596828      1.094345
  H       2.808701      1.436714     -2.680903
  H       2.294683      1.339319     -0.253929
  F       0.286825     -1.812799      0.182755
  F      -1.138808     -0.433520      1.136082
  F      -2.993258     -2.668190      1.109074
  F      -1.256052     -3.914792      0.578083
  F      -2.890793     -0.675891     -0.775372
  F      -1.951769     -2.486829     -1.600249
  F      -1.782763     -1.827921      3.363683
  F      -1.910291     -4.004845      3.139680
  F      -1.649287     -0.057547     -2.987505
  F      -0.426193      0.673780     -1.339077
  F       0.172006     -1.109566     -2.446554
  O       0.897352     -1.918774      3.031456
  O       0.724258     -4.173843      3.129675
  C      -1.025383     -1.564533      0.405084
  C      -1.638147     -2.767243      1.193756
  C      -1.715316     -1.307891     -0.980545
  C      -1.247638     -2.891846      2.698058
  C      -0.871444     -0.426085     -1.961186
  C       0.293285     -3.011454      2.983715
74
Coordinates from ORCA-job R4N+PFHxA-_r2 E -2389.493531453349
  N       1.047507     -7.879860      0.994564
  C       3.008429     -3.615813     -3.707029
  C       4.483648     -3.207416     -3.857275
  C       5.136607     -2.637125     -2.586852
  C       2.798350     -4.518708     -2.513012
  C       2.480359     -4.244011     -5.006750
  C       2.279920     -6.964158      1.007063
  C       2.446802     -6.129393     -0.225222
  C       4.340836     -1.515822     -1.950372
  C       2.018740     -4.084633     -1.440404
  C       3.400537     -5.778853     -2.426439
  C       6.567068     -2.173871     -2.894119
  C       1.008874     -8.601621      2.309449
  C       1.144934     -8.882911     -0.113296
  C      -0.213781     -7.084814      0.837177
  C       1.856026     -4.866899     -0.304151
  C       3.224447     -6.574942     -1.300165
  C       0.982961     -4.532567     -4.961658
  C       4.045526     -1.549188     -0.584576
  C       3.898410     -0.418314     -2.697729
  C       3.322469     -0.523965      0.022346
  C       3.176728      0.609554     -2.095826
  C       2.882735      0.559740     -0.733429
  H       2.423806     -2.702697     -3.523302
  H       4.555487     -2.470996     -4.669407
  H       5.069710     -4.080847     -4.175725
  H       5.195552     -3.446640     -1.846363
  H       3.035798     -5.168630     -5.215252
  H       2.699598     -3.553350     -5.831868
  H       3.133487     -7.632041      1.153236
  H       2.160301     -6.331726      1.891138
  H       1.559826     -3.102574     -1.489237
  H       4.024588     -6.138468     -3.241258
  H       7.156661     -2.995963     -3.316359
  H       7.070426     -1.821392     -1.987296
  H       6.560273     -1.352148     -3.620068
  H       1.931640     -9.174346      2.422083
  H       0.146538     -9.271128      2.313000
  H       0.917972     -7.866763      3.112307
  H       0.280900     -9.547627     -0.051106
  H       2.068906     -9.452675      0.006502
  H       1.142199     -8.360754     -1.071294
  H      -0.225003     -6.622509     -0.150806
  H      -0.247018     -6.316305      1.612540
  H      -1.060069     -7.766907      0.940791
  H       1.275513     -4.484757      0.531296
  H       3.706104     -7.548432     -1.244585
  H       0.627647     -4.931120     -5.918043
  H       0.414734     -3.619222     -4.745786
  H       0.740849     -5.266702     -4.184544
  H       4.375549     -2.400140      0.008100
  H       4.114266     -0.367022     -3.762655
  H       3.096405     -0.580070      1.084511
  H       2.835592      1.450689     -2.694108
  H       2.311841      1.360167     -0.270810
  F       0.284178     -1.809413      0.199652
  F      -1.161299     -0.440193      1.138277
  F      -2.999471     -2.685109      1.095639
  F      -1.250558     -3.921516      0.578351
  F      -2.889913     -0.691161     -0.791017
  F      -1.934474     -2.497738     -1.606302
  F      -1.817214     -1.841531      3.360487
  F      -1.917874     -4.019527      3.134268
  F      -1.629357     -0.059865     -2.986815
  F      -0.418344      0.665211     -1.326621
  F       0.187995     -1.113990     -2.436026
  O       0.863594     -1.898273      3.053502
  O       0.722485     -4.156543      3.133677
  C      -1.032190     -1.570044      0.408044
  C      -1.644538     -2.776538      1.191116
  C      -1.709567     -1.317684     -0.984478
  C      -1.264462     -2.898487      2.698320
  C      -0.859258     -0.432088     -1.956228
  C       0.275844     -2.999230      2.994114
74
Coordinates from ORCA-job R4N+PFHxA-_r2 E -2389.493569443252
  N       1.052391     -7.881849      0.996375
  C       3.005839     -3.612872     -3.703888
  C       4.481822     -3.209892     -3.858305
  C       5.138038     -2.639543     -2.589513
  C       2.797382     -4.518317     -2.511559
  C       2.468079     -4.234380     -5.002621
  C       2.285889     -6.967601      1.006801
  C       2.450198     -6.131557     -0.224912
  C       4.346897     -1.512771     -1.956687
  C       2.021786     -4.085090     -1.435990
  C       3.397271     -5.779887     -2.429148
  C       6.570740     -2.184359     -2.897997
  C       1.014921     -8.602232      2.312251
  C       1.147104     -8.885266     -0.111763
  C      -0.208949     -7.086471      0.840235
  C       1.862203     -4.867811     -0.299712
  C       3.222994     -6.577142     -1.303410
  C       0.968612     -4.511201     -4.950186
  C       4.044057     -1.544013     -0.592484
  C       3.915851     -0.412409     -2.706533
  C       3.324494     -0.514004      0.010578
  C       3.198047      0.620338     -2.108596
  C       2.896520      0.572687     -0.747717
  H       2.425945     -2.697846     -3.514673
  H       4.554326     -2.474910     -4.671676
  H       5.065069     -4.085319     -4.176448
  H       5.192875     -3.447272     -1.846770
  H       3.015483     -5.162746     -5.215699
  H       2.688310     -3.543815     -5.827528
  H       3.138523     -7.637248      1.150253
  H       2.170141     -6.335768      1.891775
  H       1.564785     -3.102158     -1.483023
  H       4.018260     -6.139461     -3.246290
  H       7.156355     -3.010858     -3.317091
  H       7.075594     -1.831093     -1.992352
  H       6.568194     -1.365447     -3.627126
  H       1.937843     -9.174681      2.424854
  H       0.152429     -9.271509      2.317521
  H       0.924970     -7.865062      3.113160
  H       0.280904     -9.547016     -0.048651
  H       2.069511     -9.457392      0.008315
  H       1.145353     -8.362364     -1.069309
  H      -0.216038     -6.618122     -0.144903
  H      -0.245917     -6.324162      1.621354
  H      -1.054909     -7.770135      0.935887
  H       1.285149     -4.482729      0.536647
  H       3.702420     -7.551879     -1.250669
  H       0.604176     -4.903676     -5.905594
  H       0.409519     -3.593734     -4.727535
  H       0.725182     -5.245613     -4.173764
  H       4.365678     -2.396871      0.002037
  H       4.137988     -0.362850     -3.770231
  H       3.093075     -0.566651      1.071876
  H       2.866079      1.464097     -2.708304
  H       2.328398      1.377209     -0.288831
  F       0.279678     -1.808502      0.219643
  F      -1.186667     -0.448835      1.140113
  F      -3.008610     -2.703176      1.081205
  F      -1.248890     -3.929553      0.577030
  F      -2.888613     -0.707807     -0.808504
  F      -1.917526     -2.510612     -1.612768
  F      -1.857444     -1.858384      3.356354
  F      -1.929009     -4.036995      3.127125
  F      -1.607211     -0.065981     -2.986962
  F      -0.410252      0.654234     -1.314498
  F       0.205391     -1.121546     -2.424038
  O       0.823616     -1.879470      3.081741
  O       0.717440     -4.141019      3.134412
  C      -1.041255     -1.577539      0.411282
  C      -1.653991     -2.787465      1.187646
  C      -1.703677     -1.329556     -0.988868
  C      -1.285364     -2.907651      2.698000
  C      -0.845661     -0.441075     -1.951177
  C       0.253980     -2.988756      3.005723
74
Coordinates from ORCA-job R4N+PFHxA-_r2 E -2389.493596294590
  N       1.054209     -7.883260      0.998611
  C       3.003166     -3.609184     -3.699071
  C       4.479532     -3.210843     -3.858857
  C       5.139571     -2.639110     -2.592531
  C       2.796923     -4.516845     -2.507943
  C       2.455770     -4.225246     -4.996143
  C       2.289738     -6.972157      1.007101
  C       2.452259     -6.134324     -0.223725
  C       4.352685     -1.507204     -1.963488
  C       2.026529     -4.084029     -1.428701
  C       3.392996     -5.780661     -2.430589
  C       6.573806     -2.190979     -2.903586
  C       1.018196     -8.604389      2.314765
  C       1.143602     -8.885890     -0.111216
  C      -0.205996     -7.084999      0.846664
  C       1.868328     -4.868599     -0.293650
  C       3.219828     -6.579846     -1.305966
  C       0.954714     -4.492369     -4.935932
  C       4.043086     -1.536134     -0.600767
  C       3.931953     -0.404548     -2.715713
  C       3.326740     -0.501672     -0.001609
  C       3.217741      0.632813     -2.121707
  C       2.909466      0.587626     -0.762319
  H       2.427589     -2.692549     -3.504568
  H       4.551681     -2.477870     -4.674070
  H       5.060404     -4.088006     -4.176519
  H       5.191337     -3.444617     -1.847169
  H       2.996191     -5.156683     -5.213635
  H       2.675765     -3.535101     -5.821453
  H       3.141132     -7.643998      1.147485
  H       2.177342     -6.341572      1.893326
  H       1.572090     -3.099574     -1.472159
  H       4.009927     -6.140554     -3.250618
  H       7.155947     -3.021684     -3.319090
  H       7.080391     -1.835496     -1.999816
  H       6.574198     -1.375560     -3.636589
  H       1.940463     -9.178284      2.424953
  H       0.154268     -9.271696      2.321406
  H       0.931648     -7.865633      3.114594
  H       0.275564     -9.544898     -0.045808
  H       2.064921     -9.460138      0.006591
  H       1.140760     -8.360690     -1.067455
  H      -0.211824     -6.611529     -0.135934
  H      -0.242738     -6.329158      1.633893
  H      -1.052489     -7.768795      0.937090
  H       1.295475     -4.481300      0.544254
  H       3.696150     -7.556297     -1.257287
  H       0.581289     -4.877650     -5.890717
  H       0.403912     -3.571886     -4.704911
  H       0.711236     -5.228307     -4.161034
  H       4.356995     -2.390390     -0.004195
  H       4.159690     -0.356936     -3.778298
  H       3.090050     -0.551236      1.058644
  H       2.894254      1.478683     -2.723044
  H       2.344029      1.395509     -0.305979
  F       0.278434     -1.806795      0.237859
  F      -1.211010     -0.460281      1.139954
  F      -3.012698     -2.727571      1.062337
  F      -1.239752     -3.940338      0.572909
  F      -2.884635     -0.728884     -0.828624
  F      -1.895110     -2.526039     -1.621923
  F      -1.895355     -1.880274      3.349757
  F      -1.935619     -4.059058      3.116248
  F      -1.582826     -0.075141     -2.989287
  F      -0.402174      0.643170     -1.304454
  F       0.227164     -1.127950     -2.412823
  O       0.785796     -1.863719      3.109539
  O       0.715898     -4.127214      3.136025
  C      -1.047308     -1.587159      0.412426
  C      -1.658422     -2.801984      1.181111
  C      -1.694248     -1.344024     -0.995476
  C      -1.302635     -2.920879      2.695391
  C      -0.829457     -0.451323     -1.947815
  C       0.235257     -2.981205      3.017219
74
Coordinates from ORCA-job R4N+PFHxA-_r2 E -2389.493616023468
  N       1.055340     -7.882736      1.000094
  C       3.004411     -3.606823     -3.697078
  C       4.480741     -3.211489     -3.862097
  C       5.144847     -2.638463     -2.598219
  C       2.799369     -4.515158     -2.506151
  C       2.449426     -4.220340     -4.991954
  C       2.290802     -6.972289      1.007537
  C       2.452991     -6.134349     -0.223397
  C       4.359309     -1.505555     -1.969136
  C       2.029437     -4.082972     -1.426578
  C       3.394466     -5.779497     -2.429867
  C       6.578362     -2.191626     -2.913753
  C       1.020094     -8.603787      2.317065
  C       1.143547     -8.885696     -0.110053
  C      -0.204905     -7.084347      0.849975
  C       1.869454     -4.868565     -0.292516
  C       3.220603     -6.579340     -1.305756
  C       0.947292     -4.480394     -4.925205
  C       4.045379     -1.536194     -0.607378
  C       3.942972     -0.400852     -2.720712
  C       3.329043     -0.501325     -0.009036
  C       3.228768      0.636903     -2.127424
  C       2.916378      0.590070     -0.769186
  H       2.432007     -2.688942     -3.499372
  H       4.551369     -2.479715     -4.678538
  H       5.060071     -4.089479     -4.180249
  H       5.197768     -3.443095     -1.852020
  H       2.984709     -5.154203     -5.211764
  H       2.668825     -3.531540     -5.818547
  H       3.142203     -7.644166      1.147592
  H       2.177976     -6.341731      1.893801
  H       1.575546     -3.098579     -1.469313
  H       4.011047     -6.139365     -3.250140
  H       7.159133     -3.023492     -3.328770
  H       7.087287     -1.834186     -2.012099
  H       6.577284     -1.377957     -3.648657
  H       1.942744     -9.177127      2.426531
  H       0.156139     -9.270941      2.323809
  H       0.934073     -7.863414      3.115417
  H       0.275858     -9.544851     -0.042611
  H       2.065542     -9.458922      0.007064
  H       1.139128     -8.359419     -1.065667
  H      -0.211419     -6.609124     -0.131659
  H      -0.242713     -6.332632      1.641173
  H      -1.050474     -7.769753      0.937829
  H       1.296954     -4.481506      0.545810
  H       3.696592     -7.555990     -1.258069
  H       0.566601     -4.858804     -5.879790
  H       0.402989     -3.557993     -4.686178
  H       0.704246     -5.218445     -4.152246
  H       4.355761     -2.391795     -0.010947
  H       4.174057     -0.352249     -3.782523
  H       3.087989     -0.551065      1.050208
  H       2.908965      1.484456     -2.728345
  H       2.351235      1.397171     -0.311318
  F       0.275229     -1.812108      0.251424
  F      -1.221921     -0.466230      1.140621
  F      -3.020554     -2.733333      1.054511
  F      -1.246090     -3.945927      0.571907
  F      -2.881008     -0.736012     -0.837818
  F      -1.887054     -2.533134     -1.624989
  F      -1.919890     -1.888549      3.345790
  F      -1.947639     -4.067556      3.112339
  F      -1.568140     -0.082194     -2.990247
  F      -0.396237      0.636397     -1.299778
  F       0.238692     -1.135000     -2.405014
  O       0.762294     -1.861388      3.133357
  O       0.706051     -4.125673      3.131967
  C      -1.052186     -1.593189      0.414858
  C      -1.666749     -2.808044      1.179253
  C      -1.689546     -1.351107     -0.997476
  C      -1.318062     -2.926544      2.695193
  C      -0.819615     -0.458412     -1.945027
  C       0.218596     -2.980721      3.025426
74
Coordinates from ORCA-job R4N+PFHxA-_r2 E -2389.493636190235
  N       1.051977     -7.882946      1.001658
  C       3.002629     -3.603460     -3.691171
  C       4.478517     -3.209876     -3.862687
  C       5.147031     -2.633618     -2.602475
  C       2.800329     -4.512151     -2.499827
  C       2.441055     -4.216412     -4.983463
  C       2.289907     -6.976333      1.009297
  C       2.452827     -6.136187     -0.220239
  C       4.363843     -1.497980     -1.975474
  C       2.034845     -4.079600     -1.417152
  C       3.391611     -5.778552     -2.427371
  C       6.580057     -2.189394     -2.923435
  C       1.018098     -8.609827      2.315985
  C       1.133842     -8.881973     -0.112742
  C      -0.205886     -7.079457      0.858765
  C       1.873087     -4.868305     -0.285642
  C       3.217504     -6.580647     -1.304764
  C       0.938926     -4.475363     -4.909957
  C       4.045898     -1.527571     -0.614706
  C       3.953202     -0.391976     -2.728184
  C       3.331549     -0.490121     -0.018666
  C       3.241175      0.648557     -2.137087
  C       2.925097      0.603070     -0.779775
  H       2.432477     -2.684804     -3.490821
  H       4.546723     -2.480063     -4.681107
  H       5.056413     -4.088860     -4.180673
  H       5.200699     -3.436031     -1.853939
  H       2.974477     -5.150757     -5.205746
  H       2.657033     -3.528026     -5.811307
  H       3.140233     -7.650049      1.146951
  H       2.178770     -6.347209      1.896752
  H       1.583511     -3.093617     -1.455158
  H       4.004824     -6.138879     -3.249957
  H       7.159062     -3.023499     -3.336371
  H       7.091506     -1.828534     -2.024574
  H       6.577906     -1.378755     -3.661643
  H       1.939173     -9.186717      2.419635
  H       0.151772     -9.273820      2.321827
  H       0.937238     -7.872428      3.117546
  H       0.265835     -9.540495     -0.043892
  H       2.055803     -9.456454     -0.001706
  H       1.126068     -8.351601     -1.066069
  H      -0.215010     -6.600123     -0.120751
  H      -0.239010     -6.332756      1.654876
  H      -1.053225     -7.762920      0.945909
  H       1.303641     -4.481274      0.554520
  H       3.690944     -7.558713     -1.260929
  H       0.552943     -4.849369     -5.864109
  H       0.397160     -3.553222     -4.664286
  H       0.699046     -5.215879     -4.138411
  H       4.351535     -2.383996     -0.017068
  H       4.187280     -0.344430     -3.789397
  H       3.086687     -0.539183      1.039557
  H       2.926457      1.497204     -2.739148
  H       2.362702      1.411909     -0.321451
  F       0.278391     -1.812218      0.264566
  F      -1.237090     -0.477459      1.138331
  F      -3.019056     -2.755304      1.036741
  F      -1.234072     -3.957320      0.567858
  F      -2.873803     -0.756389     -0.855490
  F      -1.862519     -2.547330     -1.634228
  F      -1.945134     -1.907166      3.337836
  F      -1.949378     -4.086261      3.102876
  F      -1.545821     -0.092508     -2.994328
  F      -0.389392      0.628944     -1.294507
  F       0.261123     -1.138356     -2.396239
  O       0.737399     -1.854654      3.156690
  O       0.705766     -4.118681      3.131661
  C      -1.052345     -1.602955      0.414161
  C      -1.665764     -2.822126      1.172361
  C      -1.677371     -1.364634     -1.004407
  C      -1.328042     -2.938940      2.691630
  C      -0.803569     -0.466972     -1.943775
  C       0.206670     -2.978602      3.034200
74
Coordinates from ORCA-job R4N+PFHxA-_r2 E -2389.493659690032
  N       1.048992     -7.882878      1.002010
  C       3.002837     -3.600881     -3.686654
  C       4.477910     -3.208077     -3.865607
  C       5.151710     -2.628555     -2.609578
  C       2.803367     -4.508569     -2.493969
  C       2.435385     -4.215644     -4.975645
  C       2.287479     -6.977544      1.011497
  C       2.452404     -6.135738     -0.216864
  C       4.369042     -1.493028     -1.981691
  C       2.038727     -4.076044     -1.410587
  C       3.393607     -5.775389     -2.422405
  C       6.582493     -2.182977     -2.938249
  C       1.015939     -8.616030      2.313023
  C       1.128450     -8.877699     -0.116256
  C      -0.207463     -7.076983      0.864465
  C       1.873309     -4.867269     -0.281343
  C       3.218365     -6.578885     -1.300889
  C       0.933892     -4.476618     -4.895110
  C       4.048591     -1.524588     -0.621597
  C       3.960318     -0.385543     -2.733341
  C       3.334628     -0.486996     -0.025423
  C       3.248878      0.655318     -2.141840
  C       2.931110      0.608212     -0.785071
  H       2.434313     -2.681546     -3.485104
  H       4.542433     -2.479565     -4.685521
  H       5.054392     -4.087699     -4.184392
  H       5.209672     -3.429549     -1.859840
  H       2.968862     -5.149627     -5.199345
  H       2.646582     -3.527827     -5.805202
  H       3.137715     -7.651497      1.148540
  H       2.175814     -6.348798      1.899299
  H       1.588526     -3.089724     -1.446038
  H       4.006424     -6.135568     -3.245380
  H       7.160858     -3.017222     -3.351805
  H       7.097584     -1.819108     -2.042654
  H       6.575831     -1.374023     -3.678253
  H       1.936250     -9.194951      2.411978
  H       0.148566     -9.278653      2.316513
  H       0.937571     -7.883162      3.118897
  H       0.261588     -9.537769     -0.047866
  H       2.051331     -9.451677     -0.010245
  H       1.117754     -8.344054     -1.067741
  H      -0.219466     -6.594257     -0.113302
  H      -0.237968     -6.333838      1.664225
  H      -1.055680     -7.759550      0.951190
  H       1.303480     -4.482430      0.559837
  H       3.691705     -7.557073     -1.258508
  H       0.543887     -4.848606     -5.848415
  H       0.392260     -3.555695     -4.644562
  H       0.698528     -5.219196     -4.124145
  H       4.351997     -2.382212     -0.024588
  H       4.195747     -0.336849     -3.794227
  H       3.086766     -0.537854      1.031924
  H       2.936444      1.505124     -2.743468
  H       2.370854      1.416660     -0.323537
  F       0.279740     -1.819661      0.277562
  F      -1.242907     -0.483789      1.136113
  F      -3.023315     -2.760425      1.027050
  F      -1.237634     -3.964828      0.568327
  F      -2.865235     -0.767350     -0.867902
  F      -1.845081     -2.556519     -1.639343
  F      -1.964529     -1.912023      3.331291
  F      -1.959747     -4.091825      3.100724
  F      -1.525330     -0.101877     -2.997974
  F      -0.380878      0.623715     -1.292249
  F       0.279852     -1.143885     -2.387851
  O       0.719092     -1.855738      3.181565
  O       0.695907     -4.119039      3.125446
  C      -1.051948     -1.610236      0.415052
  C      -1.670871     -2.828809      1.169866
  C      -1.666646     -1.373446     -1.008560
  C      -1.340687     -2.943007      2.690667
  C      -0.788785     -0.473987     -1.942444
  C       0.192199     -2.979478      3.041409
74
Coordinates from ORCA-job R4N+PFHxA-_r2 E -2389.493681782213
  N       1.046180     -7.883763      1.002134
  C       3.000529     -3.598738     -3.681338
  C       4.475002     -3.206512     -3.866347
  C       5.152911     -2.623871     -2.614008
  C       2.804148     -4.505721     -2.487671
  C       2.428803     -4.214992     -4.967959
  C       2.286324     -6.980452      1.013760
  C       2.452641     -6.136012     -0.212630
  C       4.372023     -1.486462     -1.987291
  C       2.042451     -4.072815     -1.402214
  C       3.392547     -5.773406     -2.418290
  C       6.582851     -2.179856     -2.948340
  C       1.014843     -8.624944      2.308195
  C       1.121185     -8.872176     -0.121648
  C      -0.208645     -7.074335      0.871864
  C       1.875814     -4.866220     -0.274646
  C       3.217389     -6.578401     -1.297808
  C       0.928524     -4.480908     -4.881585
  C       4.048015     -1.517867     -0.628148
  C       3.968060     -0.377414     -2.739411
  C       3.335772     -0.478352     -0.033196
  C       3.258738      0.665638     -2.148968
  C       2.937772      0.618872     -0.792848
  H       2.433159     -2.678948     -3.478876
  H       4.536744     -2.479406     -4.687749
  H       5.049885     -4.087141     -4.185253
  H       5.212793     -3.422782     -1.862176
  H       2.964183     -5.147380     -5.193767
  H       2.634653     -3.526175     -5.798021
  H       3.135787     -7.655863      1.148495
  H       2.176908     -6.352808      1.902767
  H       1.594433     -3.085391     -1.434188
  H       4.003466     -6.133598     -3.242709
  H       7.159592     -3.015588     -3.361198
  H       7.100939     -1.813659     -2.055385
  H       6.574484     -1.372974     -3.690588
  H       1.933434     -9.207716      2.400561
  H       0.145447     -9.284989      2.310271
  H       0.941231     -7.898506      3.120305
  H       0.254362     -9.532523     -0.054746
  H       2.043869     -9.447769     -0.022703
  H       1.107703     -8.334325     -1.070738
  H      -0.222342     -6.585551     -0.102933
  H      -0.235177     -6.335118      1.675465
  H      -1.058903     -7.754562      0.957084
  H       1.307207     -4.482150      0.567828
  H       3.689467     -7.557304     -1.257585
  H       0.536799     -4.855080     -5.833390
  H       0.384110     -3.561850     -4.630286
  H       0.698215     -5.223944     -4.109453
  H       4.347364     -2.376737     -0.030908
  H       4.205810     -0.328884     -3.799806
  H       3.084981     -0.530294      1.023391
  H       2.950678      1.516612     -2.751207
  H       2.380570      1.429488     -0.331208
  F       0.282486     -1.822513      0.290231
  F      -1.252917     -0.491148      1.133348
  F      -3.024283     -2.772327      1.014999
  F      -1.233132     -3.973005      0.568171
  F      -2.857591     -0.784270     -0.883341
  F      -1.820474     -2.567254     -1.646865
  F      -1.984407     -1.921181      3.324663
  F      -1.964158     -4.101269      3.096709
  F      -1.503089     -0.107817     -3.000415
  F      -0.373925      0.619600     -1.285344
  F       0.301279     -1.144182     -2.377828
  O       0.698547     -1.850482      3.205217
  O       0.691847     -4.112909      3.120018
  C      -1.051087     -1.617613      0.415018
  C      -1.672772     -2.837642      1.166132
  C      -1.654476     -1.383550     -1.014098
  C      -1.350577     -2.948505      2.688674
  C      -0.773493     -0.478588     -1.939831
  C       0.180280     -2.976131      3.047525
74
Coordinates from ORCA-job R4N+PFHxA-_r2 E -2389.493717730663
  N       1.041298     -7.889491      1.001692
  C       2.992057     -3.592999     -3.667686
  C       4.465170     -3.201643     -3.864911
  C       5.151451     -2.613500     -2.619801
  C       2.803024     -4.500391     -2.473200
  C       2.410504     -4.209854     -4.950107
  C       2.285484     -6.990905      1.017695
  C       2.453443     -6.139473     -0.203717
  C       4.375700     -1.471102     -1.995513
  C       2.047715     -4.068623     -1.382534
  C       3.388453     -5.769673     -2.410311
  C       6.580351     -2.174446     -2.964809
  C       1.012362     -8.645251      2.298328
  C       1.107314     -8.865389     -0.132585
  C      -0.209705     -7.072739      0.884583
  C       1.881171     -4.866977     -0.258441
  C       3.214681     -6.578922     -1.292622
  C       0.912651     -4.484134     -4.851299
  C       4.047577     -1.499806     -0.637509
  C       3.980836     -0.359546     -2.749146
  C       3.340854     -0.455137     -0.044739
  C       3.277673      0.688996     -2.160656
  C       2.952789      0.644988     -0.805133
  H       2.427100     -2.672633     -3.461675
  H       4.521237     -2.477068     -4.689008
  H       5.036876     -4.084081     -4.184512
  H       5.214087     -3.408139     -1.863627
  H       2.948658     -5.139129     -5.182123
  H       2.605793     -3.517849     -5.780050
  H       3.132472     -7.670675      1.146119
  H       2.182539     -6.367010      1.910306
  H       1.603786     -3.079074     -1.407266
  H       3.995040     -6.128607     -3.238533
  H       7.152857     -3.013864     -3.376156
  H       7.104663     -1.804460     -2.077006
  H       6.569897     -1.371760     -3.711581
  H       1.927470     -9.235223      2.379371
  H       0.139080     -9.300314      2.298053
  H       0.947277     -7.930419      3.121385
  H       0.238300     -9.523450     -0.070074
  H       2.027628     -9.446720     -0.045554
  H       1.091580     -8.319222     -1.076888
  H      -0.223992     -6.572494     -0.084464
  H      -0.228411     -6.340293      1.694535
  H      -1.064601     -7.747480      0.966000
  H       1.314532     -4.485015      0.586482
  H       3.684069     -7.559349     -1.257897
  H       0.516604     -4.863129     -5.799538
  H       0.363534     -3.568232     -4.598840
  H       0.692176     -5.227429     -4.076457
  H       4.339810     -2.360484     -0.039390
  H       4.221273     -0.312818     -3.809043
  H       3.087489     -0.507372      1.011113
  H       2.977575      1.541667     -2.764511
  H       2.402224      1.460958     -0.344633
  F       0.290678     -1.829963      0.310726
  F      -1.269085     -0.504098      1.117871
  F      -3.023099     -2.792294      0.990125
  F      -1.223569     -3.989250      0.569401
  F      -2.839421     -0.830444     -0.925562
  F      -1.757908     -2.597831     -1.665287
  F      -2.015781     -1.928779      3.306981
  F      -1.972671     -4.109702      3.091682
  F      -1.456864     -0.127756     -3.012997
  F      -0.359617      0.607480     -1.280737
  F       0.347731     -1.148745     -2.364559
  O       0.664412     -1.838096      3.243822
  O       0.686702     -4.097652      3.111196
  C      -1.045854     -1.632931      0.408932
  C      -1.673713     -2.852656      1.156796
  C      -1.624566     -1.410346     -1.032087
  C      -1.365995     -2.952811      2.683089
  C      -0.740228     -0.493025     -1.942349
  C       0.161161     -2.966323      3.056726
74
Coordinates from ORCA-job R4N+PFHxA-_r2 E -2389.493748650659
  N       1.042410     -7.893554      1.001524
  C       2.988938     -3.591294     -3.661946
  C       4.461746     -3.201967     -3.864894
  C       5.151722     -2.611149     -2.623195
  C       2.803214     -4.499151     -2.467483
  C       2.401058     -4.206612     -4.942352
  C       2.287707     -6.995924      1.019127
  C       2.455707     -6.141203     -0.199869
  C       4.379116     -1.464941     -2.001813
  C       2.050738     -4.068050     -1.374713
  C       3.387597     -5.769056     -2.407538
  C       6.580993     -2.176688     -2.972326
  C       1.016645     -8.655908      2.293857
  C       1.103629     -8.862900     -0.138264
  C      -0.207841     -7.074558      0.892368
  C       1.885427     -4.867786     -0.251114
  C       3.214918     -6.579633     -1.290753
  C       0.903720     -4.480438     -4.836906
  C       4.048297     -1.490394     -0.644407
  C       3.989646     -0.352939     -2.757782
  C       3.344167     -0.442299     -0.054346
  C       3.289446      0.699060     -2.171938
  C       2.961703      0.658207     -0.816863
  H       2.426353     -2.670105     -3.453506
  H       4.515937     -2.479315     -4.690818
  H       5.031493     -4.085848     -4.183987
  H       5.214010     -3.403102     -1.864160
  H       2.937964     -5.135731     -5.177876
  H       2.592999     -3.513443     -5.772091
  H       3.133774     -7.677390      1.144687
  H       2.186775     -6.374805      1.913939
  H       1.608971     -3.077370     -1.397470
  H       3.992217     -6.127444     -3.237432
  H       7.150689     -3.018999     -3.381668
  H       7.107980     -1.804859     -2.086885
  H       6.571289     -1.376825     -3.722133
  H       1.930242     -9.249052      2.368603
  H       0.141521     -9.308567      2.294273
  H       0.956784     -7.945594      3.121282
  H       0.233794     -9.520032     -0.076606
  H       2.023173     -9.446379     -0.057962
  H       1.085293     -8.312062     -1.079766
  H      -0.222090     -6.567340     -0.073141
  H      -0.223171     -6.346505      1.706355
  H      -1.063950     -7.747994      0.970649
  H       1.319285     -4.486317      0.594543
  H       3.682917     -7.560787     -1.257954
  H       0.503961     -4.861331     -5.782876
  H       0.355137     -3.564251     -4.584195
  H       0.686172     -5.222665     -4.060144
  H       4.336618     -2.351231     -0.044642
  H       4.232205     -0.308482     -3.817293
  H       3.089288     -0.492620      1.001284
  H       2.993895      1.552033     -2.777590
  H       2.413633      1.477492     -0.359100
  F       0.290884     -1.834633      0.326118
  F      -1.280508     -0.510822      1.114292
  F      -3.028125     -2.801251      0.976201
  F      -1.224419     -3.995938      0.569350
  F      -2.831542     -0.847959     -0.943504
  F      -1.730879     -2.607070     -1.673980
  F      -2.043989     -1.935660      3.298308
  F      -1.984104     -4.116597      3.086503
  F      -1.433146     -0.128325     -3.013357
  F      -0.352292      0.604312     -1.269930
  F       0.369773     -1.145280     -2.354025
  O       0.633454     -1.830528      3.277976
  O       0.676854     -4.087620      3.106303
  C      -1.047263     -1.639913      0.408596
  C      -1.680155     -2.859427      1.152246
  C      -1.611779     -1.419330     -1.038264
  C      -1.382410     -2.955646      2.680706
  C      -0.724154     -0.494814     -1.938399
  C       0.141730     -2.959811      3.066055
74
Coordinates from ORCA-job R4N+PFHxA-_r2 E -2389.493795535259
  N       1.051388     -7.901803      1.001335
  C       2.987486     -3.594320     -3.660768
  C       4.460862     -3.206859     -3.863194
  C       5.150015     -2.615378     -2.621662
  C       2.802358     -4.504188     -2.467714
  C       2.397158     -4.204937     -4.942255
  C       2.295772     -7.002181      1.018382
  C       2.460919     -6.145493     -0.199423
  C       4.380666     -1.463822     -2.005644
  C       2.049629     -4.075564     -1.374682
  C       3.388683     -5.773579     -2.409324
  C       6.582196     -2.188284     -2.968027
  C       1.029661     -8.663742      2.293730
  C       1.110687     -8.868411     -0.140966
  C      -0.200968     -7.084845      0.896484
  C       1.890306     -4.872869     -0.248401
  C       3.218259     -6.583640     -1.292174
  C       0.898506     -4.469664     -4.837172
  C       4.049891     -1.481832     -0.648025
  C       3.994449     -0.353790     -2.766379
  C       3.347613     -0.429847     -0.062203
  C       3.296514      0.701864     -2.184753
  C       2.967594      0.667400     -0.829598
  H       2.426509     -2.672644     -3.450455
  H       4.516467     -2.485925     -4.690474
  H       5.030337     -4.091672     -4.180163
  H       5.207143     -3.404911     -1.859712
  H       2.929224     -5.136424     -5.179399
  H       2.593557     -3.511629     -5.770815
  H       3.141161     -7.684915      1.141788
  H       2.195273     -6.385734      1.916020
  H       1.608209     -3.085320     -1.400411
  H       3.993070     -6.130809     -3.239794
  H       7.149081     -3.034453     -3.373250
  H       7.108491     -1.816278     -2.082360
  H       6.578139     -1.391266     -3.720911
  H       1.942738     -9.257831      2.366781
  H       0.153606     -9.315117      2.299114
  H       0.973661     -7.950573      3.119157
  H       0.239482     -9.523638     -0.078026
  H       2.029506     -9.453151     -0.062680
  H       1.091039     -8.314592     -1.080589
  H      -0.211745     -6.573910     -0.067120
  H      -0.216611     -6.358395      1.711669
  H      -1.055678     -7.760119      0.970791
  H       1.322805     -4.492156      0.596641
  H       3.685680     -7.565012     -1.258643
  H       0.497175     -4.854004     -5.781075
  H       0.354457     -3.549177     -4.590142
  H       0.676300     -5.206611     -4.056824
  H       4.336936     -2.340475     -0.044479
  H       4.237907     -0.314070     -3.825830
  H       3.094883     -0.475281      0.994257
  H       3.003095      1.553523     -2.793251
  H       2.419244      1.489985     -0.378673
  F       0.284908     -1.839424      0.335574
  F      -1.285171     -0.511673      1.120496
  F      -3.039246     -2.797809      0.969824
  F      -1.236616     -3.994744      0.569127
  F      -2.833623     -0.842338     -0.943371
  F      -1.729962     -2.595587     -1.678931
  F      -2.066533     -1.931541      3.292532
  F      -2.002652     -4.112316      3.083564
  F      -1.431581     -0.105609     -3.003559
  F      -0.356394      0.615958     -1.252887
  F       0.371634     -1.123992     -2.349129
  O       0.606419     -1.825918      3.309716
  O       0.662413     -4.080025      3.100002
  C      -1.053718     -1.638810      0.410416
  C      -1.692142     -2.856900      1.149707
  C      -1.612521     -1.410548     -1.036935
  C      -1.400038     -2.950783      2.678906
  C      -0.724201     -0.478790     -1.930151
  C       0.122026     -2.953195      3.072276
74
Coordinates from ORCA-job R4N+PFHxA-_r2 E -2389.493830209592
  N       1.050956     -7.906178      1.002059
  C       2.981421     -3.591776     -3.651285
  C       4.454146     -3.206272     -3.861261
  C       5.147717     -2.610115     -2.624643
  C       2.801016     -4.502823     -2.458304
  C       2.383548     -4.200456     -4.930231
  C       2.299495     -7.012304      1.020230
  C       2.463366     -6.150689     -0.193917
  C       4.383479     -1.451828     -2.015523
  C       2.055930     -4.074561     -1.359644
  C       3.382825     -5.774612     -2.406636
  C       6.581128     -2.191028     -2.975554
  C       1.030340     -8.676882      2.289493
  C       1.100866     -8.865384     -0.147033
  C      -0.198467     -7.081627      0.907464
  C       1.898624     -4.875294     -0.235440
  C       3.214314     -6.587695     -1.291494
  C       0.884938     -4.462793     -4.817797
  C       4.045602     -1.464450     -0.659839
  C       4.009963     -0.340458     -2.780462
  C       3.348975     -0.405849     -0.079399
  C       3.318320      0.722136     -2.204376
  C       2.982304      0.693584     -0.850794
  H       2.422930     -2.669439     -3.437104
  H       4.506947     -2.488658     -4.691599
  H       5.022134     -4.092518     -4.176905
  H       5.202426     -3.395090     -1.857815
  H       2.912782     -5.132647     -5.170888
  H       2.576740     -3.506988     -5.759410
  H       3.142854     -7.698718      1.137175
  H       2.204524     -6.400556      1.922027
  H       1.617817     -3.082122     -1.379149
  H       3.981374     -6.131789     -3.241330
  H       7.144368     -3.042408     -3.374862
  H       7.109581     -1.814326     -2.093179
  H       6.579409     -1.399792     -3.734495
  H       1.939977     -9.277162      2.354275
  H       0.150185     -9.322665      2.294448
  H       0.982666     -7.968638      3.119613
  H       0.227286     -9.517416     -0.084220
  H       2.017585     -9.454375     -0.076850
  H       1.079248     -8.304795     -1.082546
  H      -0.208510     -6.561247     -0.051025
  H      -0.207364     -6.364183      1.730597
  H      -1.056558     -7.753166      0.976608
  H       1.334619     -4.493634      0.611289
  H       3.677668     -7.571172     -1.263711
  H       0.478146     -4.845887     -5.759840
  H       0.343926     -3.541462     -4.567479
  H       0.665505     -5.199639     -4.036572
  H       4.323149     -2.323749     -0.052820
  H       4.259153     -0.304867     -3.838723
  H       3.092290     -0.448615      0.976141
  H       3.035442      1.575207     -2.815877
  H       2.439626      1.522973     -0.405030
  F       0.287449     -1.836972      0.356228
  F      -1.309254     -0.525950      1.115357
  F      -3.037652     -2.827605      0.943437
  F      -1.219543     -4.008354      0.566472
  F      -2.821505     -0.875535     -0.971582
  F      -1.684280     -2.613980     -1.691293
  F      -2.106973     -1.955157      3.279796
  F      -2.007093     -4.134227      3.071701
  F      -1.396202     -0.110462     -3.002165
  F      -0.349141      0.608521     -1.232623
  F       0.407047     -1.117196     -2.330065
  O       0.559674     -1.812226      3.349582
  O       0.658720     -4.060977      3.093872
  C      -1.055033     -1.650886      0.409517
  C      -1.692441     -2.874293      1.140459
  C      -1.592106     -1.428434     -1.046054
  C      -1.417541     -2.963684      2.674092
  C      -0.699659     -0.484349     -1.921931
  C       0.100594     -2.943743      3.084731
74
Coordinates from ORCA-job R4N+PFHxA-_r2 E -2389.493873491708
  N       1.053301     -7.916719      1.001129
  C       2.975149     -3.590406     -3.642320
  C       4.447036     -3.205341     -3.857916
  C       5.143534     -2.605073     -2.625116
  C       2.799202     -4.502851     -2.449345
  C       2.372274     -4.198412     -4.919133
  C       2.304158     -7.026454      1.021009
  C       2.466567     -6.159089     -0.189741
  C       4.384288     -1.440385     -2.022567
  C       2.059123     -4.077017     -1.345896
  C       3.379604     -5.775698     -2.403786
  C       6.578249     -2.192654     -2.978705
  C       1.030726     -8.692463      2.286424
  C       1.098849     -8.872884     -0.151365
  C      -0.193069     -7.087093      0.910498
  C       1.904345     -4.881772     -0.224454
  C       3.213796     -6.592555     -1.291009
  C       0.872863     -4.455647     -4.802609
  C       4.047197     -1.443794     -0.666816
  C       4.016884     -0.331033     -2.793083
  C       3.357756     -0.377900     -0.091409
  C       3.332487      0.738762     -2.222156
  C       2.997836      0.719953     -0.868256
  H       2.417532     -2.668172     -3.425011
  H       4.497446     -2.490650     -4.690895
  H       5.014997     -4.092060     -4.172290
  H       5.195339     -3.386163     -1.854135
  H       2.897595     -5.132633     -5.160411
  H       2.565057     -3.506953     -5.750101
  H       3.146507     -7.714970      1.132948
  H       2.210712     -6.420632      1.926817
  H       1.621136     -3.083986     -1.360048
  H       3.974122     -6.131151     -3.242046
  H       7.139065     -3.048464     -3.371825
  H       7.107273     -1.811104     -2.098791
  H       6.578763     -1.406788     -3.743159
  H       1.938917     -9.295183      2.348257
  H       0.148721     -9.335583      2.288277
  H       0.985313     -7.986019      3.118043
  H       0.223229     -9.522121     -0.089478
  H       2.013936     -9.464544     -0.082684
  H       1.078786     -8.307881     -1.084224
  H      -0.201058     -6.564051     -0.046346
  H      -0.198547     -6.374319      1.737450
  H      -1.053147     -7.756413      0.977027
  H       1.340704     -4.503096      0.623613
  H       3.675667     -7.576864     -1.268866
  H       0.461445     -4.836079     -5.743610
  H       0.337086     -3.532187     -4.549339
  H       0.653372     -5.191810     -4.020825
  H       4.320351     -2.300898     -0.054733
  H       4.265781     -0.302634     -3.851615
  H       3.104514     -0.413643      0.964957
  H       3.054263      1.590532     -2.837578
  H       2.461018      1.555030     -0.426362
  F       0.289161     -1.838100      0.369195
  F      -1.317259     -0.531291      1.112954
  F      -3.038665     -2.838034      0.921644
  F      -1.213989     -4.014503      0.566081
  F      -2.809317     -0.886812     -0.988435
  F      -1.657373     -2.620952     -1.696655
  F      -2.136280     -1.961234      3.268172
  F      -2.020141     -4.139493      3.065073
  F      -1.373276     -0.115423     -3.003935
  F      -0.342803      0.608661     -1.226664
  F       0.430538     -1.112645     -2.320132
  O       0.527285     -1.805800      3.374929
  O       0.649034     -4.048824      3.091103
  C      -1.054247     -1.655073      0.408748
  C      -1.695183     -2.880391      1.133125
  C      -1.576815     -1.434691     -1.051226
  C      -1.434685     -2.966375      2.670570
  C      -0.681555     -0.486309     -1.918958
  C       0.081307     -2.937105      3.093904
74
Coordinates from ORCA-job R4N+PFHxA-_r2 E -2389.493924732280
  N       1.058760     -7.925422      1.002501
  C       2.970625     -3.590112     -3.634678
  C       4.442526     -3.208423     -3.855450
  C       5.142502     -2.604696     -2.626220
  C       2.797295     -4.504215     -2.442380
  C       2.361535     -4.195553     -4.909512
  C       2.310518     -7.036923      1.022898
  C       2.470533     -6.165507     -0.185343
  C       4.388561     -1.432436     -2.031484
  C       2.061462     -4.080547     -1.335250
  C       3.377013     -5.777521     -2.401245
  C       6.579160     -2.201157     -2.982285
  C       1.037337     -8.707356      2.284896
  C       1.099997     -8.877718     -0.154062
  C      -0.186022     -7.092140      0.918633
  C       1.909495     -4.887501     -0.215516
  C       3.214295     -6.596660     -1.289668
  C       0.860831     -4.444531     -4.788770
  C       4.046046     -1.427267     -0.677067
  C       4.031591     -0.324129     -2.808367
  C       3.361901     -0.353848     -0.109044
  C       3.352681      0.753057     -2.244885
  C       3.013382      0.743242     -0.892152
  H       2.416046     -2.666917     -3.413725
  H       4.491979     -2.496647     -4.690962
  H       5.008714     -4.096780     -4.168429
  H       5.190116     -3.381673     -1.850844
  H       2.880969     -5.132773     -5.151783
  H       2.555207     -3.506065     -5.741915
  H       3.153004     -7.726054      1.129895
  H       2.217942     -6.435944      1.932186
  H       1.622659     -3.088446     -1.345343
  H       3.968442     -6.131735     -3.242176
  H       7.136608     -3.062362     -3.368288
  H       7.108965     -1.814773     -2.104963
  H       6.583317     -1.421207     -3.752718
  H       1.944981     -9.311394      2.341314
  H       0.154374     -9.349039      2.284060
  H       0.994580     -8.004358      3.119425
  H       0.224239     -9.526630     -0.091985
  H       2.015081     -9.469794     -0.089249
  H       1.078278     -8.308167     -1.084105
  H      -0.195135     -6.565563     -0.036112
  H      -0.186338     -6.385021      1.750564
  H      -1.047142     -7.760298      0.984225
  H       1.346107     -4.511433      0.633774
  H       3.675773     -7.581248     -1.271595
  H       0.443910     -4.820468     -5.729061
  H       0.332347     -3.517963     -4.531597
  H       0.639751     -5.180378     -4.007120
  H       4.310705     -2.283032     -0.059410
  H       4.284657     -0.302500     -3.866063
  H       3.105904     -0.383868      0.946917
  H       3.082499      1.604139     -2.864828
  H       2.479991      1.583363     -0.455881
  F       0.285292     -1.836171      0.384369
  F      -1.332944     -0.539093      1.119124
  F      -3.043856     -2.853806      0.898273
  F      -1.209343     -4.019602      0.560432
  F      -2.803625     -0.892190     -1.000498
  F      -1.633420     -2.616964     -1.703766
  F      -2.175655     -1.977590      3.254165
  F      -2.033556     -4.154408      3.051887
  F      -1.353987     -0.103619     -2.996803
  F      -0.346134      0.618781     -1.205683
  F       0.449759     -1.091338     -2.301636
  O       0.485094     -1.802384      3.408220
  O       0.635741     -4.038001      3.076881
  C      -1.059585     -1.658060      0.411582
  C      -1.702187     -2.889373      1.124236
  C      -1.567242     -1.433145     -1.052533
  C      -1.457272     -2.975035      2.663744
  C      -0.669286     -0.475446     -1.906836
  C       0.055439     -2.932568      3.100967
74
Coordinates from ORCA-job R4N+PFHxA-_r2 E -2389.494002949090
  N       1.070234     -7.948646      1.005268
  C       2.956499     -3.588677     -3.613697
  C       4.427637     -3.213452     -3.848178
  C       5.135290     -2.601091     -2.627547
  C       2.792778     -4.506135     -2.422552
  C       2.330863     -4.188638     -4.882700
  C       2.324909     -7.063752      1.028607
  C       2.480127     -6.181223     -0.172435
  C       4.392907     -1.412327     -2.050552
  C       2.068483     -4.087165     -1.306088
  C       3.370139     -5.780775     -2.392890
  C       6.575924     -2.217220     -2.989514
  C       1.054113     -8.749111      2.277114
  C       1.099173     -8.887262     -0.163629
  C      -0.170141     -7.106275      0.941046
  C       1.922031     -4.901545     -0.191485
  C       3.215373     -6.606119     -1.284588
  C       0.828849     -4.424498     -4.747227
  C       4.039125     -1.386655     -0.699035
  C       4.060467     -0.306890     -2.842235
  C       3.370694     -0.294365     -0.147548
  C       3.396020      0.787894     -2.295937
  C       3.048146      0.800078     -0.945531
  H       2.408668     -2.663754     -3.383787
  H       4.473654     -2.508157     -4.689380
  H       4.989422     -4.105642     -4.158151
  H       5.174474     -3.368174     -1.841914
  H       2.839522     -5.130423     -5.129927
  H       2.521362     -3.501198     -5.717527
  H       3.168005     -7.753989      1.123040
  H       2.234869     -6.475275      1.946821
  H       1.628868     -3.095667     -1.304645
  H       3.953070     -6.132040     -3.240952
  H       7.125706     -3.090145     -3.359819
  H       7.108243     -1.820226     -2.118427
  H       6.587889     -1.450522     -3.773030
  H       1.960779     -9.355854      2.317750
  H       0.169546     -9.388458      2.269920
  H       1.018146     -8.059238      3.122610
  H       0.222541     -9.535029     -0.102940
  H       2.013401     -9.482035     -0.112505
  H       1.072312     -8.305795     -1.086155
  H      -0.184190     -6.570030     -0.008019
  H      -0.155368     -6.410788      1.782624
  H      -1.035004     -7.769655      1.007411
  H       1.359576     -4.530389      0.660106
  H       3.675716     -7.591417     -1.277115
  H       0.398304     -4.791920     -5.684652
  H       0.313431     -3.493317     -4.479999
  H       0.609123     -5.160942     -3.965630
  H       4.284686     -2.239076     -0.068985
  H       4.322441     -0.301238     -3.897975
  H       3.110527     -0.307977      0.908007
  H       3.144761      1.636661     -2.926918
  H       2.524458      1.653139     -0.523175
  F       0.280616     -1.829023      0.416840
  F      -1.367675     -0.555383      1.124565
  F      -3.049626     -2.888377      0.837201
  F      -1.192622     -4.029189      0.542676
  F      -2.781110     -0.904491     -1.039375
  F      -1.568984     -2.608405     -1.725528
  F      -2.263005     -2.016387      3.215569
  F      -2.059384     -4.189009      3.015281
  F      -1.290540     -0.079300     -2.988605
  F      -0.341891      0.639431     -1.163651
  F       0.508120     -1.048011     -2.255672
  O       0.388687     -1.792574      3.474220
  O       0.606523     -4.009408      3.047877
  C      -1.066700     -1.663745      0.412366
  C      -1.713541     -2.908588      1.098033
  C      -1.536712     -1.429964     -1.062590
  C      -1.505565     -2.994409      2.642209
  C      -0.628636     -0.452956     -1.883748
  C      -0.002744     -2.920202      3.112891
74
Coordinates from ORCA-job R4N+PFHxA-_r2 E -2389.494084431702
  N       1.080135     -7.968848      1.008244
  C       2.945416     -3.584464     -3.595608
  C       4.416596     -3.216188     -3.839930
  C       5.130670     -2.601225     -2.623896
  C       2.788492     -4.506779     -2.407663
  C       2.301942     -4.174193     -4.860169
  C       2.334646     -7.082648      1.033652
  C       2.485974     -6.192684     -0.163124
  C       4.397626     -1.401858     -2.055760
  C       2.068896     -4.093067     -1.286598
  C       3.366354     -5.781283     -2.385672
  C       6.573871     -2.230912     -2.989722
  C       1.069629     -8.780810      2.272579
  C       1.105362     -8.898110     -0.168139
  C      -0.158889     -7.125644      0.955292
  C       1.925778     -4.913409     -0.176475
  C       3.217559     -6.611621     -1.279932
  C       0.800265     -4.402973     -4.705560
  C       4.040536     -1.361540     -0.704990
  C       4.077303     -0.300024     -2.857798
  C       3.382472     -0.256811     -0.164802
  C       3.420979      0.805428     -2.323158
  C       3.071603      0.832755     -0.973476
  H       2.405168     -2.657829     -3.355592
  H       4.461705     -2.513589     -4.683450
  H       4.972847     -4.111916     -4.149462
  H       5.164302     -3.363166     -1.833009
  H       2.802376     -5.117289     -5.118931
  H       2.484453     -3.482527     -5.693271
  H       3.179313     -7.771938      1.120375
  H       2.244977     -6.501815      1.956335
  H       1.626652     -3.103143     -1.278143
  H       3.945365     -6.129098     -3.237865
  H       7.117206     -3.110975     -3.352563
  H       7.109528     -1.830120     -2.122361
  H       6.591316     -1.470799     -3.779549
  H       1.979431     -9.383332      2.305674
  H       0.188471     -9.424845      2.259599
  H       1.031353     -8.101278      3.126165
  H       0.228763     -9.546344     -0.111383
  H       2.019437     -9.493824     -0.124446
  H       1.076487     -8.310317     -1.086670
  H      -0.179252     -6.588324      0.007042
  H      -0.137424     -6.430769      1.797255
  H      -1.024277     -7.787699      1.028512
  H       1.363032     -4.547368      0.676543
  H       3.679606     -7.596184     -1.279277
  H       0.353679     -4.754606     -5.641552
  H       0.294757     -3.472321     -4.417169
  H       0.587346     -5.148931     -3.931112
  H       4.276509     -2.210689     -0.066875
  H       4.341934     -0.306007     -3.912878
  H       3.121288     -0.253976      0.890774
  H       3.178069      1.650400     -2.962439
  H       2.552405      1.691975     -0.558572
  F       0.278594     -1.821941      0.419954
  F      -1.382274     -0.557591      1.115202
  F      -3.051489     -2.897231      0.797140
  F      -1.186069     -4.029003      0.522180
  F      -2.769903     -0.905306     -1.069018
  F      -1.537764     -2.599504     -1.746576
  F      -2.300052     -2.030637      3.186100
  F      -2.075146     -4.201712      2.985781
  F      -1.260234     -0.069214     -3.000469
  F      -0.345520      0.658478     -1.162115
  F       0.535208     -1.023456     -2.240892
  O       0.348737     -1.789796      3.480825
  O       0.590583     -3.997420      3.031689
  C      -1.068622     -1.661044      0.401614
  C      -1.718472     -2.913006      1.074224
  C      -1.522151     -1.423508     -1.078625
  C      -1.528453     -3.001513      2.619900
  C      -0.611183     -0.437609     -1.885482
  C      -0.032039     -2.915844      3.105456
74
Coordinates from ORCA-job R4N+PFHxA-_r2 E -2389.494186579963
  N       1.087795     -7.980247      1.010193
  C       2.940027     -3.579202     -3.582343
  C       4.411382     -3.217355     -3.835728
  C       5.132720     -2.602914     -2.623513
  C       2.787114     -4.506465     -2.398092
  C       2.280008     -4.157870     -4.843501
  C       2.341115     -7.092441      1.035701
  C       2.489189     -6.198535     -0.157638
  C       4.407214     -1.397090     -2.059156
  C       2.067090     -4.097548     -1.275925
  C       3.366473     -5.780090     -2.380523
  C       6.577276     -2.243536     -2.994221
  C       1.083980     -8.797452      2.269980
  C       1.110908     -8.902719     -0.170821
  C      -0.153422     -7.139412      0.966627
  C       1.925756     -4.921227     -0.167390
  C       3.220286     -6.613353     -1.276738
  C       0.780219     -4.385865     -4.670161
  C       4.042132     -1.352165     -0.710591
  C       4.099525     -0.294462     -2.865546
  C       3.387968     -0.241674     -0.177183
  C       3.446902      0.816457     -2.337690
  C       3.089198      0.848158     -0.990186
  H       2.407203     -2.650735     -3.333318
  H       4.455338     -2.515524     -4.679947
  H       4.961847     -4.116047     -4.146712
  H       5.163588     -3.361852     -1.829607
  H       2.775846     -5.099543     -5.116180
  H       2.452849     -3.458824     -5.672442
  H       3.186066     -7.782058      1.116394
  H       2.256049     -6.513884      1.960224
  H       1.622613     -3.108762     -1.264492
  H       3.944781     -6.125118     -3.234364
  H       7.113881     -3.128821     -3.354340
  H       7.118209     -1.842581     -2.130199
  H       6.598459     -1.487249     -3.787637
  H       1.996259     -9.396467      2.299258
  H       0.205721     -9.445603      2.257492
  H       1.044664     -8.123109      3.127694
  H       0.234366     -9.551381     -0.115945
  H       2.024937     -9.498996     -0.133591
  H       1.079140     -8.311790     -1.087235
  H      -0.180782     -6.597464      0.021021
  H      -0.128290     -6.446438      1.810601
  H      -1.017764     -7.802421      1.042940
  H       1.362834     -4.556655      0.686895
  H       3.684108     -7.597070     -1.279216
  H       0.319837     -4.724705     -5.604285
  H       0.279289     -3.458789     -4.362174
  H       0.576597     -5.142115     -3.903239
  H       4.268494     -2.202189     -0.070185
  H       4.370937     -0.304228     -3.918855
  H       3.118725     -0.231116      0.876415
  H       3.213823      1.661392     -2.980639
  H       2.571871      1.710972     -0.579892
  F       0.271896     -1.815154      0.419655
  F      -1.401586     -0.557506      1.100598
  F      -3.058417     -2.899912      0.778108
  F      -1.189520     -4.027496      0.507779
  F      -2.771210     -0.915778     -1.093427
  F      -1.521443     -2.599020     -1.764143
  F      -2.321084     -2.039721      3.172413
  F      -2.088462     -4.209449      2.966398
  F      -1.244073     -0.062533     -3.009621
  F      -0.355747      0.665675     -1.158502
  F       0.546960     -1.008509     -2.229076
  O       0.320648     -1.787643      3.477724
  O       0.580652     -3.989624      3.015956
  C      -1.076106     -1.660313      0.391367
  C      -1.726897     -2.914514      1.060244
  C      -1.519913     -1.424447     -1.093027
  C      -1.544141     -3.005958      2.605999
  C      -0.607513     -0.429881     -1.887770
  C      -0.052605     -2.914447      3.095215
74
Coordinates from ORCA-job R4N+PFHxA-_r2 E -2389.494267297086
  N       1.091603     -7.995092      1.011611
  C       2.932941     -3.572088     -3.563358
  C       4.403353     -3.215384     -3.828183
  C       5.132973     -2.598991     -2.622053
  C       2.785923     -4.504353     -2.382523
  C       2.256553     -4.141095     -4.820718
  C       2.346399     -7.108404      1.037829
  C       2.491291     -6.207224     -0.150090
  C       4.416129     -1.385484     -2.063600
  C       2.066318     -4.101411     -1.258047
  C       3.365918     -5.777728     -2.372235
  C       6.578789     -2.252501     -2.999354
  C       1.096546     -8.822326      2.263756
  C       1.104574     -8.904772     -0.178399
  C      -0.150202     -7.154000      0.985311
  C       1.926615     -4.930740     -0.152200
  C       3.221177     -6.616185     -1.272600
  C       0.759627     -4.372048     -4.629382
  C       4.046647     -1.332529     -0.716607
  C       4.119566     -0.284281     -2.876218
  C       3.396334     -0.215916     -0.191671
  C       3.471813      0.833117     -2.356561
  C       3.107438      0.872087     -1.011013
  H       2.406485     -2.642343     -3.305716
  H       4.444343     -2.516125     -4.674632
  H       4.949000     -4.116897     -4.139322
  H       5.161442     -3.352876     -1.823185
  H       2.749712     -5.080012     -5.107703
  H       2.418829     -3.434374     -5.645206
  H       3.190412     -7.800091      1.110380
  H       2.267703     -6.535429      1.966066
  H       1.621380     -3.112028     -1.241517
  H       3.942762     -6.118646     -3.228724
  H       7.107690     -3.144238     -3.354917
  H       7.125900     -1.849829     -2.140069
  H       6.603615     -1.502429     -3.798553
  H       2.008111     -9.422836      2.283342
  H       0.217583     -9.469649      2.255104
  H       1.064358     -8.154517      3.127096
  H       0.226187     -9.551120     -0.123525
  H       2.016841     -9.504389     -0.154782
  H       1.067038     -8.305671     -1.089184
  H      -0.187355     -6.605887      0.043383
  H      -0.117093     -6.463567      1.830598
  H      -1.014609     -7.816136      1.066665
  H       1.365959     -4.567779      0.704552
  H       3.685100     -7.599785     -1.280391
  H       0.287024     -4.701314     -5.560917
  H       0.260569     -3.449673     -4.304534
  H       0.566590     -5.137307     -3.868739
  H       4.265883     -2.181528     -0.072421
  H       4.395863     -0.300107     -3.928118
  H       3.120355     -0.194465      0.859934
  H       3.247737      1.676330     -3.004879
  H       2.593131      1.739944     -0.607224
  F       0.269147     -1.804062      0.418091
  F      -1.422470     -0.559198      1.079737
  F      -3.058262     -2.908901      0.752073
  F      -1.182476     -4.027033      0.488287
  F      -2.767867     -0.935667     -1.126440
  F      -1.494694     -2.604535     -1.784782
  F      -2.340395     -2.056017      3.156536
  F      -2.095758     -4.222968      2.938446
  F      -1.221410     -0.064126     -3.025057
  F      -0.363076      0.669193     -1.162068
  F       0.566533     -0.996928     -2.218872
  O       0.292620     -1.784249      3.477327
  O       0.576561     -3.981110      3.009448
  C      -1.080077     -1.661098      0.376509
  C      -1.728799     -2.918041      1.041438
  C      -1.511745     -1.430479     -1.112668
  C      -1.554450     -3.014228      2.589167
  C      -0.598499     -0.427077     -1.895640
  C      -0.067967     -2.913763      3.087796
74
Coordinates from ORCA-job R4N+PFHxA-_r2 E -2389.494302141666
  N       1.095463     -8.004928      1.011094
  C       2.926959     -3.567368     -3.549654
  C       4.395584     -3.213009     -3.825394
  C       5.133138     -2.593786     -2.625708
  C       2.785489     -4.501609     -2.369425
  C       2.240813     -4.133697     -4.803617
  C       2.350337     -7.120238      1.039561
  C       2.493062     -6.213389     -0.144027
  C       4.422133     -1.375556     -2.070509
  C       2.065596     -4.103688     -1.243072
  C       3.367200     -5.774260     -2.364350
  C       6.578583     -2.255030     -3.011029
  C       1.103063     -8.838820      2.258693
  C       1.103626     -8.906872     -0.184590
  C      -0.145743     -7.162693      0.994123
  C       1.926627     -4.937757     -0.139502
  C       3.223235     -6.617037     -1.268285
  C       0.745388     -4.365558     -4.603948
  C       4.048826     -1.319271     -0.724871
  C       4.134764     -0.273559     -2.885172
  C       3.403317     -0.198614     -0.203235
  C       3.492720      0.848429     -2.368660
  C       3.123822      0.890651     -1.024465
  H       2.403771     -2.636981     -3.287673
  H       4.431776     -2.516116     -4.673975
  H       4.938848     -4.115682     -4.137320
  H       5.162412     -3.343770     -1.823165
  H       2.732254     -5.071914     -5.095992
  H       2.398317     -3.425145     -5.627454
  H       3.193123     -7.813970      1.106694
  H       2.275726     -6.550988      1.971039
  H       1.619852     -3.114331     -1.223139
  H       3.943801     -6.111253     -3.222534
  H       7.102371     -3.150997     -3.363505
  H       7.131070     -1.849593     -2.156540
  H       6.603186     -1.510259     -3.815163
  H       2.012771     -9.442298      2.272647
  H       0.222086     -9.483383      2.251526
  H       1.076236     -8.174228      3.124736
  H       0.224041     -9.551696     -0.130609
  H       2.014863     -9.508294     -0.167505
  H       1.064244     -8.301818     -1.091344
  H      -0.187606     -6.608649      0.055916
  H      -0.108320     -6.476890      1.842981
  H      -1.010339     -7.824653      1.074517
  H       1.366979     -4.578123      0.720096
  H       3.687576     -7.600393     -1.280083
  H       0.267647     -4.693375     -5.533379
  H       0.247259     -3.444287     -4.274894
  H       0.556948     -5.132153     -3.843686
  H       4.262006     -2.168787     -0.079373
  H       4.414599     -0.291868     -3.936081
  H       3.122964     -0.173159      0.847003
  H       3.276988      1.692526     -3.018636
  H       2.615635      1.763175     -0.623046
  F       0.265486     -1.803505      0.427848
  F      -1.435078     -0.560498      1.068364
  F      -3.063659     -2.909159      0.734721
  F      -1.187395     -4.028333      0.481458
  F      -2.758458     -0.947248     -1.149780
  F      -1.472746     -2.611708     -1.793198
  F      -2.362950     -2.059033      3.142821
  F      -2.114450     -4.225373      2.925610
  F      -1.194377     -0.073141     -3.033693
  F      -0.358959      0.666395     -1.163012
  F       0.587311     -0.999142     -2.206266
  O       0.262145     -1.785576      3.490043
  O       0.563894     -3.977612      3.003249
  C      -1.083346     -1.663649      0.370903
  C      -1.736282     -2.919138      1.031999
  C      -1.500839     -1.436967     -1.122629
  C      -1.571705     -3.015760      2.580822
  C      -0.583169     -0.431571     -1.897446
  C      -0.088721     -2.914381      3.088059
74
Coordinates from ORCA-job R4N+PFHxA-_r2 E -2389.494326804444
  N       1.093518     -8.011900      1.012798
  C       2.924550     -3.565424     -3.542872
  C       4.391833     -3.209288     -3.821011
  C       5.131142     -2.588636     -2.623401
  C       2.784102     -4.500914     -2.363328
  C       2.240411     -4.133389     -4.797890
  C       2.348798     -7.129169      1.038994
  C       2.491217     -6.218882     -0.143361
  C       4.421867     -1.368894     -2.069373
  C       2.062366     -4.106443     -1.236926
  C       3.367456     -5.773245     -2.361218
  C       6.576763     -2.252927     -3.010773
  C       1.103999     -8.847178      2.259627
  C       1.096917     -8.910780     -0.185137
  C      -0.147686     -7.171597      1.002372
  C       1.924042     -4.943161     -0.134916
  C       3.222360     -6.619360     -1.268061
  C       0.745533     -4.369248     -4.602926
  C       4.050379     -1.311089     -0.723245
  C       4.135009     -0.267265     -2.884552
  C       3.407419     -0.189315     -0.201871
  C       3.495604      0.856192     -2.367860
  C       3.128012      0.899363     -1.023405
  H       2.399537     -2.635924     -3.281312
  H       4.425842     -2.513347     -4.670410
  H       4.936425     -4.111197     -4.132920
  H       5.160726     -3.337058     -1.819362
  H       2.734935     -5.070284     -5.089490
  H       2.399046     -3.424647     -5.621367
  H       3.189614     -7.825545      1.103691
  H       2.279493     -6.560777      1.969958
  H       1.615801     -3.117103     -1.215439
  H       3.945470     -6.106856     -3.219721
  H       7.098610     -3.150574     -3.361871
  H       7.130714     -1.846770     -2.157630
  H       6.601815     -1.510435     -3.817005
  H       2.010773     -9.455139      2.269219
  H       0.219897     -9.487414      2.258243
  H       1.085149     -8.181309      3.124985
  H       0.217042     -9.554978     -0.128519
  H       2.007979     -9.512609     -0.172633
  H       1.054447     -8.302812     -1.089772
  H      -0.196140     -6.618570      0.063740
  H      -0.110209     -6.483577      1.849469
  H      -1.010473     -7.835356      1.086892
  H       1.368274     -4.586428      0.728029
  H       3.686218     -7.602903     -1.281841
  H       0.272564     -4.702816     -5.532744
  H       0.242777     -3.448283     -4.280792
  H       0.556575     -5.132700     -3.839589
  H       4.264465     -2.160132     -0.077422
  H       4.413854     -0.286331     -3.935698
  H       3.126143     -0.159798      0.847803
  H       3.281386      1.700467     -3.018111
  H       2.624587      1.773967     -0.621216
  F       0.264004     -1.790321      0.417365
  F      -1.439202     -0.555174      1.064365
  F      -3.059306     -2.907210      0.732477
  F      -1.181515     -4.021676      0.467989
  F      -2.762079     -0.937304     -1.152586
  F      -1.483139     -2.606301     -1.796634
  F      -2.349554     -2.067186      3.145323
  F      -2.105459     -4.232144      2.910176
  F      -1.196812     -0.076687     -3.044593
  F      -0.360966      0.671959     -1.178452
  F       0.583926     -1.001133     -2.212690
  O       0.274824     -1.785944      3.467665
  O       0.576744     -3.981318      3.016344
  C      -1.084834     -1.656732      0.364668
  C      -1.730973     -2.914634      1.025367
  C      -1.506109     -1.430555     -1.127639
  C      -1.561037     -3.020629      2.574240
  C      -0.586876     -0.429801     -1.907235
  C      -0.076794     -2.919832      3.080909
74
Coordinates from ORCA-job R4N+PFHxA-_r2 E -2389.494352756911
  N       1.096276     -8.022024      1.016747
  C       2.915205     -3.563286     -3.526878
  C       4.381325     -3.210151     -3.812867
  C       5.125893     -2.583102     -2.621736
  C       2.778388     -4.501875     -2.349330
  C       2.225399     -4.128602     -4.780237
  C       2.356413     -7.145290      1.040910
  C       2.493489     -6.228926     -0.136691
  C       4.424479     -1.352595     -2.081384
  C       2.064279     -4.111358     -1.216743
  C       3.359061     -5.775542     -2.356660
  C       6.573964     -2.262129     -3.012615
  C       1.112730     -8.870594      2.255445
  C       1.083817     -8.909210     -0.190523
  C      -0.143137     -7.173725      1.025780
  C       1.930556     -4.952495     -0.117895
  C       3.217366     -6.626171     -1.266981
  C       0.729912     -4.357495     -4.583702
  C       4.042026     -1.282631     -0.738841
  C       4.155773     -0.253220     -2.905220
  C       3.407700     -0.150981     -0.228349
  C       3.525110      0.880216     -2.399968
  C       3.147259      0.936624     -1.058801
  H       2.393235     -2.633356     -3.261153
  H       4.412118     -2.518968     -4.666246
  H       4.925040     -4.113404     -4.122534
  H       5.149903     -3.323442     -1.810052
  H       2.715215     -5.067737     -5.072520
  H       2.386056     -3.421363     -5.604648
  H       3.195625     -7.844537      1.095457
  H       2.294783     -6.585049      1.978564
  H       1.620237     -3.121512     -1.188776
  H       3.932218     -6.105818     -3.219598
  H       7.089543     -3.167809     -3.352048
  H       7.129933     -1.849122     -2.164149
  H       6.604488     -1.530409     -3.828387
  H       2.013012     -9.488100      2.247669
  H       0.221858     -9.501215      2.257773
  H       1.111314     -8.212213      3.126581
  H       0.202380     -9.550833     -0.130592
  H       1.992905     -9.514074     -0.192351
  H       1.034856     -8.290591     -1.087509
  H      -0.197082     -6.610568      0.093604
  H      -0.090200     -6.497337      1.880994
  H      -1.008891     -7.833641      1.109991
  H       1.381461     -4.596942      0.749215
  H       3.677837     -7.611186     -1.287211
  H       0.255190     -4.693748     -5.511555
  H       0.231862     -3.432316     -4.266638
  H       0.538274     -5.115623     -3.815650
  H       4.242090     -2.129648     -0.085930
  H       4.442682     -0.281657     -3.953989
  H       3.118062     -0.115437      0.819083
  H       3.326047      1.723313     -3.056529
  H       2.653131      1.822407     -0.668686
  F       0.260253     -1.772793      0.433497
  F      -1.473043     -0.571693      1.063515
  F      -3.051155     -2.945601      0.694958
  F      -1.152642     -4.029925      0.449142
  F      -2.748967     -0.949940     -1.179421
  F      -1.443755     -2.603318     -1.811359
  F      -2.393192     -2.113954      3.121755
  F      -2.097449     -4.271459      2.876585
  F      -1.156864     -0.063610     -3.037811
  F      -0.358142      0.676803     -1.150514
  F       0.617542     -0.977309     -2.181864
  O       0.216952     -1.782719      3.499045
  O       0.570779     -3.967580      3.009894
  C      -1.090852     -1.662939      0.361543
  C      -1.726455     -2.933797      1.005515
  C      -1.489098     -1.432154     -1.135546
  C      -1.575608     -3.045815      2.556676
  C      -0.563577     -0.419856     -1.892634
  C      -0.099401     -2.918251      3.087274
74
Coordinates from ORCA-job R4N+PFHxA-_r2 E -2389.494412681645
  N       1.099789     -8.020060      1.017432
  C       2.915429     -3.565820     -3.533795
  C       4.381878     -3.211076     -3.816879
  C       5.124724     -2.586575     -2.623153
  C       2.777875     -4.503157     -2.355263
  C       2.229611     -4.134059     -4.787850
  C       2.356982     -7.140910      1.040659
  C       2.495009     -6.227492     -0.139844
  C       4.421815     -1.358102     -2.079626
  C       2.062873     -4.111626     -1.223558
  C       3.360460     -5.776005     -2.360126
  C       6.572504     -2.261793     -3.012082
  C       1.114738     -8.863776      2.259658
  C       1.093758     -8.914093     -0.185216
  C      -0.139574     -7.174852      1.018289
  C       1.929629     -4.951293     -0.123986
  C       3.220100     -6.625430     -1.268948
  C       0.733223     -4.361608     -4.595386
  C       4.040787     -1.291196     -0.736399
  C       4.151276     -0.256816     -2.900587
  C       3.408775     -0.159855     -0.222035
  C       3.521606      0.875722     -2.391468
  C       3.147430      0.929444     -1.049188
  H       2.391830     -2.636303     -3.269904
  H       4.413274     -2.517355     -4.668220
  H       4.926421     -4.113104     -4.128604
  H       5.149009     -3.329447     -1.813848
  H       2.720004     -5.074238     -5.075628
  H       2.392623     -3.429232     -5.613902
  H       3.197248     -7.838515      1.099971
  H       2.291642     -6.576148      1.975239
  H       1.617526     -3.122584     -1.198055
  H       3.934552     -6.106572     -3.222347
  H       7.089976     -3.165483     -3.353883
  H       7.126872     -1.850268     -2.161812
  H       6.602192     -1.527188     -3.825272
  H       2.016710     -9.478860      2.255710
  H       0.225527     -9.496748      2.260213
  H       1.108926     -8.203254      3.129086
  H       0.214156     -9.558209     -0.125525
  H       2.004581     -9.516316     -0.180215
  H       1.046697     -8.300479     -1.085759
  H      -0.190206     -6.615727      0.083660
  H      -0.092817     -6.495151      1.871362
  H      -1.003662     -7.837100      1.101665
  H       1.378669     -4.599224      0.744123
  H       3.682514     -7.609587     -1.287344
  H       0.261962     -4.702884     -5.523154
  H       0.234651     -3.434263     -4.285282
  H       0.538774     -5.115529     -3.823984
  H       4.240716     -2.139823     -0.085487
  H       4.436145     -0.283067     -3.949992
  H       3.121328     -0.127449      0.826026
  H       3.320787      1.720393     -3.045477
  H       2.655423      1.813945     -0.653975
  F       0.259078     -1.779389      0.437489
  F      -1.462983     -0.565673      1.073111
  F      -3.057629     -2.930169      0.698020
  F      -1.165680     -4.024797      0.451750
  F      -2.749571     -0.929709     -1.165204
  F      -1.460420     -2.593781     -1.803706
  F      -2.394066     -2.101834      3.122037
  F      -2.107870     -4.261547      2.882823
  F      -1.164167     -0.058518     -3.033605
  F      -0.353239      0.681497     -1.151866
  F       0.609078     -0.980805     -2.186205
  O       0.221304     -1.786386      3.497134
  O       0.563637     -3.973349      3.009761
  C      -1.090491     -1.657758      0.367723
  C      -1.732752     -2.926746      1.008993
  C      -1.493170     -1.422308     -1.127745
  C      -1.581626     -3.039107      2.558558
  C      -0.566267     -0.416084     -1.890298
  C      -0.104120     -2.919747      3.087082
74
Coordinates from ORCA-job R4N+PFHxA-_r2 E -2389.494453020487
  N       1.105036     -8.023396      1.021463
  C       2.910466     -3.566050     -3.532742
  C       4.377282     -3.212053     -3.815474
  C       5.120182     -2.589121     -2.620796
  C       2.773751     -4.505153     -2.355561
  C       2.223185     -4.131717     -4.787022
  C       2.361540     -7.143715      1.041027
  C       2.497341     -6.231136     -0.140588
  C       4.420476     -1.357777     -2.079239
  C       2.061168     -4.114491     -1.221993
  C       3.356424     -5.777967     -2.362792
  C       6.569403     -2.268359     -3.007721
  C       1.122763     -8.866277      2.264280
  C       1.098930     -8.919526     -0.179911
  C      -0.134755     -7.179766      1.022447
  C       1.931049     -4.955082     -0.123218
  C       3.219320     -6.628461     -1.271801
  C       0.726054     -4.354781     -4.593819
  C       4.036941     -1.288312     -0.736702
  C       4.156708     -0.255463     -2.901285
  C       3.411076     -0.152739     -0.223859
  C       3.532466      0.880889     -2.393679
  C       3.157241      0.937485     -1.051827
  H       2.388049     -2.636517     -3.266571
  H       4.409379     -2.517108     -4.665819
  H       4.921027     -4.114115     -4.128434
  H       5.140980     -3.331635     -1.811109
  H       2.710974     -5.073145     -5.075039
  H       2.387440     -3.426910     -5.612860
  H       3.202124     -7.840972      1.099879
  H       2.297876     -6.576736      1.974311
  H       1.615128     -3.125760     -1.195724
  H       3.928422     -6.107608     -3.226775
  H       7.085199     -3.173806     -3.347404
  H       7.123204     -1.857035     -2.156946
  H       6.602361     -1.534693     -3.821618
  H       2.024937     -9.481065      2.258110
  H       0.233824     -9.499672      2.265916
  H       1.118345     -8.206363      3.134125
  H       0.220416     -9.564997     -0.118954
  H       2.010558     -9.520552     -0.174654
  H       1.050521     -8.307584     -1.081560
  H      -0.185560     -6.621081      0.087551
  H      -0.089530     -6.499785      1.875641
  H      -0.997769     -7.843361      1.106440
  H       1.382497     -4.606889      0.747949
  H       3.682052     -7.612460     -1.291810
  H       0.254034     -4.697548     -5.520681
  H       0.230138     -3.425024     -4.286466
  H       0.529609     -5.106182     -3.820430
  H       4.230400     -2.137829     -0.084971
  H       4.443166     -0.283760     -3.950201
  H       3.121221     -0.118468      0.823489
  H       3.336837      1.726339     -3.048262
  H       2.670944      1.825018     -0.656398
  F       0.257194     -1.772538      0.439002
  F      -1.469331     -0.565257      1.075264
  F      -3.056668     -2.932665      0.684155
  F      -1.160892     -4.021162      0.439574
  F      -2.748819     -0.916515     -1.165405
  F      -1.465089     -2.583450     -1.807417
  F      -2.404453     -2.114243      3.112916
  F      -2.107834     -4.272034      2.867333
  F      -1.161039     -0.048847     -3.033724
  F      -0.351050      0.688777     -1.150568
  F       0.609350     -0.975246     -2.185263
  O       0.209859     -1.786305      3.489834
  O       0.561306     -3.972502      3.011467
  C      -1.092243     -1.653288      0.366521
  C      -1.732709     -2.927633      0.999880
  C      -1.493853     -1.413329     -1.129012
  C      -1.586430     -3.046155      2.548550
  C      -0.564603     -0.408346     -1.889620
  C      -0.111757     -2.921399      3.082487
74
Coordinates from ORCA-job R4N+PFHxA-_r2 E -2389.494502978312
  N       1.113065     -8.027180      1.029836
  C       2.901441     -3.566304     -3.531651
  C       4.368975     -3.212800     -3.813409
  C       5.111970     -2.592452     -2.617426
  C       2.765891     -4.509004     -2.357099
  C       2.212531     -4.126914     -4.787037
  C       2.369867     -7.147702      1.040633
  C       2.501163     -6.237386     -0.142940
  C       4.418681     -1.355545     -2.079997
  C       2.059088     -4.119144     -1.219447
  C       3.347180     -5.782403     -2.369337
  C       6.564097     -2.280509     -3.000679
  C       1.137575     -8.868001      2.273853
  C       1.101992     -8.926401     -0.169387
  C      -0.127103     -7.184460      1.034459
  C       1.935267     -4.961162     -0.121437
  C       3.215902     -6.634557     -1.278745
  C       0.714494     -4.344367     -4.593191
  C       4.028437     -1.282243     -0.739569
  C       4.169232     -0.250721     -2.903495
  C       3.411958     -0.140015     -0.229865
  C       3.554594      0.892275     -2.398778
  C       3.174026      0.953028     -1.058566
  H       2.380688     -2.636959     -3.261474
  H       4.402097     -2.515937     -4.662169
  H       4.911418     -4.114972     -4.128216
  H       5.125986     -3.333748     -1.806528
  H       2.696983     -5.069449     -5.076846
  H       2.378394     -3.420856     -5.611468
  H       3.210540     -7.844952      1.098011
  H       2.310980     -6.576275      1.971299
  H       1.613491     -3.130182     -1.191430
  H       3.914073     -6.111121     -3.237045
  H       7.076226     -3.189800     -3.335600
  H       7.117210     -1.869231     -2.149394
  H       6.603769     -1.549477     -3.816609
  H       2.038237     -9.484907      2.261621
  H       0.247197     -9.499400      2.281603
  H       1.140518     -8.207899      3.143529
  H       0.225043     -9.573436     -0.102703
  H       2.014579     -9.525989     -0.167612
  H       1.047815     -8.317139     -1.072537
  H      -0.178265     -6.623770      0.100755
  H      -0.081781     -6.506287      1.889503
  H      -0.989256     -7.849157      1.118323
  H       1.392603     -4.619019      0.755947
  H       3.677906     -7.618832     -1.302178
  H       0.242153     -4.691329     -5.518407
  H       0.221196     -3.411371     -4.291668
  H       0.515355     -5.091383     -3.816178
  H       4.209007     -2.133809     -0.086830
  H       4.460479     -0.281873     -3.950995
  H       3.115066     -0.105086      0.815369
  H       3.370644      1.739772     -3.054097
  H       2.697156      1.846166     -0.663956
  F       0.254314     -1.758714      0.445581
  F      -1.486108     -0.569914      1.078678
  F      -3.051675     -2.947763      0.655051
  F      -1.144534     -4.017415      0.416147
  F      -2.746196     -0.901238     -1.168831
  F      -1.464986     -2.567142     -1.816814
  F      -2.428240     -2.146229      3.094717
  F      -2.104441     -4.298711      2.835478
  F      -1.150439     -0.025621     -3.028102
  F      -0.344656      0.698112     -1.137618
  F       0.614478     -0.962276     -2.178948
  O       0.179371     -1.786608      3.487702
  O       0.558005     -3.969135      3.016052
  C      -1.095595     -1.649065      0.364387
  C      -1.730269     -2.934712      0.981745
  C      -1.492146     -1.400781     -1.132023
  C      -1.595079     -3.064576      2.529679
  C      -0.558504     -0.393970     -1.883797
  C      -0.127343     -2.924980      3.078051
74
Coordinates from ORCA-job R4N+PFHxA-_r2 E -2389.494528960324
  N       1.119350     -8.031152      1.034956
  C       2.892432     -3.565517     -3.527814
  C       4.360362     -3.213052     -3.810169
  C       5.104199     -2.593641     -2.614456
  C       2.759201     -4.510790     -2.354984
  C       2.200958     -4.121660     -4.783590
  C       2.377594     -7.152856      1.040932
  C       2.504218     -6.242535     -0.142699
  C       4.416759     -1.351780     -2.081261
  C       2.058264     -4.121652     -1.213152
  C       3.338318     -5.785032     -2.372602
  C       6.558654     -2.290116     -2.995772
  C       1.148214     -8.872564      2.278317
  C       1.102742     -8.929414     -0.164757
  C      -0.120329     -7.187094      1.044427
  C       1.939766     -4.965876     -0.116159
  C       3.211870     -6.639124     -1.283053
  C       0.702784     -4.336870     -4.587698
  C       4.022110     -1.273578     -0.742413
  C       4.178386     -0.246436     -2.907351
  C       3.412451     -0.125774     -0.236767
  C       3.571371      0.902172     -2.406566
  C       3.186671      0.968192     -1.067783
  H       2.373244     -2.636246     -3.254228
  H       4.394021     -2.516171     -4.658884
  H       4.901242     -4.116140     -4.125076
  H       5.112981     -3.332982     -1.801682
  H       2.683211     -5.064228     -5.076878
  H       2.366442     -3.413570     -5.606319
  H       3.218020     -7.850665      1.094812
  H       2.322642     -6.580911      1.971847
  H       1.613550     -3.132063     -1.181870
  H       3.899901     -6.113109     -3.244022
  H       7.067305     -3.203127     -3.325831
  H       7.111937     -1.877928     -2.145021
  H       6.603660     -1.562510     -3.814489
  H       2.047564     -9.491280      2.261543
  H       0.256538     -9.502103      2.290141
  H       1.156632     -8.212989      3.148374
  H       0.226125     -9.576534     -0.094440
  H       2.015375     -9.528919     -0.168049
  H       1.043935     -8.319707     -1.067346
  H      -0.171410     -6.622987      0.112797
  H      -0.073438     -6.512005      1.901829
  H      -0.983185     -7.851033      1.127009
  H       1.402495     -4.627470      0.765752
  H       3.672468     -7.623944     -1.310921
  H       0.228704     -4.683390     -5.512242
  H       0.211098     -3.403313     -4.285548
  H       0.503536     -5.083964     -3.810780
  H       4.193843     -2.125393     -0.087632
  H       4.473135     -0.281298     -3.953751
  H       3.111492     -0.088140      0.807244
  H       3.396814      1.750149     -3.063829
  H       2.716139      1.866104     -0.676183
  F       0.254407     -1.748331      0.452236
  F      -1.499710     -0.575713      1.076568
  F      -3.044353     -2.964053      0.627987
  F      -1.126601     -4.016961      0.400036
  F      -2.738904     -0.899947     -1.179699
  F      -1.449922     -2.559588     -1.826961
  F      -2.450208     -2.170791      3.077108
  F      -2.103866     -4.318693      2.810132
  F      -1.133810     -0.009302     -3.024185
  F      -0.336726      0.702881     -1.125405
  F       0.627205     -0.951134     -2.171547
  O       0.149255     -1.786555      3.493107
  O       0.553197     -3.963859      3.019414
  C      -1.095761     -1.648448      0.360485
  C      -1.725999     -2.942196      0.966172
  C      -1.483698     -1.396070     -1.137775
  C      -1.603274     -3.078570      2.514695
  C      -0.547300     -0.384597     -1.879295
  C      -0.142498     -2.926468      3.076902
74
Coordinates from ORCA-job R4N+PFHxA-_r2 E -2389.494550498719
  N       1.122161     -8.030986      1.038352
  C       2.887571     -3.564988     -3.527846
  C       4.355887     -3.212541     -3.809612
  C       5.099767     -2.593978     -2.614005
  C       2.754879     -4.511534     -2.355816
  C       2.196451     -4.118903     -4.784511
  C       2.381859     -7.153715      1.039943
  C       2.505665     -6.244356     -0.144254
  C       4.415093     -1.350238     -2.082327
  C       2.058188     -4.121853     -1.211208
  C       3.331720     -5.786646     -2.376604
  C       6.555464     -2.294722     -2.994076
  C       1.153472     -8.870311      2.282779
  C       1.101052     -8.930222     -0.160165
  C      -0.116910     -7.185315      1.050125
  C       1.943296     -4.967111     -0.114299
  C       3.208224     -6.641494     -1.287485
  C       0.698555     -4.335804     -4.588497
  C       4.017139     -1.271370     -0.744764
  C       4.182930     -0.243705     -2.908563
  C       3.409300     -0.122075     -0.240629
  C       3.578917      0.906864     -2.408932
  C       3.190305      0.973464     -1.071290
  H       2.368428     -2.635990     -3.253145
  H       4.390025     -2.515807     -4.658397
  H       4.895920     -4.116278     -4.124158
  H       5.106065     -3.332638     -1.800549
  H       2.679040     -5.060440     -5.080555
  H       2.361134     -3.408747     -5.605582
  H       3.221908     -7.852069      1.092027
  H       2.329837     -6.580233      1.970123
  H       1.614666     -3.131638     -1.177514
  H       3.889415     -6.115089     -3.250383
  H       7.062521     -3.209490     -3.321663
  H       7.108831     -1.882080     -2.143606
  H       6.603236     -1.568830     -3.814166
  H       2.052052     -9.490109      2.265108
  H       0.260981     -9.498616      2.298852
  H       1.165110     -8.208806      3.151370
  H       0.224784     -9.577346     -0.085503
  H       2.013839     -9.529436     -0.167043
  H       1.037952     -8.321605     -1.063195
  H      -0.167219     -6.618530      0.120096
  H      -0.069354     -6.512572      1.909451
  H      -0.980828     -7.848128      1.130702
  H       1.409675     -4.631166      0.770800
  H       3.667384     -7.626869     -1.318469
  H       0.224165     -4.680407     -5.513614
  H       0.206021     -3.403738     -4.283456
  H       0.500295     -5.085357     -3.813659
  H       4.184508     -2.123873     -0.089800
  H       4.480463     -0.278992     -3.954157
  H       3.105619     -0.085058      0.802414
  H       3.409895      1.755837     -3.066351
  H       2.721083      1.872510     -0.680693
  F       0.255728     -1.743211      0.459020
  F      -1.507509     -0.581000      1.076000
  F      -3.038337     -2.977451      0.611241
  F      -1.113060     -4.017708      0.391924
  F      -2.732352     -0.903680     -1.187094
  F      -1.434551     -2.556767     -1.832506
  F      -2.464457     -2.186027      3.066653
  F      -2.104297     -4.331051      2.796348
  F      -1.121597      0.005242     -3.016603
  F      -0.327902      0.703108     -1.111332
  F       0.637318     -0.943970     -2.166495
  O       0.128516     -1.788286      3.504180
  O       0.549355     -3.960674      3.022984
  C      -1.094650     -1.649826      0.359273
  C      -1.722450     -2.948362      0.957706
  C      -1.475660     -1.395234     -1.140489
  C      -1.608429     -3.087671      2.507353
  C      -0.537949     -0.378722     -1.873528
  C      -0.152364     -2.927986      3.079652
74
Coordinates from ORCA-job R4N+PFHxA-_r2 E -2389.494567505407
  N       1.130502     -8.036697      1.047165
  C       2.871325     -3.561472     -3.518396
  C       4.339840     -3.211468     -3.803977
  C       5.087963     -2.592684     -2.611410
  C       2.743083     -4.512053     -2.348941
  C       2.175338     -4.108796     -4.775047
  C       2.394399     -7.163408      1.040920
  C       2.509731     -6.252513     -0.142731
  C       4.412392     -1.341491     -2.085907
  C       2.057460     -4.124011     -1.196825
  C       3.315263     -5.788996     -2.380299
  C       6.546145     -2.306860     -2.992509
  C       1.168773     -8.878903      2.289020
  C       1.095677     -8.931376     -0.153812
  C      -0.105718     -7.186079      1.071268
  C       1.951689     -4.973860     -0.102158
  C       3.199522     -6.648228     -1.293976
  C       0.678453     -4.327900     -4.574691
  C       4.006137     -1.255877     -0.751304
  C       4.197113     -0.234557     -2.915957
  C       3.405177     -0.099799     -0.254223
  C       3.601842      0.923202     -2.423064
  C       3.204114      0.996631     -1.088496
  H       2.354577     -2.632664     -3.238635
  H       4.373365     -2.516637     -4.654303
  H       4.876619     -4.117475     -4.117680
  H       5.088797     -3.327448     -1.794306
  H       2.656582     -5.048484     -5.079151
  H       2.336751     -3.393949     -5.592655
  H       3.232842     -7.864170      1.085199
  H       2.350201     -6.591197      1.972372
  H       1.616445     -3.132825     -1.155044
  H       3.863512     -6.115835     -3.260622
  H       7.047060     -3.227572     -3.312685
  H       7.102063     -1.891656     -2.144965
  H       6.599835     -1.587681     -3.818152
  H       2.064897     -9.501991      2.263605
  H       0.274003     -9.503722      2.312277
  H       1.190138     -8.218552      3.158375
  H       0.219548     -9.577801     -0.071655
  H       2.007885     -9.531183     -0.173297
  H       1.022736     -8.319692     -1.054036
  H      -0.158398     -6.613050      0.145364
  H      -0.052632     -6.519524      1.934395
  H      -0.972285     -7.845568      1.151033
  H       1.429381     -4.643875      0.791734
  H       3.655366     -7.634756     -1.334572
  H       0.199863     -4.664330     -5.500639
  H       0.186794     -3.399078     -4.258830
  H       0.483709     -5.084404     -3.805768
  H       4.161392     -2.108176     -0.093175
  H       4.501443     -0.274916     -3.959410
  H       3.094601     -0.058120      0.786880
  H       3.447224      1.772339     -3.083798
  H       2.739801      1.900723     -0.703937
  F       0.259537     -1.726862      0.473314
  F      -1.529651     -0.593618      1.067335
  F      -3.018963     -3.009906      0.557686
  F      -1.073917     -4.018630      0.366452
  F      -2.709380     -0.913784     -1.217670
  F      -1.384513     -2.549345     -1.851445
  F      -2.506526     -2.229621      3.028520
  F      -2.104289     -4.365998      2.748056
  F      -1.078938      0.034501     -3.007328
  F      -0.306958      0.708693     -1.084592
  F       0.672686     -0.922747     -2.150804
  O       0.070146     -1.794799      3.528162
  O       0.536767     -3.953957      3.027085
  C      -1.090263     -1.651796      0.350441
  C      -1.710513     -2.962861      0.928460
  C      -1.448753     -1.392447     -1.153677
  C      -1.623721     -3.112195      2.479559
  C      -0.507197     -0.363272     -1.863878
  C      -0.182100     -2.933300      3.081647
74
Coordinates from ORCA-job R4N+PFHxA-_r2 E -2389.494576273517
  N       1.127830     -8.034174      1.045104
  C       2.877141     -3.562429     -3.522566
  C       4.345607     -3.211813     -3.806433
  C       5.092001     -2.593535     -2.612573
  C       2.746714     -4.511660     -2.352283
  C       2.183605     -4.112287     -4.779528
  C       2.390564     -7.160050      1.039695
  C       2.508652     -6.249908     -0.144542
  C       4.412852     -1.345167     -2.084974
  C       2.057800     -4.123100     -1.202370
  C       3.320109     -5.788230     -2.380569
  C       6.549422     -2.302945     -2.992903
  C       1.164135     -8.873857      2.288869
  C       1.097099     -8.931948     -0.153938
  C      -0.109279     -7.185421      1.064866
  C       1.949762     -4.971491     -0.106930
  C       3.201894     -6.646314     -1.293475
  C       0.686360     -4.331009     -4.581321
  C       4.008738     -1.262630     -0.749613
  C       4.191663     -0.238151     -2.913464
  C       3.404285     -0.109630     -0.250115
  C       3.592289      0.916613     -2.418086
  C       3.196884      0.986653     -1.082656
  H       2.359293     -2.633605     -3.244986
  H       4.379642     -2.516289     -4.656194
  H       4.883593     -4.117000     -4.120397
  H       5.094537     -3.329905     -1.796954
  H       2.665602     -5.052571     -5.080593
  H       2.346510     -3.399211     -5.598414
  H       3.228950     -7.860750      1.086212
  H       2.345051     -6.586839      1.970329
  H       1.615809     -3.132231     -1.162576
  H       3.871235     -6.115478     -3.258932
  H       7.052488     -3.221507     -3.315908
  H       7.104223     -1.888984     -2.144027
  H       6.601235     -1.581173     -3.816390
  H       2.061564     -9.495211      2.267045
  H       0.270626     -9.500533      2.310348
  H       1.181614     -8.211908      3.157071
  H       0.221117     -9.578702     -0.073056
  H       2.009683     -9.531333     -0.168727
  H       1.027059     -8.322310     -1.055783
  H      -0.161884     -6.615067      0.137224
  H      -0.058906     -6.516434      1.926610
  H      -0.974563     -7.846545      1.145261
  H       1.424329     -4.640448      0.784761
  H       3.658332     -7.632679     -1.331482
  H       0.209063     -4.668003     -5.507698
  H       0.194714     -3.401581     -4.267019
  H       0.490371     -5.086450     -3.811610
  H       4.168417     -2.115138     -0.092774
  H       4.494315     -0.276231     -3.957496
  H       3.096031     -0.069524      0.791468
  H       3.432540      1.765934     -3.077367
  H       2.729490      1.888076     -0.695671
  F       0.258444     -1.731450      0.469749
  F      -1.522441     -0.589494      1.072486
  F      -3.024564     -2.999777      0.573302
  F      -1.085096     -4.017486      0.373938
  F      -2.716020     -0.907038     -1.206566
  F      -1.401082     -2.549053     -1.844880
  F      -2.494931     -2.218190      3.040573
  F      -2.103605     -4.356887      2.761202
  F      -1.092546      0.030450     -3.007339
  F      -0.310612      0.708111     -1.090143
  F       0.661301     -0.927911     -2.157077
  O       0.087489     -1.793335      3.522329
  O       0.540362     -3.956078      3.027679
  C      -1.091503     -1.650276      0.354200
  C      -1.713922     -2.957925      0.937435
  C      -1.457011     -1.390935     -1.148299
  C      -1.619327     -3.105368      2.488131
  C      -0.516094     -0.365661     -1.865486
  C      -0.173263     -2.931989      3.082179
74
Coordinates from ORCA-job R4N+PFHxA-_r2 E -2389.494582492692
  N       1.128126     -8.034382      1.045204
  C       2.878066     -3.561909     -3.522099
  C       4.346372     -3.212079     -3.806951
  C       5.093736     -2.593740     -2.613517
  C       2.747375     -4.511055     -2.351780
  C       2.183736     -4.112090     -4.778654
  C       2.390716     -7.160652      1.039334
  C       2.509000     -6.250097     -0.144693
  C       4.414056     -1.345682     -2.085603
  C       2.057851     -4.123251     -1.202088
  C       3.321251     -5.787512     -2.380229
  C       6.550666     -2.302422     -2.995018
  C       1.164369     -8.873830      2.289224
  C       1.098063     -8.932892     -0.153500
  C      -0.109264     -7.186433      1.064626
  C       1.949901     -4.971772     -0.106827
  C       3.202676     -6.646069     -1.293475
  C       0.686489     -4.330182     -4.579970
  C       4.009516     -1.263813     -0.750297
  C       4.192084     -0.238674     -2.913921
  C       3.403546     -0.111713     -0.250704
  C       3.591043      0.915296     -2.418443
  C       3.195050      0.984390     -1.083169
  H       2.360636     -2.632864     -3.244642
  H       4.380149     -2.516594     -4.656766
  H       4.884173     -4.117221     -4.121317
  H       5.097129     -3.330226     -1.798035
  H       2.665411     -5.052696     -5.079252
  H       2.346832     -3.399598     -5.598028
  H       3.228414     -7.862234      1.085221
  H       2.346533     -6.587673      1.970165
  H       1.615349     -3.132661     -1.161853
  H       3.873024     -6.114110     -3.258406
  H       7.053576     -3.220684     -3.319130
  H       7.106050     -1.888950     -2.146294
  H       6.601539     -1.580173     -3.818127
  H       2.062635     -9.494011      2.268240
  H       0.271786     -9.501849      2.309665
  H       1.180107     -8.211882      3.157431
  H       0.221971     -9.579524     -0.073119
  H       2.010570     -9.532437     -0.166925
  H       1.029211     -8.323537     -1.055636
  H      -0.163203     -6.617015      0.136478
  H      -0.059587     -6.516907      1.926028
  H      -0.973748     -7.848533      1.145924
  H       1.424369     -4.641014      0.784969
  H       3.659120     -7.632429     -1.331546
  H       0.208268     -4.664886     -5.506658
  H       0.195998     -3.400779     -4.263608
  H       0.490467     -5.086448     -3.811097
  H       4.169830     -2.116407     -0.093709
  H       4.495194     -0.276297     -3.957833
  H       3.095196     -0.071367      0.790851
  H       3.430262      1.764576     -3.077524
  H       2.725808      1.884867     -0.696283
  F       0.257687     -1.732099      0.470494
  F      -1.522358     -0.588599      1.073433
  F      -3.026134     -2.996968      0.572860
  F      -1.087590     -4.016965      0.374989
  F      -2.715547     -0.903872     -1.206318
  F      -1.402378     -2.547545     -1.844179
  F      -2.497048     -2.216648      3.040152
  F      -2.106265     -4.355635      2.761050
  F      -1.092219      0.032451     -3.006384
  F      -0.308998      0.708856     -1.089291
  F       0.661180     -0.927466     -2.157955
  O       0.085848     -1.793838      3.523305
  O       0.537695     -3.956274      3.026697
  C      -1.092061     -1.649525      0.354694
  C      -1.715526     -2.956494      0.937700
  C      -1.457089     -1.389304     -1.147627
  C      -1.621792     -3.103956      2.488140
  C      -0.515436     -0.364561     -1.864991
  C      -0.175674     -2.931844      3.082487
74
Coordinates from ORCA-job R4N+PFHxA-_r2 E -2389.494588428307
  N       1.128803     -8.034804      1.046922
  C       2.877856     -3.560371     -3.520320
  C       4.345987     -3.211957     -3.807121
  C       5.095577     -2.593636     -2.614745
  C       2.747237     -4.509958     -2.350339
  C       2.181510     -4.109926     -4.776253
  C       2.392052     -7.162429      1.038927
  C       2.509764     -6.251217     -0.144882
  C       4.416098     -1.345421     -2.086608
  C       2.058390     -4.123247     -1.200006
  C       3.320786     -5.786682     -2.380349
  C       6.551879     -2.302550     -2.998543
  C       1.166216     -8.874433      2.290877
  C       1.097405     -8.933707     -0.151661
  C      -0.108635     -7.187460      1.067727
  C       1.951363     -4.972600     -0.105449
  C       3.202385     -6.646512     -1.294500
  C       0.684485     -4.327693     -4.575863
  C       4.010160     -1.264129     -0.751635
  C       4.194163     -0.238404     -2.914940
  C       3.401723     -0.113114     -0.252651
  C       3.590827      0.914705     -2.419986
  C       3.192773      0.982752     -1.085324
  H       2.361525     -2.630960     -3.242238
  H       4.379276     -2.516503     -4.656997
  H       4.882946     -4.117318     -4.122246
  H       5.099911     -3.329983     -1.799167
  H       2.662727     -5.050539     -5.077586
  H       2.344021     -3.397325     -5.595659
  H       3.228486     -7.865671      1.082877
  H       2.351379     -6.589672      1.969916
  H       1.615749     -3.132841     -1.157884
  H       3.872110     -6.112319     -3.259144
  H       7.053816     -3.220901     -3.323938
  H       7.108740     -1.889760     -2.150463
  H       6.601724     -1.580053     -3.821469
  H       2.065368     -9.493327      2.269744
  H       0.274693     -9.503963      2.310798
  H       1.180899     -8.212906      3.159400
  H       0.220858     -9.579657     -0.071055
  H       2.009380     -9.534071     -0.164981
  H       1.029155     -8.324369     -1.053858
  H      -0.165356     -6.619124      0.139075
  H      -0.059135     -6.517316      1.928612
  H      -0.972219     -7.850535      1.151127
  H       1.427277     -4.643010      0.787529
  H       3.658205     -7.633108     -1.333812
  H       0.204312     -4.658243     -5.502987
  H       0.195540     -3.398905     -4.255141
  H       0.489178     -5.086155     -3.809013
  H       4.170563     -2.116853     -0.095230
  H       4.498584     -0.275643     -3.958481
  H       3.091977     -0.072552      0.788519
  H       3.429464      1.763820     -3.079132
  H       2.720070      1.881780     -0.699379
  F       0.257750     -1.730923      0.472520
  F      -1.524873     -0.589615      1.072942
  F      -3.024968     -2.998443      0.564833
  F      -1.084909     -4.017102      0.373262
  F      -2.712013     -0.901898     -1.210024
  F      -1.397553     -2.545202     -1.846192
  F      -2.504281     -2.219994      3.034391
  F      -2.109524     -4.358328      2.754727
  F      -1.087415      0.039173     -3.003921
  F      -0.303571      0.709636     -1.084951
  F       0.665008     -0.924604     -2.158783
  O       0.077211     -1.795425      3.527526
  O       0.532994     -3.955801      3.026202
  C      -1.091759     -1.649276      0.353645
  C      -1.715445     -2.957119      0.933903
  C      -1.453646     -1.387395     -1.148957
  C      -1.626369     -3.105311      2.484308
  C      -0.510870     -0.361561     -1.863718
  C      -0.182004     -2.932447      3.083156
74
Coordinates from ORCA-job R4N+PFHxA-_r2 E -2389.494590758568
  N       1.130132     -8.036094      1.047354
  C       2.876906     -3.559568     -3.518483
  C       4.344937     -3.211973     -3.806732
  C       5.096011     -2.593502     -2.615223
  C       2.746988     -4.509476     -2.348707
  C       2.178903     -4.108368     -4.773919
  C       2.393611     -7.164257      1.038912
  C       2.510487     -6.252284     -0.144339
  C       4.417347     -1.344718     -2.087335
  C       2.058869     -4.123417     -1.197732
  C       3.320282     -5.786308     -2.379909
  C       6.552106     -2.303408     -3.000429
  C       1.168119     -8.876384      2.290909
  C       1.098118     -8.934533     -0.151659
  C      -0.107464     -7.189045      1.068934
  C       1.952381     -4.973539     -0.103678
  C       3.202336     -6.646889     -1.294666
  C       0.681982     -4.325496     -4.572202
  C       4.011147     -1.262781     -0.752414
  C       4.195780     -0.238044     -2.916175
  C       3.402213     -0.111654     -0.254157
  C       3.592101      0.915154     -2.421980
  C       3.193351      0.983760     -1.087579
  H       2.361453     -2.629914     -3.239623
  H       4.377836     -2.516673     -4.656752
  H       4.881227     -4.117621     -4.122170
  H       5.100544     -3.329423     -1.799261
  H       2.659519     -5.049052     -5.075988
  H       2.340950     -3.395543     -5.593217
  H       3.229690     -7.868025      1.081431
  H       2.354716     -6.592159      1.970467
  H       1.616329     -3.132959     -1.154468
  H       3.870985     -6.111386     -3.259301
  H       7.053174     -3.222194     -3.325955
  H       7.109972     -1.890690     -2.152974
  H       6.601710     -1.581264     -3.823676
  H       2.067538     -9.494868      2.269312
  H       0.276898     -9.506352      2.310501
  H       1.182596     -8.215325      3.159785
  H       0.220996     -9.579746     -0.071446
  H       2.009560     -9.535705     -0.165054
  H       1.030536     -8.324709     -1.053576
  H      -0.165230     -6.620887      0.140241
  H      -0.058010     -6.518777      1.929676
  H      -0.970692     -7.852508      1.153009
  H       1.429036     -4.644298      0.789874
  H       3.657900     -7.633576     -1.334807
  H       0.200832     -4.655401     -5.499054
  H       0.193778     -3.396591     -4.250732
  H       0.486972     -5.084148     -3.805489
  H       4.171421     -2.115262     -0.095661
  H       4.500543     -0.275757     -3.959599
  H       3.091933     -0.070650      0.786902
  H       3.430783      1.763920     -3.081589
  H       2.719439      1.882730     -0.702953
  F       0.257470     -1.730497      0.474485
  F      -1.526584     -0.589868      1.071620
  F      -3.025079     -2.998857      0.559495
  F      -1.084419     -4.017363      0.372803
  F      -2.709534     -0.901873     -1.213139
  F      -1.393536     -2.544558     -1.847683
  F      -2.510046     -2.219946      3.030319
  F      -2.114189     -4.358152      2.752010
  F      -1.083132      0.041997     -3.003016
  F      -0.299778      0.709283     -1.082589
  F       0.668218     -0.923907     -2.158315
  O       0.069438     -1.795536      3.531007
  O       0.528574     -3.954493      3.025375
  C      -1.091799     -1.649221      0.352799
  C      -1.716403     -2.957287      0.931558
  C      -1.451081     -1.386933     -1.150251
  C      -1.630815     -3.105017      2.482120
  C      -0.507360     -0.360659     -1.863047
  C      -0.187732     -2.931887      3.083693
74
Coordinates from ORCA-job R4N+PFHxA-_r2 E -2389.494593313062
  N       1.130526     -8.036374      1.048283
  C       2.876821     -3.558715     -3.517385
  C       4.344817     -3.211676     -3.806778
  C       5.097238     -2.593080     -2.616136
  C       2.747262     -4.508969     -2.347858
  C       2.177532     -4.106625     -4.772495
  C       2.394469     -7.165277      1.038677
  C       2.510739     -6.253021     -0.144399
  C       4.418955     -1.344278     -2.087909
  C       2.060195     -4.122997     -1.196174
  C       3.319527     -5.786218     -2.380132
  C       6.552941     -2.303360     -3.002962
  C       1.169295     -8.876721      2.291844
  C       1.097309     -8.934837     -0.150734
  C      -0.107270     -7.189457      1.070596
  C       1.953619     -4.973876     -0.102722
  C       3.201652     -6.647376     -1.295414
  C       0.680685     -4.323200     -4.569676
  C       4.012571     -1.262614     -0.753018
  C       4.196959     -0.237667     -2.916683
  C       3.402196     -0.112122     -0.254982
  C       3.591997      0.914879     -2.422700
  C       3.192331      0.983035     -1.088552
  H       2.362206     -2.628829     -3.237757
  H       4.377315     -2.516424     -4.656853
  H       4.880446     -4.117618     -4.122505
  H       5.102436     -3.328801     -1.799979
  H       2.657634     -5.047294     -5.075410
  H       2.339096     -3.393367     -5.591502
  H       3.230327     -7.869392      1.079948
  H       2.357757     -6.593164      1.970314
  H       1.618277     -3.132341     -1.151680
  H       3.869303     -6.111197     -3.260154
  H       7.053510     -3.222279     -3.328889
  H       7.111853     -1.890624     -2.156196
  H       6.601848     -1.581329     -3.826356
  H       2.068703     -9.495184      2.269666
  H       0.278046     -9.506637      2.311916
  H       1.184289     -8.215623      3.160688
  H       0.219430     -9.579003     -0.070319
  H       2.008030     -9.537088     -0.164375
  H       1.030139     -8.324967     -1.052643
  H      -0.166341     -6.621858      0.141624
  H      -0.057796     -6.518634      1.930897
  H      -0.970175     -7.853195      1.155892
  H       1.431224     -4.645081      0.791500
  H       3.656570     -7.634339     -1.336289
  H       0.199043     -4.653742     -5.496075
  H       0.192771     -3.393999     -4.248744
  H       0.485842     -5.081451     -3.802519
  H       4.173366     -2.115022     -0.096304
  H       4.501980     -0.275080     -3.960046
  H       3.090864     -0.072110      0.785801
  H       3.430043      1.763467     -3.082394
  H       2.715997      1.881107     -0.704826
  F       0.257557     -1.729794      0.475940
  F      -1.528322     -0.590929      1.070537
  F      -3.024262     -3.001292      0.554411
  F      -1.082366     -4.018173      0.372117
  F      -2.707622     -0.902556     -1.215440
  F      -1.390286     -2.544454     -1.849178
  F      -2.514797     -2.221039      3.026572
  F      -2.117388     -4.358966      2.749380
  F      -1.080303      0.045503     -3.001321
  F      -0.295279      0.707634     -1.079693
  F       0.670209     -0.924381     -2.159170
  O       0.062740     -1.795927      3.535047
  O       0.525284     -3.953353      3.025393
  C      -1.091653     -1.649666      0.352011
  C      -1.716447     -2.958526      0.929248
  C      -1.449035     -1.387068     -1.151473
  C      -1.633962     -3.105714      2.480119
  C      -0.504525     -0.360342     -1.862387
  C      -0.192155     -2.931722      3.084650
74
Coordinates from ORCA-job R4N+PFHxA-_r2 E -2389.494595110943
  N       1.131029     -8.037313      1.048165
  C       2.876930     -3.558434     -3.516481
  C       4.344938     -3.211704     -3.806491
  C       5.097878     -2.592835     -2.616374
  C       2.747758     -4.508833     -2.347053
  C       2.176850     -4.105767     -4.771358
  C       2.394926     -7.166268      1.038625
  C       2.510800     -6.253618     -0.144152
  C       4.419827     -1.343989     -2.088125
  C       2.061344     -4.122771     -1.194932
  C       3.319278     -5.786348     -2.379918
  C       6.553423     -2.303327     -3.003941
  C       1.169839     -8.877705      2.291740
  C       1.097674     -8.935646     -0.150949
  C      -0.106956     -7.190547      1.070367
  C       1.954245     -4.974228     -0.101933
  C       3.201351     -6.647756     -1.295485
  C       0.679916     -4.321316     -4.568027
  C       4.014277     -1.261893     -0.753005
  C       4.196834     -0.237849     -2.917231
  C       3.403586     -0.111444     -0.255135
  C       3.591409      0.914470     -2.423498
  C       3.192263      0.983073     -1.089197
  H       2.362851     -2.628404     -3.236343
  H       4.377257     -2.516700     -4.656773
  H       4.880209     -4.117921     -4.122054
  H       5.103417     -3.328312     -1.799977
  H       2.656216     -5.046695     -5.074611
  H       2.338419     -3.392430     -5.590289
  H       3.231048     -7.870114      1.079241
  H       2.358809     -6.594558      1.970583
  H       1.620021     -3.131839     -1.149864
  H       3.868494     -6.111380     -3.260281
  H       7.053906     -3.222349     -3.329701
  H       7.112752     -1.890210     -2.157628
  H       6.601967     -1.581593     -3.827631
  H       2.069109     -9.496351      2.269396
  H       0.278373     -9.507303      2.312074
  H       1.185166     -8.216422      3.160448
  H       0.219211     -9.579066     -0.070821
  H       2.007929     -9.538596     -0.164359
  H       1.031135     -8.325663     -1.052822
  H      -0.166332     -6.623510      0.141058
  H      -0.057722     -6.519015      1.930120
  H      -0.969683     -7.854419      1.156323
  H       1.432189     -4.645402      0.792474
  H       3.655908     -7.634878     -1.336696
  H       0.198316     -4.653997     -5.493715
  H       0.192161     -3.391290     -4.249388
  H       0.484733     -5.078041     -3.799433
  H       4.175958     -2.113866     -0.095949
  H       4.501233     -0.275505     -3.960770
  H       3.092360     -0.071759      0.785689
  H       3.428519      1.762633     -3.083514
  H       2.714951      1.880940     -0.706174
  F       0.257274     -1.729502      0.476142
  F      -1.528616     -0.590677      1.069966
  F      -3.024454     -3.001509      0.552714
  F      -1.082312     -4.018178      0.372348
  F      -2.707452     -0.902273     -1.215866
  F      -1.390438     -2.544435     -1.849534
  F      -2.516921     -2.219766      3.025183
  F      -2.119886     -4.357809      2.749268
  F      -1.079920      0.046368     -3.001161
  F      -0.292975      0.706508     -1.079607
  F       0.670043     -0.925950     -2.160264
  O       0.059832     -1.795344      3.536552
  O       0.523280     -3.952289      3.025538
  C      -1.091866     -1.649418      0.351678
  C      -1.717001     -2.958421      0.928618
  C      -1.448967     -1.386976     -1.151960
  C      -1.635780     -3.104972      2.479697
  C      -0.503916     -0.360769     -1.862710
  C      -0.194435     -2.930933      3.085063
74
Coordinates from ORCA-job R4N+PFHxA-_r2 E -2389.494597031152
  N       1.131040     -8.037756      1.048024
  C       2.877896     -3.558366     -3.516177
  C       4.345930     -3.211842     -3.806601
  C       5.099095     -2.592622     -2.616915
  C       2.748754     -4.508843     -2.346814
  C       2.177333     -4.105318     -4.770868
  C       2.394728     -7.166609      1.038446
  C       2.510562     -6.253922     -0.144290
  C       4.420801     -1.344092     -2.088399
  C       2.062948     -4.122375     -1.194387
  C       3.319262     -5.786736     -2.380011
  C       6.554377     -2.302657     -3.005150
  C       1.169581     -8.877487      2.292084
  C       1.097889     -8.936647     -0.150647
  C      -0.107159     -7.191038      1.069507
  C       1.954761     -4.974248     -0.101811
  C       3.200929     -6.648195     -1.295697
  C       0.680209     -4.319516     -4.567338
  C       4.016027     -1.262165     -0.753087
  C       4.196449     -0.238184     -2.917457
  C       3.404867     -0.112084     -0.254914
  C       3.590250      0.913601     -2.423510
  C       3.191689      0.982026     -1.088977
  H       2.364225     -2.628215     -3.235718
  H       4.378053     -2.517169     -4.657154
  H       4.880983     -4.118287     -4.121885
  H       5.105309     -3.328017     -1.800431
  H       2.655755     -5.046709     -5.074143
  H       2.339223     -3.392161     -5.589892
  H       3.231246     -7.870006      1.078870
  H       2.358772     -6.594921      1.970430
  H       1.622533     -3.131095     -1.148993
  H       3.868038     -6.112083     -3.260537
  H       7.055197     -3.221517     -3.330818
  H       7.113911     -1.888975     -2.159243
  H       6.602227     -1.581094     -3.829044
  H       2.068638     -9.496444      2.270024
  H       0.277806     -9.506620      2.312954
  H       1.185223     -8.215534      3.160285
  H       0.219093     -9.579615     -0.070487
  H       2.007921     -9.539938     -0.163424
  H       1.031818     -8.327113     -1.052854
  H      -0.166660     -6.624813      0.139690
  H      -0.058120     -6.518648      1.928627
  H      -0.969747     -7.854988      1.156183
  H       1.433016     -4.645354      0.792803
  H       3.655002     -7.635536     -1.337055
  H       0.198850     -4.654887     -5.492207
  H       0.192684     -3.388389     -4.251686
  H       0.484399     -5.074196     -3.796858
  H       4.178733     -2.113875     -0.095950
  H       4.500193     -0.275617     -3.961198
  H       3.093664     -0.073408      0.785914
  H       3.426145      1.761541     -3.083516
  H       2.713507      1.879451     -0.705993
  F       0.256544     -1.729012      0.475700
  F      -1.529024     -0.590367      1.070375
  F      -3.024882     -3.001943      0.552619
  F      -1.082299     -4.017755      0.372466
  F      -2.708659     -0.900884     -1.214800
  F      -1.393365     -2.544123     -1.849161
  F      -2.518080     -2.219317      3.024954
  F      -2.120725     -4.357355      2.749642
  F      -1.081341      0.047242     -3.000650
  F      -0.291453      0.705259     -1.079638
  F       0.667977     -0.928258     -2.161765
  O       0.058583     -1.794821      3.537433
  O       0.522273     -3.951542      3.025622
  C      -1.092676     -1.648999      0.351900
  C      -1.717536     -2.958302      0.928755
  C      -1.450548     -1.386561     -1.151686
  C      -1.636591     -3.104696      2.479906
  C      -0.504848     -0.361326     -1.862902
  C      -0.195416     -2.930338      3.085414
74
Coordinates from ORCA-job R4N+PFHxA-_r2 E -2389.494599107051
  N       1.131258     -8.038980      1.047601
  C       2.878624     -3.558284     -3.515185
  C       4.346629     -3.212122     -3.806305
  C       5.100062     -2.592397     -2.617146
  C       2.749708     -4.508880     -2.345886
  C       2.177201     -4.104832     -4.769524
  C       2.394687     -7.167639      1.038472
  C       2.510521     -6.254584     -0.144015
  C       4.421614     -1.344006     -2.088591
  C       2.064766     -4.122129     -1.192981
  C       3.319144     -5.787187     -2.379723
  C       6.555100     -2.302010     -3.006051
  C       1.169130     -8.878158      2.292041
  C       1.098681     -8.938298     -0.150709
  C      -0.106975     -7.192206      1.068094
  C       1.955527     -4.974599     -0.100959
  C       3.200509     -6.648884     -1.295618
  C       0.679915     -4.317560     -4.565444
  C       4.018101     -1.261708     -0.752974
  C       4.195663     -0.238643     -2.917969
  C       3.406917     -0.111680     -0.254671
  C       3.589065      0.912913     -2.423998
  C       3.191760      0.981726     -1.089066
  H       2.365412     -2.628015     -3.234339
  H       4.378492     -2.517993     -4.657304
  H       4.881439     -4.118847     -4.121191
  H       5.106943     -3.327595     -1.800480
  H       2.654433     -5.046773     -5.072942
  H       2.339338     -3.391931     -5.588724
  H       3.231544     -7.870661      1.078648
  H       2.358394     -6.596482      1.970783
  H       1.625495     -3.130364     -1.147099
  H       3.867353     -6.112747     -3.260521
  H       7.056233     -3.220762     -3.331515
  H       7.114805     -1.887675     -2.160579
  H       6.602257     -1.580738     -3.830247
  H       2.068096     -9.497270      2.270622
  H       0.277189     -9.507043      2.313025
  H       1.184584     -8.215702      3.159871
  H       0.219680     -9.581018     -0.070792
  H       2.008622     -9.541734     -0.162701
  H       1.033185     -8.329145     -1.053215
  H      -0.166354     -6.626998      0.137638
  H      -0.058098     -6.518702      1.926350
  H      -0.969521     -7.856095      1.155576
  H       1.434439     -4.645646      0.794036
  H       3.654024     -7.636460     -1.337430
  H       0.198366     -4.655012     -5.489464
  H       0.192931     -3.385406     -4.252047
  H       0.483662     -5.070449     -3.793300
  H       4.181936     -2.112923     -0.095478
  H       4.498359     -0.276310     -3.962005
  H       3.096370     -0.073235      0.786334
  H       3.423585      1.760392     -3.084248
  H       2.713456      1.879076     -0.706047
  F       0.255661     -1.727944      0.474328
  F      -1.529470     -0.589542      1.070540
  F      -3.025082     -3.002047      0.552079
  F      -1.081761     -4.016550      0.371958
  F      -2.710218     -0.898542     -1.214018
  F      -1.397164     -2.543240     -1.849063
  F      -2.519132     -2.218965      3.024272
  F      -2.121017     -4.356915      2.749188
  F      -1.083130      0.047970     -3.001064
  F      -0.290433      0.704783     -1.080907
  F       0.665517     -0.930309     -2.163768
  O       0.057862     -1.793854      3.536875
  O       0.521534     -3.950551      3.025684
  C      -1.093622     -1.647993      0.351651
  C      -1.717820     -2.957636      0.928460
  C      -1.452608     -1.385509     -1.151749
  C      -1.637164     -3.104231      2.479571
  C      -0.506232     -0.361477     -1.863865
  C      -0.196191     -2.929445      3.085109
74
Coordinates from ORCA-job R4N+PFHxA-_r2 E -2389.494601612942
  N       1.131627     -8.040307      1.047290
  C       2.879195     -3.558116     -3.513784
  C       4.347072     -3.212458     -3.806053
  C       5.101117     -2.592205     -2.617617
  C       2.750602     -4.508913     -2.344578
  C       2.176507     -4.104241     -4.767585
  C       2.394942     -7.168945      1.038553
  C       2.510891     -6.255458     -0.143596
  C       4.422582     -1.343884     -2.089001
  C       2.067062     -4.121923     -1.190897
  C       3.318742     -5.787751     -2.379474
  C       6.555817     -2.301388     -3.007535
  C       1.168527     -8.878658      2.292267
  C       1.099733     -8.940398     -0.150405
  C      -0.106468     -7.193206      1.066496
  C       1.957023     -4.975062     -0.099473
  C       3.199990     -6.649853     -1.295650
  C       0.679156     -4.315667     -4.562455
  C       4.020042     -1.261378     -0.753170
  C       4.195355     -0.238893     -2.918575
  C       3.408862     -0.111452     -0.254653
  C       3.588509      0.912516     -2.424453
  C       3.192254      0.981509     -1.089176
  H       2.366534     -2.627716     -3.232456
  H       4.378446     -2.518916     -4.657543
  H       4.881563     -4.119439     -4.120732
  H       5.108828     -3.327194     -1.800774
  H       2.652492     -5.046691     -5.071365
  H       2.338641     -3.391585     -5.587005
  H       3.231878     -7.871901      1.078493
  H       2.358272     -6.598349      1.971182
  H       1.629386     -3.129518     -1.144247
  H       3.866058     -6.113475     -3.260755
  H       7.057105     -3.220047     -3.333011
  H       7.115889     -1.886527     -2.162569
  H       6.602113     -1.580355     -3.831988
  H       2.067538     -9.497751      2.271949
  H       0.276600     -9.507562      2.313078
  H       1.183300     -8.215683      3.159712
  H       0.220707     -9.583098     -0.070625
  H       2.009720     -9.543782     -0.161432
  H       1.034767     -8.331885     -1.053385
  H      -0.165563     -6.629071      0.135360
  H      -0.057410     -6.518605      1.923883
  H      -0.969142     -7.856815      1.154758
  H       1.437227     -4.646192      0.796383
  H       3.652717     -7.637745     -1.338301
  H       0.196824     -4.653934     -5.485759
  H       0.193033     -3.382804     -4.249821
  H       0.482868     -5.067519     -3.789288
  H       4.184659     -2.112264     -0.095447
  H       4.497205     -0.276716     -3.962847
  H       3.098965     -0.073200      0.786526
  H       3.421975      1.759696     -3.084814
  H       2.714324      1.878907     -0.705793
  F       0.254328     -1.726160      0.472800
  F      -1.531036     -0.588855      1.070652
  F      -3.025044     -3.003111      0.550205
  F      -1.080102     -4.014796      0.370426
  F      -2.711938     -0.895424     -1.213811
  F      -1.401246     -2.541684     -1.849435
  F      -2.521344     -2.220107      3.022541
  F      -2.120716     -4.357641      2.747206
  F      -1.084521      0.049935     -3.001185
  F      -0.289343      0.704601     -1.081436
  F       0.663055     -0.931777     -2.165701
  O       0.055695     -1.792784      3.536307
  O       0.520657     -3.949160      3.025078
  C      -1.095088     -1.646783      0.351089
  C      -1.717999     -2.957156      0.927337
  C      -1.454924     -1.383891     -1.152078
  C      -1.638112     -3.104379      2.478282
  C      -0.507572     -0.360942     -1.864652
  C      -0.197617     -2.928432      3.084418
74
Coordinates from ORCA-job R4N+PFHxA-_r2 E -2389.494604539524
  N       1.132350     -8.042141      1.047308
  C       2.878393     -3.557636     -3.511164
  C       4.346011     -3.212595     -3.805146
  C       5.101201     -2.591885     -2.617676
  C       2.750640     -4.508864     -2.342162
  C       2.173836     -4.103061     -4.764269
  C       2.396136     -7.171329      1.038993
  C       2.512043     -6.256967     -0.142493
  C       4.423162     -1.343183     -2.089214
  C       2.069588     -4.121865     -1.187012
  C       3.317213     -5.788369     -2.379048
  C       6.555612     -2.301331     -3.008907
  C       1.168109     -8.880090      2.292490
  C       1.100606     -8.942598     -0.150065
  C      -0.105116     -7.194136      1.065628
  C       1.959809     -4.975950     -0.096294
  C       3.199042     -6.651312     -1.295753
  C       0.676672     -4.314047     -4.557297
  C       4.021473     -1.260006     -0.753204
  C       4.195451     -0.238573     -2.919202
  C       3.410745     -0.109802     -0.254801
  C       3.589098      0.913203     -2.425187
  C       3.193773      0.982815     -1.089659
  H       2.366404     -2.627141     -3.229031
  H       4.376682     -2.519598     -4.657108
  H       4.880017     -4.119836     -4.119891
  H       5.109514     -3.326505     -1.800518
  H       2.648895     -5.045634     -5.069126
  H       2.335267     -3.390214     -5.583669
  H       3.232618     -7.874872      1.078245
  H       2.359372     -6.601745      1.972247
  H       1.633928     -3.128615     -1.138853
  H       3.862815     -6.114036     -3.261399
  H       7.056491     -3.220182     -3.334479
  H       7.116398     -1.886247     -2.164532
  H       6.601280     -1.580622     -3.833670
  H       2.067251     -9.499049      2.273296
  H       0.276344     -9.509249      2.312613
  H       1.181879     -8.217074      3.159917
  H       0.221494     -9.585197     -0.070467
  H       2.010519     -9.546110     -0.160601
  H       1.036106     -8.334408     -1.053303
  H      -0.163782     -6.630913      0.133908
  H      -0.055321     -6.518526      1.922143
  H      -0.968299     -7.856970      1.154682
  H       1.442589     -4.647455      0.801202
  H       3.650604     -7.639648     -1.340110
  H       0.192736     -4.650853     -5.480268
  H       0.191540     -3.381321     -4.242653
  H       0.481224     -5.066571     -3.784573
  H       4.186328     -2.110581     -0.095136
  H       4.496604     -0.276966     -3.963650
  H       3.101772     -0.070895      0.786633
  H       3.422265      1.760094     -3.085836
  H       2.717035      1.880707     -0.705938
  F       0.253403     -1.722976      0.470688
  F      -1.533803     -0.588686      1.069275
  F      -3.023177     -3.006285      0.544686
  F      -1.075154     -4.012740      0.366784
  F      -2.712609     -0.893014     -1.216179
  F      -1.402612     -2.539788     -1.851626
  F      -2.524645     -2.223655      3.018052
  F      -2.119139     -4.360233      2.741711
  F      -1.084245      0.053029     -3.002181
  F      -0.288081      0.705219     -1.082071
  F       0.662277     -0.931513     -2.167950
  O       0.051718     -1.791457      3.534788
  O       0.520296     -3.947062      3.024325
  C      -1.096132     -1.645464      0.348969
  C      -1.716735     -2.957343      0.923781
  C      -1.455875     -1.382069     -1.154078
  C      -1.638860     -3.105665      2.474524
  C      -0.507713     -0.359399     -1.866215
  C      -0.199542     -2.927355      3.082666
74
Coordinates from ORCA-job R4N+PFHxA-_r2 E -2389.494607412720
  N       1.132820     -8.042976      1.047467
  C       2.877436     -3.557190     -3.508838
  C       4.344709     -3.212537     -3.804552
  C       5.101274     -2.591646     -2.617974
  C       2.750605     -4.508759     -2.339984
  C       2.171155     -4.102158     -4.761259
  C       2.397581     -7.173251      1.039438
  C       2.513811     -6.258142     -0.141345
  C       4.423644     -1.342755     -2.089256
  C       2.072281     -4.121688     -1.183287
  C       3.315705     -5.788916     -2.378830
  C       6.555295     -2.301243     -3.010710
  C       1.167337     -8.880619      2.292812
  C       1.100808     -8.943792     -0.149638
  C      -0.103779     -7.193666      1.065068
  C       1.963471     -4.976405     -0.092964
  C       3.198330     -6.652608     -1.296004
  C       0.674403     -4.313900     -4.552232
  C       4.022218     -1.259641     -0.753162
  C       4.195895     -0.238032     -2.919098
  C       3.411492     -0.109552     -0.254544
  C       3.589934      0.913886     -2.424772
  C       3.194887      0.983360     -1.089173
  H       2.365997     -2.626632     -3.225990
  H       4.374552     -2.519664     -4.656656
  H       4.878315     -4.119827     -4.119848
  H       5.110273     -3.326108     -1.800695
  H       2.646163     -5.044367     -5.067343
  H       2.331306     -3.388843     -5.580503
  H       3.233160     -7.877894      1.078203
  H       2.361017     -6.604402      1.973127
  H       1.638732     -3.127586     -1.133603
  H       3.859418     -6.114531     -3.262357
  H       7.055567     -3.220175     -3.337010
  H       7.117018     -1.886503     -2.166795
  H       6.600264     -1.580442     -3.835416
  H       2.066632     -9.499411      2.274773
  H       0.275793     -9.510134      2.311917
  H       1.179939     -8.217715      3.160334
  H       0.221429     -9.586036     -0.070166
  H       2.010424     -9.547773     -0.159798
  H       1.036938     -8.335842     -1.053085
  H      -0.161911     -6.631095      0.132916
  H      -0.052707     -6.517335      1.920907
  H      -0.967704     -7.855444      1.154713
  H       1.449036     -4.648302      0.806326
  H       3.648582     -7.641458     -1.342018
  H       0.188677     -4.647741     -5.475311
  H       0.189923     -3.382108     -4.233753
  H       0.480460     -5.068438     -3.781108
  H       4.187072     -2.110338     -0.095252
  H       4.496840     -0.276458     -3.963603
  H       3.103301     -0.070398      0.787133
  H       3.423308      1.760924     -3.085278
  H       2.719277      1.881578     -0.704777
  F       0.252546     -1.720218      0.468647
  F      -1.536791     -0.589123      1.067425
  F      -3.021302     -3.010236      0.539096
  F      -1.070182     -4.011295      0.362991
  F      -2.713220     -0.891726     -1.219012
  F      -1.403026     -2.538267     -1.854429
  F      -2.527401     -2.227592      3.013530
  F      -2.116880     -4.363162      2.736211
  F      -1.084049      0.056412     -3.002996
  F      -0.287669      0.705673     -1.081971
  F       0.661820     -0.930216     -2.170054
  O       0.047804     -1.790144      3.533351
  O       0.520742     -3.944902      3.022643
  C      -1.097161     -1.644754      0.346468
  C      -1.715418     -2.958153      0.919918
  C      -1.456511     -1.380772     -1.156477
  C      -1.639161     -3.107164      2.470479
  C      -0.507903     -0.357749     -1.867641
  C      -0.200855     -2.926293      3.080564
74
Coordinates from ORCA-job R4N+PFHxA-_r2 E -2389.494609845002
  N       1.133133     -8.043142      1.047656
  C       2.875944     -3.556734     -3.506788
  C       4.342901     -3.212164     -3.803847
  C       5.100713     -2.591417     -2.617889
  C       2.750207     -4.508580     -2.338048
  C       2.168391     -4.101344     -4.758733
  C       2.399239     -7.174955      1.039939
  C       2.515830     -6.259065     -0.140099
  C       4.423598     -1.342407     -2.088688
  C       2.074577     -4.121408     -1.179824
  C       3.314064     -5.789289     -2.378688
  C       6.554427     -2.301343     -3.011879
  C       1.166488     -8.880972      2.292888
  C       1.100320     -8.943816     -0.149573
  C      -0.102403     -7.192298      1.065038
  C       1.967403     -4.976565     -0.089674
  C       3.197720     -6.653625     -1.296290
  C       0.672162     -4.314755     -4.547920
  C       4.022380     -1.259529     -0.752468
  C       4.196091     -0.237399     -2.918180
  C       3.411610     -0.109597     -0.253567
  C       3.590641      0.914620     -2.423442
  C       3.195676      0.983809     -1.087849
  H       2.364870     -2.626180     -3.223280
  H       4.372077     -2.519035     -4.655783
  H       4.876206     -4.119381     -4.119877
  H       5.110146     -3.325870     -1.800612
  H       2.644127     -5.042774     -5.066103
  H       2.326957     -3.387249     -5.577599
  H       3.233704     -7.880940      1.078124
  H       2.363293     -6.606747      1.974070
  H       1.642717     -3.126579     -1.128620
  H       3.855811     -6.114828     -3.263451
  H       7.053978     -3.220364     -3.339066
  H       7.117080     -1.887264     -2.168260
  H       6.598970     -1.580264     -3.836357
  H       2.065811     -9.499752      2.275605
  H       0.275020     -9.510643      2.310869
  H       1.178217     -8.218383      3.160657
  H       0.220221     -9.585116     -0.070421
  H       2.009215     -9.548893     -0.159627
  H       1.037428     -8.335663     -1.052948
  H      -0.160014     -6.630109      0.132615
  H      -0.049972     -6.515473      1.920372
  H      -0.967195     -7.852875      1.155129
  H       1.455562     -4.648775      0.811171
  H       3.646661     -7.643002     -1.343814
  H       0.184986     -4.645372     -5.471382
  H       0.187769     -3.384341     -4.225269
  H       0.479942     -5.071866     -3.778913
  H       4.187263     -2.110480     -0.094897
  H       4.496954     -0.275704     -3.962715
  H       3.104327     -0.070129      0.788402
  H       3.424481      1.761954     -3.083691
  H       2.720881      1.882238     -0.702910
  F       0.252476     -1.718184      0.466437
  F      -1.538854     -0.589884      1.064659
  F      -3.019170     -3.013899      0.534097
  F      -1.065752     -4.010868      0.359583
  F      -2.713224     -0.892489     -1.222416
  F      -1.401555     -2.537924     -1.857615
  F      -2.528413     -2.230774      3.009573
  F      -2.114219     -4.365527      2.731458
  F      -1.083870      0.058152     -3.004850
  F      -0.288115      0.706047     -1.083014
  F       0.662164     -0.928554     -2.172364
  O       0.045574     -1.788756      3.530874
  O       0.522401     -3.942874      3.021024
  C      -1.097341     -1.644633      0.343477
  C      -1.713716     -2.959266      0.916070
  C      -1.456152     -1.380579     -1.159474
  C      -1.638419     -3.108448      2.466619
  C      -0.507819     -0.356762     -1.869773
  C      -0.200813     -2.925354      3.078028
74
Coordinates from ORCA-job R4N+PFHxA-_r2 E -2389.494612045741
  N       1.133405     -8.042744      1.047641
  C       2.874864     -3.556407     -3.505595
  C       4.341608     -3.211711     -3.803538
  C       5.100420     -2.591324     -2.617932
  C       2.750053     -4.508428     -2.336939
  C       2.166580     -4.100827     -4.757245
  C       2.400679     -7.175988      1.040168
  C       2.517712     -6.259487     -0.139225
  C       4.423606     -1.342479     -2.087928
  C       2.076583     -4.121038     -1.177531
  C       3.312969     -5.789541     -2.378805
  C       6.553818     -2.301341     -3.012989
  C       1.165795     -8.880761      2.292840
  C       1.099676     -8.943306     -0.149710
  C      -0.101158     -7.190503      1.064925
  C       1.970987     -4.976301     -0.087301
  C       3.197496     -6.654195     -1.296661
  C       0.670802     -4.315883     -4.545191
  C       4.022550     -1.260267     -0.751559
  C       4.196132     -0.237013     -2.916763
  C       3.411433     -0.110762     -0.252111
  C       3.590800      0.914758     -2.421366
  C       3.195784      0.983247     -1.085789
  H       2.364056     -2.625868     -3.221562
  H       4.370295     -2.518073     -4.655089
  H       4.874703     -4.118788     -4.120337
  H       5.110326     -3.325962     -1.800823
  H       2.643285     -5.041460     -5.065560
  H       2.323766     -3.386006     -5.575735
  H       3.234260     -7.883031      1.077953
  H       2.365493     -6.608084      1.974507
  H       1.645951     -3.125722     -1.125183
  H       3.853120     -6.115084     -3.264549
  H       7.052854     -3.220314     -3.341114
  H       7.117289     -1.887917     -2.169591
  H       6.597926     -1.579860     -3.837135
  H       2.064989     -9.499733      2.275997
  H       0.274188     -9.510264      2.310030
  H       1.177124     -8.218261      3.160674
  H       0.218542     -9.583233     -0.070901
  H       2.007593     -9.549859     -0.159470
  H       1.038068     -8.334937     -1.053016
  H      -0.158360     -6.628654      0.132259
  H      -0.047396     -6.513249      1.919860
  H      -0.966729     -7.849986      1.155465
  H       1.460757     -4.648571      0.814509
  H       3.645325     -7.644039     -1.345112
  H       0.182855     -4.644692     -5.468898
  H       0.186083     -3.386518     -4.220043
  H       0.479917     -5.074726     -3.777567
  H       4.187738     -2.111590     -0.094558
  H       4.496969     -0.274798     -3.961329
  H       3.104955     -0.071486      0.790116
  H       3.424845      1.762508     -3.081139
  H       2.720947      1.881500     -0.700459
  F       0.252406     -1.717895      0.464866
  F      -1.539700     -0.590452      1.062138
  F      -3.018683     -3.015497      0.531520
  F      -1.064687     -4.011305      0.357661
  F      -2.713276     -0.894340     -1.225096
  F      -1.399862     -2.538589     -1.859942
  F      -2.528411     -2.231460      3.007365
  F      -2.113028     -4.365951      2.729567
  F      -1.084068      0.058157     -3.006785
  F      -0.289288      0.706004     -1.084434
  F       0.662504     -0.927406     -2.173945
  O       0.044529     -1.787496      3.529070
  O       0.523869     -3.941207      3.018729
  C      -1.097440     -1.645007      0.341182
  C      -1.713361     -2.959995      0.913650
  C      -1.455737     -1.381262     -1.161878
  C      -1.637953     -3.108566      2.464353
  C      -0.507961     -0.356723     -1.871622
  C      -0.200394     -2.924353      3.075888
74
Coordinates from ORCA-job R4N+PFHxA-_r2 E -2389.494614169137
  N       1.133668     -8.042003      1.047779
  C       2.873894     -3.556055     -3.504781
  C       4.340519     -3.211144     -3.803284
  C       5.100122     -2.591259     -2.617870
  C       2.749986     -4.508312     -2.336253
  C       2.165204     -4.100154     -4.756323
  C       2.402136     -7.176922      1.040231
  C       2.519460     -6.259880     -0.138654
  C       4.423540     -1.342759     -2.086823
  C       2.078829     -4.120523     -1.175596
  C       3.311671     -5.789927     -2.379314
  C       6.553212     -2.301205     -3.013876
  C       1.165145     -8.880037      2.293095
  C       1.098646     -8.942561     -0.149575
  C      -0.099827     -7.188161      1.065081
  C       1.974727     -4.975903     -0.085316
  C       3.196985     -6.654847     -1.297392
  C       0.669722     -4.316387     -4.543551
  C       4.022801     -1.261426     -0.750263
  C       4.195835     -0.236775     -2.914850
  C       3.411314     -0.112446     -0.250062
  C       3.590401      0.914541     -2.418634
  C       3.195453      0.982131     -1.083003
  H       2.363325     -2.625567     -3.220162
  H       4.368849     -2.516946     -4.654397
  H       4.873405     -4.118120     -4.120740
  H       5.110575     -3.326220     -1.801046
  H       2.642651     -5.040152     -5.065420
  H       2.321382     -3.384672     -5.574421
  H       3.234918     -7.884941      1.077345
  H       2.368187     -6.609187      1.974761
  H       1.649278     -3.124774     -1.121968
  H       3.850063     -6.115617     -3.266087
  H       7.051969     -3.220055     -3.342770
  H       7.117383     -1.888194     -2.170737
  H       6.596822     -1.579377     -3.837752
  H       2.063931     -9.499594      2.276439
  H       0.273057     -9.508860      2.310030
  H       1.176742     -8.217313      3.160755
  H       0.216171     -9.580671     -0.070969
  H       2.005332     -9.550954     -0.158962
  H       1.038497     -8.334071     -1.052886
  H      -0.156749     -6.626794      0.132103
  H      -0.044739     -6.510438      1.919581
  H      -0.966209     -7.846473      1.156368
  H       1.465932     -4.648155      0.817279
  H       3.643488     -7.645256     -1.346747
  H       0.181558     -4.644878     -5.467278
  H       0.184537     -3.387538     -4.217696
  H       0.479622     -5.075907     -3.776407
  H       4.188522     -2.113128     -0.093902
  H       4.496522     -0.273815     -3.959492
  H       3.105557     -0.073751      0.792408
  H       3.424326      1.762725     -3.077827
  H       2.720040      1.879940     -0.697341
  F       0.252519     -1.718189      0.463145
  F      -1.540052     -0.591202      1.059506
  F      -3.018544     -3.016422      0.529901
  F      -1.064772     -4.012422      0.356000
  F      -2.713260     -0.896908     -1.227748
  F      -1.397913     -2.539889     -1.862151
  F      -2.527857     -2.231883      3.005731
  F      -2.111765     -4.366211      2.728423
  F      -1.084446      0.056803     -3.009306
  F      -0.290882      0.705870     -1.086782
  F       0.662920     -0.926703     -2.175472
  O       0.044323     -1.786297      3.526749
  O       0.525730     -3.939546      3.016352
  C      -1.097317     -1.645717      0.338959
  C      -1.713190     -2.960827      0.911629
  C      -1.455210     -1.382535     -1.164293
  C      -1.637186     -3.108764      2.462566
  C      -0.508175     -0.357311     -1.873756
  C      -0.199523     -2.923490      3.073607
74
Coordinates from ORCA-job R4N+PFHxA-_r2 E -2389.494616215894
  N       1.134229     -8.041421      1.048239
  C       2.873164     -3.555663     -3.504205
  C       4.339796     -3.210707     -3.803086
  C       5.100024     -2.591331     -2.617788
  C       2.749971     -4.508344     -2.335965
  C       2.164102     -4.099119     -4.755742
  C       2.403711     -7.177928      1.039975
  C       2.520959     -6.260441     -0.138573
  C       4.423717     -1.343095     -2.085833
  C       2.081332     -4.120072     -1.173987
  C       3.310061     -5.790590     -2.380362
  C       6.552891     -2.301265     -3.014564
  C       1.165322     -8.879285      2.293775
  C       1.097284     -8.942118     -0.148938
  C      -0.098115     -7.185892      1.066076
  C       1.978430     -4.975612     -0.083716
  C       3.196070     -6.655778     -1.298647
  C       0.668664     -4.315272     -4.542650
  C       4.023344     -1.262443     -0.749110
  C       4.195644     -0.236728     -2.913228
  C       3.411590     -0.113878     -0.248261
  C       3.589966      0.914138     -2.416349
  C       3.195153      0.981003     -1.080620
  H       2.362949     -2.625218     -3.218863
  H       4.367903     -2.516113     -4.653879
  H       4.872378     -4.117712     -4.120974
  H       5.110962     -3.326587     -1.801226
  H       2.641456     -5.038956     -5.065441
  H       2.319977     -3.383228     -5.573535
  H       3.235918     -7.886682      1.076130
  H       2.371304     -6.610315      1.974600
  H       1.652965     -3.123913     -1.119026
  H       3.846559     -6.116533     -3.268194
  H       7.051525     -3.220057     -3.343786
  H       7.117584     -1.888273     -2.171759
  H       6.596070     -1.579359     -3.838402
  H       2.063336     -9.499933      2.276671
  H       0.272374     -9.506854      2.311414
  H       1.178300     -8.216132      3.161091
  H       0.213507     -9.578385     -0.069963
  H       2.002761     -9.552299     -0.158319
  H       1.038056     -8.333675     -1.052332
  H      -0.155039     -6.625079      0.132768
  H      -0.041397     -6.507681      1.920103
  H      -0.965287     -7.842989      1.158567
  H       1.471027     -4.647772      0.819702
  H       3.641074     -7.646817     -1.348997
  H       0.180634     -4.645207     -5.465955
  H       0.183308     -3.386030     -4.218272
  H       0.478548     -5.073922     -3.774629
  H       4.189557     -2.114383     -0.093200
  H       4.496086     -0.273120     -3.957966
  H       3.106154     -0.075903      0.794325
  H       3.423502      1.762600     -3.075090
  H       2.718861      1.878303     -0.694866
  F       0.252273     -1.718775      0.462060
  F      -1.540780     -0.592132      1.057321
  F      -3.018987     -3.016901      0.528173
  F      -1.065757     -4.013646      0.354022
  F      -2.713114     -0.899122     -1.230392
  F      -1.396013     -2.541006     -1.864155
  F      -2.528872     -2.233278      3.003840
  F      -2.110792     -4.367244      2.726883
  F      -1.083957      0.055174     -3.011643
  F      -0.292401      0.705927     -1.088855
  F       0.663779     -0.926156     -2.175879
  O       0.042383     -1.785352      3.525713
  O       0.526837     -3.937739      3.013904
  C      -1.097496     -1.646549      0.337168
  C      -1.713629     -2.961709      0.909675
  C      -1.454688     -1.383712     -1.166368
  C      -1.637314     -3.109510      2.460817
  C      -0.508054     -0.357901     -1.875349
  C      -0.199848     -2.922714      3.071811
74
Coordinates from ORCA-job R4N+PFHxA-_r2 E -2389.494618409205
  N       1.135152     -8.041102      1.049142
  C       2.872355     -3.555138     -3.503519
  C       4.339082     -3.210394     -3.802704
  C       5.099823     -2.591534     -2.617490
  C       2.749805     -4.508455     -2.335711
  C       2.162770     -4.097529     -4.755119
  C       2.405682     -7.179441      1.039482
  C       2.522346     -6.261434     -0.138809
  C       4.423962     -1.343387     -2.084819
  C       2.084363     -4.119630     -1.172057
  C       3.307638     -5.791590     -2.381937
  C       6.552571     -2.301590     -3.014860
  C       1.166149     -8.878621      2.294965
  C       1.095727     -8.942112     -0.147665
  C      -0.095836     -7.183590      1.067874
  C       1.982497     -4.975590     -0.082020
  C       3.194384     -6.657241     -1.300513
  C       0.667120     -4.312272     -4.541962
  C       4.024217     -1.263015     -0.747911
  C       4.195431     -0.236854     -2.911880
  C       3.412564     -0.114595     -0.246559
  C       3.589676      0.913754     -2.414550
  C       3.195318      0.980289     -1.078629
  H       2.362624     -2.624735     -3.217261
  H       4.367082     -2.515631     -4.653351
  H       4.871226     -4.117577     -4.120823
  H       5.111115     -3.327054     -1.801166
  H       2.639055     -5.037718     -5.065349
  H       2.319044     -3.381481     -5.572701
  H       3.237245     -7.889057      1.073965
  H       2.375491     -6.612157      1.974407
  H       1.657442     -3.122951     -1.115317
  H       3.841742     -6.117906     -3.271075
  H       7.051142     -3.220414     -3.344065
  H       7.117630     -1.888357     -2.172414
  H       6.595423     -1.579801     -3.838828
  H       2.063106     -9.500766      2.277015
  H       0.272075     -9.504529      2.313941
  H       1.181273     -8.214991      3.161889
  H       0.210752     -9.576609     -0.067866
  H       2.000067     -9.553967     -0.157351
  H       1.036964     -8.333899     -1.051247
  H      -0.152965     -6.623410      0.134215
  H      -0.037141     -6.504924      1.921421
  H      -0.963902     -7.839276      1.162017
  H       1.477063     -4.647568      0.822445
  H       3.637479     -7.649059     -1.352364
  H       0.179284     -4.644638     -5.464514
  H       0.182138     -3.381881     -4.220422
  H       0.476281     -5.068917     -3.772112
  H       4.190817     -2.114999     -0.092168
  H       4.495400     -0.272899     -3.956767
  H       3.107241     -0.077144      0.796083
  H       3.422630      1.762289     -3.073050
  H       2.718331      1.877240     -0.692929
  F       0.251722     -1.718977      0.461010
  F      -1.542431     -0.593492      1.055098
  F      -3.019321     -3.017834      0.525509
  F      -1.066384     -4.014977      0.351262
  F      -2.712780     -0.900946     -1.233639
  F      -1.394059     -2.541867     -1.866556
  F      -2.531548     -2.236625      3.001104
  F      -2.109358     -4.369796      2.724045
  F      -1.082421      0.053202     -3.014268
  F      -0.294021      0.706339     -1.090993
  F       0.665278     -0.925551     -2.175392
  O       0.038527     -1.784187      3.524597
  O       0.527641     -3.935095      3.011586
  C      -1.097958     -1.647528      0.335259
  C      -1.714038     -2.962965      0.907220
  C      -1.454122     -1.384772     -1.168612
  C      -1.638048     -3.111294      2.458483
  C      -0.507525     -0.358384     -1.876807
  C      -0.201314     -2.921799      3.069974
74
Coordinates from ORCA-job R4N+PFHxA-_r2 E -2389.494620763731
  N       1.136273     -8.041189      1.050440
  C       2.871682     -3.554542     -3.502875
  C       4.338564     -3.210288     -3.802291
  C       5.099702     -2.591826     -2.617152
  C       2.749448     -4.508628     -2.335622
  C       2.161387     -4.095600     -4.754554
  C       2.407744     -7.181159      1.038688
  C       2.523405     -6.262659     -0.139440
  C       4.424443     -1.343436     -2.084246
  C       2.087339     -4.119336     -1.170251
  C       3.304803     -5.792747     -2.383896
  C       6.552491     -2.302293     -3.014813
  C       1.167979     -8.878482      2.296365
  C       1.093782     -8.942428     -0.146015
  C      -0.093311     -7.181787      1.070884
  C       1.986201     -4.975818     -0.080539
  C       3.192234     -6.658959     -1.302796
  C       0.665381     -4.308005     -4.541358
  C       4.025435     -1.262727     -0.747175
  C       4.195491     -0.237058     -2.911451
  C       3.414090     -0.114156     -0.245738
  C       3.589818      0.913595     -2.414096
  C       3.196039      0.980353     -1.077972
  H       2.362509     -2.624144     -3.215700
  H       4.366603     -2.515620     -4.653001
  H       4.870194     -4.117759     -4.120457
  H       5.111019     -3.327455     -1.800931
  H       2.635893     -5.036507     -5.065282
  H       2.318573     -3.379590     -5.572002
  H       3.238653     -7.891662      1.071156
  H       2.380006     -6.614356      1.973918
  H       1.662147     -3.122067     -1.111704
  H       3.836463     -6.119461     -3.274342
  H       7.050881     -3.221295     -3.343771
  H       7.117749     -1.888825     -2.172618
  H       6.595306     -1.580731     -3.838985
  H       2.063757     -9.502281      2.276884
  H       0.272749     -9.502666      2.317249
  H       1.185939     -8.214683      3.163108
  H       0.208103     -9.575749     -0.064725
  H       1.997353     -9.555391     -0.156891
  H       1.034349     -8.334438     -1.049708
  H      -0.150995     -6.622037      0.137015
  H      -0.032185     -6.502806      1.924020
  H      -0.962248     -7.836041      1.166937
  H       1.483097     -4.647551      0.825204
  H       3.633398     -7.651538     -1.356396
  H       0.177521     -4.642791     -5.463024
  H       0.181299     -3.376136     -4.222818
  H       0.473479     -5.062265     -3.769391
  H       4.192208     -2.114510     -0.091223
  H       4.494878     -0.273269     -3.956494
  H       3.108519     -0.076738      0.796828
  H       3.422155      1.761913     -3.072710
  H       2.718635      1.877175     -0.692503
  F       0.250753     -1.718941      0.460973
  F      -1.545134     -0.595217      1.053423
  F      -3.019560     -3.019531      0.521487
  F      -1.066268     -4.016039      0.348037
  F      -2.712058     -0.902047     -1.237116
  F      -1.391931     -2.542201     -1.868898
  F      -2.536687     -2.241776      2.997336
  F      -2.108123     -4.373732      2.719908
  F      -1.079291      0.051818     -3.016180
  F      -0.295208      0.706965     -1.091875
  F       0.667671     -0.924744     -2.173364
  O       0.031563     -1.783037      3.525391
  O       0.527358     -3.931846      3.009984
  C      -1.098796     -1.648601      0.333728
  C      -1.714604     -2.964542      0.904410
  C      -1.453341     -1.385447     -1.170517
  C      -1.640030     -3.113877      2.455682
  C      -0.506255     -0.358453     -1.877336
  C      -0.204696     -2.920713      3.069076
74
Coordinates from ORCA-job R4N+PFHxA-_r2 E -2389.494309820207
  N       1.175825     -8.048424      1.085592
  C       2.838669     -3.533135     -3.469655
  C       4.309470     -3.213038     -3.785424
  C       5.090015     -2.604526     -2.607504
  C       2.728656     -4.507460     -2.317455
  C       2.092305     -4.030706     -4.716712
  C       2.465663     -7.222256      1.028054
  C       2.547666     -6.291047     -0.143066
  C       4.439066     -1.344428     -2.071229
  C       2.149049     -4.112797     -1.110265
  C       3.225987     -5.812039     -2.418551
  C       6.543794     -2.336201     -3.018757
  C       1.225346     -8.884362      2.331048
  C       1.067353     -8.951458     -0.104246
  C      -0.023271     -7.149663      1.142189
  C       2.068820     -4.984649     -0.029845
  C       3.135767     -6.693552     -1.347148
  C       0.586674     -4.153135     -4.491181
  C       4.056146     -1.251221     -0.730679
  C       4.209994     -0.241766     -2.903979
  C       3.458646     -0.094514     -0.230166
  C       3.613634      0.914744     -2.409407
  C       3.231243      0.991724     -1.069873
  H       2.354546     -2.599491     -3.153114
  H       4.338599     -2.523430     -4.639933
  H       4.821009     -4.131603     -4.104935
  H       5.099335     -3.339831     -1.791054
  H       2.502654     -4.998083     -5.038082
  H       2.281855     -3.322823     -5.534669
  H       3.281619     -7.951397      1.011255
  H       2.495593     -6.669019      1.971932
  H       1.764499     -3.103427     -1.008859
  H       3.696609     -6.143859     -3.341268
  H       7.029340     -3.263803     -3.342449
  H       7.120463     -1.920390     -2.185517
  H       6.587914     -1.621987     -3.849280
  H       2.097723     -9.539230      2.278653
  H       0.309533     -9.475801      2.390035
  H       1.299955     -8.220710      3.195287
  H       0.166227     -9.558151      0.006904
  H       1.952734     -9.589622     -0.141050
  H       0.994976     -8.346158     -1.008943
  H      -0.091517     -6.600421      0.203047
  H       0.089930     -6.463885      1.983340
  H      -0.911152     -7.770863      1.279179
  H       1.630099     -4.648682      0.910431
  H       3.533279     -7.701458     -1.444253
  H       0.081259     -4.534223     -5.385398
  H       0.149867     -3.176914     -4.244128
  H       0.360031     -4.841129     -3.666437
  H       4.220465     -2.098919     -0.068931
  H       4.497200     -0.286321     -3.952044
  H       3.145562     -0.051546      0.810667
  H       3.438970      1.757865     -3.072761
  H       2.748528      1.889413     -0.693429
  F       0.232696     -1.715647      0.456414
  F      -1.618881     -0.646017      0.984203
  F      -3.008223     -3.086314      0.384298
  F      -1.032953     -4.047939      0.257538
  F      -2.676576     -0.951036     -1.355523
  F      -1.306442     -2.564863     -1.944348
  F      -2.674844     -2.377391      2.866821
  F      -2.087027     -4.474697      2.593543
  F      -0.976837      0.011116     -3.077034
  F      -0.308480      0.709355     -1.123347
  F       0.743936     -0.914888     -2.133583
  O      -0.163153     -1.764871      3.534344
  O       0.500102     -3.852500      2.964862
  C      -1.112578     -1.682245      0.277167
  C      -1.717124     -3.014692      0.812168
  C      -1.414506     -1.415393     -1.238935
  C      -1.696723     -3.184058      2.361687
  C      -0.455715     -0.370172     -1.904188
  C      -0.307102     -2.900350      3.033866
74
Coordinates from ORCA-job R4N+PFHxA-_r2 E -2389.494557267593
  N       1.140755     -8.052173      1.056419
  C       2.867233     -3.553450     -3.494537
  C       4.333432     -3.208968     -3.796697
  C       5.096863     -2.588076     -2.614104
  C       2.747154     -4.512273     -2.329745
  C       2.154386     -4.090334     -4.747250
  C       2.422110     -7.204669      1.035480
  C       2.533237     -6.277395     -0.137778
  C       4.424943     -1.334913     -2.085739
  C       2.103555     -4.123162     -1.153858
  C       3.290989     -5.802038     -2.390878
  C       6.550111     -2.302990     -3.013830
  C       1.175376     -8.892539      2.300006
  C       1.078242     -8.951021     -0.141750
  C      -0.080527     -7.180751      1.090806
  C       2.010139     -4.984633     -0.066488
  C       3.183529     -6.673532     -1.312564
  C       0.655365     -4.289692     -4.538359
  C       4.031724     -1.243736     -0.747305
  C       4.194489     -0.233366     -2.919127
  C       3.424404     -0.090230     -0.250747
  C       3.593314      0.922027     -2.426714
  C       3.204960      0.998909     -1.089603
  H       2.359123     -2.623461     -3.203939
  H       4.360270     -2.515464     -4.648414
  H       4.865027     -4.116595     -4.114790
  H       5.106920     -3.320733     -1.795232
  H       2.621823     -5.036028     -5.055902
  H       2.320035     -3.376926     -5.565437
  H       3.245465     -7.924900      1.052203
  H       2.409842     -6.648913      1.977655
  H       1.688767     -3.119312     -1.083929
  H       3.809369     -6.129423     -3.289351
  H       7.045753     -3.224169     -3.340996
  H       7.116611     -1.888934     -2.172754
  H       6.593780     -1.583645     -3.839877
  H       2.064640     -9.525632      2.270703
  H       0.273959     -9.508042      2.327035
  H       1.207850     -8.231330      3.168690
  H       0.189028     -9.578461     -0.051740
  H       1.977511     -9.570232     -0.163596
  H       1.013731     -8.340525     -1.043409
  H      -0.143095     -6.618683      0.159022
  H      -0.002591     -6.503030      1.944515
  H      -0.954584     -7.827436      1.194823
  H       1.525468     -4.648010      0.843521
  H       3.614805     -7.670080     -1.378159
  H       0.170332     -4.633928     -5.458396
  H       0.176683     -3.348942     -4.235621
  H       0.454119     -5.031511     -3.755946
  H       4.199646     -2.091024     -0.085788
  H       4.489615     -0.277169     -3.965103
  H       3.122949     -0.045360      0.792691
  H       3.424777      1.766415     -3.090168
  H       2.732361      1.900514     -0.708561
  F       0.243414     -1.709332      0.465332
  F      -1.566293     -0.602418      1.045988
  F      -3.016314     -3.036538      0.489602
  F      -1.053648     -4.015536      0.334992
  F      -2.707587     -0.905243     -1.258069
  F      -1.375012     -2.538851     -1.881935
  F      -2.570690     -2.265166      2.974310
  F      -2.107550     -4.391682      2.697451
  F      -1.058750      0.057443     -3.020686
  F      -0.299415      0.712182     -1.085004
  F       0.685097     -0.910953     -2.158423
  O      -0.022502     -1.772455      3.541625
  O       0.525812     -3.911684      3.012871
  C      -1.105093     -1.649853      0.325214
  C      -1.715525     -2.971587      0.887114
  C      -1.447354     -1.383888     -1.180938
  C      -1.655333     -3.123488      2.440220
  C      -0.496547     -0.351998     -1.875965
  C      -0.228697     -2.911387      3.072802
74
Coordinates from ORCA-job R4N+PFHxA-_r2 E -2389.494612304704
  N       1.136579     -8.043767      1.055475
  C       2.869421     -3.552663     -3.497229
  C       4.335645     -3.208849     -3.799186
  C       5.099287     -2.589153     -2.616361
  C       2.747813     -4.509422     -2.331612
  C       2.156614     -4.090360     -4.749335
  C       2.415926     -7.195283      1.036644
  C       2.530512     -6.270344     -0.138350
  C       4.425720     -1.338643     -2.085760
  C       2.102262     -4.118587     -1.157285
  C       3.291860     -5.798379     -2.389661
  C       6.551892     -2.301995     -3.016419
  C       1.168487     -8.882660      2.300193
  C       1.080528     -8.944021     -0.141516
  C      -0.085973     -7.175076      1.084545
  C       2.007034     -4.977688     -0.069705
  C       3.182582     -6.668095     -1.310847
  C       0.659210     -4.294668     -4.536982
  C       4.030163     -1.253352     -0.747919
  C       4.195425     -0.234622     -2.915806
  C       3.419771     -0.103201     -0.248880
  C       3.591681      0.918102     -2.420636
  C       3.200809      0.989181     -1.084057
  H       2.361780     -2.622210     -3.207484
  H       4.362664     -2.514347     -4.650127
  H       4.866791     -4.116379     -4.118259
  H       5.110334     -3.322993     -1.798516
  H       2.626770     -5.033691     -5.059315
  H       2.318048     -3.375514     -5.566955
  H       3.239112     -7.915121      1.057282
  H       2.401663     -6.634151      1.976436
  H       1.687992     -3.117931     -1.089043
  H       3.811586     -6.126808     -3.286493
  H       7.047984     -3.221968     -3.346368
  H       7.118824     -1.889810     -2.174665
  H       6.594594     -1.580400     -3.840588
  H       2.061190     -9.510800      2.277002
  H       0.270729     -9.503247      2.322302
  H       1.192065     -8.221092      3.168471
  H       0.191815     -9.572414     -0.055111
  H       1.980328     -9.562407     -0.158910
  H       1.019491     -8.334845     -1.044370
  H      -0.147173     -6.613325      0.152137
  H      -0.013260     -6.497540      1.938463
  H      -0.958961     -7.823191      1.185635
  H       1.522578     -4.648492      0.844710
  H       3.613996     -7.664386     -1.374223
  H       0.171092     -4.629271     -5.458581
  H       0.180386     -3.358871     -4.222217
  H       0.462556     -5.044672     -3.762132
  H       4.198288     -2.103079     -0.089541
  H       4.492483     -0.274566     -3.961432
  H       3.117169     -0.062180      0.794284
  H       3.423490      1.764605     -3.081528
  H       2.726076      1.887765     -0.698838
  F       0.246975     -1.710578      0.463383
  F      -1.564010     -0.606459      1.046656
  F      -3.009530     -3.046948      0.494078
  F      -1.042950     -4.019324      0.341230
  F      -2.709479     -0.912098     -1.251906
  F      -1.377981     -2.545523     -1.878122
  F      -2.559107     -2.265164      2.978114
  F      -2.102721     -4.391567      2.702979
  F      -1.070348      0.056537     -3.016740
  F      -0.299594      0.705330     -1.084130
  F       0.676222     -0.916461     -2.168177
  O      -0.007390     -1.774556      3.530918
  O       0.528189     -3.912031      3.011616
  C      -1.102486     -1.653796      0.327008
  C      -1.709005     -2.976976      0.890742
  C      -1.448886     -1.389832     -1.178687
  C      -1.647676     -3.125452      2.442826
  C      -0.501927     -0.356818     -1.876696
  C      -0.220235     -2.913817      3.069461
74
Coordinates from ORCA-job R4N+PFHxA-_r2 E -2389.494635135917
  N       1.138304     -8.041463      1.055529
  C       2.869638     -3.551117     -3.496114
  C       4.336787     -3.211494     -3.798411
  C       5.100434     -2.592099     -2.615564
  C       2.747857     -4.508716     -2.331577
  C       2.152155     -4.083561     -4.747295
  C       2.416510     -7.191517      1.036170
  C       2.529537     -6.268663     -0.138109
  C       4.428298     -1.340789     -2.085402
  C       2.102751     -4.117517     -1.157418
  C       3.290743     -5.797531     -2.389413
  C       6.553474     -2.306540     -3.015038
  C       1.173048     -8.882410      2.298643
  C       1.080507     -8.939222     -0.142554
  C      -0.084254     -7.172375      1.087851
  C       2.005966     -4.976954     -0.069351
  C       3.181407     -6.666641     -1.310238
  C       0.653987     -4.276854     -4.531890
  C       4.032610     -1.255099     -0.747884
  C       4.198303     -0.237052     -2.916042
  C       3.422410     -0.104763     -0.249585
  C       3.593601      0.915561     -2.421818
  C       3.202331      0.986732     -1.085250
  H       2.365596     -2.619634     -3.203776
  H       4.365635     -2.518409     -4.650384
  H       4.865430     -4.121078     -4.115633
  H       5.110590     -3.325655     -1.797428
  H       2.614477     -5.029887     -5.058811
  H       2.316702     -3.369334     -5.564762
  H       3.241457     -7.909144      1.057037
  H       2.402239     -6.628770      1.973202
  H       1.688535     -3.115900     -1.089562
  H       3.810228     -6.126545     -3.285897
  H       7.049192     -3.227159     -3.343617
  H       7.120563     -1.893695     -2.173741
  H       6.597179     -1.585809     -3.839912
  H       2.065792     -9.510188      2.272831
  H       0.275566     -9.503084      2.322222
  H       1.198299     -8.222433      3.167876
  H       0.191176     -9.566688     -0.056708
  H       1.979562     -9.558474     -0.161985
  H       1.018814     -8.328827     -1.044530
  H      -0.146153     -6.609769      0.155930
  H      -0.009192     -6.495630      1.941672
  H      -0.957732     -7.819317      1.190149
  H       1.517930     -4.642503      0.842699
  H       3.612747     -7.662793     -1.373396
  H       0.161928     -4.612304     -5.450902
  H       0.181754     -3.337221     -4.220311
  H       0.453817     -5.022900     -3.754559
  H       4.200251     -2.104730     -0.089314
  H       4.495450     -0.277281     -3.961590
  H       3.117604     -0.063587      0.792964
  H       3.424680      1.761315     -3.083435
  H       2.724796      1.883660     -0.700414
  F       0.245740     -1.715066      0.465024
  F      -1.566013     -0.608472      1.040951
  F      -3.011375     -3.049455      0.494602
  F      -1.045365     -4.023699      0.341722
  F      -2.708434     -0.924429     -1.259814
  F      -1.372161     -2.556610     -1.877715
  F      -2.564093     -2.268575      2.975269
  F      -2.103011     -4.393991      2.703488
  F      -1.066649      0.039136     -3.025835
  F      -0.304577      0.701023     -1.095328
  F       0.678843     -0.925573     -2.167063
  O      -0.010417     -1.776069      3.536257
  O       0.526878     -3.911386      3.011065
  C      -1.103074     -1.657742      0.325581
  C      -1.711018     -2.980188      0.891021
  C      -1.447128     -1.399055     -1.181991
  C      -1.650081     -3.127749      2.443459
  C      -0.501351     -0.366398     -1.881877
  C      -0.224240     -2.914257      3.071918
74
Coordinates from ORCA-job R4N+PFHxA-_r2 E -2389.494637615302
  N       1.140887     -8.044459      1.058336
  C       2.868850     -3.548917     -3.495767
  C       4.337005     -3.212290     -3.797849
  C       5.100506     -2.593522     -2.614529
  C       2.746771     -4.507741     -2.332402
  C       2.148700     -4.078653     -4.746364
  C       2.417617     -7.192027      1.034506
  C       2.527403     -6.268879     -0.140920
  C       4.430048     -1.340516     -2.085714
  C       2.102245     -4.117040     -1.157839
  C       3.288243     -5.797219     -2.392306
  C       6.554554     -2.310696     -3.012616
  C       1.181423     -8.885528      2.301115
  C       1.078061     -8.941937     -0.139725
  C      -0.080865     -7.175890      1.096378
  C       2.003888     -4.976979     -0.070439
  C       3.179010     -6.666697     -1.313447
  C       0.648528     -4.258801     -4.531635
  C       4.035036     -1.252028     -0.748039
  C       4.200347     -0.238046     -2.918120
  C       3.426779     -0.099860     -0.251176
  C       3.596803      0.915841     -2.425463
  C       3.206506      0.989862     -1.088685
  H       2.366934     -2.616701     -3.202101
  H       4.367313     -2.520447     -4.650718
  H       4.864161     -4.123185     -4.113706
  H       5.108885     -3.326648     -1.796009
  H       2.603187     -5.029784     -5.055790
  H       2.319823     -3.367846     -5.565567
  H       3.244299     -7.908057      1.054039
  H       2.404229     -6.629286      1.971688
  H       1.688973     -3.115608     -1.090258
  H       3.807248     -6.125950     -3.289477
  H       7.049468     -3.232477     -3.338965
  H       7.121251     -1.897066     -2.171516
  H       6.600119     -1.591519     -3.838705
  H       2.072351     -9.515791      2.269424
  H       0.282043     -9.503406      2.331168
  H       1.214354     -8.224718      3.169742
  H       0.189457     -9.569936     -0.049295
  H       1.977666     -9.560342     -0.163348
  H       1.011123     -8.331372     -1.041125
  H      -0.144234     -6.613834      0.164287
  H      -0.002311     -6.498692      1.949751
  H      -0.954672     -7.822153      1.201678
  H       1.515233     -4.645937      0.842474
  H       3.610039     -7.663158     -1.376937
  H       0.155738     -4.603535     -5.447043
  H       0.181883     -3.311463     -4.233872
  H       0.441539     -4.993719     -3.744710
  H       4.201907     -2.100574     -0.087964
  H       4.496725     -0.280104     -3.963756
  H       3.120465     -0.056560      0.790822
  H       3.427829      1.760471     -3.088412
  H       2.729354      1.888088     -0.706152
  F       0.243968     -1.720445      0.468029
  F      -1.569404     -0.613044      1.038446
  F      -3.014406     -3.051164      0.489952
  F      -1.049896     -4.028477      0.338277
  F      -2.705736     -0.930919     -1.267167
  F      -1.363655     -2.559696     -1.881461
  F      -2.574478     -2.273278      2.968347
  F      -2.105924     -4.398459      2.699392
  F      -1.057615      0.032690     -3.029475
  F      -0.307675      0.701991     -1.096871
  F       0.686724     -0.923538     -2.158302
  O      -0.023085     -1.775645      3.541828
  O       0.522873     -3.908538      3.010400
  C      -1.104458     -1.662309      0.324048
  C      -1.714494     -2.983541      0.887758
  C      -1.443669     -1.402908     -1.184629
  C      -1.656265     -3.130832      2.439938
  C      -0.497413     -0.367918     -1.881392
  C      -0.232326     -2.913047      3.071822
74
Coordinates from ORCA-job R4N+PFHxA-_r2 E -2389.494641800150
  N       1.143629     -8.042557      1.060637
  C       2.865341     -3.549773     -3.496689
  C       4.333817     -3.213115     -3.798296
  C       5.098008     -2.595504     -2.614462
  C       2.744405     -4.508375     -2.332753
  C       2.146217     -4.079785     -4.747874
  C       2.420622     -7.191332      1.036721
  C       2.527945     -6.269451     -0.140058
  C       4.428739     -1.342192     -2.084501
  C       2.102788     -4.116938     -1.157047
  C       3.284254     -5.798777     -2.393547
  C       6.552215     -2.313728     -3.012886
  C       1.182338     -8.881493      2.305086
  C       1.081585     -8.941973     -0.136244
  C      -0.078268     -7.173141      1.095712
  C       2.006061     -4.976994     -0.069379
  C       3.176553     -6.668135     -1.314166
  C       0.645188     -4.256840     -4.536636
  C       4.031842     -1.254813     -0.746980
  C       4.202013     -0.238229     -2.915442
  C       3.425290     -0.102028     -0.248661
  C       3.600800      0.916254     -2.421580
  C       3.209065      0.989762     -1.085182
  H       2.363232     -2.617625     -3.203178
  H       4.364199     -2.520737     -4.650742
  H       4.860938     -4.123802     -4.114772
  H       5.106020     -3.329214     -1.796469
  H       2.599681     -5.032269     -5.055097
  H       2.320469     -3.370732     -5.568003
  H       3.246911     -7.907965      1.056630
  H       2.408783     -6.627416      1.974704
  H       1.689835     -3.114478     -1.088515
  H       3.800893     -6.128058     -3.291998
  H       7.046394     -3.235773     -3.339561
  H       7.119353     -1.900645     -2.171837
  H       6.597971     -1.594496     -3.838912
  H       2.072648     -9.512750      2.274782
  H       0.282090     -9.498133      2.335640
  H       1.215704     -8.218343      3.172021
  H       0.192868     -9.569736     -0.045310
  H       1.981304     -9.560353     -0.157702
  H       1.015620     -8.332389     -1.038375
  H      -0.139937     -6.611635      0.163542
  H      -0.000325     -6.497163      1.949413
  H      -0.952476     -7.819286      1.199353
  H       1.519586     -4.640127      0.841493
  H       3.606359     -7.665150     -1.378154
  H       0.154035     -4.604279     -5.451974
  H       0.179458     -3.307236     -4.244281
  H       0.434914     -4.988083     -3.747242
  H       4.196252     -2.104547     -0.087827
  H       4.499543     -0.279234     -3.960811
  H       3.118219     -0.060882      0.793713
  H       3.434938      1.762446     -3.083316
  H       2.734952      1.889885     -0.702851
  F       0.242517     -1.713994      0.466844
  F      -1.575817     -0.615672      1.037993
  F      -3.009679     -3.058868      0.483569
  F      -1.040081     -4.027140      0.333604
  F      -2.706759     -0.930836     -1.269039
  F      -1.359971     -2.555106     -1.885452
  F      -2.576939     -2.283609      2.964220
  F      -2.101111     -4.406786      2.691358
  F      -1.056664      0.041452     -3.025784
  F      -0.308095      0.704565     -1.089494
  F       0.687153     -0.916459     -2.156063
  O      -0.029402     -1.778248      3.539787
  O       0.524387     -3.908947      3.009644
  C      -1.105985     -1.661482      0.322082
  C      -1.710687     -2.986006      0.883166
  C      -1.443696     -1.400126     -1.185965
  C      -1.655370     -3.137078      2.435072
  C      -0.497162     -0.362534     -1.878398
  C      -0.233729     -2.916172      3.068606
74
Coordinates from ORCA-job R4N+PFHxA-_r2 E -2389.494645812710
  N       1.141563     -8.041996      1.059166
  C       2.866441     -3.549031     -3.494835
  C       4.333975     -3.211434     -3.798858
  C       5.099752     -2.593457     -2.616431
  C       2.745591     -4.507284     -2.330529
  C       2.146048     -4.080027     -4.744938
  C       2.419180     -7.191746      1.036631
  C       2.528394     -6.269166     -0.138932
  C       4.430144     -1.341026     -2.085755
  C       2.103895     -4.115964     -1.154431
  C       3.285569     -5.797479     -2.391475
  C       6.552978     -2.310444     -3.017196
  C       1.178999     -8.882222      2.302847
  C       1.081087     -8.940686     -0.138401
  C      -0.080702     -7.172465      1.093352
  C       2.006881     -4.976532     -0.067393
  C       3.177196     -6.667396     -1.312867
  C       0.646375     -4.262585     -4.529413
  C       4.033842     -1.255110     -0.748212
  C       4.202930     -0.236523     -2.915866
  C       3.425863     -0.103706     -0.249400
  C       3.600850      0.917149     -2.421149
  C       3.208778      0.988719     -1.084876
  H       2.364287     -2.616953     -3.201228
  H       4.362727     -2.518475     -4.650934
  H       4.861378     -4.121490     -4.116700
  H       5.109331     -3.327203     -1.798490
  H       2.602190     -5.030446     -5.053832
  H       2.315537     -3.369470     -5.564681
  H       3.244675     -7.908984      1.056556
  H       2.407029     -6.628538      1.974609
  H       1.691596     -3.113628     -1.084885
  H       3.802273     -6.126287     -3.289813
  H       7.046924     -3.231971     -3.345833
  H       7.121350     -1.898137     -2.176535
  H       6.597007     -1.590231     -3.842486
  H       2.070668     -9.511513      2.274103
  H       0.280306     -9.501127      2.329826
  H       1.208522     -8.220859      3.171071
  H       0.192165     -9.568361     -0.049594
  H       1.980476     -9.559496     -0.159016
  H       1.017052     -8.330554     -1.040372
  H      -0.143092     -6.610838      0.161023
  H      -0.003277     -6.496092      1.947007
  H      -0.954550     -7.818879      1.197330
  H       1.520767     -4.643129      0.845656
  H       3.606754     -7.664365     -1.377180
  H       0.152812     -4.603846     -5.445602
  H       0.179759     -3.316550     -4.227859
  H       0.440897     -4.999727     -3.744616
  H       4.199319     -2.105288     -0.089838
  H       4.500439     -0.276783     -3.961311
  H       3.120472     -0.062365      0.793064
  H       3.434206      1.763792     -3.082197
  H       2.734058      1.887649     -0.700928
  F       0.243398     -1.714940      0.467090
  F      -1.574683     -0.614626      1.036235
  F      -3.010211     -3.058535      0.483140
  F      -1.040914     -4.027310      0.335963
  F      -2.705510     -0.931979     -1.269881
  F      -1.360478     -2.558787     -1.883688
  F      -2.576463     -2.280520      2.965317
  F      -2.102844     -4.403690      2.693906
  F      -1.057905      0.038161     -3.027346
  F      -0.305747      0.700992     -1.092515
  F       0.686418     -0.921684     -2.160987
  O      -0.028112     -1.776622      3.538769
  O       0.522945     -3.907139      3.009262
  C      -1.105357     -1.661759      0.321915
  C      -1.711340     -2.985789      0.883940
  C      -1.442897     -1.402410     -1.186581
  C      -1.656028     -3.134643      2.436030
  C      -0.496447     -0.366312     -1.880895
  C      -0.233720     -2.914260      3.068858
74
Coordinates from ORCA-job R4N+PFHxA-_r2 E -2389.494649519008
  N       1.141453     -8.041255      1.060538
  C       2.867241     -3.547908     -3.495112
  C       4.335165     -3.211968     -3.799231
  C       5.101319     -2.594628     -2.616554
  C       2.745858     -4.506621     -2.331346
  C       2.144991     -4.077164     -4.744812
  C       2.418825     -7.190368      1.036622
  C       2.527932     -6.268038     -0.139472
  C       4.431680     -1.342355     -2.085074
  C       2.104797     -4.114943     -1.155303
  C       3.284936     -5.797168     -2.392389
  C       6.554494     -2.311512     -3.017474
  C       1.180422     -8.881484      2.304072
  C       1.079164     -8.939813     -0.136887
  C      -0.080136     -7.171834      1.096470
  C       2.007284     -4.975018     -0.067958
  C       3.176346     -6.666763     -1.313532
  C       0.644604     -4.253518     -4.528863
  C       4.035833     -1.256780     -0.747323
  C       4.203043     -0.237963     -2.915019
  C       3.426723     -0.105988     -0.248284
  C       3.599656      0.914989     -2.420083
  C       3.207843      0.986000     -1.083666
  H       2.366589     -2.615273     -3.200738
  H       4.364607     -2.519008     -4.651259
  H       4.861561     -4.122648     -4.116971
  H       5.111097     -3.328778     -1.798985
  H       2.597365     -5.029584     -5.053124
  H       2.317150     -3.367863     -5.565082
  H       3.244677     -7.907239      1.056953
  H       2.406657     -6.626476      1.973715
  H       1.693650     -3.112626     -1.086101
  H       3.801331     -6.126388     -3.290786
  H       7.048303     -3.232895     -3.346687
  H       7.123156     -1.899679     -2.176793
  H       6.598414     -1.590896     -3.842402
  H       2.071580     -9.511436      2.273919
  H       0.281309     -9.499731      2.332828
  H       1.211909     -8.220140      3.172267
  H       0.190117     -9.567175     -0.046874
  H       1.978284     -9.558973     -0.158820
  H       1.013903     -8.329813     -1.038815
  H      -0.143284     -6.611134      0.163625
  H      -0.001291     -6.494184      1.949058
  H      -0.954058     -7.817777      1.202482
  H       1.521128     -4.640584      0.844858
  H       3.605363     -7.663984     -1.377639
  H       0.150029     -4.597236     -5.443618
  H       0.181157     -3.304517     -4.231829
  H       0.436314     -4.986636     -3.740931
  H       4.202266     -2.106877     -0.089119
  H       4.500111     -0.277825     -3.960582
  H       3.120638     -0.064935      0.794047
  H       3.431666      1.761366     -3.081101
  H       2.731352      1.883982     -0.699719
  F       0.243065     -1.716817      0.466033
  F      -1.575734     -0.617147      1.034186
  F      -3.009685     -3.061587      0.481727
  F      -1.040063     -4.029583      0.334455
  F      -2.706109     -0.937270     -1.272796
  F      -1.358485     -2.562229     -1.885403
  F      -2.577063     -2.282782      2.962665
  F      -2.101271     -4.405835      2.692520
  F      -1.058646      0.034031     -3.030246
  F      -0.309141      0.699923     -1.095771
  F       0.686487     -0.922281     -2.161296
  O      -0.029784     -1.776834      3.539867
  O       0.524127     -3.907117      3.010006
  C      -1.105562     -1.664248      0.320314
  C      -1.710932     -2.988240      0.882492
  C      -1.442889     -1.405766     -1.188549
  C      -1.655515     -3.136448      2.434571
  C      -0.497673     -0.368480     -1.882967
  C      -0.233860     -2.914639      3.068986
74
Coordinates from ORCA-job R4N+PFHxA-_r2 E -2389.494652613902
  N       1.142510     -8.040427      1.062102
  C       2.866551     -3.547061     -3.495098
  C       4.334616     -3.212369     -3.799905
  C       5.101766     -2.595933     -2.617279
  C       2.745282     -4.505980     -2.331493
  C       2.142588     -4.075205     -4.744264
  C       2.419653     -7.189274      1.037257
  C       2.527872     -6.267204     -0.139322
  C       4.432870     -1.343578     -2.084853
  C       2.105619     -4.113887     -1.154927
  C       3.283231     -5.797005     -2.393052
  C       6.554852     -2.313339     -3.018897
  C       1.182206     -8.880210      2.305896
  C       1.079595     -8.939471     -0.134951
  C      -0.078918     -7.171060      1.098383
  C       2.008189     -4.973803     -0.067470
  C       3.175010     -6.666410     -1.313989
  C       0.641511     -4.245775     -4.528067
  C       4.037078     -1.258482     -0.746985
  C       4.204486     -0.238723     -2.914243
  C       3.428229     -0.107733     -0.247335
  C       3.601448      0.914152     -2.418720
  C       3.209619      0.984668     -1.082277
  H       2.367124     -2.613986     -3.200040
  H       4.364208     -2.519161     -4.651715
  H       4.860156     -4.123385     -4.118113
  H       5.111635     -3.330501     -1.800089
  H       2.591570     -5.029629     -5.051462
  H       2.317232     -3.367542     -5.565436
  H       3.245611     -7.906074      1.057548
  H       2.407708     -6.625084      1.974383
  H       1.695669     -3.111230     -1.085396
  H       3.798643     -6.126616     -3.291920
  H       7.048013     -3.234806     -3.348825
  H       7.124197     -1.902180     -2.178360
  H       6.598645     -1.592385     -3.843526
  H       2.073162     -9.510456      2.275253
  H       0.282891     -9.498151      2.335610
  H       1.214602     -8.218458      3.173789
  H       0.190739     -9.566996     -0.044003
  H       1.978849     -9.558442     -0.157234
  H       1.013519     -8.329842     -1.037053
  H      -0.142290     -6.611006      0.165203
  H       0.000577     -6.492929      1.950519
  H      -0.952829     -7.816894      1.205360
  H       1.523215     -4.638350      0.845505
  H       3.603330     -7.663946     -1.378280
  H       0.146031     -4.591642     -5.441555
  H       0.181212     -3.293880     -4.235309
  H       0.430505     -4.974929     -3.737090
  H       4.203307     -2.108902     -0.089162
  H       4.501487     -0.278156     -3.959834
  H       3.121975     -0.067041      0.795029
  H       3.433731      1.760935     -3.079274
  H       2.733523      1.882793     -0.698084
  F       0.242258     -1.717057      0.466099
  F      -1.578782     -0.620044      1.032210
  F      -3.008494     -3.066199      0.477253
  F      -1.037309     -4.031468      0.332480
  F      -2.705901     -0.941566     -1.276335
  F      -1.354777     -2.564119     -1.887697
  F      -2.581132     -2.287563      2.958394
  F      -2.101085     -4.409845      2.688809
  F      -1.057673      0.032843     -3.031421
  F      -0.311314      0.699470     -1.095932
  F       0.687793     -0.920974     -2.160480
  O      -0.036307     -1.777308      3.540544
  O       0.523022     -3.906125      3.010286
  C      -1.106241     -1.666356      0.318719
  C      -1.710378     -2.991179      0.879813
  C      -1.442022     -1.407997     -1.190523
  C      -1.657178     -3.139578      2.431747
  C      -0.497477     -0.369053     -1.883506
  C      -0.237025     -2.915312      3.068476
74
Coordinates from ORCA-job R4N+PFHxA-_r2 E -2389.494658032811
  N       1.144628     -8.037882      1.065490
  C       2.865050     -3.544698     -3.494809
  C       4.333128     -3.212783     -3.802201
  C       5.103548     -2.598719     -2.620236
  C       2.743972     -4.503823     -2.331358
  C       2.136572     -4.070667     -4.742274
  C       2.421066     -7.185865      1.039077
  C       2.527708     -6.264303     -0.138329
  C       4.436589     -1.346526     -2.084854
  C       2.107212     -4.110657     -1.153664
  C       3.279592     -5.795803     -2.393742
  C       6.556018     -2.317087     -3.024581
  C       1.185719     -8.876818      2.309811
  C       1.081552     -8.938059     -0.130785
  C      -0.076998     -7.169243      1.101913
  C       2.009943     -4.970069     -0.065946
  C       3.172076     -6.664666     -1.314217
  C       0.634323     -4.228981     -4.524229
  C       4.041175     -1.263460     -0.746685
  C       4.208888     -0.240038     -2.912268
  C       3.432779     -0.113295     -0.245013
  C       3.606737      0.912376     -2.414655
  C       3.214852      0.980676     -1.078134
  H       2.368560     -2.610542     -3.198218
  H       4.362482     -2.518597     -4.653217
  H       4.856522     -4.124388     -4.122294
  H       5.114254     -3.334460     -1.804113
  H       2.578225     -5.029281     -5.047095
  H       2.315720     -3.366634     -5.565600
  H       3.247185     -7.902489      1.059333
  H       2.409064     -6.621183      1.976227
  H       1.700231     -3.107258     -1.083254
  H       3.792974     -6.126367     -3.293457
  H       7.047343     -3.238588     -3.357150
  H       7.127687     -1.908038     -2.184591
  H       6.598893     -1.594847     -3.848122
  H       2.076973     -9.506660      2.278905
  H       0.286737     -9.495225      2.340442
  H       1.218376     -8.214554      3.177321
  H       0.193518     -9.566550     -0.038364
  H       1.981478     -9.556050     -0.153452
  H       1.013865     -8.329293     -1.033344
  H      -0.141333     -6.610700      0.167886
  H       0.003225     -6.489775      1.952984
  H      -0.950462     -7.815354      1.211049
  H       1.528289     -4.633285      0.848313
  H       3.599023     -7.662795     -1.378834
  H       0.136048     -4.578239     -5.434926
  H       0.181282     -3.271323     -4.239070
  H       0.418249     -4.950298     -3.727357
  H       4.207081     -2.115087     -0.090356
  H       4.505700     -0.277926     -3.957970
  H       3.126651     -0.073675      0.797477
  H       3.439670      1.760545     -3.073594
  H       2.739775      1.878661     -0.692343
  F       0.240454     -1.718233      0.466661
  F      -1.585802     -0.626674      1.026951
  F      -3.006137     -3.077150      0.466191
  F      -1.031409     -4.036256      0.329008
  F      -2.705037     -0.952524     -1.284939
  F      -1.345847     -2.569969     -1.892357
  F      -2.591636     -2.298076      2.948609
  F      -2.102693     -4.418591      2.680767
  F      -1.055865      0.028793     -3.034540
  F      -0.316395      0.697390     -1.097028
  F       0.690665     -0.919216     -2.159700
  O      -0.052509     -1.778315      3.541680
  O       0.518779     -3.903727      3.011402
  C      -1.107753     -1.671656      0.315078
  C      -1.709703     -2.998283      0.873842
  C      -1.439684     -1.414226     -1.195247
  C      -1.662373     -3.146539      2.425521
  C      -0.496989     -0.371591     -1.885334
  C      -0.245689     -2.916919      3.067795
74
Coordinates from ORCA-job R4N+PFHxA-_r2 E -2389.494661606082
  N       1.146364     -8.037344      1.066684
  C       2.864836     -3.543175     -3.494531
  C       4.332792     -3.213435     -3.803890
  C       5.105179     -2.600747     -2.622655
  C       2.743442     -4.502112     -2.330918
  C       2.133369     -4.068254     -4.740681
  C       2.421581     -7.183297      1.039738
  C       2.527017     -6.262233     -0.137454
  C       4.439980     -1.348183     -2.086086
  C       2.105838     -4.108972     -1.153489
  C       3.279531     -5.793975     -2.392816
  C       6.557478     -2.320478     -3.028443
  C       1.189149     -8.875881      2.311217
  C       1.084633     -8.938082     -0.129339
  C      -0.077147     -7.170371      1.103358
  C       2.007893     -4.968650     -0.065769
  C       3.172182     -6.662489     -1.312977
  C       0.630174     -4.217038     -4.521735
  C       4.044864     -1.265968     -0.747921
  C       4.213499     -0.240662     -2.912535
  C       3.438070     -0.115590     -0.245098
  C       3.612903      0.912079     -2.413733
  C       3.221416      0.979494     -1.077011
  H       2.370256     -2.608188     -3.197350
  H       4.362054     -2.518958     -4.654661
  H       4.854698     -4.125567     -4.124945
  H       5.115925     -3.336914     -1.806911
  H       2.569428     -5.030276     -5.042900
  H       2.316231     -3.367536     -5.566030
  H       3.248778     -7.898688      1.059911
  H       2.408790     -6.618830      1.976656
  H       1.698846     -3.104660     -1.083035
  H       3.793537     -6.124606     -3.292188
  H       7.047379     -3.242367     -3.362058
  H       7.130547     -1.912550     -2.188857
  H       6.600333     -1.597863     -3.851656
  H       2.081233     -9.504572      2.280129
  H       0.290975     -9.495478      2.342219
  H       1.221186     -8.213433      3.178623
  H       0.197994     -9.568470     -0.036297
  H       1.985915     -9.554094     -0.152245
  H       1.015258     -8.329718     -1.032059
  H      -0.143113     -6.612149      0.169210
  H       0.003328     -6.490575      1.954353
  H      -0.949514     -7.817817      1.213590
  H       1.524919     -4.630926      0.847270
  H       3.600063     -7.660291     -1.377033
  H       0.130164     -4.569481     -5.430282
  H       0.182560     -3.254914     -4.243047
  H       0.409949     -4.931924     -3.720094
  H       4.209971     -2.118386     -0.092412
  H       4.510204     -0.278010     -3.958288
  H       3.132697     -0.076119      0.797488
  H       3.446938      1.761206     -3.071719
  H       2.748212      1.877988     -0.690107
  F       0.236911     -1.720224      0.467408
  F      -1.591165     -0.629783      1.024078
  F      -3.009095     -3.081498      0.463005
  F      -1.033855     -4.039907      0.329340
  F      -2.706389     -0.959803     -1.290339
  F      -1.341841     -2.574293     -1.894096
  F      -2.599301     -2.302021      2.946496
  F      -2.107000     -4.422006      2.679943
  F      -1.055194      0.023484     -3.037180
  F      -0.323352      0.696765     -1.098315
  F       0.692237     -0.917618     -2.156050
  O      -0.061398     -1.778177      3.542688
  O       0.515290     -3.902276      3.013122
  C      -1.110996     -1.674886      0.313659
  C      -1.713177     -3.001795      0.872630
  C      -1.440147     -1.418552     -1.197483
  C      -1.668022     -3.149308      2.424852
  C      -0.498312     -0.373790     -1.885857
  C      -0.252187     -2.917187      3.068798
74
Coordinates from ORCA-job R4N+PFHxA-_r2 E -2389.494666566798
  N       1.148056     -8.035397      1.067915
  C       2.863683     -3.541094     -3.494134
  C       4.331497     -3.213609     -3.806211
  C       5.107640     -2.603257     -2.626112
  C       2.742175     -4.499350     -2.329934
  C       2.129305     -4.065880     -4.738903
  C       2.422021     -7.179233      1.041974
  C       2.526855     -6.258196     -0.135218
  C       4.444685     -1.350866     -2.086466
  C       2.104667     -4.105678     -1.152543
  C       3.278482     -5.791168     -2.391168
  C       6.559190     -2.324127     -3.035086
  C       1.191124     -8.873588      2.312706
  C       1.089103     -8.936547     -0.127998
  C      -0.077221     -7.170723      1.103187
  C       2.007095     -4.964678     -0.064417
  C       3.171723     -6.658966     -1.310761
  C       0.625606     -4.207621     -4.518987
  C       4.051282     -1.270664     -0.747695
  C       4.218094     -0.241792     -2.910836
  C       3.445277     -0.120975     -0.242444
  C       3.618741      0.910471     -2.409500
  C       3.228487      0.975680     -1.072308
  H       2.371057     -2.605139     -3.196712
  H       4.360140     -2.518020     -4.656113
  H       4.851372     -4.126087     -4.129590
  H       5.119455     -3.340409     -1.811262
  H       2.561390     -5.030368     -5.038797
  H       2.314643     -3.367904     -5.566015
  H       3.249987     -7.893664      1.062506
  H       2.407123     -6.615282      1.979298
  H       1.699114     -3.100894     -1.082126
  H       3.792457     -6.122270     -3.290341
  H       7.046976     -3.246106     -3.371599
  H       7.134957     -1.918539     -2.196192
  H       6.601070     -1.600153     -3.857164
  H       2.084698     -9.500199      2.283059
  H       0.294408     -9.495336      2.342326
  H       1.220255     -8.211087      3.180136
  H       0.203695     -9.568726     -0.035500
  H       1.991642     -9.550717     -0.150185
  H       1.019237     -8.328435     -1.030868
  H      -0.144473     -6.613871      0.168325
  H       0.001982     -6.489369      1.952983
  H      -0.948260     -7.819752      1.214286
  H       1.526219     -4.627246      0.849792
  H       3.600199     -7.656520     -1.374294
  H       0.124216     -4.562099     -5.425970
  H       0.182151     -3.242388     -4.244829
  H       0.402459     -4.917735     -3.714073
  H       4.216798     -2.124331     -0.093904
  H       4.513623     -0.277766     -3.956986
  H       3.141743     -0.082516      0.800775
  H       3.452720      1.760848     -3.065872
  H       2.756494      1.873784     -0.683139
  F       0.233914     -1.722244      0.467026
  F      -1.596387     -0.633531      1.020432
  F      -3.010273     -3.087821      0.457785
  F      -1.033431     -4.043466      0.329642
  F      -2.708683     -0.968579     -1.295253
  F      -1.338150     -2.579320     -1.896041
  F      -2.605979     -2.305156      2.942101
  F      -2.111168     -4.424691      2.678275
  F      -1.057976      0.018558     -3.040194
  F      -0.332621      0.695908     -1.100221
  F       0.691202     -0.915410     -2.155199
  O      -0.070869     -1.777534      3.541364
  O       0.510699     -3.900758      3.014451
  C      -1.113793     -1.678447      0.311341
  C      -1.715295     -3.005903      0.870152
  C      -1.441182     -1.423459     -1.200296
  C      -1.672989     -3.151689      2.422531
  C      -0.501827     -0.375865     -1.887538
  C      -0.258517     -2.917446      3.068514
74
Coordinates from ORCA-job R4N+PFHxA-_r2 E -2389.494669442118
  N       1.149365     -8.033805      1.068490
  C       2.863074     -3.539825     -3.494423
  C       4.331025     -3.213758     -3.807702
  C       5.109488     -2.605153     -2.628357
  C       2.741209     -4.497440     -2.329676
  C       2.128497     -4.065113     -4.738956
  C       2.422926     -7.176726      1.042504
  C       2.527417     -6.255852     -0.134428
  C       4.448098     -1.352857     -2.086883
  C       2.104132     -4.103535     -1.152061
  C       3.277610     -5.789185     -2.390809
  C       6.560678     -2.327050     -3.039189
  C       1.192624     -8.870880      2.314042
  C       1.091057     -8.935739     -0.126804
  C      -0.077009     -7.170144      1.102842
  C       2.007573     -4.962419     -0.063604
  C       3.171692     -6.656771     -1.310214
  C       0.624586     -4.204735     -4.520007
  C       4.056011     -1.274259     -0.747723
  C       4.221011     -0.242721     -2.909637
  C       3.450269     -0.125372     -0.240576
  C       3.622163      0.908939     -2.406307
  C       3.232902      0.972456     -1.068723
  H       2.371118     -2.603361     -3.197463
  H       4.359434     -2.517497     -4.657078
  H       4.849496     -4.126506     -4.132526
  H       5.121827     -3.342855     -1.814008
  H       2.559703     -5.030408     -5.037302
  H       2.315167     -3.368391     -5.566817
  H       3.251557     -7.890342      1.063287
  H       2.407801     -6.612470      1.979290
  H       1.699171     -3.098343     -1.081245
  H       3.791216     -6.120391     -3.290095
  H       7.047086     -3.249176     -3.377293
  H       7.138071     -1.922854     -2.200739
  H       6.602119     -1.602355     -3.860662
  H       2.086942     -9.496428      2.285533
  H       0.296652     -9.493650      2.343641
  H       1.220423     -8.207518      3.180827
  H       0.205875     -9.568159     -0.034053
  H       1.993821     -9.549577     -0.148418
  H       1.021177     -8.328156     -1.030013
  H      -0.145540     -6.614409      0.167440
  H       0.001830     -6.487625      1.951570
  H      -0.947228     -7.820082      1.214610
  H       1.526779     -4.624220      0.850519
  H       3.600492     -7.654126     -1.373832
  H       0.123717     -4.561235     -5.426456
  H       0.181875     -3.238405     -4.249061
  H       0.400059     -4.912413     -3.713470
  H       4.222064     -2.128816     -0.095242
  H       4.515533     -0.277501     -3.956118
  H       3.148235     -0.088827      0.803056
  H       3.455687      1.760137     -3.061496
  H       2.760901      1.869860     -0.677975
  F       0.229797     -1.722041      0.467292
  F      -1.602218     -0.635619      1.019652
  F      -3.012507     -3.092576      0.455527
  F      -1.033840     -4.044364      0.329467
  F      -2.712192     -0.972097     -1.297430
  F      -1.338186     -2.580467     -1.896806
  F      -2.610859     -2.308329      2.940692
  F      -2.112258     -4.426934      2.677574
  F      -1.060473      0.018720     -3.040011
  F      -0.339300      0.695955     -1.098442
  F       0.689116     -0.912667     -2.152874
  O      -0.077291     -1.777031      3.543306
  O       0.508904     -3.899119      3.015608
  C      -1.117891     -1.679548      0.310480
  C      -1.718169     -3.007973      0.868855
  C      -1.444006     -1.424808     -1.201249
  C      -1.676282     -3.153230      2.421772
  C      -0.505469     -0.375492     -1.886852
  C      -0.262548     -2.916743      3.069121
74
Coordinates from ORCA-job R4N+PFHxA-_r2 E -2389.494669483135
  N       1.152049     -8.030362      1.069644
  C       2.860350     -3.537507     -3.496249
  C       4.329071     -3.213856     -3.810060
  C       5.110936     -2.608843     -2.630992
  C       2.737811     -4.494148     -2.330837
  C       2.126609     -4.063115     -4.741165
  C       2.424013     -7.171178      1.044245
  C       2.527453     -6.250551     -0.134024
  C       4.452182     -1.356782     -2.086022
  C       2.101829     -4.099215     -1.153032
  C       3.274247     -5.785749     -2.391545
  C       6.561748     -2.332356     -3.044147
  C       1.194893     -8.865474      2.316543
  C       1.096419     -8.933803     -0.124478
  C      -0.075667     -7.169448      1.100915
  C       2.007602     -4.956621     -0.063793
  C       3.169966     -6.652563     -1.310268
  C       0.622721     -4.203697     -4.524011
  C       4.063040     -1.280186     -0.745753
  C       4.223740     -0.245314     -2.906451
  C       3.457924     -0.132127     -0.235762
  C       3.625747      0.905432     -2.400270
  C       3.238859      0.966925     -1.061948
  H       2.369208     -2.600317     -3.200109
  H       4.357794     -2.516257     -4.658348
  H       4.845051     -4.127130     -4.137267
  H       5.123796     -3.347887     -1.817867
  H       2.558673     -5.028105     -5.038956
  H       2.313661     -3.366340     -5.568883
  H       3.253838     -7.883320      1.065693
  H       2.407371     -6.605897      1.980989
  H       1.697910     -3.094917     -1.082804
  H       3.786980     -6.117583     -3.291009
  H       7.046101     -3.254578     -3.384907
  H       7.141408     -1.930640     -2.206072
  H       6.602745     -1.606147     -3.864323
  H       2.091060     -9.488431      2.290961
  H       0.300676     -9.490725      2.345235
  H       1.218938     -8.200611      3.182248
  H       0.211620     -9.566778     -0.032318
  H       1.999713     -9.546913     -0.143996
  H       1.027401     -8.327338     -1.028483
  H      -0.144625     -6.615421      0.164582
  H      -0.000986     -6.485332      1.948341
  H      -0.944557     -7.821300      1.211550
  H       1.531344     -4.621187      0.854003
  H       3.599151     -7.649665     -1.374045
  H       0.123196     -4.560623     -5.430979
  H       0.178888     -3.237933     -4.253460
  H       0.397933     -4.911704     -3.718052
  H       4.230140     -2.135868     -0.095033
  H       4.515972     -0.278592     -3.953629
  H       3.157814     -0.097796      0.808609
  H       3.457791      1.757421     -3.054047
  H       2.766118      1.862889     -0.668923
  F       0.226582     -1.723017      0.469810
  F      -1.607768     -0.638686      1.019348
  F      -3.013757     -3.097964      0.451794
  F      -1.033008     -4.045872      0.330397
  F      -2.714112     -0.976312     -1.298812
  F      -1.336306     -2.582164     -1.896691
  F      -2.618192     -2.311673      2.936620
  F      -2.114566     -4.429177      2.676033
  F      -1.061613      0.018418     -3.038753
  F      -0.345508      0.695641     -1.095316
  F       0.687642     -0.910403     -2.149486
  O      -0.088222     -1.774954      3.543655
  O       0.502416     -3.896146      3.017005
  C      -1.121124     -1.681537      0.310576
  C      -1.720644     -3.010638      0.867337
  C      -1.445209     -1.426853     -1.201323
  C      -1.681117     -3.154869      2.419992
  C      -0.508061     -0.375435     -1.885019
  C      -0.269309     -2.915205      3.069480
74
Coordinates from ORCA-job R4N+PFHxA-_r2 E -2389.494665675880
  N       1.151798     -8.030447      1.067492
  C       2.861439     -3.537988     -3.497484
  C       4.330467     -3.214151     -3.809978
  C       5.111318     -2.608972     -2.631062
  C       2.738414     -4.493843     -2.331249
  C       2.131360     -4.065105     -4.743768
  C       2.424477     -7.171877      1.042728
  C       2.528652     -6.251264     -0.134430
  C       4.452517     -1.357034     -2.086430
  C       2.101435     -4.099444     -1.153515
  C       3.276032     -5.784968     -2.391453
  C       6.562253     -2.332022     -3.043711
  C       1.193691     -8.864590      2.314975
  C       1.095666     -8.934197     -0.126165
  C      -0.076455     -7.168541      1.097803
  C       2.008063     -4.958152     -0.064205
  C       3.172168     -6.652297     -1.310340
  C       0.627912     -4.213454     -4.528923
  C       4.066582     -1.280034     -0.745546
  C       4.221268     -0.246180     -2.906837
  C       3.462605     -0.132033     -0.234590
  C       3.623424      0.904327     -2.399782
  C       3.240206      0.966416     -1.060403
  H       2.368743     -2.601114     -3.202862
  H       4.359628     -2.517295     -4.658836
  H       4.846410     -4.127740     -4.136285
  H       5.124356     -3.347821     -1.817784
  H       2.568077     -5.027674     -5.042664
  H       2.316189     -3.366108     -5.570106
  H       3.255191     -7.883012      1.064088
  H       2.409014     -6.606686      1.978414
  H       1.694571     -3.094278     -1.082431
  H       3.789478     -6.116381     -3.290683
  H       7.047367     -3.254071     -3.383774
  H       7.141246     -1.929472     -2.205599
  H       6.603002     -1.606088     -3.864150
  H       2.090230     -9.487102      2.290726
  H       0.299750     -9.490247      2.343648
  H       1.216768     -8.198918      3.180123
  H       0.209500     -9.565358     -0.034719
  H       1.997761     -9.549143     -0.144490
  H       1.028790     -8.328118     -1.030562
  H      -0.146423     -6.614801      0.161418
  H      -0.001772     -6.484000      1.945002
  H      -0.945322     -7.820522      1.208416
  H       1.526504     -4.618571      0.848882
  H       3.602232     -7.648987     -1.374739
  H       0.130870     -4.569219     -5.437705
  H       0.178908     -3.251048     -4.254554
  H       0.405915     -4.926142     -3.726289
  H       4.235777     -2.135136     -0.094638
  H       4.511058     -0.279575     -3.954666
  H       3.165732     -0.098919      0.810290
  H       3.452941      1.755686     -3.053705
  H       2.767175      1.861690     -0.666189
  F       0.221348     -1.720316      0.471031
  F      -1.611667     -0.635277      1.022430
  F      -3.020162     -3.093697      0.459876
  F      -1.040409     -4.042609      0.331958
  F      -2.718930     -0.971774     -1.297065
  F      -1.343070     -2.579612     -1.893868
  F      -2.616995     -2.309384      2.944862
  F      -2.112969     -4.426700      2.681424
  F      -1.063066      0.017278     -3.039093
  F      -0.350300      0.698160     -1.095899
  F       0.685199     -0.909957     -2.144416
  O      -0.082570     -1.773708      3.548456
  O       0.505259     -3.894965      3.019755
  C      -1.126406     -1.677912      0.312705
  C      -1.725991     -3.006888      0.871283
  C      -1.450553     -1.423884     -1.199215
  C      -1.681005     -3.152175      2.425550
  C      -0.511711     -0.374358     -1.883709
  C      -0.267173     -2.912611      3.073116
74
Coordinates from ORCA-job R4N+PFHxA-_r2 E -2389.494677446424
  N       1.151898     -8.030642      1.069119
  C       2.861013     -3.537526     -3.496570
  C       4.329797     -3.213957     -3.810148
  C       5.111151     -2.608698     -2.631098
  C       2.738576     -4.494336     -2.331219
  C       2.127361     -4.062583     -4.741603
  C       2.423868     -7.171642      1.043488
  C       2.527347     -6.251295     -0.134696
  C       4.452172     -1.356847     -2.085866
  C       2.102246     -4.099630     -1.153462
  C       3.274967     -5.785974     -2.391950
  C       6.561845     -2.331336     -3.044315
  C       1.194722     -8.865432      2.316137
  C       1.095914     -8.934307     -0.124740
  C      -0.075624     -7.169129      1.100295
  C       2.007550     -4.957652     -0.064313
  C       3.170334     -6.653035     -1.310772
  C       0.623711     -4.205570     -4.523570
  C       4.064799     -1.279877     -0.745165
  C       4.222223     -0.245727     -2.906361
  C       3.460846     -0.131467     -0.234604
  C       3.624576      0.905063     -2.399774
  C       3.239917      0.967082     -1.060830
  H       2.369836     -2.600433     -3.200220
  H       4.358647     -2.516873     -4.658824
  H       4.845631     -4.127527     -4.136742
  H       5.124575     -3.347868     -1.818120
  H       2.560300     -5.026756     -5.041061
  H       2.313035     -3.364439     -5.568486
  H       3.254125     -7.883341      1.064922
  H       2.407887     -6.606218      1.979814
  H       1.696735     -3.095117     -1.083242
  H       3.787935     -6.117760     -3.291378
  H       7.046842     -3.253235     -3.384990
  H       7.141235     -1.929076     -2.206324
  H       6.602174     -1.605115     -3.864510
  H       2.090939     -9.488401      2.290687
  H       0.300499     -9.490724      2.345253
  H       1.218882     -8.200346      3.181730
  H       0.210456     -9.566440     -0.032803
  H       1.998622     -9.548347     -0.143744
  H       1.027762     -8.328238     -1.029072
  H      -0.144532     -6.615247      0.163849
  H      -0.000895     -6.484895      1.947851
  H      -0.944778     -7.820703      1.211245
  H       1.528706     -4.620092      0.851225
  H       3.599440     -7.650217     -1.374772
  H       0.123654     -4.560659     -5.431007
  H       0.178717     -3.241084     -4.249671
  H       0.400598     -4.916334     -3.719367
  H       4.232882     -2.135177     -0.094210
  H       4.513102     -0.279108     -3.953895
  H       3.161863     -0.097108      0.809951
  H       3.455319      1.756703     -3.053662
  H       2.767719      1.863083     -0.667210
  F       0.224640     -1.722498      0.470462
  F      -1.609566     -0.637504      1.018837
  F      -3.016838     -3.095161      0.455355
  F      -1.037381     -4.045515      0.330318
  F      -2.714734     -0.976106     -1.300555
  F      -1.337125     -2.582720     -1.896564
  F      -2.618151     -2.310381      2.939043
  F      -2.114779     -4.428198      2.677893
  F      -1.059362      0.013811     -3.041729
  F      -0.347955      0.696765     -1.098652
  F       0.689105     -0.911134     -2.145926
  O      -0.086115     -1.774211      3.544275
  O       0.503388     -3.895833      3.017725
  C      -1.122963     -1.680876      0.310773
  C      -1.722978     -3.009386      0.868750
  C      -1.446061     -1.427133     -1.201658
  C      -1.681471     -3.153949      2.421787
  C      -0.508001     -0.376545     -1.885737
  C      -0.268984     -2.914223      3.070292
74
Coordinates from ORCA-job R4N+PFHxA-_r2 E -2389.494678954607
  N       1.151134     -8.029262      1.069917
  C       2.861737     -3.537498     -3.496964
  C       4.330345     -3.214107     -3.811051
  C       5.111851     -2.608918     -2.631860
  C       2.739488     -4.494461     -2.331742
  C       2.126172     -4.061591     -4.741255
  C       2.422867     -7.170164      1.044343
  C       2.526548     -6.250554     -0.134517
  C       4.452262     -1.357820     -2.085289
  C       2.103330     -4.099158     -1.154215
  C       3.275119     -5.786514     -2.391995
  C       6.562103     -2.330096     -3.045706
  C       1.193733     -8.864115      2.316902
  C       1.095775     -8.933228     -0.123825
  C      -0.076140     -7.167683      1.100640
  C       2.007466     -4.956650     -0.064809
  C       3.169653     -6.653029     -1.310398
  C       0.622228     -4.200449     -4.521884
  C       4.065299     -1.281744     -0.744348
  C       4.221319     -0.246387     -2.905140
  C       3.461110     -0.133788     -0.232853
  C       3.623310      0.903869     -2.397716
  C       3.239186      0.964979     -1.058576
  H       2.371420     -2.600195     -3.199917
  H       4.359063     -2.516862     -4.659592
  H       4.846117     -4.127689     -4.137771
  H       5.126229     -3.348752     -1.819509
  H       2.556424     -5.027123     -5.040392
  H       2.313089     -3.364502     -5.568760
  H       3.253023     -7.881991      1.066734
  H       2.406132     -6.604355      1.980572
  H       1.698151     -3.094497     -1.084624
  H       3.788042     -6.118930     -3.291271
  H       7.047488     -3.251352     -3.387593
  H       7.141747     -1.928252     -2.207685
  H       6.601401     -1.603068     -3.865226
  H       2.089776     -9.487370      2.291448
  H       0.299328     -9.489193      2.345899
  H       1.218039     -8.199177      3.182628
  H       0.210491     -9.565666     -0.032034
  H       1.998651     -9.547046     -0.142417
  H       1.027681     -8.327468     -1.028372
  H      -0.144169     -6.614133      0.163933
  H      -0.001489     -6.483286      1.948165
  H      -0.945504     -7.818964      1.211920
  H       1.528647     -4.617208      0.849888
  H       3.598100     -7.650580     -1.373680
  H       0.120499     -4.555234     -5.428551
  H       0.180081     -3.234325     -4.248906
  H       0.397751     -4.909567     -3.716514
  H       4.234056     -2.137278     -0.093864
  H       4.511804     -0.279042     -3.952808
  H       3.162009     -0.099653      0.811807
  H       3.453369      1.755817     -3.051032
  H       2.767353      1.860914     -0.664330
  F       0.225619     -1.723099      0.469498
  F      -1.609489     -0.638898      1.016491
  F      -3.015192     -3.096701      0.454933
  F      -1.035764     -4.047308      0.329707
  F      -2.713981     -0.980768     -1.302895
  F      -1.334327     -2.586059     -1.897655
  F      -2.616813     -2.311666      2.938114
  F      -2.113864     -4.429721      2.677281
  F      -1.059156      0.008509     -3.044944
  F      -0.350108      0.696008     -1.102531
  F       0.690296     -0.911878     -2.146366
  O      -0.085081     -1.774996      3.542385
  O       0.504455     -3.897049      3.018149
  C      -1.121864     -1.682763      0.309635
  C      -1.721150     -3.011097      0.868333
  C      -1.444820     -1.430268     -1.203166
  C      -1.680062     -3.155537      2.421128
  C      -0.507835     -0.378969     -1.887823
  C      -0.267769     -2.915751      3.069808
74
Coordinates from ORCA-job R4N+PFHxA-_r2 E -2389.494677652691
  N       1.151123     -8.028169      1.069715
  C       2.862433     -3.537812     -3.497816
  C       4.330798     -3.214128     -3.812405
  C       5.112700     -2.609245     -2.633568
  C       2.740458     -4.494393     -2.332154
  C       2.127149     -4.062463     -4.742013
  C       2.423021     -7.169204      1.043992
  C       2.527051     -6.250366     -0.134627
  C       4.452955     -1.358936     -2.085504
  C       2.104611     -4.098794     -1.154449
  C       3.275828     -5.786623     -2.392205
  C       6.562453     -2.329161     -3.048441
  C       1.193032     -8.861675      2.317643
  C       1.096352     -8.933553     -0.123039
  C      -0.076594     -7.166395      1.098705
  C       2.008666     -4.956539     -0.064733
  C       3.170138     -6.653041     -1.310490
  C       0.623446     -4.203477     -4.522414
  C       4.068286     -1.283964     -0.743980
  C       4.219706     -0.247153     -2.904257
  C       3.464630     -0.136704     -0.230527
  C       3.621868      0.902420     -2.394930
  C       3.240310      0.962473     -1.054980
  H       2.371878     -2.600548     -3.201051
  H       4.359043     -2.516785     -4.660882
  H       4.846469     -4.127662     -4.139463
  H       5.128246     -3.349672     -1.821781
  H       2.558555     -5.027355     -5.041666
  H       2.313114     -3.364858     -5.569302
  H       3.253454     -7.880714      1.067196
  H       2.406387     -6.603050      1.979426
  H       1.698496     -3.093496     -1.084815
  H       3.788561     -6.119267     -3.291527
  H       7.048097     -3.249824     -3.391553
  H       7.142555     -1.927670     -2.210567
  H       6.600523     -1.601392     -3.867358
  H       2.089287     -9.484692      2.293523
  H       0.298788     -9.486994      2.346675
  H       1.216548     -8.195750      3.182648
  H       0.210757     -9.565561     -0.031185
  H       1.998978     -9.547784     -0.140152
  H       1.029185     -8.328891     -1.028374
  H      -0.144125     -6.613635      0.161515
  H      -0.002695     -6.481326      1.945841
  H      -0.945890     -7.817794      1.210042
  H       1.528204     -4.613967      0.847935
  H       3.598226     -7.650760     -1.373682
  H       0.121725     -4.556912     -5.429622
  H       0.180265     -3.238426     -4.247198
  H       0.400080     -4.914496     -3.718392
  H       4.238751     -2.139753     -0.094272
  H       4.508318     -0.278864     -3.952472
  H       3.167616     -0.104119      0.814623
  H       3.450160      1.754714     -3.047335
  H       2.769115      1.858103     -0.659205
  F       0.222673     -1.720741      0.470298
  F      -1.613338     -0.638029      1.016603
  F      -3.017253     -3.096773      0.455490
  F      -1.037280     -4.046101      0.328993
  F      -2.715815     -0.979790     -1.304042
  F      -1.335482     -2.584782     -1.897779
  F      -2.618642     -2.312779      2.939530
  F      -2.114381     -4.430458      2.677247
  F      -1.058444      0.008250     -3.045488
  F      -0.353192      0.697858     -1.102408
  F       0.690542     -0.909774     -2.142757
  O      -0.085852     -1.775258      3.544311
  O       0.504654     -3.897406      3.019702
  C      -1.124685     -1.681531      0.309840
  C      -1.723108     -3.010488      0.868582
  C      -1.446633     -1.429118     -1.203193
  C      -1.681365     -3.155850      2.421895
  C      -0.508846     -0.377850     -1.887045
  C      -0.268857     -2.915685      3.071013
74
Coordinates from ORCA-job R4N+PFHxA-_r2 E -2389.494681434129
  N       1.153292     -8.026870      1.070453
  C       2.859472     -3.537463     -3.498679
  C       4.327562     -3.213103     -3.814566
  C       5.111689     -2.609950     -2.636406
  C       2.739269     -4.493774     -2.332728
  C       2.124719     -4.062703     -4.742873
  C       2.424550     -7.167510      1.044026
  C       2.528169     -6.249451     -0.135961
  C       4.453383     -1.360706     -2.084492
  C       2.106455     -4.097316     -1.153494
  C       3.273308     -5.786479     -2.394374
  C       6.560530     -2.328800     -3.054066
  C       1.193432     -8.856767      2.320902
  C       1.100954     -8.936160     -0.119598
  C      -0.074608     -7.166238      1.094143
  C       2.012012     -4.954730     -0.063818
  C       3.168615     -6.653043     -1.312851
  C       0.622415     -4.214129     -4.521270
  C       4.075246     -1.287038     -0.740999
  C       4.215483     -0.248458     -2.901204
  C       3.474055     -0.140336     -0.223430
  C       3.619654      0.900369     -2.387942
  C       3.244791      0.959292     -1.046083
  H       2.368375     -2.600527     -3.201758
  H       4.354480     -2.515128     -4.662570
  H       4.842488     -4.126475     -4.143324
  H       5.129274     -3.351844     -1.826001
  H       2.561393     -5.023995     -5.046635
  H       2.305314     -3.361352     -5.568189
  H       3.255229     -7.878744      1.068640
  H       2.407194     -6.600427      1.979379
  H       1.700501     -3.093045     -1.083847
  H       3.783818     -6.119228     -3.294942
  H       7.045525     -3.248707     -3.400098
  H       7.142407     -1.928818     -2.216710
  H       6.596443     -1.599404     -3.871627
  H       2.090621     -9.478581      2.300626
  H       0.299971     -9.483219      2.349759
  H       1.214142     -8.188103      3.183892
  H       0.214934     -9.567572     -0.027640
  H       2.003366     -9.550806     -0.132534
  H       1.035921     -8.334453     -1.027016
  H      -0.139117     -6.615982      0.155259
  H      -0.006036     -6.479017      1.939972
  H      -0.943695     -7.818214      1.204112
  H       1.536251     -4.617310      0.853486
  H       3.595159     -7.651371     -1.376894
  H       0.120437     -4.561782     -5.430567
  H       0.174269     -3.254336     -4.235654
  H       0.405016     -4.933917     -3.723367
  H       4.249164     -2.143208     -0.092700
  H       4.498911     -0.279033     -3.950865
  H       3.181768     -0.109302      0.823126
  H       3.444168      1.753104     -3.038767
  H       2.775714      1.854931     -0.647663
  F       0.220164     -1.716718      0.473837
  F      -1.619210     -0.637285      1.015976
  F      -3.017511     -3.096924      0.447847
  F      -1.035675     -4.043553      0.324800
  F      -2.713724     -0.973904     -1.307117
  F      -1.333332     -2.578761     -1.900545
  F      -2.626976     -2.315644      2.933418
  F      -2.118071     -4.432043      2.669820
  F      -1.050075      0.013072     -3.044486
  F      -0.352702      0.702903     -1.098458
  F       0.695570     -0.903778     -2.134754
  O      -0.095278     -1.773255      3.542595
  O       0.497108     -3.893425      3.018468
  C      -1.127016     -1.679378      0.309448
  C      -1.724463     -3.009447      0.864336
  C      -1.445042     -1.424414     -1.203983
  C      -1.686767     -3.156454      2.416804
  C      -0.504877     -0.372704     -1.883820
  C      -0.276184     -2.913467      3.068129
74
Coordinates from ORCA-job R4N+PFHxA-_r2 E -2389.494682579601
  N       1.151090     -8.026447      1.067941
  C       2.861672     -3.538704     -3.500012
  C       4.329897     -3.213761     -3.814524
  C       5.112530     -2.609410     -2.635886
  C       2.740357     -4.494004     -2.333239
  C       2.128849     -4.065860     -4.744651
  C       2.422216     -7.166101      1.045049
  C       2.527569     -6.248087     -0.134243
  C       4.452969     -1.360279     -2.085072
  C       2.103206     -4.097930     -1.156431
  C       3.277614     -5.785537     -2.391519
  C       6.561535     -2.327476     -3.052219
  C       1.190025     -8.858387      2.317087
  C       1.100944     -8.933436     -0.123844
  C      -0.078097     -7.166415      1.091505
  C       2.007814     -4.954678     -0.065908
  C       3.172090     -6.651150     -1.309126
  C       0.626158     -4.216551     -4.525589
  C       4.073577     -1.286466     -0.741964
  C       4.215267     -0.248307     -2.902239
  C       3.470613     -0.140236     -0.225386
  C       3.617916      0.900171     -2.389891
  C       3.241447      0.959006     -1.048441
  H       2.369453     -2.601779     -3.204720
  H       4.357406     -2.516055     -4.662736
  H       4.845786     -4.126878     -4.142388
  H       5.129809     -3.350822     -1.825038
  H       2.566008     -5.027661     -5.045787
  H       2.310834     -3.365903     -5.570831
  H       3.253562     -7.876417      1.071079
  H       2.402262     -6.599228      1.980125
  H       1.695345     -3.093384     -1.088360
  H       3.791462     -6.118289     -3.290112
  H       7.047506     -3.247198     -3.397393
  H       7.142356     -1.926788     -2.214462
  H       6.597864     -1.598353     -3.870020
  H       2.087370     -9.479923      2.296768
  H       0.296701     -9.485080      2.343735
  H       1.209507     -8.191390      3.181332
  H       0.215304     -9.565677     -0.034350
  H       2.003859     -9.547313     -0.136918
  H       1.036708     -8.329925     -1.030162
  H      -0.143096     -6.614399      0.153748
  H      -0.009364     -6.480621      1.938322
  H      -0.946796     -7.819118      1.199672
  H       1.527104     -4.612506      0.846609
  H       3.601333     -7.648410     -1.371059
  H       0.126139     -4.566569     -5.435015
  H       0.177594     -3.256034     -4.243397
  H       0.407065     -4.934175     -3.726483
  H       4.247511     -2.142450     -0.093424
  H       4.499736     -0.279039     -3.951615
  H       3.177805     -0.109194      0.821079
  H       3.442303      1.752502     -3.041205
  H       2.770485      1.853710     -0.650507
  F       0.221422     -1.718473      0.474216
  F      -1.614103     -0.634189      1.018803
  F      -3.019583     -3.091412      0.458826
  F      -1.040573     -4.042655      0.331180
  F      -2.715721     -0.975284     -1.301823
  F      -1.337411     -2.582342     -1.894465
  F      -2.617627     -2.307345      2.942916
  F      -2.117282     -4.425776      2.680161
  F      -1.055521      0.006542     -3.045233
  F      -0.354609      0.700684     -1.102149
  F       0.691439     -0.909463     -2.137284
  O      -0.083718     -1.774888      3.546272
  O       0.500487     -3.898654      3.020510
  C      -1.125792     -1.678276      0.312673
  C      -1.725212     -3.006476      0.871308
  C      -1.447142     -1.426270     -1.200523
  C      -1.682325     -3.152080      2.424532
  C      -0.508200     -0.376742     -1.884811
  C      -0.268921     -2.914899      3.072892
74
Coordinates from ORCA-job R4N+PFHxA-_r2 E -2389.494685982327
  N       1.152402     -8.026669      1.069714
  C       2.860478     -3.537167     -3.498880
  C       4.328577     -3.213220     -3.815032
  C       5.112773     -2.609969     -2.636883
  C       2.739668     -4.493062     -2.332649
  C       2.125227     -4.063150     -4.742510
  C       2.423292     -7.166279      1.044688
  C       2.527618     -6.247987     -0.134825
  C       4.454204     -1.360870     -2.084907
  C       2.104768     -4.096805     -1.154673
  C       3.275110     -5.785231     -2.392704
  C       6.561531     -2.328643     -3.054469
  C       1.192578     -8.857594      2.319478
  C       1.101180     -8.934728     -0.121240
  C      -0.076284     -7.166789      1.093792
  C       2.009538     -4.953861     -0.064679
  C       3.169996     -6.651297     -1.310769
  C       0.622514     -4.210624     -4.521128
  C       4.075701     -1.287645     -0.741524
  C       4.216359     -0.248421     -2.901409
  C       3.473390     -0.141507     -0.224054
  C       3.619697      0.899982     -2.388118
  C       3.244025      0.958175     -1.046417
  H       2.369528     -2.599965     -3.202437
  H       4.355657     -2.515147     -4.662954
  H       4.843498     -4.126548     -4.143835
  H       5.130405     -3.351833     -1.826456
  H       2.560020     -5.025922     -5.044019
  H       2.307462     -3.363797     -5.569152
  H       3.254378     -7.876943      1.069750
  H       2.404517     -6.599122      1.979851
  H       1.698507     -3.092379     -1.085645
  H       3.787252     -6.118006     -3.292277
  H       7.046628     -3.248467     -3.400605
  H       7.143423     -1.928742     -2.217079
  H       6.597520     -1.599123     -3.871930
  H       2.089834     -9.479257      2.298719
  H       0.299186     -9.484141      2.347583
  H       1.213024     -8.189869      3.183154
  H       0.215770     -9.567083     -0.030198
  H       2.004239     -9.548390     -0.134753
  H       1.035749     -8.332042     -1.028020
  H      -0.141696     -6.615907      0.155285
  H      -0.007126     -6.479819      1.939773
  H      -0.944983     -7.819231      1.203586
  H       1.531491     -4.614457      0.850563
  H       3.597982     -7.649044     -1.373725
  H       0.120627     -4.561575     -5.429177
  H       0.176177     -3.248629     -4.240437
  H       0.403077     -4.926187     -3.720090
  H       4.249823     -2.143999     -0.093524
  H       4.500203     -0.278724     -3.950966
  H       3.181041     -0.110488      0.822469
  H       3.444000      1.752749     -3.038840
  H       2.773645      1.852934     -0.647819
  F       0.220823     -1.718585      0.473816
  F      -1.617326     -0.636939      1.015466
  F      -3.018629     -3.095676      0.451641
  F      -1.038251     -4.044656      0.327965
  F      -2.713981     -0.977614     -1.307035
  F      -1.333117     -2.582932     -1.898439
  F      -2.623606     -2.311749      2.936219
  F      -2.118974     -4.429300      2.674487
  F      -1.051712      0.006608     -3.047200
  F      -0.355135      0.701082     -1.102710
  F       0.694683     -0.907338     -2.135962
  O      -0.091793     -1.774192      3.543894
  O       0.498127     -3.896052      3.019296
  C      -1.126274     -1.680190      0.309915
  C      -1.725167     -3.009287      0.866862
  C      -1.445169     -1.427459     -1.203793
  C      -1.685697     -3.154797      2.419670
  C      -0.506131     -0.376380     -1.885831
  C      -0.274081     -2.914436      3.070031
74
Coordinates from ORCA-job R4N+PFHxA-_r2 E -2389.494686482753
  N       1.152323     -8.025104      1.070137
  C       2.860245     -3.536866     -3.499626
  C       4.328317     -3.213223     -3.816299
  C       5.113266     -2.610705     -2.638123
  C       2.739571     -4.492440     -2.333164
  C       2.124225     -4.062956     -4.742768
  C       2.422673     -7.164055      1.045686
  C       2.527173     -6.246210     -0.134469
  C       4.454678     -1.362300     -2.084472
  C       2.104747     -4.095593     -1.155462
  C       3.274883     -5.784678     -2.392584
  C       6.561621     -2.328549     -3.056536
  C       1.191948     -8.855618      2.320198
  C       1.102564     -8.933598     -0.120555
  C      -0.076598     -7.165985      1.092855
  C       2.009286     -4.951869     -0.065093
  C       3.169564     -6.650166     -1.310220
  C       0.621451     -4.209022     -4.520843
  C       4.077646     -1.290071     -0.740540
  C       4.215302     -0.249486     -2.900031
  C       3.475184     -0.144542     -0.221715
  C       3.618510      0.898240     -2.385426
  C       3.244254      0.955427     -1.043293
  H       2.369661     -2.599472     -3.203192
  H       4.355205     -2.514721     -4.663875
  H       4.842883     -4.126515     -4.145766
  H       5.131729     -3.353291     -1.828377
  H       2.558166     -5.026254     -5.043816
  H       2.306770     -3.364249     -5.569894
  H       3.253953     -7.874447      1.071712
  H       2.402676     -6.596280      1.980735
  H       1.698749     -3.091459     -1.087117
  H       3.787046     -6.117938     -3.291969
  H       7.046701     -3.247873     -3.404034
  H       7.144073     -1.929383     -2.219182
  H       6.596785     -1.598141     -3.873245
  H       2.089445     -9.476960      2.300242
  H       0.298751     -9.482465      2.347851
  H       1.211544     -8.187637      3.183696
  H       0.217493     -9.566494     -0.029966
  H       2.006024     -9.546685     -0.133242
  H       1.037375     -8.331238     -1.027571
  H      -0.141236     -6.615525      0.154041
  H      -0.008886     -6.478611      1.938579
  H      -0.945095     -7.818791      1.202056
  H       1.532158     -4.612178      0.850579
  H       3.597465     -7.647988     -1.372591
  H       0.119050     -4.560344     -5.428466
  H       0.176010     -3.246392     -4.240919
  H       0.401620     -4.923687     -3.719113
  H       4.252958     -2.146735     -0.093266
  H       4.497970     -0.279031     -3.949931
  H       3.183865     -0.114086      0.825219
  H       3.441557      1.751269     -3.035466
  H       2.773738      1.849666     -0.643686
  F       0.221281     -1.718255      0.474515
  F      -1.618144     -0.637891      1.014369
  F      -3.017206     -3.097345      0.450250
  F      -1.036257     -4.045415      0.328156
  F      -2.713106     -0.980329     -1.308371
  F      -1.330552     -2.584649     -1.898626
  F      -2.623975     -2.312400      2.934548
  F      -2.119408     -4.430037      2.673671
  F      -1.050650      0.003709     -3.048688
  F      -0.356916      0.701085     -1.104193
  F       0.695866     -0.907071     -2.134888
  O      -0.093200     -1.774660      3.543156
  O       0.497038     -3.897001      3.020182
  C      -1.125701     -1.681055      0.309640
  C      -1.724067     -3.010366      0.866364
  C      -1.443974     -1.429060     -1.204366
  C      -1.685800     -3.155646      2.418857
  C      -0.505696     -0.377377     -1.886373
  C      -0.274779     -2.915343      3.070000
74
Coordinates from ORCA-job R4N+PFHxA-_r2 E -2389.494686228688
  N       1.151418     -8.023514      1.069475
  C       2.860927     -3.537639     -3.500646
  C       4.328715     -3.213536     -3.817817
  C       5.113715     -2.610983     -2.639692
  C       2.740584     -4.492445     -2.333436
  C       2.124730     -4.064958     -4.743229
  C       2.421803     -7.162144      1.046819
  C       2.527334     -6.244931     -0.133186
  C       4.454282     -1.363682     -2.084417
  C       2.104969     -4.095094     -1.156438
  C       3.276602     -5.784500     -2.391313
  C       6.561499     -2.326864     -3.058736
  C       1.189497     -8.853799      2.319741
  C       1.103647     -8.932097     -0.121241
  C      -0.078108     -7.164584      1.090204
  C       2.009082     -4.950823     -0.065388
  C       3.170827     -6.649257     -1.308298
  C       0.621822     -4.209745     -4.521383
  C       4.079942     -1.292450     -0.739702
  C       4.211724     -0.250832     -2.899031
  C       3.477103     -0.147899     -0.219087
  C       3.614399      0.895871     -2.382703
  C       3.242972      0.952066     -1.039702
  H       2.370008     -2.600243     -3.204834
  H       4.355155     -2.514872     -4.665275
  H       4.843592     -4.126567     -4.147530
  H       5.133509     -3.354217     -1.830574
  H       2.558166     -5.028903     -5.042889
  H       2.307733     -3.367508     -5.571324
  H       3.253269     -7.872240      1.074325
  H       2.400081     -6.594046      1.981307
  H       1.698109     -3.090500     -1.088780
  H       3.789540     -6.118261     -3.290069
  H       7.047358     -3.245298     -3.407516
  H       7.144096     -1.927945     -2.221359
  H       6.595374     -1.595538     -3.874690
  H       2.086830     -9.475410      2.300805
  H       0.296042     -9.480313      2.346520
  H       1.208375     -8.185693      3.183153
  H       0.218841     -9.565517     -0.031744
  H       2.007514     -9.544596     -0.132860
  H       1.039184     -8.329737     -1.028312
  H      -0.141614     -6.614014      0.151403
  H      -0.011556     -6.477134      1.935921
  H      -0.946533     -7.817679      1.198152
  H       1.530394     -4.607017      0.847792
  H       3.599179     -7.646950     -1.369625
  H       0.119542     -4.562856     -5.428377
  H       0.176878     -3.246213     -4.243825
  H       0.401336     -4.922442     -3.718138
  H       4.257807     -2.149163     -0.093179
  H       4.492257     -0.279607     -3.949527
  H       3.188487     -0.118275      0.828643
  H       3.434885      1.748918     -3.032020
  H       2.772070      1.845513     -0.638761
  F       0.221322     -1.715544      0.475558
  F      -1.619136     -0.636857      1.013942
  F      -3.016118     -3.097149      0.451115
  F      -1.034819     -4.044445      0.329162
  F      -2.712787     -0.981871     -1.309247
  F      -1.328812     -2.585708     -1.897534
  F      -2.622031     -2.311605      2.935955
  F      -2.119301     -4.429614      2.674495
  F      -1.049154     -0.000646     -3.051248
  F      -0.359941      0.702381     -1.107155
  F       0.697380     -0.906438     -2.132228
  O      -0.090858     -1.776408      3.544793
  O       0.497944     -3.900297      3.022632
  C      -1.125358     -1.679958      0.310025
  C      -1.723030     -3.009697      0.867319
  C      -1.443406     -1.429559     -1.204340
  C      -1.684612     -3.155521      2.420139
  C      -0.505553     -0.378128     -1.887086
  C      -0.273332     -2.917185      3.071990
74
Coordinates from ORCA-job R4N+PFHxA-_r2 E -2389.494686754147
  N       1.151652     -8.023806      1.069966
  C       2.859823     -3.536969     -3.499669
  C       4.327469     -3.213203     -3.817879
  C       5.113140     -2.610755     -2.640198
  C       2.740077     -4.491756     -2.332511
  C       2.122430     -4.064428     -4.741456
  C       2.422189     -7.162637      1.046983
  C       2.527830     -6.244638     -0.133099
  C       4.454029     -1.363665     -2.084342
  C       2.105956     -4.094226     -1.154668
  C       3.275329     -5.784022     -2.391469
  C       6.560692     -2.326513     -3.059912
  C       1.189577     -8.853708      2.320482
  C       1.103713     -8.932726     -0.120487
  C      -0.077493     -7.164742      1.090478
  C       2.010406     -4.950023     -0.064189
  C       3.170071     -6.649058     -1.308762
  C       0.619445     -4.206851     -4.518351
  C       4.082185     -1.292362     -0.738970
  C       4.209514     -0.251172     -2.898851
  C       3.479544     -0.148120     -0.217654
  C       3.612328      0.895222     -2.381806
  C       3.243223      0.951446     -1.038164
  H       2.369248     -2.599519     -3.203554
  H       4.353438     -2.514736     -4.665501
  H       4.842111     -4.126275     -4.147834
  H       5.133447     -3.354104     -1.831201
  H       2.554349     -5.029211     -5.040518
  H       2.305680     -3.368036     -5.570389
  H       3.253272     -7.873193      1.073821
  H       2.400581     -6.594745      1.981926
  H       1.700429     -3.090117     -1.085962
  H       3.787288     -6.117687     -3.290804
  H       7.046468     -3.244846     -3.409067
  H       7.143698     -1.927664     -2.222789
  H       6.594129     -1.595038     -3.875760
  H       2.086465     -9.475949      2.301406
  H       0.295650     -9.479517      2.347768
  H       1.209186     -8.185307      3.183643
  H       0.219067     -9.566298     -0.030557
  H       2.007765     -9.544932     -0.132225
  H       1.038809     -8.330539     -1.027638
  H      -0.140621     -6.614485      0.151374
  H      -0.010945     -6.476771      1.935857
  H      -0.946157     -7.817484      1.198529
  H       1.534354     -4.610675      0.852083
  H       3.597789     -7.646972     -1.370789
  H       0.116323     -4.562637     -5.423825
  H       0.175793     -3.241837     -4.243998
  H       0.398574     -4.916448     -3.712374
  H       4.261774     -2.148829     -0.092600
  H       4.488268     -0.280117     -3.949810
  H       3.193095     -0.117755      0.830600
  H       3.431022      1.747981     -3.030996
  H       2.771996      1.844545     -0.636785
  F       0.222598     -1.715047      0.476152
  F      -1.619996     -0.638416      1.011827
  F      -3.013866     -3.099140      0.445748
  F      -1.031876     -4.045477      0.327479
  F      -2.709649     -0.983087     -1.312611
  F      -1.324316     -2.586349     -1.899448
  F      -2.624502     -2.313638      2.931515
  F      -2.119718     -4.431114      2.670529
  F      -1.044205     -0.002473     -3.053429
  F      -0.359607      0.703041     -1.108598
  F       0.701504     -0.905276     -2.130229
  O      -0.094312     -1.775966      3.543067
  O       0.495817     -3.897873      3.021012
  C      -1.123982     -1.680876      0.308523
  C      -1.721577     -3.010986      0.864324
  C      -1.440268     -1.430312     -1.206251
  C      -1.685771     -3.156668      2.416815
  C      -0.502386     -0.378286     -1.887902
  C      -0.275577     -2.916553      3.069863
74
Coordinates from ORCA-job R4N+PFHxA-_r2 E -2389.494688861355
  N       1.151742     -8.024449      1.069434
  C       2.860367     -3.537452     -3.499540
  C       4.327945     -3.213205     -3.817544
  C       5.113357     -2.610317     -2.640018
  C       2.740652     -4.492336     -2.332385
  C       2.123722     -4.065082     -4.741702
  C       2.422627     -7.163761      1.046191
  C       2.528407     -6.245847     -0.133404
  C       4.454065     -1.363086     -2.084717
  C       2.106303     -4.095186     -1.154456
  C       3.276108     -5.784523     -2.391569
  C       6.560925     -2.326080     -3.059703
  C       1.189569     -8.854014      2.320173
  C       1.103275     -8.933680     -0.120765
  C      -0.077400     -7.164956      1.089933
  C       2.010922     -4.951485     -0.063990
  C       3.170840     -6.649889     -1.309105
  C       0.620971     -4.210191     -4.518855
  C       4.081294     -1.291739     -0.739664
  C       4.210244     -0.250529     -2.899334
  C       3.478492     -0.147467     -0.218701
  C       3.612967      0.895996     -2.382601
  C       3.242949      0.952270     -1.039214
  H       2.369377     -2.600158     -3.203525
  H       4.353782     -2.514870     -4.665281
  H       4.842837     -4.126203     -4.147315
  H       5.133644     -3.353365     -1.830744
  H       2.557209     -5.028950     -5.041520
  H       2.306002     -3.367700     -5.570009
  H       3.253626     -7.874445      1.072834
  H       2.401932     -6.595916      1.980953
  H       1.700287     -3.090773     -1.085568
  H       3.788179     -6.117906     -3.290955
  H       7.046798     -3.244487     -3.408520
  H       7.143800     -1.926920     -2.222641
  H       6.594347     -1.594881     -3.875792
  H       2.086541     -9.476149      2.301412
  H       0.295755     -9.479993      2.347564
  H       1.209000     -8.185348      3.183141
  H       0.218245     -9.566694     -0.030629
  H       2.006921     -9.546501     -0.132299
  H       1.038768     -8.331781     -1.028132
  H      -0.140716     -6.614608      0.150927
  H      -0.010427     -6.477194      1.935445
  H      -0.946113     -7.817642      1.198011
  H       1.533719     -4.611100      0.851383
  H       3.598645     -7.647754     -1.371394
  H       0.118313     -4.564814     -5.425050
  H       0.175796     -3.246453     -4.242400
  H       0.401230     -4.921861     -3.714402
  H       4.260291     -2.148234     -0.093173
  H       4.489711     -0.279438     -3.950105
  H       3.191474     -0.117638      0.829328
  H       3.432319      1.748831     -3.031877
  H       2.771814      1.845505     -0.638032
  F       0.221249     -1.714499      0.476069
  F      -1.620336     -0.636949      1.013192
  F      -3.015817     -3.097491      0.447670
  F      -1.033980     -4.043999      0.327570
  F      -2.711264     -0.979658     -1.311032
  F      -1.327900     -2.584115     -1.899027
  F      -2.624473     -2.312305      2.933400
  F      -2.120344     -4.429922      2.671703
  F      -1.045540      0.001043     -3.051524
  F      -0.358063      0.703158     -1.106474
  F       0.699715     -0.905592     -2.130869
  O      -0.093367     -1.775872      3.544335
  O       0.496344     -3.898014      3.020555
  C      -1.125448     -1.679451      0.309157
  C      -1.723198     -3.009558      0.865202
  C      -1.442247     -1.428203     -1.205393
  C      -1.686238     -3.155498      2.417932
  C      -0.503299     -0.377000     -1.886934
  C      -0.275452     -2.916034      3.070257
74
Coordinates from ORCA-job R4N+PFHxA-_r2 E -2389.494688868241
  N       1.151329     -8.024279      1.069005
  C       2.860489     -3.537957     -3.499769
  C       4.327983     -3.213337     -3.817736
  C       5.113173     -2.610204     -2.640145
  C       2.740952     -4.492630     -2.332391
  C       2.123934     -4.066020     -4.741822
  C       2.422219     -7.163494      1.046704
  C       2.528469     -6.245725     -0.132870
  C       4.453492     -1.363237     -2.084583
  C       2.105997     -4.095436     -1.154871
  C       3.276950     -5.784645     -2.390936
  C       6.560609     -2.325292     -3.059841
  C       1.188471     -8.854015      2.319642
  C       1.103650     -8.933264     -0.121398
  C      -0.077903     -7.164848      1.088854
  C       2.010559     -4.951512     -0.064137
  C       3.171521     -6.649795     -1.308259
  C       0.621174     -4.211112     -4.519039
  C       4.081540     -1.291829     -0.739274
  C       4.208652     -0.250893     -2.899189
  C       3.478540     -0.147715     -0.218083
  C       3.611167      0.895437     -2.382255
  C       3.242001      0.951785     -1.038636
  H       2.369234     -2.600729     -3.203971
  H       4.353698     -2.515012     -4.665488
  H       4.843151     -4.126199     -4.147447
  H       5.133809     -3.353335     -1.830954
  H       2.557489     -5.029965     -5.041280
  H       2.306215     -3.368887     -5.570339
  H       3.253252     -7.874108      1.073934
  H       2.400772     -6.595616      1.981371
  H       1.699465     -3.090973     -1.086448
  H       3.789506     -6.118118     -3.290012
  H       7.046852     -3.243419     -3.408890
  H       7.143370     -1.926078     -2.222722
  H       6.593686     -1.593888     -3.875764
  H       2.085380     -9.476252      2.301227
  H       0.294578     -9.479902      2.346551
  H       1.207573     -8.185483      3.182720
  H       0.218703     -9.566475     -0.031840
  H       2.007421     -9.545906     -0.132647
  H       1.039467     -8.331191     -1.028678
  H      -0.140574     -6.614194      0.150003
  H      -0.011503     -6.477319      1.934560
  H      -0.946633     -7.817638      1.196091
  H       1.532792     -4.609868      0.850398
  H       3.599677     -7.647534     -1.370149
  H       0.118634     -4.566274     -5.425088
  H       0.175905     -3.247256     -4.243152
  H       0.401405     -4.922367     -3.714259
  H       4.261350     -2.148158     -0.092781
  H       4.487474     -0.279837     -3.950134
  H       3.192411     -0.117757      0.830234
  H       3.429701      1.748073     -3.031567
  H       2.770658      1.844831     -0.637296
  F       0.221814     -1.713263      0.476458
  F      -1.619928     -0.636037      1.013218
  F      -3.015000     -3.096746      0.448330
  F      -1.033093     -4.043154      0.328095
  F      -2.710791     -0.979473     -1.310868
  F      -1.327433     -2.584090     -1.898429
  F      -2.622887     -2.311252      2.934168
  F      -2.120237     -4.429165      2.672072
  F      -1.044855     -0.000052     -3.052280
  F      -0.358089      0.703693     -1.107558
  F       0.700287     -0.905721     -2.130454
  O      -0.091428     -1.776503      3.544467
  O       0.496854     -3.899601      3.021438
  C      -1.124795     -1.678602      0.309441
  C      -1.722345     -3.008775      0.865730
  C      -1.441751     -1.427928     -1.205194
  C      -1.685265     -3.154993      2.418497
  C      -0.502871     -0.377095     -1.887248
  C      -0.274280     -2.916804      3.070849
74
Coordinates from ORCA-job R4N+PFHxA-_r2 E -2389.494689222559
  N       1.151615     -8.024052      1.069340
  C       2.860313     -3.537642     -3.499606
  C       4.327803     -3.213307     -3.817936
  C       5.113461     -2.610432     -2.640541
  C       2.740864     -4.492347     -2.332262
  C       2.123335     -4.065511     -4.741472
  C       2.422558     -7.163389      1.046704
  C       2.528745     -6.245551     -0.132907
  C       4.453988     -1.363574     -2.084545
  C       2.106519     -4.095054     -1.154419
  C       3.276445     -5.784511     -2.391180
  C       6.560749     -2.325507     -3.060735
  C       1.188774     -8.853434      2.320212
  C       1.103729     -8.933405     -0.120772
  C      -0.077495     -7.164528      1.089049
  C       2.011281     -4.951167     -0.063743
  C       3.171201     -6.649732     -1.308568
  C       0.620527     -4.209717     -4.518387
  C       4.082438     -1.292495     -0.739122
  C       4.208810     -0.251085     -2.898841
  C       3.479372     -0.148619     -0.217548
  C       3.611293      0.895043     -2.381503
  C       3.242427      0.951029     -1.037793
  H       2.369346     -2.600317     -3.203630
  H       4.353397     -2.514915     -4.665636
  H       4.842689     -4.126239     -4.147897
  H       5.134363     -3.353697     -1.831482
  H       2.556315     -5.029750     -5.040818
  H       2.305860     -3.368627     -5.570142
  H       3.253517     -7.874104      1.073763
  H       2.401448     -6.595474      1.981407
  H       1.700472     -3.090575     -1.085681
  H       3.788559     -6.118036     -3.290489
  H       7.046798     -3.243577     -3.410201
  H       7.143854     -1.926538     -2.223742
  H       6.593544     -1.593907     -3.876493
  H       2.085719     -9.475627      2.301989
  H       0.294928     -9.479381      2.347302
  H       1.207830     -8.184650      3.183097
  H       0.218714     -9.566483     -0.030927
  H       2.007414     -9.546179     -0.131903
  H       1.039541     -8.331631     -1.028246
  H      -0.140219     -6.614191      0.150003
  H      -0.010961     -6.476738      1.934549
  H      -0.946261     -7.817229      1.196575
  H       1.534186     -4.610093      0.851398
  H       3.599043     -7.647586     -1.370741
  H       0.117680     -4.565330     -5.424090
  H       0.175773     -3.245427     -4.243207
  H       0.400526     -4.920260     -3.713011
  H       4.262539     -2.148932     -0.092857
  H       4.487350     -0.279772     -3.949867
  H       3.193567     -0.118959      0.830835
  H       3.429526      1.747792     -3.030583
  H       2.770976      1.843876     -0.636131
  F       0.221351     -1.713301      0.476412
  F      -1.621008     -0.636724      1.012577
  F      -3.015004     -3.097945      0.446917
  F      -1.032636     -4.043517      0.327464
  F      -2.710801     -0.980035     -1.311924
  F      -1.326910     -2.584302     -1.899199
  F      -2.624291     -2.312300      2.932902
  F      -2.120500     -4.429963      2.670980
  F      -1.044491      0.000103     -3.052523
  F      -0.358403      0.703543     -1.107448
  F       0.700536     -0.905440     -2.130330
  O      -0.093276     -1.776292      3.544247
  O       0.496231     -3.898741      3.020955
  C      -1.125268     -1.679053      0.308882
  C      -1.722547     -3.009432      0.864819
  C      -1.441698     -1.428255     -1.205850
  C      -1.686056     -3.155564      2.417552
  C      -0.502796     -0.377103     -1.887412
  C      -0.275426     -2.916545      3.070300
74
Coordinates from ORCA-job R4N+PFHxA-_r2 E -2389.494689097372
  N       1.151676     -8.023786      1.069413
  C       2.860196     -3.537591     -3.499504
  C       4.327651     -3.213320     -3.818136
  C       5.113635     -2.610502     -2.640897
  C       2.740948     -4.492233     -2.332117
  C       2.122879     -4.065481     -4.741160
  C       2.422653     -7.163259      1.046925
  C       2.529035     -6.245320     -0.132809
  C       4.454097     -1.363894     -2.084424
  C       2.106909     -4.094822     -1.154148
  C       3.276383     -5.784438     -2.391159
  C       6.560714     -2.325199     -3.061576
  C       1.188485     -8.853063      2.320367
  C       1.103980     -8.933266     -0.120608
  C      -0.077258     -7.164180      1.088756
  C       2.011788     -4.950798     -0.063489
  C       3.171216     -6.649640     -1.308552
  C       0.620058     -4.209158     -4.517750
  C       4.083306     -1.293022     -0.738756
  C       4.208037     -0.251462     -2.898516
  C       3.480020     -0.149423     -0.216805
  C       3.610295      0.894373     -2.380812
  C       3.242121      0.950148     -1.036916
  H       2.369368     -2.600224     -3.203444
  H       4.353050     -2.514904     -4.665824
  H       4.842431     -4.126247     -4.148277
  H       5.134981     -3.353907     -1.831979
  H       2.555506     -5.029920     -5.040369
  H       2.305464     -3.368823     -5.570007
  H       3.253491     -7.874121      1.074007
  H       2.401517     -6.595347      1.981795
  H       1.701164     -3.090530     -1.085399
  H       3.788296     -6.118027     -3.290562
  H       7.046790     -3.243075     -3.411516
  H       7.144068     -1.926382     -2.224683
  H       6.593042     -1.593340     -3.877120
  H       2.085434     -9.475262      2.302428
  H       0.294643     -9.479025      2.347274
  H       1.207315     -8.184216      3.183210
  H       0.218921     -9.566299     -0.030869
  H       2.007628     -9.546101     -0.131502
  H       1.040007     -8.331600     -1.028169
  H      -0.139608     -6.613923      0.149630
  H      -0.010927     -6.476376      1.934248
  H      -0.946129     -7.816782      1.196062
  H       1.535416     -4.610675      0.852417
  H       3.598884     -7.647564     -1.370823
  H       0.116965     -4.565239     -5.423135
  H       0.175610     -3.244564     -4.243148
  H       0.400012     -4.919126     -3.711863
  H       4.264105     -2.149414     -0.092624
  H       4.486002     -0.279991     -3.949700
  H       3.194839     -0.119846      0.831774
  H       3.427782      1.747058     -3.029769
  H       2.770390      1.842728     -0.634970
  F       0.221447     -1.713169      0.476728
  F      -1.621409     -0.636956      1.012064
  F      -3.014663     -3.098316      0.445973
  F      -1.032068     -4.043598      0.327264
  F      -2.710241     -0.980231     -1.312581
  F      -1.326198     -2.584479     -1.899550
  F      -2.624821     -2.312234      2.931885
  F      -2.120969     -4.429914      2.670339
  F      -1.043546     -0.000194     -3.052857
  F      -0.358153      0.703480     -1.107597
  F       0.701196     -0.905482     -2.130047
  O      -0.094112     -1.776126      3.543776
  O       0.495378     -3.898347      3.020250
  C      -1.125165     -1.679224      0.308631
  C      -1.722351     -3.009614      0.864296
  C      -1.441149     -1.428446     -1.206211
  C      -1.686444     -3.155541      2.416874
  C      -0.502186     -0.377235     -1.887534
  C      -0.276039     -2.916381      3.069766
74
Coordinates from ORCA-job R4N+PFHxA-_r2 E -2389.494689551784
  N       1.151717     -8.023715      1.069288
  C       2.860310     -3.537748     -3.499297
  C       4.327693     -3.213445     -3.818197
  C       5.113886     -2.610519     -2.641209
  C       2.741255     -4.492312     -2.331787
  C       2.122879     -4.065752     -4.740835
  C       2.423042     -7.163599      1.047011
  C       2.529709     -6.245564     -0.132453
  C       4.454262     -1.364097     -2.084442
  C       2.107455     -4.094916     -1.153656
  C       3.276666     -5.784541     -2.390920
  C       6.560755     -2.324828     -3.062365
  C       1.188103     -8.852899      2.320310
  C       1.103848     -8.933251     -0.120671
  C      -0.077067     -7.163645      1.088421
  C       2.012629     -4.951046     -0.062937
  C       3.171661     -6.649830     -1.308337
  C       0.620000     -4.208855     -4.517435
  C       4.084209     -1.293374     -0.738596
  C       4.207316     -0.251744     -2.898364
  C       3.480683     -0.150084     -0.216312
  C       3.609325      0.893820     -2.380317
  C       3.241817      0.949416     -1.036234
  H       2.369500     -2.600369     -3.203236
  H       4.352892     -2.515090     -4.665943
  H       4.842434     -4.126375     -4.148393
  H       5.135677     -3.353950     -1.832327
  H       2.555188     -5.030429     -5.039727
  H       2.305720     -3.369388     -5.569870
  H       3.253752     -7.874624      1.074020
  H       2.402206     -6.595908      1.981865
  H       1.701706     -3.090355     -1.084650
  H       3.788419     -6.118139     -3.290411
  H       7.046902     -3.242529     -3.412667
  H       7.144316     -1.926053     -2.225598
  H       6.592605     -1.592802     -3.877777
  H       2.084978     -9.475214      2.302645
  H       0.294203     -9.478783      2.347086
  H       1.206822     -8.183990      3.183109
  H       0.218578     -9.565996     -0.030969
  H       2.007277     -9.546414     -0.131442
  H       1.040179     -8.331659     -1.028301
  H      -0.139288     -6.613387      0.149298
  H      -0.010395     -6.475878      1.933922
  H      -0.946100     -7.816040      1.195688
  H       1.536066     -4.610199      0.852552
  H       3.599243     -7.647776     -1.370830
  H       0.116890     -4.565699     -5.422512
  H       0.175761     -3.243890     -4.243830
  H       0.399731     -4.918023     -3.710905
  H       4.265742     -2.149680     -0.092555
  H       4.484736     -0.280128     -3.949696
  H       3.196341     -0.120783      0.832459
  H       3.426080      1.746423     -3.029177
  H       2.769802      1.841702     -0.633974
  F       0.220754     -1.712308      0.476745
  F      -1.622488     -0.636650      1.011688
  F      -3.014928     -3.098560      0.445610
  F      -1.031938     -4.043042      0.326913
  F      -2.710586     -0.979992     -1.313328
  F      -1.326367     -2.584245     -1.899823
  F      -2.625207     -2.312386      2.931877
  F      -2.121065     -4.429966      2.669915
  F      -1.043281     -0.000067     -3.053287
  F      -0.358423      0.703691     -1.107866
  F       0.701244     -0.905357     -2.129842
  O      -0.094324     -1.776195      3.544231
  O       0.495495     -3.898272      3.020105
  C      -1.125826     -1.678754      0.308313
  C      -1.722660     -3.009361      0.863963
  C      -1.441482     -1.428153     -1.206622
  C      -1.686693     -3.155466      2.416730
  C      -0.502284     -0.377062     -1.887792
  C      -0.276268     -2.916310      3.069838
74
Coordinates from ORCA-job R4N+PFHxA-_r2 E -2389.494689659094
  N       1.151875     -8.023820      1.069342
  C       2.860081     -3.537823     -3.499109
  C       4.327437     -3.213487     -3.818123
  C       5.113754     -2.610552     -2.641209
  C       2.741173     -4.492419     -2.331596
  C       2.122545     -4.065783     -4.740611
  C       2.423290     -7.163819      1.047165
  C       2.529938     -6.245724     -0.132227
  C       4.454225     -1.364093     -2.084375
  C       2.107348     -4.095095     -1.153463
  C       3.276738     -5.784590     -2.390733
  C       6.560583     -2.324897     -3.062531
  C       1.188234     -8.853199      2.320226
  C       1.103871     -8.933138     -0.120766
  C      -0.076805     -7.163613      1.088670
  C       2.012730     -4.951249     -0.062706
  C       3.171868     -6.649913     -1.308151
  C       0.619658     -4.208698     -4.517182
  C       4.084346     -1.293272     -0.738472
  C       4.207205     -0.251774     -2.898318
  C       3.480883     -0.149932     -0.216186
  C       3.609288      0.893830     -2.380273
  C       3.241921      0.949512     -1.036161
  H       2.369293     -2.600455     -3.202978
  H       4.352564     -2.515119     -4.665861
  H       4.842147     -4.126415     -4.148369
  H       5.135618     -3.353968     -1.832312
  H       2.554726     -5.030528     -5.039472
  H       2.305455     -3.369462     -5.569666
  H       3.253938     -7.874917      1.074104
  H       2.402530     -6.596256      1.982067
  H       1.701452     -3.090506     -1.084521
  H       3.788491     -6.118143     -3.290240
  H       7.046655     -3.242605     -3.412920
  H       7.144260     -1.926169     -2.225822
  H       6.592353     -1.592855     -3.877931
  H       2.085082     -9.475552      2.302476
  H       0.294316     -9.479063      2.346927
  H       1.206989     -8.184426      3.183128
  H       0.218580     -9.565860     -0.031099
  H       2.007265     -9.546352     -0.131729
  H       1.040157     -8.331400     -1.028296
  H      -0.138959     -6.613161      0.149668
  H      -0.010033     -6.476044      1.934316
  H      -0.945908     -7.815933      1.195817
  H       1.536177     -4.610189      0.852702
  H       3.599536     -7.647818     -1.370707
  H       0.116520     -4.565698     -5.422183
  H       0.175494     -3.243638     -4.243802
  H       0.399327     -4.917688     -3.710523
  H       4.265965     -2.149532     -0.092393
  H       4.484503     -0.280208     -3.949681
  H       3.196721     -0.120536      0.832650
  H       3.425994      1.746387     -3.029181
  H       2.769949      1.841803     -0.633881
  F       0.220612     -1.711719      0.476845
  F      -1.622964     -0.636438      1.011338
  F      -3.014722     -3.098682      0.445009
  F      -1.031458     -4.042667      0.326560
  F      -2.710422     -0.979968     -1.313922
  F      -1.325887     -2.584066     -1.900050
  F      -2.625474     -2.312581      2.931459
  F      -2.121236     -4.430111      2.669223
  F      -1.042818      0.000231     -3.053465
  F      -0.358217      0.703890     -1.107926
  F       0.701534     -0.905199     -2.129824
  O      -0.094730     -1.776315      3.544115
  O       0.495369     -3.898433      3.020142
  C      -1.125918     -1.678443      0.308087
  C      -1.722545     -3.009215      0.863577
  C      -1.441279     -1.427960     -1.206927
  C      -1.686838     -3.155551      2.416345
  C      -0.502010     -0.376836     -1.887923
  C      -0.276553     -2.916485      3.069723
74
Coordinates from ORCA-job R4N+PFHxA-_r2 E -2389.494689686945
  N       1.152515     -8.024281      1.069887
  C       2.859216     -3.537633     -3.498487
  C       4.326586     -3.213473     -3.817747
  C       5.113288     -2.610768     -2.640874
  C       2.740570     -4.492507     -2.331186
  C       2.121161     -4.065101     -4.739899
  C       2.423954     -7.164419      1.047491
  C       2.530123     -6.246018     -0.131932
  C       4.454259     -1.363989     -2.084045
  C       2.106768     -4.095389     -1.153018
  C       3.276363     -5.784567     -2.390538
  C       6.560183     -2.325719     -3.062385
  C       1.189438     -8.854514      2.320162
  C       1.103761     -8.932748     -0.120813
  C      -0.075751     -7.163911      1.090504
  C       2.012590     -4.951532     -0.062323
  C       3.171846     -6.650019     -1.308017
  C       0.618242     -4.207144     -4.516219
  C       4.084320     -1.292720     -0.738113
  C       4.207767     -0.251722     -2.898224
  C       3.481249     -0.148953     -0.216137
  C       3.610262      0.894231     -2.380513
  C       3.242748      0.950330     -1.036474
  H       2.368711     -2.600242     -3.201970
  H       4.351709     -2.514983     -4.665381
  H       4.841059     -4.126466     -4.148181
  H       5.134951     -3.354138     -1.831923
  H       2.552713     -5.030084     -5.038884
  H       2.304337     -3.368821     -5.568928
  H       3.254430     -7.875729      1.073890
  H       2.403519     -6.597208      1.982718
  H       1.700671     -3.091005     -1.084374
  H       3.788003     -6.117966     -3.290161
  H       7.045814     -3.243650     -3.412797
  H       7.144140     -1.927206     -2.225771
  H       6.592150     -1.593746     -3.877839
  H       2.086238     -9.476913      2.301602
  H       0.295503     -9.480350      2.346870
  H       1.208638     -8.186346      3.183517
  H       0.218513     -9.565520     -0.031054
  H       2.007134     -9.545976     -0.132774
  H       1.039495     -8.330394     -1.027897
  H      -0.138025     -6.612901      0.151851
  H      -0.008567     -6.476896      1.936554
  H      -0.945013     -7.816001      1.197695
  H       1.536650     -4.611113      0.853651
  H       3.599669     -7.647843     -1.370781
  H       0.114821     -4.564159     -5.421059
  H       0.174605     -3.241777     -4.243114
  H       0.397638     -4.915802     -3.709358
  H       4.265570     -2.148896     -0.091815
  H       4.485139     -0.280451     -3.949557
  H       3.196834     -0.118935      0.832704
  H       3.427397      1.746686     -3.029675
  H       2.771075      1.842854     -0.634420
  F       0.220589     -1.711060      0.476782
  F      -1.623822     -0.636508      1.010044
  F      -3.014011     -3.099379      0.442882
  F      -1.030216     -4.042454      0.325470
  F      -2.709710     -0.980644     -1.315689
  F      -1.324157     -2.584116     -1.901021
  F      -2.626556     -2.313449      2.929485
  F      -2.121636     -4.430799      2.667141
  F      -1.041799      0.000824     -3.053980
  F      -0.357545      0.704018     -1.108188
  F       0.702266     -0.904974     -2.130371
  O      -0.096624     -1.776065      3.542541
  O       0.494695     -3.898150      3.019874
  C      -1.125836     -1.678348      0.307215
  C      -1.722118     -3.009417      0.862210
  C      -1.440432     -1.428057     -1.207988
  C      -1.687389     -3.156080      2.414776
  C      -0.501223     -0.376554     -1.888476
  C      -0.277666     -2.916654      3.068744
74
Coordinates from ORCA-job R4N+PFHxA-_r2 E -2389.494689962417
  N       1.152787     -8.023945      1.069960
  C       2.859533     -3.537723     -3.498261
  C       4.326812     -3.213685     -3.818006
  C       5.113954     -2.611015     -2.641461
  C       2.741115     -4.492513     -2.330836
  C       2.121161     -4.065252     -4.739459
  C       2.424767     -7.164820      1.047508
  C       2.531108     -6.246186     -0.131550
  C       4.454771     -1.364599     -2.084042
  C       2.107780     -4.095366     -1.152386
  C       3.276730     -5.784643     -2.390368
  C       6.560523     -2.325386     -3.063716
  C       1.189457     -8.854433      2.320083
  C       1.103315     -8.932210     -0.120872
  C      -0.075121     -7.162752      1.090970
  C       2.013917     -4.951644     -0.061674
  C       3.172398     -6.650177     -1.307866
  C       0.618133     -4.206171     -4.515752
  C       4.085824     -1.293722     -0.737858
  C       4.206966     -0.252369     -2.897878
  C       3.482422     -0.150438     -0.215265
  C       3.609004      0.893096     -2.379576
  C       3.242435      0.948770     -1.035257
  H       2.369203     -2.600272     -3.201678
  H       4.351667     -2.515183     -4.665639
  H       4.841113     -4.126705     -4.148641
  H       5.136286     -3.354542     -1.832674
  H       2.552071     -5.030658     -5.037996
  H       2.304806     -3.369466     -5.568801
  H       3.254951     -7.876502      1.073397
  H       2.405074     -6.598052      1.982912
  H       1.701674     -3.090751     -1.083502
  H       3.788043     -6.118097     -3.290160
  H       7.046201     -3.243046     -3.414779
  H       7.144846     -1.927036     -2.227280
  H       6.591775     -1.593082     -3.878901
  H       2.086092     -9.477069      2.301391
  H       0.295367     -9.480055      2.346614
  H       1.208829     -8.186471      3.183593
  H       0.217712     -9.564485     -0.031118
  H       2.006314     -9.545986     -0.133017
  H       1.039334     -8.329690     -1.027867
  H      -0.137412     -6.611550      0.152442
  H      -0.007010     -6.476048      1.937208
  H      -0.944728     -7.814353      1.198386
  H       1.537865     -4.610550      0.853935
  H       3.599982     -7.648087     -1.370914
  H       0.114607     -4.564042     -5.420199
  H       0.175042     -3.240196     -4.243955
  H       0.397066     -4.913714     -3.708038
  H       4.268097     -2.149847     -0.091775
  H       4.483572     -0.280753     -3.949423
  H       3.198914     -0.120977      0.833790
  H       3.425032      1.745491     -3.028506
  H       2.770326      1.840855     -0.632711
  F       0.219193     -1.710258      0.476841
  F      -1.625769     -0.636370      1.009311
  F      -3.014963     -3.099754      0.442209
  F      -1.030823     -4.042076      0.324906
  F      -2.710400     -0.980621     -1.316989
  F      -1.324484     -2.584018     -1.901580
  F      -2.627839     -2.313618      2.929002
  F      -2.122137     -4.430832      2.666785
  F      -1.041627      0.001000     -3.054452
  F      -0.358198      0.704057     -1.108303
  F       0.702118     -0.904821     -2.130044
  O      -0.098044     -1.775670      3.542821
  O       0.494262     -3.897453      3.018876
  C      -1.127170     -1.678052      0.306698
  C      -1.723132     -3.009337      0.861666
  C      -1.441127     -1.427943     -1.208661
  C      -1.688361     -3.155955      2.414413
  C      -0.501564     -0.376447     -1.888720
  C      -0.278643     -2.916140      3.068578
74
Coordinates from ORCA-job R4N+PFHxA-_r2 E -2389.494690021549
  N       1.152824     -8.023554      1.070146
  C       2.859617     -3.537543     -3.498438
  C       4.326892     -3.213592     -3.818320
  C       5.114253     -2.611110     -2.641845
  C       2.741196     -4.492234     -2.330960
  C       2.121277     -4.065184     -4.739605
  C       2.424816     -7.164506      1.047369
  C       2.531142     -6.245861     -0.131808
  C       4.455039     -1.364928     -2.084037
  C       2.108275     -4.094926     -1.152291
  C       3.276449     -5.784484     -2.390700
  C       6.560699     -2.325257     -3.064350
  C       1.189570     -8.853810      2.320443
  C       1.103189     -8.932119     -0.120472
  C      -0.075039     -7.162351      1.091074
  C       2.014373     -4.951160     -0.061660
  C       3.172088     -6.650017     -1.308242
  C       0.618317     -4.206666     -4.515777
  C       4.086470     -1.294483     -0.737746
  C       4.206747     -0.252569     -2.897541
  C       3.482949     -0.151501     -0.214701
  C       3.608638      0.892608     -2.378788
  C       3.242438      0.947859     -1.034349
  H       2.369308     -2.600062     -3.201915
  H       4.351645     -2.515030     -4.665906
  H       4.841084     -4.126609     -4.149135
  H       5.136835     -3.354807     -1.833227
  H       2.552512     -5.030396     -5.038308
  H       2.304608     -3.369260     -5.568904
  H       3.254935     -7.876276      1.073117
  H       2.405333     -6.597623      1.982846
  H       1.702470     -3.090470     -1.083249
  H       3.787486     -6.118003     -3.290629
  H       7.046390     -3.242794     -3.415718
  H       7.145165     -1.927032     -2.227953
  H       6.591710     -1.592764     -3.879376
  H       2.086212     -9.476437      2.301788
  H       0.295473     -9.479418      2.347122
  H       1.208992     -8.185666      3.183813
  H       0.217513     -9.564262     -0.030528
  H       2.006123     -9.545994     -0.132473
  H       1.039248     -8.329794     -1.027596
  H      -0.137370     -6.611316      0.152439
  H      -0.006939     -6.475519      1.937211
  H      -0.944679     -7.813900      1.198605
  H       1.538917     -4.611011      0.854652
  H       3.599367     -7.648054     -1.371381
  H       0.114769     -4.564239     -5.420331
  H       0.174978     -3.240950     -4.243439
  H       0.397566     -4.914645     -3.708340
  H       4.269093     -2.150739     -0.091940
  H       4.483053     -0.280645     -3.949175
  H       3.199663     -0.122473      0.834396
  H       3.424236      1.745117     -3.027444
  H       2.770171      1.839736     -0.631482
  F       0.218973     -1.710429      0.476975
  F      -1.626217     -0.636815      1.009403
  F      -3.015087     -3.100183      0.441575
  F      -1.030828     -4.042311      0.324644
  F      -2.710484     -0.980410     -1.316975
  F      -1.324678     -2.583821     -1.901809
  F      -2.628657     -2.314012      2.928347
  F      -2.122204     -4.431076      2.666470
  F      -1.041643      0.001559     -3.054078
  F      -0.358271      0.704001     -1.107659
  F       0.702024     -0.904515     -2.129856
  O      -0.099018     -1.775285      3.542680
  O       0.493581     -3.896574      3.018220
  C      -1.127437     -1.678320      0.306667
  C      -1.723359     -3.009660      0.861303
  C      -1.441260     -1.427873     -1.208665
  C      -1.688847     -3.156093      2.413964
  C      -0.501622     -0.376232     -1.888419
  C      -0.279262     -2.915638      3.068162
74
Coordinates from ORCA-job R4N+PFHxA-_r2 E -2389.494690238060
  N       1.152825     -8.023570      1.070138
  C       2.859686     -3.537638     -3.498632
  C       4.326939     -3.213518     -3.818395
  C       5.114204     -2.611059     -2.641875
  C       2.741248     -4.492251     -2.331062
  C       2.121770     -4.065492     -4.739987
  C       2.424890     -7.164512      1.047204
  C       2.531082     -6.245961     -0.131859
  C       4.455016     -1.364891     -2.084038
  C       2.108245     -4.094962     -1.152397
  C       3.276563     -5.784491     -2.390734
  C       6.560680     -2.325236     -3.064250
  C       1.189856     -8.853859      2.320412
  C       1.102912     -8.932077     -0.120524
  C      -0.075173     -7.162388      1.091367
  C       2.014282     -4.951335     -0.061746
  C       3.172153     -6.650041     -1.308280
  C       0.618939     -4.208491     -4.516396
  C       4.086285     -1.294671     -0.737814
  C       4.206955     -0.252348     -2.897368
  C       3.482874     -0.151733     -0.214592
  C       3.608983      0.892824     -2.378429
  C       3.242657      0.947852     -1.033998
  H       2.369124     -2.600224     -3.202294
  H       4.351686     -2.514927     -4.665955
  H       4.841218     -4.126488     -4.149206
  H       5.136727     -3.354789     -1.833287
  H       2.553948     -5.030174     -5.039057
  H       2.304544     -3.369101     -5.569016
  H       3.255016     -7.876273      1.072887
  H       2.405499     -6.597609      1.982538
  H       1.702210     -3.090355     -1.083280
  H       3.787666     -6.117965     -3.290642
  H       7.046402     -3.242793     -3.415524
  H       7.145088     -1.926974     -2.227830
  H       6.591801     -1.592784     -3.879311
  H       2.086440     -9.476556      2.301502
  H       0.295686     -9.479352      2.347329
  H       1.209573     -8.185688      3.183759
  H       0.217188     -9.564131     -0.030439
  H       2.005814     -9.545993     -0.132698
  H       1.038840     -8.329671     -1.027584
  H      -0.137827     -6.611230      0.152843
  H      -0.006925     -6.475565      1.937498
  H      -0.944757     -7.813995      1.198995
  H       1.538475     -4.610511      0.854121
  H       3.599469     -7.648067     -1.371350
  H       0.115726     -4.565291     -5.421440
  H       0.174764     -3.243506     -4.242797
  H       0.398716     -4.917666     -3.709891
  H       4.268728     -2.151100     -0.092193
  H       4.483378     -0.280256     -3.948974
  H       3.199429     -0.123045      0.834451
  H       3.424799      1.745505     -3.026919
  H       2.770594      1.839779     -0.631015
  F       0.218644     -1.709923      0.476682
  F      -1.626288     -0.636366      1.009883
  F      -3.015335     -3.099751      0.441794
  F      -1.031061     -4.041749      0.324354
  F      -2.711197     -0.979384     -1.316361
  F      -1.325877     -2.583006     -1.901703
  F      -2.628523     -2.314174      2.928833
  F      -2.121815     -4.431116      2.666346
  F      -1.042581      0.002690     -3.053667
  F      -0.358316      0.704325     -1.107284
  F       0.701146     -0.904265     -2.130305
  O      -0.098601     -1.775235      3.542901
  O       0.494007     -3.896610      3.018690
  C      -1.127757     -1.677721      0.306752
  C      -1.723572     -3.009215      0.861334
  C      -1.442045     -1.427079     -1.208441
  C      -1.688684     -3.156013      2.414101
  C      -0.502285     -0.375621     -1.888314
  C      -0.278981     -2.915555      3.068327
74
Coordinates from ORCA-job R4N+PFHxA-_r2 E -2389.494690408765
  N       1.153223     -8.023434      1.070558
  C       2.859576     -3.537438     -3.498573
  C       4.326829     -3.213597     -3.818631
  C       5.114437     -2.611438     -2.642157
  C       2.741173     -4.492104     -2.331059
  C       2.121134     -4.065066     -4.739701
  C       2.425231     -7.164313      1.047323
  C       2.531136     -6.245735     -0.131765
  C       4.455416     -1.365355     -2.083906
  C       2.108254     -4.094788     -1.152391
  C       3.276423     -5.784368     -2.390747
  C       6.560826     -2.325617     -3.064815
  C       1.190709     -8.853986      2.320640
  C       1.102929     -8.931690     -0.120274
  C      -0.074684     -7.162233      1.092452
  C       2.014297     -4.951098     -0.061715
  C       3.172085     -6.649858     -1.308246
  C       0.618216     -4.206737     -4.515823
  C       4.086860     -1.295404     -0.737608
  C       4.207250     -0.252649     -2.896986
  C       3.483461     -0.152577     -0.214095
  C       3.609304      0.892400     -2.377758
  C       3.243103      0.947134     -1.033279
  H       2.369313     -2.599926     -3.202055
  H       4.351547     -2.514870     -4.666080
  H       4.840873     -4.126613     -4.149675
  H       5.137096     -3.355347     -1.833737
  H       2.552499     -5.030183     -5.038530
  H       2.304329     -3.369072     -5.568972
  H       3.255342     -7.876094      1.072753
  H       2.406010     -6.597451      1.982690
  H       1.702277     -3.090181     -1.083344
  H       3.787452     -6.117889     -3.290677
  H       7.046393     -3.243124     -3.416435
  H       7.145479     -1.927607     -2.228446
  H       6.591816     -1.592967     -3.879705
  H       2.087233     -9.476754      2.301231
  H       0.296494     -9.479404      2.347777
  H       1.210823     -8.186015      3.184128
  H       0.217282     -9.563823     -0.029992
  H       2.005878     -9.545526     -0.132913
  H       1.038469     -8.329096     -1.027186
  H      -0.137585     -6.610870      0.154051
  H      -0.005979     -6.475599      1.938710
  H      -0.944298     -7.813757      1.200297
  H       1.538586     -4.610097      0.854146
  H       3.599398     -7.647888     -1.371291
  H       0.114657     -4.563979     -5.420499
  H       0.174822     -3.241156     -4.243094
  H       0.397515     -4.915009     -3.708641
  H       4.269402     -2.151964     -0.092188
  H       4.483540     -0.280353     -3.948633
  H       3.200075     -0.124014      0.834981
  H       3.425012      1.745203     -3.026058
  H       2.771017      1.838951     -0.630095
  F       0.218208     -1.709757      0.476572
  F      -1.627193     -0.636669      1.009070
  F      -3.015444     -3.100374      0.440639
  F      -1.030943     -4.041956      0.323834
  F      -2.711230     -0.980090     -1.317489
  F      -1.325285     -2.583347     -1.902344
  F      -2.629637     -2.314773      2.927750
  F      -2.122310     -4.431596      2.665475
  F      -1.042390      0.002468     -3.054251
  F      -0.358743      0.704277     -1.107731
  F       0.701269     -0.904162     -2.130453
  O      -0.100218     -1.775075      3.542362
  O       0.493435     -3.896319      3.018390
  C      -1.128125     -1.677935      0.306180
  C      -1.723829     -3.009581      0.860598
  C      -1.441999     -1.427429     -1.209143
  C      -1.689426     -3.156384      2.413327
  C      -0.502312     -0.375733     -1.888760
  C      -0.279997     -2.915545      3.067900
74
Coordinates from ORCA-job R4N+PFHxA-_r2 E -2389.494690527670
  N       1.154055     -8.023182      1.071403
  C       2.859245     -3.537172     -3.498592
  C       4.326492     -3.213656     -3.819094
  C       5.114755     -2.612137     -2.642657
  C       2.740991     -4.491884     -2.331129
  C       2.120138     -4.064526     -4.739436
  C       2.425975     -7.164001      1.047606
  C       2.531295     -6.245325     -0.131650
  C       4.455993     -1.366352     -2.083376
  C       2.108163     -4.094518     -1.152488
  C       3.276240     -5.784151     -2.390807
  C       6.560927     -2.326113     -3.065908
  C       1.192511     -8.854489      2.320944
  C       1.102849     -8.930715     -0.119926
  C      -0.073545     -7.161925      1.094866
  C       2.014299     -4.950651     -0.061759
  C       3.172060     -6.649527     -1.308216
  C       0.617191     -4.205137     -4.515096
  C       4.088058     -1.297038     -0.736834
  C       4.207311     -0.253321     -2.895856
  C       3.484644     -0.154515     -0.212565
  C       3.609389      0.891387     -2.375884
  C       3.243711      0.945450     -1.031238
  H       2.369336     -2.599547     -3.201837
  H       4.351102     -2.514597     -4.666275
  H       4.840155     -4.126691     -4.150670
  H       5.137808     -3.356498     -1.834662
  H       2.550797     -5.029972     -5.038211
  H       2.303539     -3.368797     -5.568885
  H       3.256006     -7.875885      1.072489
  H       2.407067     -6.597276      1.983165
  H       1.702171     -3.090068     -1.083700
  H       3.787163     -6.117732     -3.290771
  H       7.046269     -3.243422     -3.418361
  H       7.146059     -1.928654     -2.229612
  H       6.591535     -1.592955     -3.880355
  H       2.088875     -9.477445      2.300358
  H       0.298175     -9.479715      2.348500
  H       1.213531     -8.187062      3.184826
  H       0.217296     -9.562930     -0.029304
  H       2.005828     -9.544482     -0.133651
  H       1.037621     -8.327579     -1.026428
  H      -0.136896     -6.609945      0.156848
  H      -0.004010     -6.475849      1.941502
  H      -0.943265     -7.813253      1.202952
  H       1.539050     -4.609791      0.854391
  H       3.599401     -7.647549     -1.371187
  H       0.113201     -4.562522     -5.419473
  H       0.174495     -3.239127     -4.242783
  H       0.396214     -4.912843     -3.707490
  H       4.271024     -2.153867     -0.091889
  H       4.483110     -0.280548     -3.947645
  H       3.201559     -0.126292      0.836652
  H       3.424638      1.744427     -3.023740
  H       2.771564      1.836984     -0.627529
  F       0.217486     -1.709074      0.476199
  F      -1.628627     -0.636732      1.007690
  F      -3.015596     -3.100836      0.438302
  F      -1.030725     -4.041791      0.322582
  F      -2.711353     -0.980228     -1.319180
  F      -1.324902     -2.583175     -1.903624
  F      -2.631494     -2.315335      2.925547
  F      -2.123307     -4.431971      2.663491
  F      -1.042339      0.003062     -3.055137
  F      -0.358898      0.704505     -1.108443
  F       0.701098     -0.903903     -2.131379
  O      -0.102825     -1.774388      3.540541
  O       0.492073     -3.895553      3.017570
  C      -1.128734     -1.677792      0.305060
  C      -1.724248     -3.009696      0.859010
  C      -1.442087     -1.427304     -1.210404
  C      -1.690726     -3.156607      2.411574
  C      -0.502410     -0.375392     -1.889664
  C      -0.281766     -2.915220      3.066624
74
Coordinates from ORCA-job R4N+PFHxA-_r2 E -2389.494690142531
  N       1.154925     -8.022896      1.072094
  C       2.859298     -3.537300     -3.498974
  C       4.326473     -3.213782     -3.819754
  C       5.115172     -2.612828     -2.643352
  C       2.741153     -4.491889     -2.331349
  C       2.120219     -4.064825     -4.739782
  C       2.427046     -7.163822      1.047623
  C       2.531707     -6.245222     -0.131468
  C       4.456485     -1.367505     -2.082947
  C       2.108181     -4.094544     -1.152794
  C       3.276629     -5.784105     -2.390782
  C       6.561083     -2.326292     -3.067114
  C       1.194644     -8.855146      2.320968
  C       1.102236     -8.929491     -0.119876
  C      -0.072554     -7.161273      1.097695
  C       2.014406     -4.950736     -0.061884
  C       3.172572     -6.649362     -1.308053
  C       0.617352     -4.206103     -4.515468
  C       4.089189     -1.299212     -0.736206
  C       4.207137     -0.253965     -2.894534
  C       3.485730     -0.157225     -0.210819
  C       3.609183      0.890229     -2.373444
  C       3.244129      0.943250     -1.028565
  H       2.369331     -2.599669     -3.202320
  H       4.350905     -2.514389     -4.666668
  H       4.839954     -4.126739     -4.151823
  H       5.138741     -3.357701     -1.835847
  H       2.551296     -5.030042     -5.038700
  H       2.303296     -3.368945     -5.569179
  H       3.257045     -7.875757      1.071842
  H       2.408718     -6.597342      1.983137
  H       1.701635     -3.089851     -1.084086
  H       3.787639     -6.117708     -3.290686
  H       7.046429     -3.243287     -3.420384
  H       7.146569     -1.929264     -2.230859
  H       6.591212     -1.592598     -3.881100
  H       2.090628     -9.478584      2.298698
  H       0.299972     -9.479858      2.349268
  H       1.217198     -8.188359      3.185302
  H       0.216674     -9.561614     -0.028724
  H       2.005132     -9.543341     -0.135067
  H       1.036073     -8.325618     -1.025825
  H      -0.136815     -6.608252      0.160371
  H      -0.001509     -6.476100      1.944923
  H      -0.942405     -7.812371      1.206057
  H       1.538523     -4.608162      0.853219
  H       3.600092     -7.647320     -1.370841
  H       0.113466     -4.563042     -5.420075
  H       0.174332     -3.240433     -4.242474
  H       0.396613     -4.914386     -3.708338
  H       4.272696     -2.156473     -0.091991
  H       4.482403     -0.280424     -3.946484
  H       3.203183     -0.129998      0.838550
  H       3.423878      1.743691     -3.020585
  H       2.771944      1.834402     -0.624075
  F       0.215857     -1.707278      0.475649
  F      -1.630590     -0.635771      1.007088
  F      -3.016695     -3.100218      0.436640
  F      -1.031522     -4.040487      0.321026
  F      -2.712625     -0.978541     -1.320172
  F      -1.326320     -2.581587     -1.904589
  F      -2.633374     -2.315715      2.924502
  F      -2.124074     -4.432026      2.661768
  F      -1.043232      0.005216     -3.055522
  F      -0.359342      0.705496     -1.108598
  F       0.699936     -0.903017     -2.132281
  O      -0.104841     -1.773786      3.540011
  O       0.491261     -3.895077      3.017138
  C      -1.130213     -1.676424      0.304174
  C      -1.725490     -3.008796      0.857686
  C      -1.443442     -1.425746     -1.211285
  C      -1.692088     -3.156357      2.410424
  C      -0.503382     -0.374010     -1.890264
  C      -0.283279     -2.914710      3.066040
74
Coordinates from ORCA-job R4N+PFHxA-_r2 E -2389.494690919052
  N       1.155116     -8.022521      1.072514
  C       2.859014     -3.536928     -3.499236
  C       4.326212     -3.213576     -3.820127
  C       5.115204     -2.613010     -2.643762
  C       2.740795     -4.491437     -2.331598
  C       2.119943     -4.064498     -4.740018
  C       2.426963     -7.163109      1.047504
  C       2.531413     -6.244644     -0.131925
  C       4.456736     -1.367833     -2.082935
  C       2.108169     -4.093940     -1.152848
  C       3.275964     -5.783741     -2.391270
  C       6.561069     -2.326547     -3.067723
  C       1.195286     -8.854355      2.321657
  C       1.102403     -8.929561     -0.119121
  C      -0.072538     -7.161280      1.098081
  C       2.014349     -4.950042     -0.062037
  C       3.171969     -6.648967     -1.308588
  C       0.617163     -4.206382     -4.515477
  C       4.089601     -1.300085     -0.736144
  C       4.207386     -0.253982     -2.894077
  C       3.486217     -0.158339     -0.210277
  C       3.609555      0.890025     -2.372470
  C       3.244624      0.942508     -1.027540
  H       2.369110     -2.599258     -3.202611
  H       4.350575     -2.514071     -4.666950
  H       4.839505     -4.126542     -4.152466
  H       5.138854     -3.358090     -1.836454
  H       2.551328     -5.029505     -5.039183
  H       2.302644     -3.368425     -5.569338
  H       3.257119     -7.874863      1.071804
  H       2.408601     -6.596230      1.982927
  H       1.702088     -3.089504     -1.083885
  H       3.786726     -6.117372     -3.291307
  H       7.046270     -3.243514     -3.421259
  H       7.146738     -1.929740     -2.231491
  H       6.591132     -1.592689     -3.881564
  H       2.091310     -9.477734      2.299308
  H       0.300664     -9.479116      2.350459
  H       1.218060     -8.187243      3.185741
  H       0.217053     -9.561915     -0.027497
  H       2.005482     -9.543140     -0.134317
  H       1.035815     -8.326023     -1.025256
  H      -0.137046     -6.608512      0.160600
  H      -0.001714     -6.475858      1.945145
  H      -0.942218     -7.812590      1.206601
  H       1.539226     -4.609109      0.854186
  H       3.599299     -7.647003     -1.371430
  H       0.113161     -4.562934     -5.420172
  H       0.173908     -3.241010     -4.241779
  H       0.396824     -4.915187     -3.708664
  H       4.273131     -2.157617     -0.092304
  H       4.482545     -0.280081     -3.946064
  H       3.203798     -0.131489      0.839098
  H       3.424225      1.743777     -3.019222
  H       2.772481      1.833524     -0.622667
  F       0.215973     -1.707635      0.475814
  F      -1.630903     -0.636546      1.007063
  F      -3.016416     -3.100994      0.435203
  F      -1.031025     -4.040960      0.320468
  F      -2.712199     -0.978551     -1.320441
  F      -1.325704     -2.581399     -1.905036
  F      -2.634660     -2.316748      2.923237
  F      -2.124219     -4.432767      2.660616
  F      -1.042634      0.005825     -3.055184
  F      -0.359311      0.705620     -1.107867
  F       0.700452     -0.902291     -2.131819
  O      -0.106402     -1.773635      3.540006
  O       0.490214     -3.894091      3.016793
  C      -1.130153     -1.676920      0.303997
  C      -1.725433     -3.009388      0.856871
  C      -1.443016     -1.425747     -1.211448
  C      -1.692757     -3.156886      2.409471
  C      -0.502973     -0.373652     -1.889916
  C      -0.284349     -2.914337      3.065489
74
Coordinates from ORCA-job R4N+PFHxA-_r2 E -2389.494691055887
  N       1.154950     -8.022596      1.072251
  C       2.859144     -3.537178     -3.499474
  C       4.326351     -3.213581     -3.820057
  C       5.115041     -2.612888     -2.643556
  C       2.740840     -4.491649     -2.331794
  C       2.120478     -4.064914     -4.740434
  C       2.426708     -7.163075      1.047503
  C       2.531307     -6.244732     -0.131986
  C       4.456348     -1.367760     -2.082843
  C       2.107786     -4.094221     -1.153265
  C       3.276328     -5.783840     -2.391197
  C       6.560947     -2.326233     -3.067278
  C       1.194948     -8.854419      2.321396
  C       1.102561     -8.929634     -0.119391
  C      -0.072843     -7.161495      1.097565
  C       2.013935     -4.950256     -0.062366
  C       3.172251     -6.649012     -1.308453
  C       0.617721     -4.207521     -4.516187
  C       4.089072     -1.299966     -0.736087
  C       4.207006     -0.253951     -2.894044
  C       3.485593     -0.158220     -0.210311
  C       3.609076      0.890056     -2.372534
  C       3.244041      0.942601     -1.027638
  H       2.369009     -2.599577     -3.202998
  H       4.350769     -2.514083     -4.666884
  H       4.839842     -4.126474     -4.152295
  H       5.138654     -3.357950     -1.836231
  H       2.552323     -5.029705     -5.039639
  H       2.303034     -3.368644     -5.569618
  H       3.256971     -7.874695      1.072099
  H       2.408101     -6.596098      1.982851
  H       1.701457     -3.089804     -1.084459
  H       3.787400     -6.117444     -3.291070
  H       7.046332     -3.243135     -3.420727
  H       7.146406     -1.929342     -2.230938
  H       6.591029     -1.592374     -3.881115
  H       2.090983     -9.477791      2.299187
  H       0.300350     -9.479222      2.350085
  H       1.217585     -8.187321      3.185493
  H       0.217281     -9.562111     -0.027932
  H       2.005704     -9.543125     -0.134442
  H       1.036073     -8.326121     -1.025548
  H      -0.137221     -6.608636      0.160142
  H      -0.002334     -6.476187      1.944730
  H      -0.942428     -7.812981      1.205788
  H       1.538452     -4.609034      0.853532
  H       3.599816     -7.646957     -1.371127
  H       0.113989     -4.563846     -5.421122
  H       0.174008     -3.242481     -4.242045
  H       0.397584     -4.916826     -3.709773
  H       4.272583     -2.157452     -0.092178
  H       4.482274     -0.280075     -3.946001
  H       3.203179     -0.131364      0.839075
  H       3.423771      1.743778     -3.019334
  H       2.771854      1.833623     -0.622829
  F       0.216350     -1.707655      0.475686
  F      -1.629945     -0.635908      1.007545
  F      -3.016522     -3.099880      0.436428
  F      -1.031522     -4.040595      0.321011
  F      -2.712227     -0.977744     -1.319569
  F      -1.326466     -2.581090     -1.904539
  F      -2.633446     -2.315524      2.924270
  F      -2.124214     -4.431819      2.661546
  F      -1.042936      0.005735     -3.055082
  F      -0.358909      0.705726     -1.108072
  F       0.700218     -0.902598     -2.132052
  O      -0.104691     -1.773680      3.540047
  O       0.490580     -3.894645      3.017092
  C      -1.129820     -1.676507      0.304359
  C      -1.725336     -3.008722      0.857588
  C      -1.443142     -1.425360     -1.210990
  C      -1.692156     -3.156177      2.410218
  C      -0.503025     -0.373645     -1.889899
  C      -0.283417     -2.914383      3.065803
74
Coordinates from ORCA-job R4N+PFHxA-_r2 E -2389.494691134729
  N       1.155276     -8.022400      1.072426
  C       2.859205     -3.537339     -3.500006
  C       4.326404     -3.213610     -3.820440
  C       5.115078     -2.613247     -2.643797
  C       2.740773     -4.491703     -2.332226
  C       2.120813     -4.065259     -4.741049
  C       2.426791     -7.162523      1.047543
  C       2.531235     -6.244474     -0.132090
  C       4.456208     -1.368494     -2.082460
  C       2.107142     -4.094339     -1.153995
  C       3.276713     -5.783733     -2.391211
  C       6.560882     -2.326102     -3.067577
  C       1.195798     -8.854422      2.321398
  C       1.102789     -8.929222     -0.119347
  C      -0.072792     -7.161558      1.098268
  C       2.013299     -4.950244     -0.062900
  C       3.172644     -6.648742     -1.308309
  C       0.618033     -4.208096     -4.517049
  C       4.089184     -1.301371     -0.735618
  C       4.206465     -0.254372     -2.893106
  C       3.485524     -0.160024     -0.209216
  C       3.608373      0.889271     -2.370956
  C       3.243586      0.941141     -1.025965
  H       2.368936     -2.599756     -3.203685
  H       4.350802     -2.513883     -4.667081
  H       4.839922     -4.126396     -4.152940
  H       5.138946     -3.358642     -1.836788
  H       2.552821     -5.030029     -5.040093
  H       2.303419     -3.369008     -5.570236
  H       3.257356     -7.873783      1.072406
  H       2.408019     -6.595310      1.982663
  H       1.700469     -3.089885     -1.085345
  H       3.788181     -6.117345     -3.290859
  H       7.046405     -3.242733     -3.421534
  H       7.146349     -1.929496     -2.231108
  H       6.590682     -1.591844     -3.881062
  H       2.091737     -9.477917      2.298657
  H       0.301164     -9.479161      2.350448
  H       1.218939     -8.187501      3.185620
  H       0.217810     -9.562091     -0.027663
  H       2.006151     -9.542382     -0.134885
  H       1.035728     -8.325603     -1.025391
  H      -0.137497     -6.608301      0.161113
  H      -0.002148     -6.476666      1.945751
  H      -0.942166     -7.813347      1.206360
  H       1.537191     -4.608362      0.852404
  H       3.600612     -7.646531     -1.370696
  H       0.114461     -4.564373     -5.422090
  H       0.174142     -3.243167     -4.242785
  H       0.397912     -4.917562     -3.710780
  H       4.273033     -2.159080     -0.092103
  H       4.481553     -0.279978     -3.945123
  H       3.203601     -0.133747      0.840300
  H       3.422754      1.743263     -3.017310
  H       2.771276      1.831865     -0.620647
  F       0.216219     -1.707195      0.475094
  F      -1.629680     -0.635012      1.007350
  F      -3.017032     -3.098637      0.436720
  F      -1.032335     -4.039934      0.320922
  F      -2.712509     -0.976648     -1.319600
  F      -1.327372     -2.580495     -1.904685
  F      -2.633112     -2.314280      2.924566
  F      -2.124793     -4.430773      2.661653
  F      -1.043193      0.005815     -3.055705
  F      -0.358884      0.706209     -1.108933
  F       0.699962     -0.902510     -2.132559
  O      -0.103845     -1.773427      3.539773
  O       0.490354     -3.894902      3.017391
  C      -1.129973     -1.675764      0.304073
  C      -1.725709     -3.007811      0.857582
  C      -1.443523     -1.424666     -1.211228
  C      -1.692244     -3.155297      2.410324
  C      -0.503234     -0.373343     -1.890471
  C      -0.283292     -2.914128      3.065787
74
Coordinates from ORCA-job R4N+PFHxA-_r2 E -2389.494691402963
  N       1.155524     -8.022109      1.072620
  C       2.859070     -3.537340     -3.500490
  C       4.326292     -3.213576     -3.820802
  C       5.115030     -2.613591     -2.644006
  C       2.740512     -4.491633     -2.332674
  C       2.120751     -4.065311     -4.741544
  C       2.426593     -7.161730      1.047728
  C       2.531020     -6.243974     -0.132281
  C       4.456014     -1.369207     -2.082020
  C       2.106394     -4.094273     -1.154717
  C       3.276823     -5.783513     -2.391311
  C       6.560731     -2.326006     -3.067894
  C       1.196280     -8.854036      2.321621
  C       1.103450     -8.929030     -0.119067
  C      -0.072843     -7.161781      1.098351
  C       2.012589     -4.949890     -0.063460
  C       3.172783     -6.648335     -1.308251
  C       0.617901     -4.207746     -4.517644
  C       4.089308     -1.302675     -0.735054
  C       4.205829     -0.254823     -2.892164
  C       3.485442     -0.161700     -0.208093
  C       3.607559      0.888468     -2.369444
  C       3.243045      0.939738     -1.024368
  H       2.368808     -2.599737     -3.204221
  H       4.350683     -2.513603     -4.667241
  H       4.839774     -4.126275     -4.153607
  H       5.139148     -3.359319     -1.837314
  H       2.552515     -5.030278     -5.040306
  H       2.303637     -3.369252     -5.570828
  H       3.257510     -7.872568      1.073122
  H       2.407416     -6.594103      1.982676
  H       1.699664     -3.090005     -1.086304
  H       3.788618     -6.117168     -3.290761
  H       7.046316     -3.242377     -3.422436
  H       7.146255     -1.929772     -2.231291
  H       6.590232     -1.591309     -3.880991
  H       2.092291     -9.477431      2.298851
  H       0.301775     -9.478956      2.350819
  H       1.219411     -8.187103      3.185835
  H       0.218873     -9.562447     -0.027260
  H       2.007133     -9.541721     -0.134686
  H       1.035970     -8.325568     -1.025182
  H      -0.137538     -6.608461      0.161232
  H      -0.002683     -6.477060      1.946005
  H      -0.941925     -7.814004      1.206190
  H       1.536402     -4.608405      0.851977
  H       3.601102     -7.645988     -1.370385
  H       0.114304     -4.564219     -5.422595
  H       0.174191     -3.242643     -4.243692
  H       0.397610     -4.916943     -3.711172
  H       4.273528     -2.160547     -0.091862
  H       4.480707     -0.279957     -3.944246
  H       3.204032     -0.135819      0.841579
  H       3.421586      1.742672     -3.015418
  H       2.770575      1.830158     -0.618561
  F       0.216676     -1.707357      0.474593
  F      -1.628935     -0.634572      1.006885
  F      -3.017019     -3.097827      0.436894
  F      -1.032618     -4.039799      0.321118
  F      -2.712130     -0.976338     -1.319825
  F      -1.327393     -2.580557     -1.904887
  F      -2.632537     -2.312899      2.924465
  F      -2.125460     -4.429704      2.661819
  F      -1.042836      0.005066     -3.056507
  F      -0.358657      0.706337     -1.109983
  F       0.700338     -0.902668     -2.132896
  O      -0.102918     -1.773164      3.539063
  O       0.489830     -3.895075      3.017623
  C      -1.129595     -1.675613      0.303770
  C      -1.725594     -3.007326      0.857590
  C      -1.443199     -1.424645     -1.211541
  C      -1.692167     -3.154515      2.410285
  C      -0.502898     -0.373547     -1.891089
  C      -0.283114     -2.913926      3.065544
74
Coordinates from ORCA-job R4N+PFHxA-_r2 E -2389.494691512502
  N       1.156060     -8.022043      1.072982
  C       2.858855     -3.537336     -3.500799
  C       4.326100     -3.213589     -3.821055
  C       5.114943     -2.613998     -2.644120
  C       2.740221     -4.491613     -2.332997
  C       2.120546     -4.065272     -4.741865
  C       2.426822     -7.161280      1.047784
  C       2.530912     -6.243686     -0.132435
  C       4.455925     -1.369867     -2.081598
  C       2.105697     -4.094319     -1.155227
  C       3.276883     -5.783344     -2.391415
  C       6.560586     -2.326210     -3.068068
  C       1.197544     -8.854317      2.321721
  C       1.103739     -8.928648     -0.118927
  C      -0.072509     -7.162017      1.099490
  C       2.011942     -4.949781     -0.063889
  C       3.172947     -6.648034     -1.308247
  C       0.617653     -4.207384     -4.518022
  C       4.089323     -1.303876     -0.734574
  C       4.205622     -0.255185     -2.891290
  C       3.485391     -0.163154     -0.207136
  C       3.607310      0.887858     -2.368089
  C       3.242863      0.938578     -1.022978
  H       2.368617     -2.599727     -3.204526
  H       4.350495     -2.513368     -4.667290
  H       4.839511     -4.126218     -4.154159
  H       5.139178     -3.360017     -1.837702
  H       2.552122     -5.030367     -5.040485
  H       2.303627     -3.369326     -5.571201
  H       3.258002     -7.871806      1.073237
  H       2.407565     -6.593483      1.982653
  H       1.698762     -3.090198     -1.087045
  H       3.788937     -6.116969     -3.290729
  H       7.046133     -3.242435     -3.423037
  H       7.146196     -1.930304     -2.231371
  H       6.589961     -1.591193     -3.880880
  H       2.093560     -9.477682      2.298284
  H       0.303082     -9.479286      2.351217
  H       1.221125     -8.187643      3.186121
  H       0.219487     -9.562476     -0.026831
  H       2.007668     -9.540962     -0.135186
  H       1.035540     -8.324973     -1.024847
  H      -0.137521     -6.608275      0.162641
  H      -0.002207     -6.477778      1.947523
  H      -0.941419     -7.814477      1.207288
  H       1.535510     -4.608631      0.851569
  H       3.601607     -7.645553     -1.370184
  H       0.114018     -4.563792     -5.422978
  H       0.174128     -3.242183     -4.244104
  H       0.397203     -4.916525     -3.711537
  H       4.273653     -2.161963     -0.091698
  H       4.480430     -0.279887     -3.943402
  H       3.204168     -0.137655      0.842602
  H       3.421234      1.742300     -3.013721
  H       2.770346      1.828807     -0.616802
  F       0.216742     -1.707375      0.473960
  F      -1.628586     -0.634017      1.006247
  F      -3.017322     -3.097005      0.436460
  F      -1.033134     -4.039463      0.320812
  F      -2.711997     -0.975796     -1.320356
  F      -1.327545     -2.580281     -1.905372
  F      -2.632744     -2.311896      2.923907
  F      -2.126117     -4.428840      2.661504
  F      -1.042605      0.005235     -3.057116
  F      -0.358293      0.706534     -1.110638
  F       0.700453     -0.902651     -2.133519
  O      -0.102949     -1.772568      3.538311
  O       0.489068     -3.894808      3.017440
  C      -1.129572     -1.675272      0.303241
  C      -1.725873     -3.006769      0.857176
  C      -1.443135     -1.424327     -1.212075
  C      -1.692543     -3.153776      2.409843
  C      -0.502690     -0.373375     -1.891680
  C      -0.283463     -2.913397      3.065076
74
Coordinates from ORCA-job R4N+PFHxA-_r2 E -2389.494691498127
  N       1.157324     -8.021912      1.073753
  C       2.858480     -3.537454     -3.501260
  C       4.325707     -3.213692     -3.821607
  C       5.114894     -2.614884     -2.644509
  C       2.739860     -4.491665     -2.333410
  C       2.120166     -4.065403     -4.742317
  C       2.427844     -7.160766      1.047832
  C       2.531160     -6.243389     -0.132444
  C       4.455889     -1.371350     -2.080705
  C       2.104709     -4.094538     -1.155871
  C       3.277229     -5.783107     -2.391445
  C       6.560318     -2.326564     -3.068794
  C       1.200358     -8.855152      2.321807
  C       1.103898     -8.927629     -0.118798
  C      -0.071538     -7.162060      1.102335
  C       2.011210     -4.949882     -0.064358
  C       3.173617     -6.647585     -1.308074
  C       0.617177     -4.206760     -4.518715
  C       4.089759     -1.306648     -0.733520
  C       4.205081     -0.255978     -2.889296
  C       3.485733     -0.166562     -0.204812
  C       3.606694      0.886446     -2.364837
  C       3.242644      0.935836     -1.019553
  H       2.368249     -2.599851     -3.205003
  H       4.349994     -2.512940     -4.667407
  H       4.838965     -4.126160     -4.155375
  H       5.139553     -3.361539     -1.838692
  H       2.551374     -5.030780     -5.040554
  H       2.303716     -3.369790     -5.571832
  H       3.259351     -7.870912      1.072983
  H       2.408890     -6.592949      1.982554
  H       1.697086     -3.090460     -1.088064
  H       3.789684     -6.116639     -3.290562
  H       7.045771     -3.242453     -3.424766
  H       7.146249     -1.931347     -2.232001
  H       6.589291     -1.590853     -3.880994
  H       2.096303     -9.478551      2.296750
  H       0.305871     -9.480051      2.351878
  H       1.225074     -8.189133      3.186676
  H       0.220070     -9.561947     -0.026052
  H       2.008115     -9.539475     -0.136629
  H       1.034279     -8.323270     -1.024156
  H      -0.137388     -6.607203      0.166215
  H      -0.000347     -6.479008      1.951265
  H      -0.940271     -7.814737      1.210237
  H       1.533822     -4.608334      0.850459
  H       3.602906     -7.644854     -1.369707
  H       0.113588     -4.563186     -5.423689
  H       0.174030     -3.241280     -4.245168
  H       0.396246     -4.915596     -3.712101
  H       4.274520     -2.165251     -0.091453
  H       4.479520     -0.279619     -3.941531
  H       3.205023     -0.142216      0.845077
  H       3.420208      1.741420     -3.009643
  H       2.770098      1.825620     -0.612439
  F       0.216079     -1.706703      0.472272
  F      -1.628772     -0.632522      1.004548
  F      -3.018366     -3.095444      0.435252
  F      -1.034346     -4.038265      0.319659
  F      -2.712444     -0.974567     -1.322077
  F      -1.328287     -2.579409     -1.906741
  F      -2.633563     -2.310139      2.922707
  F      -2.127206     -4.427217      2.660539
  F      -1.042539      0.006177     -3.058619
  F      -0.358060      0.707123     -1.112068
  F       0.700196     -0.902364     -2.135016
  O      -0.103385     -1.771076      3.536836
  O       0.487875     -3.894112      3.017071
  C      -1.130253     -1.674096      0.301750
  C      -1.726896     -3.005393      0.855982
  C      -1.443700     -1.423350     -1.213606
  C      -1.693493     -3.152240      2.408758
  C      -0.502809     -0.372682     -1.893165
  C      -0.284298     -2.912090      3.064124
74
Coordinates from ORCA-job R4N+PFHxA-_r2 E -2389.494691341687
  N       1.158337     -8.021662      1.074778
  C       2.857708     -3.537035     -3.501325
  C       4.324912     -3.213453     -3.822095
  C       5.114799     -2.615570     -2.644936
  C       2.739283     -4.491310     -2.333558
  C       2.118886     -4.064779     -4.742171
  C       2.428633     -7.160313      1.048013
  C       2.531267     -6.242881     -0.132550
  C       4.456024     -1.372605     -2.079653
  C       2.104318     -4.094170     -1.155888
  C       3.276723     -5.782691     -2.391729
  C       6.559948     -2.326857     -3.069832
  C       1.202498     -8.855362      2.322508
  C       1.104072     -8.927007     -0.118045
  C      -0.070493     -7.162100      1.104685
  C       2.011111     -4.949347     -0.064425
  C       3.173453     -6.647094     -1.308310
  C       0.615841     -4.205015     -4.518318
  C       4.090778     -1.309124     -0.732163
  C       4.204475     -0.256605     -2.887148
  C       3.486776     -0.169630     -0.202105
  C       3.606153      0.885218     -2.361356
  C       3.242866      0.933345     -1.015813
  H       2.367722     -2.599383     -3.204856
  H       4.348999     -2.512138     -4.667433
  H       4.837833     -4.125810     -4.156672
  H       5.139972     -3.362912     -1.839773
  H       2.549437     -5.030507     -5.040209
  H       2.302789     -3.369532     -5.571917
  H       3.260128     -7.870483      1.072677
  H       2.410080     -6.592413      1.982865
  H       1.696707     -3.090447     -1.088296
  H       3.789014     -6.116174     -3.290955
  H       7.045141     -3.242436     -3.426963
  H       7.146439     -1.932448     -2.233051
  H       6.588467     -1.590401     -3.881376
  H       2.098480     -9.478659      2.296476
  H       0.308053     -9.480293      2.353038
  H       1.227868     -8.189618      3.187566
  H       0.220490     -9.561572     -0.024694
  H       2.008469     -9.538554     -0.136855
  H       1.033453     -8.322326     -1.023112
  H      -0.136820     -6.606779      0.168861
  H       0.000926     -6.479518      1.953988
  H      -0.939106     -7.814890      1.212835
  H       1.534321     -4.609215      0.851282
  H       3.602829     -7.644326     -1.369937
  H       0.111976     -4.561725     -5.423029
  H       0.173348     -3.239053     -4.245470
  H       0.394486     -4.913139     -3.711181
  H       4.276141     -2.168235     -0.090952
  H       4.478222     -0.279265     -3.939587
  H       3.206539     -0.146195      0.847954
  H       3.419050      1.740661     -3.005361
  H       2.770373      1.822706     -0.607705
  F       0.216199     -1.706751      0.470361
  F      -1.628761     -0.632337      1.002168
  F      -3.018180     -3.095473      0.432765
  F      -1.034033     -4.038198      0.318220
  F      -2.712137     -0.974867     -1.324435
  F      -1.327664     -2.579536     -1.908790
  F      -2.634388     -2.309363      2.919997
  F      -2.127751     -4.426472      2.658707
  F      -1.042107      0.006168     -3.060635
  F      -0.358044      0.707235     -1.113991
  F       0.700506     -0.902154     -2.136730
  O      -0.104403     -1.769219      3.533475
  O       0.486640     -3.892617      3.016409
  C      -1.130169     -1.674080      0.299746
  C      -1.726895     -3.005236      0.854004
  C      -1.443395     -1.423480     -1.215695
  C      -1.694106     -3.151546      2.406594
  C      -0.502535     -0.372603     -1.895070
  C      -0.285182     -2.910751      3.062066
74
Coordinates from ORCA-job R4N+PFHxA-_r2 E -2389.494691735561
  N       1.156696     -8.022130      1.073445
  C       2.858446     -3.537319     -3.500827
  C       4.325612     -3.213378     -3.821241
  C       5.114676     -2.614286     -2.644199
  C       2.739991     -4.491634     -2.333037
  C       2.120120     -4.065342     -4.741866
  C       2.427499     -7.161399      1.047701
  C       2.531161     -6.243783     -0.132437
  C       4.455602     -1.370643     -2.080690
  C       2.105346     -4.094494     -1.155236
  C       3.276983     -5.783222     -2.391452
  C       6.560123     -2.325984     -3.068409
  C       1.198931     -8.854791      2.321932
  C       1.103637     -8.928398     -0.118727
  C      -0.071953     -7.162190      1.100973
  C       2.011853     -4.950024     -0.063913
  C       3.173283     -6.647930     -1.308277
  C       0.617186     -4.207089     -4.518187
  C       4.089592     -1.305614     -0.733486
  C       4.204692     -0.255482     -2.889545
  C       3.485676     -0.165368     -0.204987
  C       3.606385      0.887090     -2.365305
  C       3.242514      0.936826     -1.019980
  H       2.368102     -2.599779     -3.204544
  H       4.349818     -2.512738     -4.667135
  H       4.839027     -4.125816     -4.154850
  H       5.139311     -3.360784     -1.838238
  H       2.551591     -5.030557     -5.040246
  H       2.303423     -3.369628     -5.571350
  H       3.258603     -7.872023      1.072705
  H       2.408746     -6.593655      1.982552
  H       1.697957     -3.090450     -1.087202
  H       3.789115     -6.116690     -3.290777
  H       7.045679     -3.241922     -3.424120
  H       7.145982     -1.930535     -2.231671
  H       6.589173     -1.590455     -3.880774
  H       2.094960     -9.478101      2.297786
  H       0.304460     -9.479726      2.351708
  H       1.222995     -8.188318      3.186472
  H       0.219468     -9.562274     -0.026221
  H       2.007628     -9.540595     -0.135716
  H       1.034796     -8.324404     -1.024386
  H      -0.137393     -6.607895      0.164486
  H      -0.001452     -6.478462      1.949419
  H      -0.940752     -7.814782      1.208851
  H       1.534998     -4.608976      0.851357
  H       3.602180     -7.645352     -1.370174
  H       0.113686     -4.563842     -5.423085
  H       0.173775     -3.241668     -4.244905
  H       0.396425     -4.915766     -3.711390
  H       4.274399     -2.164098     -0.091279
  H       4.479003     -0.279385     -3.941806
  H       3.204796     -0.140781      0.844851
  H       3.419846      1.741892     -3.010325
  H       2.770113      1.826763     -0.613023
  F       0.216900     -1.707177      0.471715
  F      -1.627786     -0.632944      1.004499
  F      -3.017536     -3.095901      0.435758
  F      -1.033569     -4.038789      0.319949
  F      -2.712210     -0.975271     -1.321803
  F      -1.328078     -2.580030     -1.906772
  F      -2.632041     -2.310052      2.923002
  F      -2.126114     -4.427237      2.661067
  F      -1.042799      0.005197     -3.059071
  F      -0.358328      0.706835     -1.112791
  F       0.700261     -0.902656     -2.135305
  O      -0.101647     -1.770872      3.535691
  O       0.489143     -3.894094      3.017402
  C      -1.129463     -1.674575      0.301636
  C      -1.726001     -3.005792      0.856192
  C      -1.443431     -1.423936     -1.213653
  C      -1.692256     -3.152375      2.408925
  C      -0.502868     -0.373221     -1.893565
  C      -0.282896     -2.912132      3.063795
74
Coordinates from ORCA-job R4N+PFHxA-_r2 E -2389.494691776309
  N       1.156904     -8.022115      1.073557
  C       2.858286     -3.537364     -3.500870
  C       4.325441     -3.213383     -3.821309
  C       5.114562     -2.614397     -2.644234
  C       2.739897     -4.491685     -2.333092
  C       2.119920     -4.065384     -4.741883
  C       2.427671     -7.161325      1.047742
  C       2.531212     -6.243752     -0.132455
  C       4.455506     -1.370828     -2.080543
  C       2.105180     -4.094571     -1.155323
  C       3.277013     -5.783218     -2.391473
  C       6.559977     -2.326027     -3.068500
  C       1.199301     -8.854880      2.321978
  C       1.103785     -8.928305     -0.118681
  C      -0.071787     -7.162236      1.101266
  C       2.011746     -4.950051     -0.063980
  C       3.173386     -6.647889     -1.308272
  C       0.616981     -4.207016     -4.518165
  C       4.089530     -1.305963     -0.733312
  C       4.204582     -0.255570     -2.889256
  C       3.485655     -0.165763     -0.204650
  C       3.606307      0.886942     -2.364862
  C       3.242480      0.936526     -1.019523
  H       2.367939     -2.599840     -3.204555
  H       4.349599     -2.512660     -4.667135
  H       4.838854     -4.125780     -4.155031
  H       5.139253     -3.360986     -1.838359
  H       2.551331     -5.030636     -5.040235
  H       2.303244     -3.369715     -5.571402
  H       3.258796     -7.871924      1.072709
  H       2.408928     -6.593557      1.982612
  H       1.697687     -3.090619     -1.087399
  H       3.789192     -6.116659     -3.290782
  H       7.045528     -3.241919     -3.424337
  H       7.145884     -1.930657     -2.231759
  H       6.588972     -1.590411     -3.880787
  H       2.095363     -9.478135      2.297691
  H       0.304859     -9.479855      2.351777
  H       1.223414     -8.188467      3.186562
  H       0.219678     -9.562257     -0.026117
  H       2.007831     -9.540417     -0.135809
  H       1.034793     -8.324240     -1.024283
  H      -0.137237     -6.607728      0.164904
  H      -0.001317     -6.478742      1.949900
  H      -0.940568     -7.814881      1.208980
  H       1.534841     -4.609204      0.851359
  H       3.602379     -7.645273     -1.370115
  H       0.113442     -4.563803     -5.423028
  H       0.173647     -3.241535     -4.244962
  H       0.396181     -4.915612     -3.711302
  H       4.274340     -2.164531     -0.091217
  H       4.478852     -0.279350     -3.941531
  H       3.204752     -0.141299      0.845198
  H       3.419757      1.741817     -3.009780
  H       2.770108      1.826428     -0.612451
  F       0.217016     -1.707157      0.471551
  F      -1.627621     -0.632754      1.004238
  F      -3.017487     -3.095705      0.435378
  F      -1.033503     -4.038611      0.319760
  F      -2.712022     -0.975115     -1.322059
  F      -1.327874     -2.579884     -1.906982
  F      -2.632228     -2.309775      2.922585
  F      -2.126300     -4.426979      2.660792
  F      -1.042491      0.005422     -3.059219
  F      -0.358129      0.706941     -1.112848
  F       0.700453     -0.902528     -2.135419
  O      -0.101870     -1.770622      3.535441
  O       0.488726     -3.893979      3.017180
  C      -1.129356     -1.674445      0.301434
  C      -1.725993     -3.005613      0.855931
  C      -1.443252     -1.423790     -1.213865
  C      -1.692407     -3.152135      2.408627
  C      -0.502642     -0.373067     -1.893693
  C      -0.283090     -2.911913      3.063578
74
Coordinates from ORCA-job R4N+PFHxA-_r2 E -2389.494691804646
  N       1.157106     -8.022127      1.073653
  C       2.858127     -3.537399     -3.500869
  C       4.325256     -3.213369     -3.821375
  C       5.114462     -2.614502     -2.644293
  C       2.739821     -4.491720     -2.333084
  C       2.119702     -4.065443     -4.741834
  C       2.427874     -7.161311      1.047786
  C       2.531317     -6.243761     -0.132421
  C       4.455428     -1.371033     -2.080360
  C       2.105066     -4.094646     -1.155327
  C       3.277050     -5.783208     -2.391452
  C       6.559824     -2.326019     -3.068663
  C       1.199628     -8.854974      2.322019
  C       1.103920     -8.928243     -0.118639
  C      -0.071615     -7.162277      1.101519
  C       2.011720     -4.950119     -0.063962
  C       3.173513     -6.647867     -1.308238
  C       0.616744     -4.206852     -4.518085
  C       4.089611     -1.306363     -0.733072
  C       4.204375     -0.255673     -2.888889
  C       3.485786     -0.166245     -0.204178
  C       3.606137      0.886752     -2.364267
  C       3.242478      0.936148     -1.018878
  H       2.367775     -2.599889     -3.204524
  H       4.349339     -2.512556     -4.667128
  H       4.838662     -4.125721     -4.155233
  H       5.139259     -3.361200     -1.838522
  H       2.550992     -5.030777     -5.040092
  H       2.303095     -3.369879     -5.571427
  H       3.259013     -7.871895      1.072703
  H       2.409175     -6.593553      1.982652
  H       1.697472     -3.090720     -1.087434
  H       3.789252     -6.116617     -3.290761
  H       7.045380     -3.241839     -3.424677
  H       7.145800     -1.930741     -2.231926
  H       6.588710     -1.590285     -3.880847
  H       2.095704     -9.478206      2.297614
  H       0.305203     -9.479973      2.351851
  H       1.223799     -8.188616      3.186644
  H       0.219859     -9.562251     -0.026025
  H       2.008001     -9.540299     -0.135900
  H       1.034803     -8.324120     -1.024194
  H      -0.137117     -6.607596      0.165262
  H      -0.001149     -6.478956      1.950294
  H      -0.940376     -7.814973      1.209113
  H       1.534705     -4.609275      0.851323
  H       3.602589     -7.645216     -1.370065
  H       0.113172     -4.563857     -5.422843
  H       0.173521     -3.241233     -4.245189
  H       0.395860     -4.915180     -3.711006
  H       4.274523     -2.165016     -0.091121
  H       4.478511     -0.279308     -3.941203
  H       3.204995     -0.141937      0.845708
  H       3.419483      1.741707     -3.009049
  H       2.770146      1.825982     -0.611609
  F       0.217086     -1.707054      0.471216
  F      -1.627489     -0.632511      1.003859
  F      -3.017451     -3.095514      0.434985
  F      -1.033440     -4.038395      0.319528
  F      -2.711926     -0.974990     -1.322443
  F      -1.327746     -2.579776     -1.907274
  F      -2.632333     -2.309448      2.922197
  F      -2.126443     -4.426675      2.660500
  F      -1.042285      0.005406     -3.059663
  F      -0.358162      0.707133     -1.113277
  F       0.700607     -0.902370     -2.135610
  O      -0.101928     -1.770332      3.535115
  O       0.488473     -3.893867      3.017120
  C      -1.129286     -1.674260      0.301099
  C      -1.725990     -3.005388      0.855616
  C      -1.443153     -1.423651     -1.214210
  C      -1.692497     -3.151851      2.408325
  C      -0.502535     -0.372953     -1.894047
  C      -0.283201     -2.911669      3.063371
74
Coordinates from ORCA-job R4N+PFHxA-_r2 E -2389.494691829681
  N       1.157300     -8.022203      1.073757
  C       2.857857     -3.537406     -3.500732
  C       4.324916     -3.213252     -3.821423
  C       5.114290     -2.614532     -2.644381
  C       2.739758     -4.491756     -2.332945
  C       2.119296     -4.065511     -4.741594
  C       2.428161     -7.161479      1.047831
  C       2.531539     -6.243896     -0.132338
  C       4.455296     -1.371209     -2.080066
  C       2.105116     -4.094748     -1.155119
  C       3.277050     -5.783222     -2.391412
  C       6.559548     -2.325854     -3.068974
  C       1.199815     -8.855019      2.322145
  C       1.104071     -8.928344     -0.118515
  C      -0.071393     -7.162346      1.101617
  C       2.011928     -4.950277     -0.063763
  C       3.173647     -6.647936     -1.308231
  C       0.616332     -4.206687     -4.517730
  C       4.089813     -1.306815     -0.732668
  C       4.203983     -0.255712     -2.888319
  C       3.486109     -0.166811     -0.203399
  C       3.605845      0.886598     -2.363324
  C       3.242549      0.935731     -1.017832
  H       2.367485     -2.599932     -3.204314
  H       4.348821     -2.512312     -4.667077
  H       4.838323     -4.125524     -4.155502
  H       5.139299     -3.361382     -1.838758
  H       2.550457     -5.030931     -5.039752
  H       2.302706     -3.370083     -5.571297
  H       3.259211     -7.872170      1.072621
  H       2.409629     -6.593762      1.982713
  H       1.697453     -3.090836     -1.087145
  H       3.789174     -6.116564     -3.290790
  H       7.045126     -3.241559     -3.425256
  H       7.145655     -1.930683     -2.232277
  H       6.588225     -1.589957     -3.881018
  H       2.095900     -9.478238      2.297769
  H       0.305400     -9.480030      2.351996
  H       1.223970     -8.188636      3.186752
  H       0.219992     -9.562323     -0.025870
  H       2.008136     -9.540422     -0.135789
  H       1.034954     -8.324236     -1.024080
  H      -0.136919     -6.607559      0.165420
  H      -0.001056     -6.479098      1.950465
  H      -0.940145     -7.815083      1.209056
  H       1.534898     -4.609437      0.851508
  H       3.602739     -7.645273     -1.370131
  H       0.112711     -4.564186     -5.422267
  H       0.173200     -3.240864     -4.245430
  H       0.395399     -4.914512     -3.710221
  H       4.274927     -2.165597     -0.090948
  H       4.477843     -0.279153     -3.940709
  H       3.205507     -0.142723      0.846545
  H       3.418993      1.741665     -3.007900
  H       2.770345      1.825474     -0.610217
  F       0.217299     -1.706888      0.470519
  F      -1.627191     -0.632224      1.003207
  F      -3.017209     -3.095383      0.434332
  F      -1.033117     -4.038136      0.319129
  F      -2.711793     -0.974896     -1.323059
  F      -1.327558     -2.579677     -1.907826
  F      -2.632263     -2.308991      2.921553
  F      -2.126498     -4.426263      2.660000
  F      -1.042088      0.005144     -3.060576
  F      -0.358427      0.707479     -1.114249
  F       0.700823     -0.902082     -2.135989
  O      -0.101776     -1.769875      3.534354
  O       0.488351     -3.893690      3.017148
  C      -1.129069     -1.674033      0.300469
  C      -1.725801     -3.005129      0.855059
  C      -1.442999     -1.423501     -1.214838
  C      -1.692435     -3.151481      2.407798
  C      -0.502463     -0.372834     -1.894781
  C      -0.283177     -2.911336      3.062959
74
Coordinates from ORCA-job R4N+PFHxA-_r2 E -2389.494691838395
  N       1.157264     -8.022279      1.073699
  C       2.857840     -3.537440     -3.500697
  C       4.324886     -3.213218     -3.821370
  C       5.114218     -2.614450     -2.644324
  C       2.739776     -4.491812     -2.332922
  C       2.119326     -4.065568     -4.741576
  C       2.428158     -7.161602      1.047789
  C       2.531560     -6.244006     -0.132365
  C       4.455221     -1.371089     -2.080088
  C       2.105164     -4.094828     -1.155079
  C       3.277060     -5.783281     -2.391429
  C       6.559496     -2.325803     -3.068875
  C       1.199702     -8.855041      2.322123
  C       1.104075     -8.928469     -0.118536
  C      -0.071410     -7.162408      1.101460
  C       2.011983     -4.950383     -0.063740
  C       3.173656     -6.648025     -1.308273
  C       0.616389     -4.207016     -4.517696
  C       4.089644     -1.306633     -0.732714
  C       4.204020     -0.255606     -2.888394
  C       3.485992     -0.166566     -0.203518
  C       3.605931      0.886765     -2.363473
  C       3.242568      0.935972     -1.018004
  H       2.367421     -2.599991     -3.204270
  H       4.348771     -2.512292     -4.667036
  H       4.838335     -4.125475     -4.155428
  H       5.139191     -3.361266     -1.838669
  H       2.550637     -5.030895     -5.039824
  H       2.302606     -3.370045     -5.571228
  H       3.259173     -7.872335      1.072570
  H       2.409660     -6.593884      1.982677
  H       1.697505     -3.090922     -1.087053
  H       3.789168     -6.116600     -3.290825
  H       7.045094     -3.241530     -3.425068
  H       7.145562     -1.930568     -2.232179
  H       6.588206     -1.589962     -3.880970
  H       2.095773     -9.478283      2.297815
  H       0.305274     -9.480035      2.351965
  H       1.223832     -8.188625      3.186705
  H       0.219969     -9.562415     -0.025922
  H       2.008117     -9.540583     -0.135733
  H       1.035035     -8.324399     -1.024132
  H      -0.136901     -6.607641      0.165248
  H      -0.001147     -6.479136      1.950292
  H      -0.940176     -7.815137      1.208843
  H       1.534977     -4.609547      0.851546
  H       3.602729     -7.645370     -1.370199
  H       0.112802     -4.564484     -5.422264
  H       0.173104     -3.241301     -4.245257
  H       0.395593     -4.914979     -3.710270
  H       4.274660     -2.165411     -0.090960
  H       4.477946     -0.279106     -3.940765
  H       3.205283     -0.142421      0.846399
  H       3.419177      1.741828     -3.008083
  H       2.770427      1.825768     -0.610428
  F       0.217403     -1.706877      0.470528
  F      -1.627015     -0.632160      1.003343
  F      -3.017140     -3.095285      0.434392
  F      -1.033063     -4.038070      0.319162
  F      -2.711762     -0.974706     -1.322863
  F      -1.327642     -2.579542     -1.907762
  F      -2.632172     -2.308916      2.921605
  F      -2.126495     -4.426205      2.660026
  F      -1.042118      0.005225     -3.060510
  F      -0.358393      0.707583     -1.114213
  F       0.700814     -0.901999     -2.135968
  O      -0.101688     -1.769927      3.534451
  O       0.488368     -3.893753      3.017162
  C      -1.128970     -1.673968      0.300540
  C      -1.725730     -3.005060      0.855110
  C      -1.442981     -1.423376     -1.214738
  C      -1.692374     -3.151437      2.407845
  C      -0.502457     -0.372741     -1.894728
  C      -0.283114     -2.911367      3.063013
74
Coordinates from ORCA-job R4N+PFHxA-_r2 E -2389.494691850639
  N       1.157297     -8.022352      1.073706
  C       2.857784     -3.537415     -3.500629
  C       4.324818     -3.213168     -3.821343
  C       5.114175     -2.614411     -2.644313
  C       2.739773     -4.491826     -2.332879
  C       2.119256     -4.065532     -4.741504
  C       2.428237     -7.161749      1.047740
  C       2.531623     -6.244111     -0.132389
  C       4.455227     -1.371010     -2.080101
  C       2.105291     -4.094860     -1.154966
  C       3.276981     -5.783324     -2.391485
  C       6.559467     -2.325830     -3.068870
  C       1.199718     -8.855084      2.322144
  C       1.104048     -8.928566     -0.118505
  C      -0.071322     -7.162430      1.101465
  C       2.012143     -4.950455     -0.063658
  C       3.173608     -6.648115     -1.308361
  C       0.616347     -4.207174     -4.517562
  C       4.089593     -1.306527     -0.732741
  C       4.204138     -0.255513     -2.888423
  C       3.486018     -0.166406     -0.203578
  C       3.606129      0.886915     -2.363530
  C       3.242730      0.936156     -1.018073
  H       2.367361     -2.599981     -3.204159
  H       4.348670     -2.512237     -4.667005
  H       4.838259     -4.125422     -4.155425
  H       5.139123     -3.361213     -1.838644
  H       2.550655     -5.030788     -5.039851
  H       2.302421     -3.369926     -5.571112
  H       3.259206     -7.872540      1.072453
  H       2.409845     -6.594043      1.982644
  H       1.697715     -3.090937     -1.086802
  H       3.789001     -6.116628     -3.290937
  H       7.045040     -3.241591     -3.425009
  H       7.145533     -1.930567     -2.232187
  H       6.588201     -1.590033     -3.881002
  H       2.095733     -9.478406      2.297815
  H       0.305244     -9.480011      2.352038
  H       1.223932     -8.188657      3.186715
  H       0.219915     -9.562473     -0.025874
  H       2.008057     -9.540730     -0.135701
  H       1.035029     -8.324518     -1.024117
  H      -0.136831     -6.607702      0.165229
  H      -0.001045     -6.479117      1.950260
  H      -0.940123     -7.815109      1.208873
  H       1.535266     -4.609633      0.851697
  H       3.602615     -7.645482     -1.370365
  H       0.112760     -4.564661     -5.422122
  H       0.172949     -3.241535     -4.245043
  H       0.395683     -4.915214     -3.710167
  H       4.274512     -2.165321     -0.090982
  H       4.478106     -0.279052     -3.940783
  H       3.205229     -0.142213      0.846316
  H       3.419470      1.741998     -3.008142
  H       2.770677      1.825993     -0.610487
  F       0.217417     -1.706811      0.470514
  F      -1.627020     -0.632158      1.003368
  F      -3.017068     -3.095339      0.434198
  F      -1.032943     -4.038031      0.319103
  F      -2.711769     -0.974610     -1.322834
  F      -1.327656     -2.579434     -1.907801
  F      -2.632348     -2.308984      2.921432
  F      -2.126588     -4.426253      2.659861
  F      -1.042172      0.005217     -3.060580
  F      -0.358547      0.707755     -1.114316
  F       0.700815     -0.901807     -2.135941
  O      -0.101974     -1.769969      3.534605
  O       0.488256     -3.893701      3.017186
  C      -1.128951     -1.673926      0.300515
  C      -1.725694     -3.005061      0.855017
  C      -1.442980     -1.423284     -1.214747
  C      -1.692475     -3.151469      2.407750
  C      -0.502505     -0.372633     -1.894766
  C      -0.283292     -2.911375      3.063054
74
Coordinates from ORCA-job R4N+PFHxA-_r2 E -2389.494691856602
  N       1.157372     -8.022426      1.073717
  C       2.857740     -3.537397     -3.500591
  C       4.324777     -3.213151     -3.821305
  C       5.114136     -2.614410     -2.644271
  C       2.739749     -4.491852     -2.332874
  C       2.119218     -4.065465     -4.741488
  C       2.428342     -7.161882      1.047684
  C       2.531688     -6.244210     -0.132424
  C       4.455241     -1.370951     -2.080123
  C       2.105383     -4.094901     -1.154895
  C       3.276884     -5.783376     -2.391567
  C       6.559460     -2.325932     -3.068790
  C       1.199823     -8.855177      2.322136
  C       1.104014     -8.928618     -0.118501
  C      -0.071199     -7.162436      1.101555
  C       2.012279     -4.950528     -0.063612
  C       3.173553     -6.648204     -1.308463
  C       0.616332     -4.207301     -4.517517
  C       4.089493     -1.306418     -0.732797
  C       4.204322     -0.255440     -2.888483
  C       3.485981     -0.166230     -0.203705
  C       3.606385      0.887056     -2.363658
  C       3.242883      0.936350     -1.018229
  H       2.367322     -2.599974     -3.204076
  H       4.348634     -2.512215     -4.666963
  H       4.838202     -4.125411     -4.155393
  H       5.139014     -3.361187     -1.838578
  H       2.550702     -5.030647     -5.039952
  H       2.302292     -3.369753     -5.571027
  H       3.259288     -7.872702      1.072331
  H       2.410051     -6.594188      1.982596
  H       1.697894     -3.090948     -1.086602
  H       3.788819     -6.116676     -3.291068
  H       7.044992     -3.241746     -3.424851
  H       7.145511     -1.930649     -2.232105
  H       6.588264     -1.590189     -3.880969
  H       2.095773     -9.478590      2.297718
  H       0.305293     -9.480022      2.352095
  H       1.224175     -8.188773      3.186720
  H       0.219867     -9.562501     -0.025832
  H       2.007997     -9.540819     -0.135759
  H       1.034964     -8.324560     -1.024103
  H      -0.136724     -6.607707      0.165320
  H      -0.000834     -6.479132      1.950349
  H      -0.940044     -7.815049      1.209005
  H       1.535518     -4.609694      0.851799
  H       3.602507     -7.645589     -1.370543
  H       0.112755     -4.564711     -5.422112
  H       0.172828     -3.241762     -4.244820
  H       0.395785     -4.915503     -3.710231
  H       4.274273     -2.165219     -0.091007
  H       4.478381     -0.279026     -3.940818
  H       3.205099     -0.141976      0.846162
  H       3.419868      1.742155     -3.008290
  H       2.770903      1.826239     -0.610675
  F       0.217362     -1.706712      0.470553
  F      -1.627098     -0.632125      1.003423
  F      -3.017057     -3.095377      0.434050
  F      -1.032873     -4.037963      0.319096
  F      -2.711825     -0.974496     -1.322782
  F      -1.327728     -2.579323     -1.907789
  F      -2.632591     -2.309038      2.921311
  F      -2.126735     -4.426287      2.659745
  F      -1.042260      0.005251     -3.060583
  F      -0.358655      0.707893     -1.114351
  F       0.700763     -0.901673     -2.135914
  O      -0.102333     -1.770025      3.534888
  O       0.488094     -3.893638      3.017205
  C      -1.129005     -1.673858      0.300539
  C      -1.725718     -3.005040      0.854976
  C      -1.443033     -1.423185     -1.214715
  C      -1.692638     -3.151481      2.407708
  C      -0.502576     -0.372532     -1.894755
  C      -0.283530     -2.911375      3.063159
74
Coordinates from ORCA-job R4N+PFHxA-_r2 E -2389.494691865312
  N       1.157471     -8.022426      1.073767
  C       2.857700     -3.537356     -3.500584
  C       4.324744     -3.213150     -3.821319
  C       5.114148     -2.614467     -2.644286
  C       2.739713     -4.491839     -2.332890
  C       2.119141     -4.065362     -4.741486
  C       2.428454     -7.161914      1.047663
  C       2.531749     -6.244224     -0.132441
  C       4.455297     -1.371004     -2.080095
  C       2.105446     -4.094882     -1.154857
  C       3.276785     -5.783385     -2.391639
  C       6.559474     -2.326027     -3.068825
  C       1.199985     -8.855214      2.322159
  C       1.103998     -8.928586     -0.118469
  C      -0.071070     -7.162388      1.101716
  C       2.012390     -4.950518     -0.063583
  C       3.173502     -6.648224     -1.308537
  C       0.616255     -4.207152     -4.517501
  C       4.089549     -1.306502     -0.732770
  C       4.204411     -0.255460     -2.888423
  C       3.486053     -0.166319     -0.203649
  C       3.606502      0.887036     -2.363566
  C       3.242991      0.936293     -1.018137
  H       2.367317     -2.599927     -3.204031
  H       4.348608     -2.512189     -4.666956
  H       4.838126     -4.125421     -4.155445
  H       5.139020     -3.361265     -1.838611
  H       2.550583     -5.030552     -5.039983
  H       2.302235     -3.369632     -5.571006
  H       3.259392     -7.872746      1.072252
  H       2.410243     -6.594226      1.982581
  H       1.698041     -3.090903     -1.086482
  H       3.788645     -6.116698     -3.291178
  H       7.044961     -3.241853     -3.424916
  H       7.145555     -1.930787     -2.232143
  H       6.588288     -1.590269     -3.880990
  H       2.095890     -9.478689      2.297637
  H       0.305416     -9.480000      2.352180
  H       1.224463     -8.188838      3.186760
  H       0.219854     -9.562463     -0.025740
  H       2.007973     -9.540797     -0.135820
  H       1.034874     -8.324506     -1.024052
  H      -0.136609     -6.607632      0.165499
  H      -0.000606     -6.479119      1.950531
  H      -0.939943     -7.814956      1.209212
  H       1.535739     -4.609682      0.851885
  H       3.602416     -7.645624     -1.370672
  H       0.112659     -4.564534     -5.422098
  H       0.172777     -3.241608     -4.244778
  H       0.395697     -4.915368     -3.710231
  H       4.274306     -2.165323     -0.091001
  H       4.478475     -0.279017     -3.940757
  H       3.205185     -0.142079      0.846221
  H       3.420013      1.742160     -3.008172
  H       2.771032      1.826180     -0.610555
  F       0.217264     -1.706628      0.470537
  F      -1.627265     -0.632115      1.003307
  F      -3.017075     -3.095465      0.433871
  F      -1.032824     -4.037938      0.319103
  F      -2.711879     -0.974589     -1.322935
  F      -1.327693     -2.579378     -1.907838
  F      -2.632841     -2.309027      2.921138
  F      -2.126901     -4.426270      2.659654
  F      -1.042282      0.005095     -3.060740
  F      -0.358824      0.707938     -1.114530
  F       0.700753     -0.901641     -2.135905
  O      -0.102676     -1.769988      3.535035
  O       0.487900     -3.893528      3.017236
  C      -1.129100     -1.673840      0.300473
  C      -1.725773     -3.005045      0.854904
  C      -1.443074     -1.423227     -1.214801
  C      -1.692821     -3.151454      2.407634
  C      -0.502636     -0.372559     -1.894851
  C      -0.283775     -2.911312      3.063206
74
Coordinates from ORCA-job R4N+PFHxA-_r2 E -2389.494691870713
  N       1.157597     -8.022415      1.073815
  C       2.857667     -3.537316     -3.500588
  C       4.324726     -3.213171     -3.821320
  C       5.114165     -2.614550     -2.644277
  C       2.739667     -4.491840     -2.332928
  C       2.119077     -4.065220     -4.741514
  C       2.428615     -7.161962      1.047623
  C       2.531838     -6.244260     -0.132465
  C       4.455361     -1.371075     -2.080056
  C       2.105526     -4.094872     -1.154823
  C       3.276650     -5.783418     -2.391746
  C       6.559498     -2.326160     -3.068825
  C       1.200193     -8.855263      2.322167
  C       1.103948     -8.928525     -0.118455
  C      -0.070908     -7.162290      1.101924
  C       2.012546     -4.950529     -0.063552
  C       3.173433     -6.648271     -1.308643
  C       0.616178     -4.206889     -4.517554
  C       4.089604     -1.306597     -0.732737
  C       4.204514     -0.255501     -2.888357
  C       3.486108     -0.166420     -0.203594
  C       3.606620      0.886992     -2.363477
  C       3.243084      0.936218     -1.018050
  H       2.367332     -2.599879     -3.203989
  H       4.348623     -2.512184     -4.666934
  H       4.838059     -4.125460     -4.155470
  H       5.139017     -3.361364     -1.838617
  H       2.550438     -5.030438     -5.040039
  H       2.302244     -3.369478     -5.571008
  H       3.259540     -7.872813      1.072128
  H       2.410520     -6.594290      1.982537
  H       1.698219     -3.090834     -1.086354
  H       3.788408     -6.116753     -3.291335
  H       7.044930     -3.242002     -3.424952
  H       7.145612     -1.930978     -2.232139
  H       6.588339     -1.590381     -3.880969
  H       2.096044     -9.478810      2.297506
  H       0.305572     -9.479968      2.352267
  H       1.224835     -8.188923      3.186791
  H       0.219797     -9.562379     -0.025634
  H       2.007907     -9.540755     -0.135939
  H       1.034722     -8.324404     -1.024003
  H      -0.136448     -6.607462      0.165752
  H      -0.000282     -6.479100      1.950789
  H      -0.939819     -7.814797      1.209466
  H       1.536007     -4.609599      0.851937
  H       3.602293     -7.645690     -1.370854
  H       0.112568     -4.564200     -5.422172
  H       0.172772     -3.241320     -4.244803
  H       0.395550     -4.915120     -3.710317
  H       4.274336     -2.165431     -0.090979
  H       4.478591     -0.279025     -3.940688
  H       3.205265     -0.142202      0.846282
  H       3.420167      1.742136     -3.008067
  H       2.771130      1.826105     -0.610465
  F       0.217096     -1.706483      0.470537
  F      -1.627537     -0.632074      1.003130
  F      -3.017125     -3.095588      0.433728
  F      -1.032773     -4.037894      0.319197
  F      -2.711974     -0.974814     -1.323189
  F      -1.327608     -2.579534     -1.907854
  F      -2.633125     -2.308954      2.921010
  F      -2.127110     -4.426201      2.659651
  F      -1.042277      0.004791     -3.060975
  F      -0.359081      0.707943     -1.114784
  F       0.700750     -0.901670     -2.135837
  O      -0.103047     -1.769936      3.535304
  O       0.487683     -3.893415      3.017321
  C      -1.129262     -1.673810      0.300405
  C      -1.725864     -3.005035      0.854880
  C      -1.443145     -1.423343     -1.214914
  C      -1.693042     -3.151377      2.407622
  C      -0.502719     -0.372663     -1.894976
  C      -0.284051     -2.911219      3.063333
74
Coordinates from ORCA-job R4N+PFHxA-_r2 E -2389.494691831904
  N       1.157850     -8.022348      1.073990
  C       2.857525     -3.537101     -3.500567
  C       4.324645     -3.213172     -3.821292
  C       5.114199     -2.614737     -2.644210
  C       2.739466     -4.491751     -2.333033
  C       2.118783     -4.064679     -4.741539
  C       2.428900     -7.162002      1.047535
  C       2.531937     -6.244245     -0.132605
  C       4.455540     -1.371221     -2.079918
  C       2.105741     -4.094709     -1.154712
  C       3.276114     -5.783444     -2.392098
  C       6.559558     -2.326519     -3.068777
  C       1.200639     -8.855272      2.322294
  C       1.103826     -8.928411     -0.118307
  C      -0.070519     -7.162083      1.102405
  C       2.012921     -4.950372     -0.063491
  C       3.173042     -6.648337     -1.309016
  C       0.615852     -4.205930     -4.517566
  C       4.089795     -1.306755     -0.732595
  C       4.204763     -0.255607     -2.888188
  C       3.486289     -0.166578     -0.203434
  C       3.606902      0.886886     -2.363291
  C       3.243319      0.936079     -1.017870
  H       2.367366     -2.599624     -3.203823
  H       4.348654     -2.512119     -4.666848
  H       4.837821     -4.125525     -4.155505
  H       5.138974     -3.361599     -1.838593
  H       2.549865     -5.029991     -5.040167
  H       2.302143     -3.368910     -5.570968
  H       3.259765     -7.872930      1.071824
  H       2.411053     -6.594329      1.982491
  H       1.698809     -3.090624     -1.086061
  H       3.787543     -6.116852     -3.291847
  H       7.044824     -3.242409     -3.425009
  H       7.145774     -1.931515     -2.232078
  H       6.588497     -1.590672     -3.880857
  H       2.096407     -9.478926      2.297378
  H       0.305930     -9.479841      2.352571
  H       1.225584     -8.188963      3.186935
  H       0.219661     -9.562208     -0.025249
  H       2.007758     -9.540673     -0.136047
  H       1.034368     -8.324245     -1.023808
  H      -0.135993     -6.607179      0.166277
  H       0.000369     -6.478984      1.951324
  H      -0.939513     -7.814451      1.210086
  H       1.536980     -4.609713      0.852425
  H       3.601680     -7.645839     -1.371442
  H       0.112130     -4.562995     -5.422219
  H       0.172728     -3.240262     -4.244709
  H       0.395021     -4.914185     -3.710401
  H       4.274488     -2.165600     -0.090837
  H       4.478843     -0.279083     -3.940520
  H       3.205476     -0.142324      0.846458
  H       3.420507      1.742044     -3.007877
  H       2.771348      1.825976     -0.610326
  F       0.216882     -1.706374      0.470556
  F      -1.628112     -0.632268      1.002577
  F      -3.017018     -3.096183      0.433234
  F      -1.032403     -4.038081      0.319483
  F      -2.711994     -0.975752     -1.323910
  F      -1.327066     -2.580215     -1.907958
  F      -2.633770     -2.308886      2.920461
  F      -2.127525     -4.426143      2.659611
  F      -1.042120      0.003815     -3.061575
  F      -0.359628      0.707741     -1.115416
  F       0.700893     -0.901885     -2.135694
  O      -0.103981     -1.769696      3.535530
  O       0.487108     -3.892967      3.017455
  C      -1.129474     -1.674035      0.300196
  C      -1.725891     -3.005279      0.854752
  C      -1.443087     -1.423936     -1.215250
  C      -1.693502     -3.151320      2.407444
  C      -0.502772     -0.373131     -1.895303
  C      -0.284696     -2.910955      3.063406
74
Coordinates from ORCA-job R4N+PFHxA-_r2 E -2389.494691862887
  N       1.157704     -8.022366      1.073852
  C       2.857656     -3.537221     -3.500600
  C       4.324760     -3.213201     -3.821258
  C       5.114200     -2.614649     -2.644171
  C       2.739576     -4.491826     -2.333014
  C       2.119038     -4.064909     -4.741604
  C       2.428810     -7.162042      1.047525
  C       2.531935     -6.244320     -0.132542
  C       4.455437     -1.371155     -2.079948
  C       2.105706     -4.094806     -1.154766
  C       3.276333     -5.783490     -2.391976
  C       6.559552     -2.326325     -3.068688
  C       1.200377     -8.855267      2.322177
  C       1.103775     -8.928440     -0.118444
  C      -0.070720     -7.162083      1.102148
  C       2.012847     -4.950505     -0.063509
  C       3.173205     -6.648375     -1.308884
  C       0.616096     -4.206240     -4.517757
  C       4.089710     -1.306660     -0.732628
  C       4.204565     -0.255588     -2.888253
  C       3.486158     -0.166504     -0.203487
  C       3.606637      0.886887     -2.363377
  C       3.243089      0.936112     -1.017947
  H       2.367407     -2.599763     -3.203940
  H       4.348769     -2.512191     -4.666850
  H       4.838030     -4.125531     -4.155389
  H       5.139000     -3.361479     -1.838525
  H       2.550212     -5.030206     -5.040148
  H       2.302416     -3.369170     -5.571053
  H       3.259678     -7.872965      1.071877
  H       2.410907     -6.594403      1.982441
  H       1.698609     -3.090654     -1.086180
  H       3.787877     -6.116881     -3.291666
  H       7.044919     -3.242178     -3.424877
  H       7.145702     -1.931245     -2.231977
  H       6.588463     -1.590494     -3.880784
  H       2.096176     -9.478882      2.297379
  H       0.305691     -9.479873      2.352364
  H       1.225195     -8.188940      3.186808
  H       0.219574     -9.562201     -0.025473
  H       2.007686     -9.540734     -0.136086
  H       1.034439     -8.324277     -1.023956
  H      -0.136198     -6.607163      0.166035
  H       0.000138     -6.478981      1.951065
  H      -0.939690     -7.814493      1.209769
  H       1.536585     -4.609440      0.852069
  H       3.601909     -7.645851     -1.371245
  H       0.112470     -4.563353     -5.422444
  H       0.172905     -3.240580     -4.244975
  H       0.395227     -4.914469     -3.710588
  H       4.274477     -2.165471     -0.090849
  H       4.478624     -0.279082     -3.940590
  H       3.205385     -0.142293      0.846408
  H       3.420169      1.742009     -3.007991
  H       2.771080      1.825999     -0.610425
  F       0.216882     -1.706340      0.470498
  F      -1.627936     -0.632085      1.002738
  F      -3.017141     -3.095899      0.433753
  F      -1.032640     -4.037967      0.319600
  F      -2.712116     -0.975585     -1.323693
  F      -1.327336     -2.580156     -1.907793
  F      -2.633272     -2.308656      2.920995
  F      -2.127292     -4.425961      2.659995
  F      -1.042243      0.003837     -3.061519
  F      -0.359600      0.707722     -1.115399
  F       0.700774     -0.901994     -2.135702
  O      -0.103220     -1.769730      3.535552
  O       0.487537     -3.893223      3.017588
  C      -1.129469     -1.673901      0.300295
  C      -1.725927     -3.005100      0.855011
  C      -1.443228     -1.423837     -1.215124
  C      -1.693192     -3.151177      2.407775
  C      -0.502865     -0.373145     -1.895274
  C      -0.284208     -2.911003      3.063542
74
Coordinates from ORCA-job R4N+PFHxA-_r2 E -2389.494691878933
  N       1.157506     -8.022409      1.073774
  C       2.857701     -3.537314     -3.500598
  C       4.324772     -3.213162     -3.821263
  C       5.114150     -2.614500     -2.644194
  C       2.739660     -4.491848     -2.332951
  C       2.119148     -4.065196     -4.741556
  C       2.428543     -7.161973      1.047584
  C       2.531780     -6.244278     -0.132515
  C       4.455306     -1.371020     -2.080027
  C       2.105544     -4.094863     -1.154842
  C       3.276600     -5.783444     -2.391789
  C       6.559493     -2.326092     -3.068693
  C       1.200068     -8.855218      2.322156
  C       1.103878     -8.928560     -0.118470
  C      -0.070990     -7.162289      1.101826
  C       2.012546     -4.950525     -0.063577
  C       3.173355     -6.648306     -1.308700
  C       0.616235     -4.206816     -4.517650
  C       4.089547     -1.306492     -0.732707
  C       4.204423     -0.255491     -2.888375
  C       3.486016     -0.166312     -0.203611
  C       3.606488      0.887003     -2.363545
  C       3.242947      0.936280     -1.018123
  H       2.367357     -2.599877     -3.204012
  H       4.348707     -2.512196     -4.666894
  H       4.838138     -4.125451     -4.155362
  H       5.138980     -3.361299     -1.838519
  H       2.550501     -5.030421     -5.040071
  H       2.302355     -3.369457     -5.571043
  H       3.259443     -7.872854      1.072085
  H       2.410446     -6.594294      1.982503
  H       1.698257     -3.090825     -1.086415
  H       3.788342     -6.116782     -3.291385
  H       7.044960     -3.241922     -3.424800
  H       7.145575     -1.930895     -2.231990
  H       6.588354     -1.590312     -3.880836
  H       2.095951     -9.478721      2.297565
  H       0.305471     -9.479959      2.352231
  H       1.224635     -8.188844      3.186758
  H       0.219707     -9.562385     -0.025651
  H       2.007827     -9.540806     -0.135905
  H       1.034694     -8.324463     -1.024037
  H      -0.136502     -6.607466      0.165651
  H      -0.000409     -6.479082      1.950680
  H      -0.939890     -7.814814      1.209344
  H       1.536068     -4.609623      0.851955
  H       3.602175     -7.645742     -1.370918
  H       0.112637     -4.564064     -5.422298
  H       0.172874     -3.241229     -4.244888
  H       0.395541     -4.915050     -3.710434
  H       4.274308     -2.165295     -0.090915
  H       4.478498     -0.279048     -3.940707
  H       3.205147     -0.142061      0.846260
  H       3.420006      1.742108     -3.008179
  H       2.770954      1.826174     -0.610596
  F       0.217191     -1.706577      0.470527
  F      -1.627421     -0.632111      1.003098
  F      -3.017065     -3.095606      0.433955
  F      -1.032749     -4.037990      0.319386
  F      -2.711923     -0.975041     -1.323191
  F      -1.327514     -2.579762     -1.907768
  F      -2.632837     -2.308774      2.921178
  F      -2.126995     -4.426070      2.659929
  F      -1.042222      0.004506     -3.061050
  F      -0.359101      0.707791     -1.114879
  F       0.700798     -0.901855     -2.135804
  O      -0.102657     -1.769852      3.535139
  O       0.487834     -3.893449      3.017400
  C      -1.129169     -1.673903      0.300432
  C      -1.725781     -3.005068      0.855023
  C      -1.443085     -1.423528     -1.214898
  C      -1.692857     -3.151297      2.407765
  C      -0.502687     -0.372863     -1.895012
  C      -0.283795     -2.911179      3.063326
74
Coordinates from ORCA-job R4N+PFHxA-_r2 E -2389.494691862618
  N       1.157586     -8.022390      1.073850
  C       2.857632     -3.537217     -3.500591
  C       4.324731     -3.213150     -3.821233
  C       5.114140     -2.614559     -2.644137
  C       2.739558     -4.491806     -2.333001
  C       2.119021     -4.064963     -4.741570
  C       2.428619     -7.161981      1.047543
  C       2.531776     -6.244262     -0.132602
  C       4.455350     -1.371059     -2.079955
  C       2.105616     -4.094784     -1.154805
  C       3.276348     -5.783454     -2.391952
  C       6.559501     -2.326224     -3.068622
  C       1.200236     -8.855220      2.322218
  C       1.103827     -8.928533     -0.118396
  C      -0.070850     -7.162243      1.102016
  C       2.012669     -4.950440     -0.063569
  C       3.173148     -6.648334     -1.308879
  C       0.616096     -4.206427     -4.517648
  C       4.089591     -1.306517     -0.732631
  C       4.204499     -0.255527     -2.888309
  C       3.486055     -0.166327     -0.203549
  C       3.606576      0.886975     -2.363492
  C       3.243011      0.936259     -1.018077
  H       2.367357     -2.599765     -3.203944
  H       4.348719     -2.512160     -4.666843
  H       4.838042     -4.125463     -4.155349
  H       5.138925     -3.361374     -1.838476
  H       2.550268     -5.030220     -5.040136
  H       2.302295     -3.369204     -5.571025
  H       3.259495     -7.872892      1.071961
  H       2.410604     -6.594287      1.982488
  H       1.698500     -3.090755     -1.086326
  H       3.787953     -6.116819     -3.291616
  H       7.044910     -3.242074     -3.424760
  H       7.145609     -1.931093     -2.231907
  H       6.588412     -1.590421     -3.880742
  H       2.096100     -9.478745      2.297537
  H       0.305620     -9.479930      2.352361
  H       1.224900     -8.188854      3.186824
  H       0.219657     -9.562345     -0.025484
  H       2.007771     -9.540783     -0.135925
  H       1.034549     -8.324428     -1.023951
  H      -0.136340     -6.607403      0.165849
  H      -0.000200     -6.479057      1.950883
  H      -0.939774     -7.814725      1.209585
  H       1.536495     -4.609757      0.852212
  H       3.601864     -7.645808     -1.371181
  H       0.112444     -4.563557     -5.422313
  H       0.172851     -3.240805     -4.244820
  H       0.395330     -4.914684     -3.710470
  H       4.274331     -2.165317     -0.090829
  H       4.478579     -0.279083     -3.940639
  H       3.205172     -0.142032      0.846323
  H       3.420117      1.742076     -3.008138
  H       2.771008      1.826162     -0.610581
  F       0.217189     -1.706601      0.470531
  F      -1.627560     -0.632227      1.002875
  F      -3.016962     -3.095854      0.433755
  F      -1.032558     -4.038114      0.319513
  F      -2.711861     -0.975439     -1.323455
  F      -1.327244     -2.580063     -1.907815
  F      -2.633027     -2.308724      2.920931
  F      -2.127124     -4.426032      2.659924
  F      -1.042121      0.004103     -3.061278
  F      -0.359262      0.707680     -1.115120
  F       0.700896     -0.901960     -2.135769
  O      -0.102947     -1.769713      3.535082
  O       0.487608     -3.893251      3.017436
  C      -1.129174     -1.674041      0.300347
  C      -1.725731     -3.005194      0.854967
  C      -1.442993     -1.423796     -1.215029
  C      -1.692988     -3.151272      2.407672
  C      -0.502655     -0.373074     -1.895143
  C      -0.283997     -2.911056      3.063288
74
Coordinates from ORCA-job R4N+PFHxA-_r2 E -2389.494691886981
  N       1.157548     -8.022409      1.073798
  C       2.857683     -3.537274     -3.500599
  C       4.324771     -3.213164     -3.821231
  C       5.114144     -2.614529     -2.644141
  C       2.739613     -4.491842     -2.332984
  C       2.119120     -4.065077     -4.741584
  C       2.428602     -7.162007      1.047542
  C       2.531794     -6.244301     -0.132562
  C       4.455319     -1.371035     -2.079986
  C       2.105602     -4.094838     -1.154820
  C       3.276462     -5.783472     -2.391887
  C       6.559501     -2.326160     -3.068612
  C       1.200160     -8.855240      2.322165
  C       1.103816     -8.928542     -0.118455
  C      -0.070914     -7.162247      1.101937
  C       2.012640     -4.950512     -0.063568
  C       3.173245     -6.648349     -1.308807
  C       0.616196     -4.206608     -4.517701
  C       4.089552     -1.306489     -0.732669
  C       4.204454     -0.255511     -2.888347
  C       3.486011     -0.166303     -0.203592
  C       3.606518      0.886990     -2.363535
  C       3.242956      0.936280     -1.018119
  H       2.367370     -2.599832     -3.203984
  H       4.348747     -2.512191     -4.666855
  H       4.838116     -4.125467     -4.155323
  H       5.138939     -3.361330     -1.838467
  H       2.550419     -5.030319     -5.040122
  H       2.302382     -3.369324     -5.571047
  H       3.259486     -7.872908      1.071987
  H       2.410571     -6.594331      1.982466
  H       1.698406     -3.090776     -1.086349
  H       3.788122     -6.116826     -3.291524
  H       7.044945     -3.242001     -3.424724
  H       7.145585     -1.930992     -2.231897
  H       6.588400     -1.590371     -3.880747
  H       2.096024     -9.478768      2.297508
  H       0.305544     -9.479951      2.352282
  H       1.224802     -8.188879      3.186774
  H       0.219637     -9.562348     -0.025579
  H       2.007753     -9.540804     -0.135961
  H       1.034577     -8.324431     -1.024008
  H      -0.136424     -6.607398      0.165779
  H      -0.000254     -6.479067      1.950807
  H      -0.939834     -7.814739      1.209491
  H       1.536301     -4.609631      0.852045
  H       3.602002     -7.645807     -1.371081
  H       0.112585     -4.563780     -5.422373
  H       0.172897     -3.241003     -4.244903
  H       0.395443     -4.914861     -3.710519
  H       4.274303     -2.165284     -0.090863
  H       4.478538     -0.279072     -3.940676
  H       3.205139     -0.142031      0.846279
  H       3.420050      1.742087     -3.008183
  H       2.770952      1.826181     -0.610618
  F       0.217156     -1.706551      0.470518
  F      -1.627519     -0.632131      1.002973
  F      -3.017040     -3.095718      0.433919
  F      -1.032674     -4.038028      0.319504
  F      -2.711934     -0.975274     -1.323342
  F      -1.327404     -2.579948     -1.907762
  F      -2.632902     -2.308687      2.921124
  F      -2.127060     -4.425999      2.660006
  F      -1.042198      0.004222     -3.061214
  F      -0.359242      0.707730     -1.115065
  F       0.700826     -0.901936     -2.135774
  O      -0.102739     -1.769766      3.535167
  O       0.487753     -3.893362      3.017473
  C      -1.129204     -1.673945      0.300392
  C      -1.725777     -3.005102      0.855041
  C      -1.443078     -1.423680     -1.214967
  C      -1.692912     -3.151239      2.407781
  C      -0.502710     -0.373003     -1.895106
  C      -0.283866     -2.911098      3.063362
74
Coordinates from ORCA-job R4N+PFHxA-_r2 E -2389.494691885492
  N       1.157581     -8.022398      1.073833
  C       2.857651     -3.537233     -3.500575
  C       4.324745     -3.213160     -3.821221
  C       5.114144     -2.614550     -2.644137
  C       2.739581     -4.491825     -2.332977
  C       2.119053     -4.064984     -4.741561
  C       2.428668     -7.162040      1.047513
  C       2.531822     -6.244319     -0.132578
  C       4.455361     -1.371035     -2.079979
  C       2.105689     -4.094803     -1.154754
  C       3.276338     -5.783490     -2.391951
  C       6.559507     -2.326225     -3.068620
  C       1.200224     -8.855225      2.322202
  C       1.103760     -8.928538     -0.118412
  C      -0.070848     -7.162188      1.102024
  C       2.012760     -4.950499     -0.063513
  C       3.173149     -6.648385     -1.308884
  C       0.616120     -4.206410     -4.517671
  C       4.089614     -1.306476     -0.732657
  C       4.204511     -0.255508     -2.888341
  C       3.486099     -0.166278     -0.203578
  C       3.606601      0.887005     -2.363526
  C       3.243052      0.936304     -1.018106
  H       2.367372     -2.599783     -3.203931
  H       4.348732     -2.512184     -4.666842
  H       4.838063     -4.125476     -4.155320
  H       5.138923     -3.361352     -1.838463
  H       2.550286     -5.030253     -5.040106
  H       2.302355     -3.369241     -5.571024
  H       3.259529     -7.872971      1.071897
  H       2.410712     -6.594377      1.982442
  H       1.698559     -3.090711     -1.086231
  H       3.787907     -6.116858     -3.291635
  H       7.044920     -3.242079     -3.424739
  H       7.145611     -1.931078     -2.231909
  H       6.588422     -1.590434     -3.880753
  H       2.096072     -9.478774      2.297511
  H       0.305592     -9.479912      2.352358
  H       1.224917     -8.188858      3.186806
  H       0.219563     -9.562312     -0.025486
  H       2.007676     -9.540829     -0.135957
  H       1.034495     -8.324430     -1.023965
  H      -0.136374     -6.607336      0.165869
  H      -0.000116     -6.479010      1.950891
  H      -0.939790     -7.814643      1.209617
  H       1.536520     -4.609584      0.852141
  H       3.601835     -7.645870     -1.371216
  H       0.112486     -4.563594     -5.422325
  H       0.172887     -3.240760     -4.244926
  H       0.395320     -4.914607     -3.710451
  H       4.274357     -2.165272     -0.090851
  H       4.478580     -0.279079     -3.940672
  H       3.205233     -0.141999      0.846293
  H       3.420142      1.742103     -3.008175
  H       2.771064      1.826214     -0.610605
  F       0.217083     -1.706498      0.470556
  F      -1.627718     -0.632216      1.002860
  F      -3.017004     -3.095930      0.433767
  F      -1.032553     -4.038080      0.319508
  F      -2.711936     -0.975506     -1.323538
  F      -1.327224     -2.580081     -1.907806
  F      -2.633078     -2.308810      2.920996
  F      -2.127074     -4.426092      2.659943
  F      -1.042119      0.004051     -3.061325
  F      -0.359416      0.707712     -1.115142
  F       0.700899     -0.901904     -2.135666
  O      -0.102985     -1.769725      3.535214
  O       0.487696     -3.893275      3.017529
  C      -1.129268     -1.674006      0.300337
  C      -1.725778     -3.005199      0.854975
  C      -1.443051     -1.423802     -1.215051
  C      -1.693000     -3.151306      2.407723
  C      -0.502711     -0.373071     -1.895146
  C      -0.284004     -2.911061      3.063383
74
Coordinates from ORCA-job R4N+PFHxA-_r2 E -2389.494691890562
  N       1.157556     -8.022425      1.073820
  C       2.857659     -3.537233     -3.500582
  C       4.324765     -3.213155     -3.821168
  C       5.114113     -2.614526     -2.644059
  C       2.739558     -4.491842     -2.332999
  C       2.119104     -4.064955     -4.741605
  C       2.428659     -7.162086      1.047465
  C       2.531793     -6.244360     -0.132623
  C       4.455316     -1.370996     -2.079951
  C       2.105719     -4.094809     -1.154751
  C       3.276260     -5.783530     -2.392010
  C       6.559495     -2.326213     -3.068485
  C       1.200233     -8.855266      2.322177
  C       1.103679     -8.928550     -0.118432
  C      -0.070857     -7.162196      1.102070
  C       2.012791     -4.950519     -0.063518
  C       3.173065     -6.648437     -1.308956
  C       0.616165     -4.206402     -4.517763
  C       4.089550     -1.306393     -0.732636
  C       4.204476     -0.255495     -2.888351
  C       3.486029     -0.166180     -0.203602
  C       3.606558      0.887035     -2.363582
  C       3.242990      0.936378     -1.018170
  H       2.367373     -2.599786     -3.203937
  H       4.348785     -2.512192     -4.666799
  H       4.838102     -4.125474     -4.155233
  H       5.138852     -3.361315     -1.838371
  H       2.550355     -5.030210     -5.040168
  H       2.302422     -3.369184     -5.571040
  H       3.259510     -7.873029      1.071822
  H       2.410735     -6.594426      1.982397
  H       1.698627     -3.090698     -1.086218
  H       3.787791     -6.116900     -3.291714
  H       7.044922     -3.242073     -3.424572
  H       7.145563     -1.931056     -2.231754
  H       6.588444     -1.590433     -3.880625
  H       2.096076     -9.478821      2.297453
  H       0.305601     -9.479953      2.352352
  H       1.224954     -8.188914      3.186791
  H       0.219477     -9.562312     -0.025483
  H       2.007584     -9.540855     -0.136018
  H       1.034393     -8.324431     -1.023976
  H      -0.136418     -6.607327      0.165927
  H      -0.000082     -6.479035      1.950945
  H      -0.939803     -7.814643      1.209680
  H       1.536621     -4.609578      0.852160
  H       3.601706     -7.645939     -1.371313
  H       0.112553     -4.563531     -5.422451
  H       0.172926     -3.240767     -4.244973
  H       0.395347     -4.914642     -3.710589
  H       4.274284     -2.165171     -0.090801
  H       4.478563     -0.279100     -3.940678
  H       3.205134     -0.141868      0.846261
  H       3.420107      1.742113     -3.008261
  H       2.770995      1.826299     -0.610703
  F       0.217116     -1.706502      0.470553
  F      -1.627684     -0.632204      1.002828
  F      -3.016970     -3.095936      0.433863
  F      -1.032523     -4.038097      0.319611
  F      -2.711921     -0.975607     -1.323555
  F      -1.327181     -2.580181     -1.907764
  F      -2.632956     -2.308688      2.921070
  F      -2.127033     -4.425994      2.660082
  F      -1.042111      0.003897     -3.061392
  F      -0.359461      0.707667     -1.115228
  F       0.700919     -0.901963     -2.135661
  O      -0.102799     -1.769640      3.535123
  O       0.487747     -3.893271      3.017621
  C      -1.129234     -1.674020      0.300340
  C      -1.725738     -3.005191      0.855041
  C      -1.443027     -1.423876     -1.215054
  C      -1.692922     -3.151234      2.407798
  C      -0.502711     -0.373155     -1.895188
  C      -0.283896     -2.911007      3.063399
