74
Coordinates from ORCA-job R4N+PFHxA-_r2 E -2389.494691890562
  N           1.15755649191413     -8.02242501538087      1.07382017462832
  C           2.85765881312185     -3.53723275357632     -3.50058246581294
  C           4.32476509308299     -3.21315484451960     -3.82116805295258
  C           5.11411275759785     -2.61452632275777     -2.64405939788965
  C           2.73955785880321     -4.49184159833716     -2.33299946993675
  C           2.11910365341159     -4.06495530504427     -4.74160487539580
  C           2.42865925381984     -7.16208553121691      1.04746543750946
  C           2.53179309037588     -6.24436001305775     -0.13262296351978
  C           4.45531562704218     -1.37099573978650     -2.07995098303652
  C           2.10571947389179     -4.09480933076664     -1.15475097316330
  C           3.27625999886166     -5.78352966463830     -2.39201026009885
  C           6.55949500193085     -2.32621308222567     -3.06848488230319
  C           1.20023290518555     -8.85526632918055      2.32217707585659
  C           1.10367910583138     -8.92854964254419     -0.11843163267652
  C          -0.07085686558347     -7.16219638505544      1.10206977373085
  C           2.01279121544232     -4.95051944319547     -0.06351826154274
  C           3.17306483460301     -6.64843731120884     -1.30895552775595
  C           0.61616496747808     -4.20640151016262     -4.51776300751681
  C           4.08954971830800     -1.30639333580066     -0.73263557031693
  C           4.20447646870975     -0.25549533162448     -2.88835139767057
  C           3.48602861398236     -0.16617966689388     -0.20360184318288
  C           3.60655826406430      0.88703509818263     -2.36358160373151
  C           3.24298986327864      0.93637769302583     -1.01817014574789
  H           2.36737269258161     -2.59978572757629     -3.20393744388914
  H           4.34878549641826     -2.51219215749928     -4.66679927677200
  H           4.83810152140451     -4.12547370185846     -4.15523261276077
  H           5.13885183809099     -3.36131452502206     -1.83837078953457
  H           2.55035516599415     -5.03020977960828     -5.04016798266951
  H           2.30242150561455     -3.36918414363331     -5.57104019933761
  H           3.25950956341549     -7.87302886955142      1.07182238856307
  H           2.41073528647389     -6.59442639874923      1.98239714956926
  H           1.69862727078727     -3.09069811046262     -1.08621813791124
  H           3.78779127358905     -6.11690041378961     -3.29171442637253
  H           7.04492232323089     -3.24207271210183     -3.42457176995118
  H           7.14556313029317     -1.93105598871709     -2.23175368829515
  H           6.58844404504354     -1.59043300194036     -3.88062539585260
  H           2.09607621675175     -9.47882056093279      2.29745263324430
  H           0.30560092222744     -9.47995298488421      2.35235179597100
  H           1.22495440984783     -8.18891405831961      3.18679070332967
  H           0.21947696425310     -9.56231238982553     -0.02548341695783
  H           2.00758432682238     -9.54085540375239     -0.13601766504826
  H           1.03439337990446     -8.32443062730821     -1.02397611529059
  H          -0.13641814556335     -6.60732712430235      0.16592741902149
  H          -0.00008226620118     -6.47903537656105      1.95094493648269
  H          -0.93980349181968     -7.81464341877064      1.20968008888840
  H           1.53662119854495     -4.60957823324375      0.85215963273655
  H           3.60170595248928     -7.64593931260679     -1.37131325175976
  H           0.11255318587886     -4.56353055224565     -5.42245073794579
  H           0.17292574634017     -3.24076680643579     -4.24497267346883
  H           0.39534680702763     -4.91464237427129     -3.71058851514294
  H           4.27428356565536     -2.16517085683895     -0.09080114852332
  H           4.47856255404853     -0.27910024804735     -3.94067835561270
  H           3.20513431514395     -0.14186765537864      0.84626135869058
  H           3.42010711238093      1.74211273557180     -3.00826052020092
  H           2.77099459658888      1.82629863323886     -0.61070268375633
  F           0.21711582989627     -1.70650174081964      0.47055319614028
  F          -1.62768434182530     -0.63220368031544      1.00282817347680
  F          -3.01696959137955     -3.09593646269042      0.43386281412460
  F          -1.03252320471293     -4.03809712866094      0.31961121803246
  F          -2.71192095360202     -0.97560668955018     -1.32355476014498
  F          -1.32718111283266     -2.58018069813047     -1.90776389679649
  F          -2.63295606336076     -2.30868771044037      2.92107000067590
  F          -2.12703275391694     -4.42599398917633      2.66008189746545
  F          -1.04211076175348      0.00389715164932     -3.06139186625136
  F          -0.35946071372328      0.70766717438492     -1.11522819282670
  F           0.70091851738108     -0.90196308184079     -2.13566141121843
  O          -0.10279884530993     -1.76964005204212      3.53512270678276
  O           0.48774709405106     -3.89327103090488      3.01762067216808
  C          -1.12923403173491     -1.67401989496236      0.30033980678430
  C          -1.72573801475311     -3.00519068309214      0.85504145494497
  C          -1.44302746450714     -1.42387610158070     -1.21505400405661
  C          -1.69292195218516     -3.15123364771045      2.40779835890911
  C          -0.50271090896730     -0.37315471807362     -1.89518814978321
  C          -0.28389640587761     -2.91100720855424      3.06339921218784
