1692
XYZ file generated by Avogadro.
C      4.9767500000    8.1822300000    8.1186300000
C      4.7564200000    6.7239500000    7.6956200000
C      5.1400800000    5.7105000000    8.8017200000
C      4.2970800000    5.8162500000   10.0797000000
C      4.6865400000    4.8680000000   11.2478000000
C      6.1894200000    4.9895300000   11.6224000000
C      6.5606300000    6.3453200000   12.2503000000
C      8.0536600000    6.4868100000   12.6173000000
C      8.9657800000    6.2934600000   11.3700000000
C      8.8021400000    7.3157300000   10.2191000000
C      9.3088300000    8.7657800000   10.4633000000
C     10.8188000000    8.8226200000   10.7928000000
C     11.6876000000    8.5739000000    9.5679700000
C     13.1800000000    8.3433700000    9.8561900000
C     13.3920000000    7.2156700000   10.9024000000
C     12.7648000000    5.8505400000   10.5418000000
C     13.4822000000    4.9977700000    9.4539400000
C     14.9290000000    4.6194200000    9.8741200000
C     14.8831000000    3.5701400000   10.9757000000
C     16.1511000000    3.2728200000   11.7744000000
C     16.7617000000    4.5736400000   12.3607000000
C     15.8519000000    5.4226100000   13.2847000000
C     15.5255000000    4.8581600000   14.6942000000
C     16.7964000000    4.6560800000   15.5520000000
C     17.3846000000    5.9865900000   16.0210000000
C     18.7718000000    5.8991000000   16.6738000000
C     19.7729000000    5.1427600000   15.7653000000
C     19.9212000000    5.6830100000   14.3248000000
C     20.6787000000    7.0246900000   14.1078000000
C     22.1469000000    6.9422100000   14.5855000000
C     22.9621000000    6.0749900000   13.6291000000
C     24.3740000000    5.6916100000   14.0659000000
C     24.3512000000    5.0942300000   15.4876000000
C     23.3919000000    3.8963200000   15.7133000000
C     23.7927000000    2.5451900000   15.0850000000
C     25.2225000000    2.1687900000   15.4975000000
C     25.3147000000    1.9345600000   17.0020000000
C     26.7161000000    1.5983900000   17.5518000000
C     27.6794000000    2.7960300000   17.2356000000
C     27.3723000000    4.1633100000   17.8562000000
C     27.5616000000    4.2121600000   19.3668000000
C     28.9374000000    3.6293100000   19.7603000000
C     30.1938000000    4.3622000000   19.1953000000
C     30.6704000000    5.6585400000   19.9134000000
C     30.5533000000    5.3288000000   21.4441000000
C     31.2295000000    4.0264700000   22.0068000000
C     32.7312000000    4.0992900000   21.8329000000
C     33.1712000000    5.5302500000   22.2229000000
C     32.7467000000    5.8814100000   23.6429000000
C     33.6784000000    5.2730100000   24.6711000000
C     35.1074000000    5.7422600000   24.3030000000
C     35.2226000000    7.2826400000   24.1412000000
C     35.0845000000    7.9680000000   25.5038000000
C     36.1257000000    7.3064600000   26.4417000000
C     37.5436000000    7.2664100000   25.8279000000
C     38.1570000000    8.6673300000   25.7660000000
C     38.0929000000    9.2508600000   27.1979000000
C     38.6775000000    8.3008800000   28.2639000000
C     40.2005000000    8.2145500000   28.1510000000
C     40.7630000000    9.6524100000   28.2755000000
C     40.2043000000   10.4252000000   29.4860000000
C     40.6942000000    9.8335600000   30.8123000000
C     42.2423000000    9.8396300000   30.8006000000
C     42.8569000000   11.2045000000   30.4493000000
C     42.6799000000   12.2442000000   31.5657000000
C     43.3194000000   11.7166000000   32.8714000000
C     44.7550000000   11.2150000000   32.7048000000
C     45.8023000000   12.3195000000   32.4322000000
C     45.8225000000   13.3605000000   33.5862000000
C     46.2663000000   12.6884000000   34.8745000000
C     46.1895000000   13.4989000000   36.1704000000
C     44.7590000000   13.8642000000   36.5656000000
C     46.8565000000   12.5982000000   37.2018000000
C     48.1174000000   12.9427000000   37.6909000000
C     48.8465000000   12.0312000000   38.4481000000
C     48.3335000000   10.7538000000   38.7188000000
C     49.1601000000    9.7631800000   39.4958000000
N     48.8813000000    9.6853000000   40.9875000000
C     47.4596000000    9.2491500000   41.2937000000
C     49.8451000000    8.6635400000   41.6002000000
C     49.1486000000   11.0450000000   41.6472000000
C     47.0532000000   10.4208000000   38.2645000000
C     46.3178000000   11.3379000000   37.5228000000
C     47.1916000000   11.7697000000   32.1249000000
C     47.5052000000   10.4088000000   32.2106000000
C     48.8140000000    9.9703100000   32.0419000000
C     49.8419000000   10.8808000000   31.7727000000
C     51.2728000000   10.4125000000   31.6968000000
N     51.6972000000    9.7971100000   30.3480000000
C     53.0971000000    9.2000600000   30.5559000000
C     50.7731000000    8.7037300000   29.8796000000
C     51.7889000000   10.8915000000   29.2934000000
C     49.5284000000   12.2356000000   31.6279000000
C     48.2155000000   12.6728000000   31.7962000000
C     43.1079000000   13.6502000000   31.2033000000
C     43.7567000000   13.9693000000   30.0037000000
C     44.2547000000   15.2479000000   29.7906000000
C     44.1027000000   16.2412000000   30.7664000000
C     44.6977000000   17.6114000000   30.5577000000
N     43.7515000000   18.6267000000   29.9112000000
C     42.5638000000   18.9294000000   30.8141000000
C     44.5520000000   19.9308000000   29.7274000000
C     43.2681000000   18.1615000000   28.5571000000
C     43.3892000000   15.9499000000   31.9322000000
C     42.8803000000   14.6722000000   32.1371000000
C     40.0677000000   10.4221000000   32.0617000000
C     39.2157000000   11.5327000000   32.0364000000
C     38.8448000000   12.1597000000   33.2210000000
C     39.2983000000   11.6785000000   34.4560000000
C     39.0053000000   12.4430000000   35.7244000000
N     37.6705000000   12.1173000000   36.3909000000
C     37.4918000000   13.1201000000   37.5507000000
C     36.4972000000   12.2725000000   35.4499000000
C     37.6892000000   10.7140000000   36.9765000000
C     40.0525000000   10.5026000000   34.4919000000
C     40.4147000000    9.8707600000   33.3060000000
C     40.8649000000    7.1611800000   29.0207000000
C     40.1765000000    6.4264500000   29.9954000000
C     40.8655000000    5.5932900000   30.8719000000
C     42.2573000000    5.4604200000   30.7817000000
C     43.0033000000    4.6166200000   31.7828000000
N     43.2062000000    3.1537300000   31.3610000000
C     44.0799000000    3.0529900000   30.1259000000
C     43.9252000000    2.4443100000   32.5230000000
C     41.8799000000    2.4624700000   31.1247000000
C     42.9371000000    6.1226200000   29.7531000000
C     42.2442000000    6.9455900000   28.8713000000
C     39.5081000000    8.7648800000   25.0751000000
C     40.2325000000    7.6450900000   24.6450000000
C     41.5527000000    7.7785900000   24.2210000000
C     42.1704000000    9.0368300000   24.1938000000
C     43.6356000000    9.1663400000   23.8624000000
N     43.9630000000    9.2981100000   22.3712000000
C     45.4944000000    9.2553600000   22.2368000000
C     43.3707000000    8.1844700000   21.5529000000
C     43.4789000000   10.6496000000   21.8425000000
C     41.4152000000   10.1688000000   24.5112000000
C     40.0927000000   10.0334000000   24.9269000000
C     35.0661000000    9.4870000000   25.5189000000
C     35.3508000000   10.2790000000   24.4000000000
C     35.4953000000   11.6624000000   24.5309000000
C     35.3346000000   12.2867000000   25.7764000000
C     35.5588000000   13.7750000000   25.9335000000
N     34.3119000000   14.6360000000   25.7573000000
C     33.2760000000   14.3610000000   26.8385000000
C     34.7437000000   16.1157000000   25.8990000000
C     33.6935000000   14.4604000000   24.3890000000
C     34.9584000000   11.5089000000   26.8753000000
C     34.8034000000   10.1320000000   26.7409000000
C     33.1873000000    5.4903400000   26.0920000000
C     32.0938000000    6.3180300000   26.3971000000
C     31.7626000000    6.6137500000   27.7113000000
C     32.4867000000    6.0492400000   28.7659000000
C     32.1348000000    6.4073600000   30.1904000000
N     30.9404000000    5.6515200000   30.7659000000
C     30.6507000000    6.2479000000   32.1598000000
C     29.6766000000    5.7942600000   29.9388000000
C     31.2758000000    4.1782800000   30.9360000000
C     33.5259000000    5.1638400000   28.4742000000
C     33.8608000000    4.8723500000   27.1529000000
C     33.6919000000    3.0487500000   22.3460000000
C     33.3359000000    2.0417200000   23.2404000000
C     34.3228000000    1.2105800000   23.7783000000
C     35.6725000000    1.3594800000   23.4246000000
C     36.7319000000    0.4675830000   24.0272000000
N     37.1917000000   -0.6864740000   23.1124000000
C     37.9371000000   -0.1898650000   21.8883000000
C     38.1528000000   -1.5630800000   23.9297000000
C     36.0010000000   -1.5237100000   22.6916000000
C     36.0210000000    2.3361400000   22.4868000000
C     35.0379000000    3.1448500000   21.9356000000
C     31.9417000000    6.4261300000   19.3210000000
C     33.2473000000    5.9194700000   19.2990000000
C     34.3911000000    6.5412600000   18.7538000000
C     34.3162000000    7.7621200000   18.1115000000
C     35.6149000000    8.3285700000   17.5261000000
N     35.7616000000    8.4571800000   16.0014000000
C     35.3213000000    7.2484600000   15.2355000000
C     34.9929000000    9.6855700000   15.5046000000
C     37.2545000000    8.6911400000   15.6524000000
C     33.0390000000    8.3496900000   18.1267000000
C     31.8832000000    7.6985500000   18.7135000000
C     27.3281000000    5.5578300000   20.0215000000
C     27.1221000000    5.5787900000   21.4104000000
C     27.1769000000    6.7776500000   22.1168000000
C     27.4251000000    7.9825400000   21.4493000000
C     27.6941000000    9.2524300000   22.2238000000
N     29.1336000000    9.3563700000   22.8027000000
C     29.4001000000    8.2842700000   23.8465000000
C     30.1611000000    9.2981600000   21.7089000000
C     29.2485000000   10.7114000000   23.5149000000
C     27.4938000000    7.9754800000   20.0497000000
C     27.4282000000    6.7743200000   19.3399000000
C     26.5914000000    1.1944700000   19.0661000000
C     25.3702000000    1.3272500000   19.7591000000
C     25.1426000000    0.6814970000   20.9681000000
C     26.1198000000   -0.1397260000   21.5281000000
C     25.7411000000   -1.0285400000   22.6903000000
N     25.0489000000   -2.3461400000   22.2568000000
C     23.7776000000   -2.1084100000   21.4533000000
C     25.9926000000   -3.1712200000   21.4315000000
C     24.6623000000   -3.1170400000   23.5237000000
C     27.3757000000   -0.2141450000   20.9098000000
C     27.6110000000    0.4522500000   19.7009000000
C     27.1629000000    0.3366090000   16.7842000000
C     28.0470000000    0.3639690000   15.7026000000
C     28.4005000000   -0.8070470000   15.0543000000
C     27.9596000000   -2.0466800000   15.5232000000
C     28.3695000000   -3.3946200000   14.9070000000
C     29.3806000000   -3.2114600000   13.7209000000
C     30.7750000000   -2.7264000000   14.1489000000
C     31.7292000000   -2.5979300000   12.9773000000
C     33.0145000000   -1.9851900000   13.5125000000
C     33.9902000000   -1.7192800000   12.3750000000
C     35.1973000000   -0.9578680000   12.8838000000
C     36.0641000000   -0.4611790000   11.7195000000
C     37.2323000000    0.4383570000   12.1806000000
C     38.1753000000   -0.2053080000   13.2312000000
C     38.5391000000   -1.6299700000   12.7523000000
C     39.0974000000   -1.6519900000   11.3164000000
C     40.4416000000   -0.9753940000   11.2013000000
C     41.4262000000   -1.6278800000   12.2197000000
C     41.4635000000   -3.1623500000   12.0836000000
C     42.0695000000   -3.6279500000   10.7065000000
C     43.4631000000   -2.9866200000   10.5711000000
C     44.3949000000   -3.2147100000   11.7728000000
C     44.7600000000   -4.6920600000   11.9354000000
C     45.3959000000   -5.2013600000   10.6195000000
C     46.5537000000   -4.3306600000   10.1089000000
C     47.7845000000   -4.3994200000   11.0219000000
C     48.2569000000   -5.8725800000   11.1418000000
C     48.4029000000   -6.6087600000    9.7980600000
C     49.5242000000   -6.0324300000    8.9200100000
C     50.8789000000   -6.1202700000    9.6635600000
C     51.2261000000   -7.5148000000   10.1989000000
C     51.4793000000   -8.5553200000    9.0933700000
C     52.6484000000   -8.1150700000    8.1775100000
C     53.9355000000   -7.7093300000    8.9050300000
C     54.6560000000   -8.8445300000    9.6670900000
C     55.0585000000  -10.0028000000    8.7221000000
C     56.1143000000   -9.5686400000    7.7133300000
C     56.4042000000  -10.5812000000    6.5946100000
C     55.2255000000  -10.7618000000    5.6345500000
C     57.6336000000  -10.1098000000    5.8376300000
C     58.7140000000  -10.9804000000    5.6789900000
C     59.8880000000  -10.5468000000    5.0631100000
C     60.0118000000   -9.2255800000    4.6024100000
C     61.3064000000   -8.7830100000    3.9588200000
N     61.2806000000   -8.6343200000    2.4347900000
C     60.8156000000   -9.9309900000    1.7784100000
C     60.4104000000   -7.4860100000    1.9700000000
C     62.7214000000   -8.3534200000    1.9720800000
C     58.9244000000   -8.3571900000    4.7497200000
C     57.7425000000   -8.8014000000    5.3400800000
C     55.7998000000   -8.3771700000   10.5539000000
C     56.2724000000   -7.0587400000   10.5522000000
C     57.3372000000   -6.6828900000   11.3653000000
C     57.9650000000   -7.6181000000   12.1977000000
C     59.1380000000   -7.2005300000   13.0483000000
N     58.7678000000   -6.7455000000   14.4775000000
C     58.2328000000   -7.9082800000   15.2948000000
C     60.0634000000   -6.2491200000   15.1393000000
C     57.7706000000   -5.6139500000   14.4591000000
C     57.4844000000   -8.9323000000   12.2223000000
C     56.4109000000   -9.3029800000   11.4154000000
C     51.5951000000   -9.9875200000    9.5821400000
C     51.7579000000  -10.3154000000   10.9306000000
C     52.0189000000  -11.6272000000   11.3092000000
C     52.0508000000  -12.6590000000   10.3628000000
C     52.3774000000  -14.0789000000   10.7605000000
N     51.2920000000  -14.8027000000   11.5889000000
C     51.0142000000  -14.1245000000   12.9115000000
C     50.0156000000  -14.9262000000   10.7841000000
C     51.8341000000  -16.2109000000   11.8913000000
C     51.8221000000  -12.3441000000    9.0186700000
C     51.5965000000  -11.0239000000    8.6349700000
C     49.5437000000   -6.5095400000    7.4793300000
C     48.7494000000   -7.5594000000    7.0093300000
C     48.8807000000   -8.0144700000    5.6997800000
C     49.8014000000   -7.4203100000    4.8242500000
C     49.9665000000   -7.9537000000    3.4196700000
N     49.0983000000   -7.2647100000    2.3607200000
C     49.5483000000   -5.8280700000    2.1271200000
C     49.2889000000   -8.0385000000    1.0410100000
C     47.6328000000   -7.2942500000    2.7266300000
C     50.5538000000   -6.3303100000    5.2702100000
C     50.4123000000   -5.8711300000    6.5766700000
C     48.8840000000   -3.4041700000   10.6936000000
C     48.9191000000   -2.6878700000    9.4927500000
C     50.0345000000   -1.9293800000    9.1557700000
C     51.1102000000   -1.7904800000   10.0408000000
C     52.3440000000   -1.0052500000    9.6555400000
N     52.1653000000    0.5140120000    9.5342400000
C     51.1775000000    0.9162660000    8.4546400000
C     51.7538000000    1.1146200000   10.8622000000
C     53.5361000000    1.0998900000    9.1306500000
C     51.0428000000   -2.4412400000   11.2789000000
C     49.9435000000   -3.2375200000   11.6000000000
C     45.4982000000   -5.0593400000   13.2104000000
C     46.0048000000   -4.1071800000   14.1022000000
C     46.7785000000   -4.5016800000   15.1901000000
C     47.0470000000   -5.8576800000   15.4220000000
C     47.9342000000   -6.2708400000   16.5685000000
N     47.1999000000   -6.5078200000   17.8988000000
C     46.3065000000   -7.7329400000   17.8102000000
C     48.2736000000   -6.7668600000   18.9690000000
C     46.3881000000   -5.3011200000   18.3133000000
C     46.4819000000   -6.8167400000   14.5757000000
C     45.7033000000   -6.4201300000   13.4935000000
C     41.9416000000   -5.0914500000   10.4296000000
C     41.6445000000   -6.0432400000   11.4058000000
C     41.7253000000   -7.4005300000   11.1107000000
C     42.0155000000   -7.8419400000    9.8128100000
C     42.1433000000   -9.3129300000    9.4909100000
N     40.8323000000  -10.1265000000    9.5532700000
C     40.2045000000  -10.1282000000   10.9234000000
C     39.8507000000   -9.6021600000    8.5181100000
C     41.1943000000  -11.5812000000    9.1980200000
C     42.2344000000   -6.8877000000    8.8141300000
C     42.1965000000   -5.5286700000    9.1194900000
C     40.9409000000   -0.7797310000    9.7861500000
C     40.3016000000   -1.3611400000    8.6773100000
C     40.8628000000   -1.2620700000    7.4071500000
C     42.0534000000   -0.5570950000    7.2108800000
C     42.6708000000   -0.4887380000    5.8363200000
N     42.1434000000    0.6206800000    4.9382200000
C     42.5441000000    1.9897500000    5.4693000000
C     42.7795000000    0.4353400000    3.5491400000
C     40.6319000000    0.5683060000    4.7689700000
C     42.6492000000    0.0941680000    8.2960200000
C     42.0836000000   -0.0024518000    9.5657900000
C     39.3289000000    0.7060120000   13.6746000000
C     39.6490000000    1.8772100000   12.9739000000
C     40.8135000000    2.5902300000   13.2475000000
C     41.6616000000    2.2270500000   14.2959000000
C     42.9510000000    2.9870100000   14.5415000000
N     42.8000000000    4.4368500000   15.0451000000
C     42.0757000000    5.3395100000   14.0523000000
C     42.1019000000    4.4686700000   16.3787000000
C     44.2216000000    5.0204900000   15.2051000000
C     41.3111000000    1.1050400000   15.0610000000
C     40.1600000000    0.3561460000   14.7539000000
C     34.7954000000    0.2629850000   13.6547000000
C     34.0090000000    1.2296400000   12.9960000000
C     33.8720000000    2.4380700000   13.5685000000
C     34.5288000000    2.7072100000   14.7518000000
C     34.1756000000    3.9394400000   15.4570000000
N     33.1172000000    3.6849400000   16.5195000000
C     33.7960000000    3.2530500000   17.8084000000
C     32.3702000000    4.9848900000   16.5701000000
C     32.0867000000    2.5984100000   16.1976000000
C     35.3036000000    1.7452900000   15.4345000000
C     35.3778000000    0.4849630000   14.8921000000
C     31.9959000000   -3.9498800000   12.3663000000
C     31.6793000000   -4.1711900000   11.0251000000
C     31.9494000000   -5.4045300000   10.4491000000
C     32.5405000000   -6.4244900000   11.2087000000
C     32.9494000000   -7.7204700000   10.5688000000
N     34.3526000000   -7.7178200000    9.9529200000
C     35.4116000000   -7.3065300000   10.9707000000
C     34.6504000000   -9.1276100000    9.4667900000
C     34.4188000000   -6.7559200000    8.7648900000
C     32.8375000000   -6.2052400000   12.5588000000
C     32.5738000000   -4.9755900000   13.1287000000
C     29.1963000000   -4.1639600000   16.0227000000
C     28.6401000000   -4.5784500000   17.3819000000
C     27.5127000000   -5.5915600000   17.3156000000
C     27.9481000000   -6.8714800000   16.5641000000
C     29.2112000000   -7.6319300000   17.0202000000
C     29.0991000000   -8.2551500000   18.4099000000
C     27.7840000000   -9.0596100000   18.5395000000
C     27.4568000000  -10.0464000000   17.4062000000
C     28.4363000000  -11.2117000000   17.2403000000
C     28.6605000000  -11.8648000000   18.6221000000
C     27.3923000000  -12.3003000000   19.3693000000
C     26.7145000000  -13.5234000000   18.7534000000
C     27.7787000000  -14.6322000000   18.5984000000
C     28.4958000000  -15.0363000000   19.9023000000
C     27.6172000000  -15.8826000000   20.8317000000
C     27.0259000000  -17.0416000000   19.9996000000
C     28.0791000000  -17.8876000000   19.2560000000
C     28.8423000000  -18.8363000000   20.1856000000
C     27.7927000000  -19.6605000000   20.9729000000
C     26.7462000000  -20.3587000000   20.0750000000
C     27.3537000000  -21.5205000000   19.2809000000
C     28.0475000000  -22.4682000000   20.2883000000
C     27.1367000000  -22.9210000000   21.4424000000
C     26.0906000000  -23.9429000000   20.9880000000
C     26.8339000000  -25.1327000000   20.3316000000
C     27.9771000000  -25.7089000000   21.1898000000
C     27.4638000000  -26.4400000000   22.4375000000
C     26.4742000000  -27.5449000000   21.9861000000
C     27.0288000000  -28.4882000000   20.9050000000
C     28.0977000000  -29.4567000000   21.4357000000
C     27.5204000000  -30.2925000000   22.5994000000
C     26.1804000000  -30.9606000000   22.2894000000
C     26.2408000000  -32.1306000000   21.2793000000
C     27.2066000000  -33.2428000000   21.7774000000
C     26.6822000000  -33.8415000000   23.0726000000
C     27.5813000000  -34.8266000000   23.8246000000
C     28.8635000000  -34.1834000000   24.3531000000
C     26.6988000000  -35.3457000000   24.9528000000
C     26.2294000000  -36.6599000000   24.9006000000
C     25.2434000000  -37.0856000000   25.7870000000
C     24.6998000000  -36.2040000000   26.7321000000
C     23.5919000000  -36.6644000000   27.6450000000
N     24.0262000000  -37.1827000000   29.0083000000
C     24.7344000000  -36.1264000000   29.8322000000
C     22.7683000000  -37.6280000000   29.7651000000
C     24.9420000000  -38.3997000000   28.8520000000
C     25.1994000000  -34.8988000000   26.8143000000
C     26.1945000000  -34.4783000000   25.9397000000
C     24.8615000000  -32.6812000000   20.9264000000
C     23.6883000000  -32.2343000000   21.5478000000
C     22.4674000000  -32.8465000000   21.2885000000
C     22.3808000000  -33.9151000000   20.3903000000
C     21.0681000000  -34.6321000000   20.1955000000
N     20.0764000000  -33.9546000000   19.2338000000
C     18.7371000000  -34.6973000000   19.3771000000
C     19.8445000000  -32.4955000000   19.5417000000
C     20.5625000000  -34.1096000000   17.7990000000
C     23.5364000000  -34.3322000000   19.7223000000
C     24.7608000000  -33.7170000000   19.9838000000
C     28.7944000000  -30.2885000000   20.3777000000
C     28.3963000000  -30.3079000000   19.0355000000
C     28.9968000000  -31.1816000000   18.1358000000
C     30.0170000000  -32.0451000000   18.5540000000
C     30.6312000000  -33.0218000000   17.5846000000
N     31.8658000000  -32.4901000000   16.8386000000
C     33.0187000000  -32.2435000000   17.8000000000
C     32.2952000000  -33.5852000000   15.8469000000
C     31.5527000000  -31.2317000000   16.0654000000
C     30.4612000000  -31.9837000000   19.8790000000
C     29.8681000000  -31.1024000000   20.7737000000
C     28.5373000000  -26.9250000000   23.3983000000
C     29.9048000000  -26.8734000000   23.1043000000
C     30.8239000000  -27.5431000000   23.9096000000
C     30.3976000000  -28.2588000000   25.0367000000
C     31.3725000000  -29.1130000000   25.8120000000
N     32.1535000000  -28.3957000000   26.9125000000
C     33.2105000000  -29.3873000000   27.4354000000
C     32.8630000000  -27.1610000000   26.4099000000
C     31.2312000000  -28.0316000000   28.0698000000
C     29.0504000000  -28.2089000000   25.4016000000
C     28.1346000000  -27.5307000000   24.6002000000
C     25.0587000000  -24.3152000000   22.0405000000
C     25.1468000000  -23.9039000000   23.3775000000
C     24.2563000000  -24.3910000000   24.3306000000
C     23.2409000000  -25.2838000000   23.9678000000
C     22.3133000000  -25.8474000000   25.0173000000
N     21.0716000000  -24.9979000000   25.3031000000
C     20.1459000000  -24.9696000000   24.0959000000
C     20.3179000000  -25.6630000000   26.4705000000
C     21.4265000000  -23.5861000000   25.7153000000
C     23.0980000000  -25.6358000000   22.6217000000
C     23.9855000000  -25.1412000000   21.6684000000
C     26.4272000000  -22.2108000000   18.2921000000
C     25.0556000000  -21.9422000000   18.2103000000
C     24.2231000000  -22.7445000000   17.4287000000
C     24.7440000000  -23.8185000000   16.6932000000
C     23.8248000000  -24.7604000000   15.9496000000
N     23.4261000000  -24.3254000000   14.5399000000
C     22.3631000000  -25.3222000000   14.0338000000
C     22.8187000000  -22.9377000000   14.5136000000
C     24.6191000000  -24.3893000000   13.5986000000
C     26.1261000000  -24.0247000000   16.6903000000
C     26.9571000000  -23.2167000000   17.4653000000
C     29.9511000000  -19.6412000000   19.5178000000
C     30.1426000000  -19.6730000000   18.1286000000
C     31.0445000000  -20.5673000000   17.5521000000
C     31.8010000000  -21.4353000000   18.3499000000
C     32.7231000000  -22.4519000000   17.7135000000
N     34.1309000000  -21.9376000000   17.3934000000
C     34.8958000000  -21.6434000000   18.6765000000
C     34.8749000000  -23.0572000000   16.6396000000
C     34.1054000000  -20.7113000000   16.5104000000
C     31.6838000000  -21.3446000000   19.7398000000
C     30.7855000000  -20.4437000000   20.3149000000
C     28.2746000000  -16.3215000000   22.1347000000
C     29.6454000000  -16.1833000000   22.3846000000
C     30.2356000000  -16.7600000000   23.5091000000
C     29.4637000000  -17.4780000000   24.4302000000
C     30.1161000000  -18.1434000000   25.6224000000
N     30.2158000000  -17.2696000000   26.8724000000
C     28.8336000000  -16.9540000000   27.4328000000
C     30.9849000000  -18.0690000000   27.9463000000
C     30.9710000000  -15.9854000000   26.6163000000
C     28.0815000000  -17.5563000000   24.2291000000
C     27.4943000000  -16.9683000000   23.1067000000
C     25.4245000000  -13.9390000000   19.4503000000
C     25.0128000000  -13.4092000000   20.6817000000
C     23.8865000000  -13.9058000000   21.3414000000
C     23.1348000000  -14.9518000000   20.7929000000
C     21.9540000000  -15.5101000000   21.5647000000
N     20.5697000000  -15.1920000000   20.9990000000
C     20.2686000000  -15.9847000000   19.7294000000
C     19.5215000000  -15.6184000000   22.0530000000
C     20.4001000000  -13.7128000000   20.7340000000
C     23.5184000000  -15.4579000000   19.5454000000
C     24.6230000000  -14.9322000000   18.8684000000
C     28.0642000000  -12.1716000000   16.1087000000
C     26.8378000000  -12.1070000000   15.4268000000
C     26.4740000000  -13.0862000000   14.4993000000
C     27.3262000000  -14.1501000000   14.2023000000
C     26.8822000000  -15.2389000000   13.2469000000
N     27.1465000000  -14.9772000000   11.7660000000
C     26.5910000000  -13.6463000000   11.2988000000
C     28.6336000000  -15.0515000000   11.4611000000
C     26.4414000000  -16.0879000000   10.9519000000
C     28.5854000000  -14.1833000000   14.8171000000
C     28.9531000000  -13.1950000000   15.7412000000
C     30.3127000000   -8.9948000000   18.9575000000
C     30.3520000000   -9.2420000000   20.3441000000
C     31.3484000000  -10.0317000000   20.9153000000
C     32.3658000000  -10.5741000000   20.1227000000
C     33.4120000000  -11.4607000000   20.7700000000
N     33.3028000000  -12.9650000000   20.4811000000
C     33.6048000000  -13.2965000000   19.0293000000
C     34.3422000000  -13.6928000000   21.3552000000
C     31.9291000000  -13.4903000000   20.8425000000
C     32.3699000000  -10.2752000000   18.7506000000
C     31.3560000000   -9.4954500000   18.1735000000
C     26.8519000000   -5.8386500000   18.6648000000
C     25.5259000000   -6.2960300000   18.6806000000
C     24.9212000000   -6.6777400000   19.8759000000
C     25.6330000000   -6.6263300000   21.0832000000
C     25.0025000000   -7.1043200000   22.3698000000
N     25.1074000000   -8.6022700000   22.6124000000
C     24.3552000000   -8.9139200000   23.9237000000
C     24.4653000000   -9.4090200000   21.4988000000
C     26.5569000000   -9.0252100000   22.7858000000
C     26.9478000000   -6.1437500000   21.0771000000
C     27.5321000000   -5.7138500000   19.8868000000
C     27.1314000000   -4.1340500000   14.3010000000
C     25.8372000000   -3.5756500000   14.3198000000
C     24.7187000000   -4.2774700000   13.8860000000
C     24.8461000000   -5.5525100000   13.3457000000
C     23.6168000000   -6.2723900000   12.8575000000
N     23.1963000000   -5.9536600000   11.4266000000
C     21.8341000000   -6.6175600000   11.1615000000
C     23.0670000000   -4.4662800000   11.1510000000
C     24.2054000000   -6.5439700000   10.4381000000
C     26.1262000000   -6.0935800000   13.2208000000
C     27.2482000000   -5.3861100000   13.6755000000
C     27.0437000000   -2.0549600000   16.5826000000
C     26.6126000000   -0.8930520000   17.1634000000
C     22.8520000000    1.3732300000   15.3680000000
C     21.6760000000    1.4883000000   16.1184000000
C     20.8776000000    0.3692450000   16.3677000000
C     21.2548000000   -0.8920450000   15.8921000000
C     20.3649000000   -2.0906100000   16.0731000000
N     19.6585000000   -2.5750200000   14.7905000000
C     20.5942000000   -3.0621100000   13.7131000000
C     18.7574000000   -3.7519800000   15.1650000000
C     18.8447000000   -1.4254500000   14.2033000000
C     22.4492000000   -1.0121300000   15.1830000000
C     23.2087000000    0.1050020000   14.8843000000
C     25.0321000000    4.7532300000   13.0445000000
C     24.3093000000    4.1949300000   11.9800000000
C     24.8630000000    3.2177700000   11.1659000000
C     26.1810000000    2.8039100000   11.3565000000
C     26.7624000000    1.7813600000   10.4220000000
N     27.2379000000    2.3090200000    9.0773100000
C     28.4125000000    3.2593000000    9.2606800000
C     27.6717000000    1.1293800000    8.2120200000
C     26.1360000000    3.0554300000    8.3068500000
C     26.9377000000    3.3952100000   12.3757000000
C     26.3710000000    4.3724400000   13.2011000000
C     20.6425000000    7.5493700000   12.6795000000
C     20.0841000000    6.8527500000   11.6044000000
C     20.1516000000    7.3609700000   10.3067000000
C     20.8037000000    8.5750800000   10.0536000000
C     20.8320000000    9.1668200000    8.6656700000
N     19.8787000000   10.3407000000    8.4381100000
C     20.1977000000   11.5463000000    9.3414400000
C     20.0512000000   10.8205000000    6.9894700000
C     18.4394000000    9.9238600000    8.6579600000
C     21.3894000000    9.2635200000   11.1195000000
C     21.2772000000    8.7832700000   12.4168000000
C     19.3354000000    7.2658700000   17.0448000000
C     18.7146000000    8.4601800000   16.6505000000
C     19.3784000000    9.6740300000   16.7630000000
C     20.6525000000    9.7383900000   17.3312000000
C     21.3684000000   11.0586000000   17.4316000000
N     20.8824000000   11.9931000000   18.5254000000
C     21.0274000000   11.3519000000   19.8954000000
C     21.7299000000   13.2691000000   18.4704000000
C     19.4219000000   12.4174000000   18.3337000000
C     21.2404000000    8.5637800000   17.8157000000
C     20.5824000000    7.3431500000   17.6831000000
C     14.4971000000    5.6272300000   15.5065000000
C     13.9870000000    6.8719300000   15.1315000000
C     13.0991000000    7.5459300000   15.9689000000
C     12.7060000000    6.9955400000   17.1987000000
C     11.7018000000    7.6956200000   18.0808000000
N     10.3125000000    7.0515400000   18.1472000000
C      9.4216000000    7.9204500000   19.0508000000
C      9.6686300000    6.9760200000   16.7772000000
C     10.3332000000    5.6542100000   18.7475000000
C     13.2464000000    5.7691300000   17.5844000000
C     14.0975000000    5.0790600000   16.7368000000
C     15.8620000000    2.2306800000   12.8640000000
C     14.5573000000    1.7614600000   13.1093000000
C     14.2515000000    1.0335200000   14.2482000000
C     15.2486000000    0.6983600000   15.1576000000
C     14.8938000000   -0.1102290000   16.3795000000
N     14.5845000000   -1.5909900000   16.1071000000
C     13.2616000000   -1.7811000000   15.3429000000
C     15.6704000000   -2.2396400000   15.3227000000
C     14.4297000000   -2.2953600000   17.4580000000
C     16.5639000000    1.1098300000   14.8980000000
C     16.8743000000    1.8375200000   13.7450000000
C     12.7300000000    3.7419200000    9.0145300000
C     11.5427000000    3.3110100000    9.6177300000
C     10.9130000000    2.1420900000    9.1816300000
C     11.4864000000    1.3532500000    8.1788200000
C     10.7577000000    0.1429060000    7.6427500000
N     10.0458000000    0.3399180000    6.3083600000
C      9.4209500000   -1.0036600000    5.8942200000
C      8.9224600000    1.3654300000    6.4434100000
C     10.9707000000    0.7732470000    5.1752800000
C     12.6952000000    1.7576700000    7.6046700000
C     13.2798000000    2.9606100000    7.9902000000
C     13.9685000000    8.0456100000    8.5834900000
C     13.3335000000    7.8607600000    7.3447100000
C     14.0268000000    7.3464200000    6.2586200000
C     15.3843000000    7.0467000000    6.3672600000
C     16.1270000000    6.5142800000    5.1714400000
N     16.5329000000    7.5605400000    4.1511400000
C     15.3162000000    8.2476000000    3.5067600000
C     17.4241000000    8.6163000000    4.7683300000
C     17.3045000000    6.8585600000    3.0260300000
C     16.0434000000    7.2892600000    7.5793700000
C     15.3469000000    7.8067400000    8.6686700000
C      9.0116000000    9.7813700000    9.3769900000
C      8.4906900000    9.4393500000    8.1271200000
C      8.2620900000   10.4232000000    7.1645500000
C      8.5955800000   11.7584000000    7.4188100000
C      8.3151000000   12.8276000000    6.3872600000
N      7.1909300000   13.8006000000    6.7314600000
C      7.4560100000   14.6322000000    7.9758400000
C      7.0493900000   14.7815000000    5.5521700000
C      5.8688500000   13.0575000000    6.8978400000
C      9.1658400000   12.0900000000    8.6512300000
C      9.3301700000   11.1236000000    9.6311900000
C      8.4087500000    7.7801700000   13.3561000000
C      7.4991800000    8.8365200000   13.5235000000
C      7.9387600000   10.1024000000   13.9233000000
C      9.2937600000   10.3412000000   14.1768000000
C      9.7945500000   11.7310000000   14.4843000000
N      9.7300700000   12.1444000000   15.9517000000
C     10.3004000000   13.5671000000   16.0739000000
C      8.2711200000   12.1966000000   16.4360000000
C     10.5199000000   11.2281000000   16.8322000000
C     10.1848000000    9.2673100000   14.1080000000
C      9.7423000000    7.9975000000   13.7349000000
C      3.8140700000    5.0629400000   12.4944000000
C      2.7398200000    5.9649100000   12.5304000000
C      2.0232100000    6.1930500000   13.7066000000
C      2.3656700000    5.5315500000   14.8878000000
C      1.5861900000    5.8045000000   16.1532000000
N      0.6464870000    4.6958700000   16.6208000000
C     -0.4355200000    4.4476700000   15.5631000000
C      1.3493000000    3.3913900000   16.9251000000
C     -0.0460036000    5.1745000000   17.9075000000
C      3.4284700000    4.6199500000   14.8585000000
C      4.1154000000    4.3622100000   13.6727000000
C      3.3729700000    6.4742600000    7.1334900000
C      3.2216300000    5.5818200000    6.0629100000
C      1.9693000000    5.3650000000    5.4854300000
C      0.8379720000    6.0355300000    5.9679600000
C     -0.5153800000    5.8339600000    5.3218100000
N     -1.4068800000    4.7752400000    5.9821200000
C     -0.7876870000    3.3955200000    5.8743900000
C     -1.7044800000    5.0965300000    7.4358400000
C     -2.7476000000    4.7640300000    5.2198200000
C      0.9825020000    6.9026000000    7.0574300000
C      2.2321700000    7.1151000000    7.6362600000
H      6.0037400000    8.3282300000    8.4541400000
H      4.3268200000    8.4987800000    8.9389900000
H      4.7975600000    8.8602500000    7.2762700000
H      5.4682000000    6.5587500000    6.8728900000
H      6.1950400000    5.8817700000    9.0344300000
H      5.0689300000    4.6884800000    8.4087900000
H      3.2549000000    5.6050300000    9.8117800000
H      4.3334500000    6.8501800000   10.4369000000
H      4.5172500000    3.8387900000   10.9001000000
H      6.7826000000    4.7906900000   10.7275000000
H      6.4762100000    4.1915500000   12.3194000000
H      5.9762600000    6.4808000000   13.1687000000
H      6.2663600000    7.1544700000   11.5747000000
H      8.2834500000    5.6740300000   13.3232000000
H      8.7779600000    5.2968900000   10.9518000000
H     10.0123000000    6.2313500000   11.6796000000
H      7.7462500000    7.3519200000    9.9370700000
H      9.3179000000    6.8970400000    9.3466900000
H      8.7557700000    9.1565000000   11.3123000000
H     11.0339000000    8.0821100000   11.5542000000
H     11.0971000000    9.7871500000   11.2366000000
H     11.5978000000    9.4267000000    8.8834400000
H     11.2840000000    7.7071500000    9.0388600000
H     13.5873000000    9.2740400000   10.2749000000
H     12.9568000000    7.5395600000   11.8566000000
H     14.4514000000    7.1094900000   11.1442000000
H     11.7296000000    6.0097400000   10.2315000000
H     12.6813000000    5.2808600000   11.4744000000
H     13.5360000000    5.5847200000    8.5436600000
H     15.4580000000    5.5141100000   10.1944000000
H     15.5052000000    4.2318400000    9.0251400000
H     14.5378000000    2.6271400000   10.5334000000
H     14.1215000000    3.8850600000   11.6905000000
H     16.8891000000    2.8259900000   11.0900000000
H     17.0591000000    5.2177700000   11.5223000000
H     17.7084000000    4.3440700000   12.8527000000
H     14.9114000000    5.6178200000   12.7654000000
H     16.3256000000    6.4063600000   13.3850000000
H     15.0491000000    3.8909800000   14.5528000000
H     17.5215000000    4.1002700000   14.9642000000
H     16.5955000000    4.0250300000   16.4265000000
H     16.6983000000    6.4589100000   16.7338000000
H     17.4390000000    6.6545800000   15.1578000000
H     18.6639000000    5.3337500000   17.6102000000
H     19.4442000000    4.0959600000   15.6919000000
H     20.7413000000    5.0635200000   16.2600000000
H     18.9254000000    5.7907500000   13.8925000000
H     20.3912000000    4.8871800000   13.7366000000
H     20.1745000000    7.7957300000   14.6831000000
H     22.1631000000    6.5473300000   15.5991000000
H     22.6093000000    7.9333400000   14.6572000000
H     23.0362000000    6.5725400000   12.6554000000
H     22.3971000000    5.1533800000   13.4667000000
H     24.9808000000    6.6094100000   14.0922000000
H     24.0506000000    5.8825100000   16.1888000000
H     25.3664000000    4.8549300000   15.8016000000
H     22.3975000000    4.1479700000   15.3505000000
H     23.2709000000    3.7837000000   16.7966000000
H     23.7664000000    2.6484600000   13.9993000000
H     25.9082000000    2.9540000000   15.2073000000
H     25.5640000000    1.2930200000   14.9404000000
H     24.6200000000    1.1237300000   17.2536000000
H     24.9534000000    2.8250300000   17.5232000000
H     27.6860000000    2.9965300000   16.1586000000
H     28.7185000000    2.5038500000   17.4255000000
H     26.3613000000    4.4922600000   17.6104000000
H     28.0346000000    4.8881500000   17.3655000000
H     26.7820000000    3.5770000000   19.7954000000
H     29.0208000000    2.6045100000   19.3962000000
H     28.9490000000    3.4692600000   20.8399000000
H     30.0064000000    4.5600200000   18.1415000000
H     31.0118000000    3.6358900000   19.2346000000
H     29.8922000000    6.3996900000   19.7373000000
H     29.5082000000    5.2005700000   21.7064000000
H     30.7927000000    6.2260600000   22.0120000000
H     30.8681000000    3.1137900000   21.5220000000
H     30.9503000000    3.8917200000   23.0574000000
H     32.8098000000    3.8708600000   20.7812000000
H     32.6962000000    6.3088700000   21.6288000000
H     34.2138000000    5.7260800000   21.9735000000
H     31.7201000000    5.5751800000   23.8505000000
H     32.6936000000    6.9729200000   23.7343000000
H     33.6547000000    4.1892700000   24.5774000000
H     35.4390000000    5.3135200000   23.3565000000
H     35.8359000000    5.2939000000   24.9796000000
H     34.5016000000    7.6886700000   23.4267000000
H     36.1748000000    7.5315800000   23.6582000000
H     34.0928000000    7.7477000000   25.8882000000
H     35.8705000000    6.2684500000   26.6455000000
H     36.0730000000    7.7263500000   27.4463000000
H     37.5593000000    6.7999200000   24.8412000000
H     38.1679000000    6.5749700000   26.4062000000
H     37.5372000000    9.2825800000   25.1176000000
H     37.0646000000    9.4249800000   27.5032000000
H     38.4963000000   10.2649000000   27.2285000000
H     38.2296000000    7.3064700000   28.2178000000
H     38.3637000000    8.6365300000   29.2598000000
H     40.4458000000    7.8460700000   27.1583000000
H     40.4900000000   10.2458000000   27.4047000000
H     41.8542000000    9.6600700000   28.2186000000
H     39.1107000000   10.4627000000   29.4638000000
H     40.4697000000   11.4829000000   29.3913000000
H     40.3593000000    8.7993600000   30.8661000000
H     42.6136000000    9.1538900000   30.0410000000
H     42.6519000000    9.4107000000   31.7191000000
H     42.4503000000   11.5827000000   29.5069000000
H     43.9157000000   11.0615000000   30.2060000000
H     41.6128000000   12.3715000000   31.7402000000
H     42.7518000000   10.8533000000   33.2249000000
H     43.2225000000   12.4255000000   33.6962000000
H     44.7949000000   10.4616000000   31.9122000000
H     45.0068000000   10.6317000000   33.5970000000
H     45.5228000000   12.8312000000   31.5116000000
H     44.8346000000   13.7985000000   33.7219000000
H     46.4830000000   14.2021000000   33.3516000000
H     47.2973000000   12.3411000000   34.7343000000
H     45.6580000000   11.7947000000   35.0246000000
H     46.7639000000   14.4254000000   36.0499000000
H     44.1166000000   12.9811000000   36.6539000000
H     44.3013000000   14.5296000000   35.8269000000
H     44.7462000000   14.3798000000   37.5320000000
H     48.5666000000   13.9077000000   37.4557000000
H     49.8314000000   12.3265000000   38.8103000000
H     50.2270000000    9.9969500000   39.3702000000
H     49.0068000000    8.7604500000   39.0755000000
H     47.2739000000    8.2964100000   40.7884000000
H     46.7615000000   10.0092000000   40.9341000000
H     47.3482000000    9.1343700000   42.3736000000
H     49.6491000000    7.6946500000   41.1309000000
H     49.6596000000    8.6130300000   42.6758000000
H     50.8676000000    8.9874700000   41.3905000000
H     48.4200000000   11.7668000000   41.2675000000
H     50.1675000000   11.3541000000   41.4007000000
H     49.0262000000   10.9289000000   42.7266000000
H     46.6228000000    9.4449600000   38.4740000000
H     45.3462000000   11.0353000000   37.1440000000
H     46.7630000000    9.6637700000   32.4764000000
H     49.0291000000    8.9128100000   32.1750000000
H     51.4352000000    9.6504300000   32.4700000000
H     51.9598000000   11.2413000000   31.9058000000
H     53.0150000000    8.4040300000   31.3034000000
H     53.7638000000    9.9946400000   30.9020000000
H     53.4347000000    8.7891900000   29.6013000000
H     50.6819000000    7.9477200000   30.6678000000
H     51.1849000000    8.2532700000   28.9734000000
H     49.7946000000    9.1307900000   29.6406000000
H     52.4741000000   11.6672000000   29.6449000000
H     50.7889000000   11.3008000000   29.1270000000
H     52.1550000000   10.4401000000   28.3650000000
H     50.3058000000   12.9770000000   31.4441000000
H     48.0174000000   13.7427000000   31.7346000000
H     43.9610000000   13.2186000000   29.2462000000
H     44.8034000000   15.4572000000   28.8738000000
H     45.5762000000   17.5243000000   29.9057000000
H     45.0399000000   18.0237000000   31.5148000000
H     42.9361000000   19.2305000000   31.7983000000
H     41.9461000000   18.0325000000   30.8940000000
H     41.9731000000   19.7275000000   30.3561000000
H     44.8954000000   20.2597000000   30.7115000000
H     43.8906000000   20.6712000000   29.2706000000
H     45.3994000000   19.7128000000   29.0703000000
H     42.6385000000   17.2777000000   28.6873000000
H     44.1351000000   17.9182000000   27.9354000000
H     42.6753000000   18.9575000000   28.0985000000
H     43.2524000000   16.7000000000   32.7089000000
H     42.3729000000   14.4676000000   33.0800000000
H     38.9044000000   11.9981000000   31.1061000000
H     38.2451000000   13.0675000000   33.1696000000
H     39.0144000000   13.5174000000   35.4995000000
H     39.7983000000   12.2618000000   36.4617000000
H     37.4654000000   14.1258000000   37.1203000000
H     38.3428000000   13.0089000000   38.2276000000
H     36.5505000000   12.8900000000   38.0552000000
H     36.5267000000   13.2723000000   35.0066000000
H     35.5692000000   12.1240000000   36.0074000000
H     36.5646000000   11.5086000000   34.6672000000
H     38.5413000000   10.6258000000   37.6556000000
H     37.7811000000    9.9956200000   36.1565000000
H     36.7465000000   10.5431000000   37.5038000000
H     40.4221000000   10.1054000000   35.4372000000
H     41.0692000000    9.0020300000   33.3670000000
H     39.1096000000    6.5527300000   30.1603000000
H     40.3113000000    5.0875300000   31.6620000000
H     42.4591000000    4.6091400000   32.7360000000
H     43.9939000000    5.0491200000   31.9750000000
H     45.0178000000    3.5867200000   30.3093000000
H     43.5491000000    3.4926100000   29.2778000000
H     44.2678000000    1.9966500000   29.9148000000
H     44.8809000000    2.9489700000   32.6880000000
H     44.0790000000    1.4007800000   32.2357000000
H     43.2865000000    2.5129300000   33.4078000000
H     41.3922000000    2.9133400000   30.2561000000
H     41.2546000000    2.5771800000   32.0157000000
H     42.0664000000    1.4054100000   30.9153000000
H     44.0192000000    6.0446700000   29.6604000000
H     42.8112000000    7.5000100000   28.1245000000
H     39.8280000000    6.6416000000   24.7321000000
H     42.1161000000    6.8819000000   23.9733000000
H     44.1606000000    8.2762900000   24.2329000000
H     44.0695000000   10.0330000000   24.3776000000
H     45.8336000000    8.2820200000   22.6047000000
H     45.9163000000   10.0658000000   22.8363000000
H     45.7460000000    9.3696300000   21.1789000000
H     43.6945000000    7.2236300000   21.9738000000
H     43.7087000000    8.2767200000   20.5199000000
H     42.2780000000    8.2551500000   21.5771000000
H     43.9195000000   11.4429000000   22.4515000000
H     42.3879000000   10.6742000000   21.9023000000
H     43.7864000000   10.7371000000   20.7965000000
H     41.8631000000   11.1633000000   24.5043000000
H     39.5595000000   10.9309000000   25.2441000000
H     35.5544000000    9.8386800000   23.4293000000
H     35.7766000000   12.2515000000   23.6586000000
H     36.2969000000   14.1082000000   25.1924000000
H     35.9794000000   13.9870000000   26.9249000000
H     33.7494000000   14.4790000000   27.8185000000
H     32.9121000000   13.3344000000   26.7152000000
H     32.4423000000   15.0508000000   26.7137000000
H     35.1834000000   16.2446000000   26.8917000000
H     33.8559000000   16.7413000000   25.7750000000
H     35.4806000000   16.3248000000   25.1173000000
H     33.3191000000   13.4354000000   24.3031000000
H     34.4629000000   14.6405000000   23.6273000000
H     32.8620000000   15.1553000000   24.2768000000
H     34.8206000000   11.9623000000   27.8580000000
H     34.5687000000    9.5545500000   27.6360000000
H     31.5115000000    6.8171900000   25.6324000000
H     30.9423000000    7.3044200000   27.9053000000
H     31.9196000000    7.4823500000   30.2498000000
H     32.9947000000    6.2131200000   30.8446000000
H     30.3907000000    7.3020300000   32.0225000000
H     31.5566000000    6.1478600000   32.7632000000
H     29.8174000000    5.6946800000   32.5992000000
H     29.4760000000    6.8582000000   29.7792000000
H     28.8471000000    5.3172200000   30.4644000000
H     29.8207000000    5.2850800000   28.9788000000
H     32.1779000000    4.0921000000   31.5477000000
H     31.4498000000    3.7460500000   29.9457000000
H     30.4273000000    3.6770800000   31.4092000000
H     34.1074000000    4.7132200000   29.2799000000
H     34.7077000000    4.2156300000   26.9636000000
H     32.3131000000    1.9408000000   23.5971000000
H     34.0284000000    0.4648300000   24.5192000000
H     36.3447000000    0.0086240400   24.9460000000
H     37.6187000000    1.0537800000   24.3001000000
H     38.7582000000    0.4593390000   22.2086000000
H     37.2461000000    0.3523080000   21.2399000000
H     38.3206000000   -1.0537700000   21.3372000000
H     39.0109000000   -0.9491690000   24.2185000000
H     38.4696000000   -2.3955000000   23.2950000000
H     37.6171000000   -1.9301400000   24.8088000000
H     35.3491000000   -0.9231910000   22.0544000000
H     35.4642000000   -1.8498800000   23.5910000000
H     36.3626000000   -2.3842100000   22.1234000000
H     37.0571000000    2.5006500000   22.2014000000
H     35.3534000000    3.9267100000   21.2462000000
H     33.4826000000    4.9628700000   19.6964000000
H     35.3440000000    6.0160800000   18.8292000000
H     36.4242000000    7.6480400000   17.8111000000
H     35.8638000000    9.2954700000   17.9828000000
H     34.2601000000    7.0831700000   15.4158000000
H     35.9089000000    6.3929500000   15.5776000000
H     35.4854000000    7.4048600000   14.1628000000
H     33.9301000000    9.4959800000   15.6631000000
H     35.1923000000    9.8079500000   14.4374000000
H     35.3301000000   10.5519000000   16.0783000000
H     37.8107000000    7.7926000000   15.9459000000
H     37.6134000000    9.5613600000   16.2057000000
H     37.3397000000    8.8345900000   14.5711000000
H     32.8980000000    9.3441000000   17.6987000000
H     30.9341000000    8.2372300000   18.6643000000
H     27.0274000000    4.6493700000   21.9725000000
H     27.0961000000    6.7441000000   23.2020000000
H     26.9813000000    9.3570100000   23.0510000000
H     27.5744000000   10.1196000000   21.5613000000
H     29.4034000000    7.3009500000   23.3615000000
H     28.6404000000    8.3269200000   24.6237000000
H     30.3996000000    8.4520100000   24.2670000000
H     30.1009000000    8.3236100000   21.2200000000
H     31.1616000000    9.4026600000   22.1519000000
H     29.9672000000   10.0951000000   20.9916000000
H     28.5085000000   10.7470000000   24.3209000000
H     29.0711000000   11.4968000000   22.7739000000
H     30.2630000000   10.7887000000   23.9181000000
H     27.6495000000    8.8990100000   19.4957000000
H     27.5454000000    6.8157900000   18.2601000000
H     24.5215000000    1.8733200000   19.3518000000
H     24.1543000000    0.7639430000   21.4221000000
H     25.0565000000   -0.5059660000   23.3691000000
H     26.6363000000   -1.3086300000   23.2587000000
H     24.0422000000   -1.6740800000   20.4861000000
H     23.1120000000   -1.4542200000   22.0217000000
H     23.3009000000   -3.0768900000   21.2678000000
H     26.2755000000   -2.6371400000   20.5212000000
H     25.4422000000   -4.0589100000   21.1383000000
H     26.8737000000   -3.4153100000   22.0308000000
H     23.9395000000   -2.5190500000   24.0879000000
H     25.5688000000   -3.3034400000   24.1053000000
H     24.2157000000   -4.0669700000   23.2137000000
H     28.1577000000   -0.8521850000   21.3180000000
H     28.5623000000    0.2872610000   19.1961000000
H     28.4491000000    1.2901000000   15.3052000000
H     29.0307000000   -0.7027420000   14.1769000000
H     28.9634000000   -2.5538100000   12.9474000000
H     29.5268000000   -4.1769200000   13.2259000000
H     31.2333000000   -3.4231000000   14.8552000000
H     30.7274000000   -1.7743700000   14.6825000000
H     31.2931000000   -1.9153800000   12.2366000000
H     33.4927000000   -2.6060500000   14.2842000000
H     32.7384000000   -1.0538500000   14.0214000000
H     33.4751000000   -1.1590700000   11.5846000000
H     34.3288000000   -2.6585800000   11.9223000000
H     35.7605000000   -1.6325900000   13.5375000000
H     35.4643000000    0.1213610000   11.0078000000
H     36.3990000000   -1.3304400000   11.1418000000
H     36.8539000000    1.3866500000   12.5812000000
H     37.7818000000    0.7304020000   11.2797000000
H     37.6311000000   -0.3615020000   14.1614000000
H     37.6483000000   -2.2650700000   12.7557000000
H     39.1911000000   -2.1297700000   13.4750000000
H     38.3910000000   -1.1871400000   10.6207000000
H     39.1284000000   -2.6983700000   10.9733000000
H     40.3250000000    0.0601939000   11.4882000000
H     41.1213000000   -1.4323800000   13.2332000000
H     42.4065000000   -1.1675700000   12.1622000000
H     40.4841000000   -3.6113600000   12.2326000000
H     42.0500000000   -3.5497900000   12.9659000000
H     41.4111000000   -3.1933300000    9.9624600000
H     43.3864000000   -1.9016900000   10.4831000000
H     43.9063000000   -3.2687200000    9.6147000000
H     43.9473000000   -2.8278200000   12.6926000000
H     45.2895000000   -2.5921300000   11.6556000000
H     43.8323000000   -5.2360600000   12.0837000000
H     44.6545000000   -5.1952400000    9.8203200000
H     45.6605000000   -6.2591400000   10.6906000000
H     46.2320000000   -3.2925200000    9.9791200000
H     46.7986000000   -4.6404900000    9.0862300000
H     47.4780000000   -4.0646900000   12.0124000000
H     47.5174000000   -6.4464200000   11.7040000000
H     49.1552000000   -5.9531600000   11.7594000000
H     47.4525000000   -6.5929000000    9.2566100000
H     48.5620000000   -7.6760700000    9.9913100000
H     49.3023000000   -4.9799900000    8.7753100000
H     50.8526000000   -5.4681900000   10.5403000000
H     51.6908000000   -5.7012900000    9.0626300000
H     50.4345000000   -7.8617800000   10.8718000000
H     52.0998000000   -7.4241300000   10.8552000000
H     50.5771000000   -8.6013600000    8.4834400000
H     52.3400000000   -7.2248600000    7.6223300000
H     52.8460000000   -8.8497300000    7.3921000000
H     53.7071000000   -6.8908000000    9.5960500000
H     54.6041000000   -7.2489800000    8.1686100000
H     53.9453000000   -9.2385900000   10.3917000000
H     54.1763000000  -10.3643000000    8.1930800000
H     55.4231000000  -10.8651000000    9.2916700000
H     57.0424000000   -9.3576300000    8.2603400000
H     55.8040000000   -8.6289700000    7.2513400000
H     56.6155000000  -11.5528000000    7.0604300000
H     54.9349000000   -9.8148400000    5.1660700000
H     54.3467000000  -11.1656000000    6.1462400000
H     55.4851000000  -11.4622000000    4.8326700000
H     58.6712000000  -12.0050000000    6.0469600000
H     60.7119000000  -11.2492000000    4.9622800000
H     62.0927000000   -9.5132000000    4.1905200000
H     61.6239000000   -7.8228100000    4.3860000000
H     59.7705000000  -10.1058000000    2.0529400000
H     61.4475000000  -10.7484000000    2.1364300000
H     60.8937000000   -9.8185100000    0.6942080000
H     59.3662000000   -7.7146400000    2.1894200000
H     60.5245000000   -7.3675900000    0.8886070000
H     60.7216000000   -6.5749900000    2.4927500000
H     63.3510000000   -9.1909800000    2.2838700000
H     63.0505000000   -7.4236200000    2.4460400000
H     62.7172000000   -8.2526300000    0.8836700000
H     58.9859000000   -7.3258900000    4.4121100000
H     56.9219000000   -8.0952900000    5.4308300000
H     55.8566000000   -6.3027000000    9.8930200000
H     57.6982000000   -5.6570400000   11.3165000000
H     59.6492000000   -6.3554100000   12.5695000000
H     59.8630000000   -8.0192800000   13.1338000000
H     58.9613000000   -8.7242100000   15.2749000000
H     57.2780000000   -8.2303300000   14.8713000000
H     58.0638000000   -7.5621100000   16.3181000000
H     60.7825000000   -7.0723100000   15.1482000000
H     59.8199000000   -5.9312800000   16.1566000000
H     60.4391000000   -5.4031500000   14.5553000000
H     56.8178000000   -5.9793200000   14.0570000000
H     58.1594000000   -4.8024800000   13.8359000000
H     57.6083000000   -5.2685200000   15.4819000000
H     57.9601000000   -9.6890600000   12.8448000000
H     56.0831000000  -10.3418000000   11.4383000000
H     51.7884000000   -9.5523900000   11.7031000000
H     52.2441000000  -11.8153000000   12.3553000000
H     53.3082000000  -14.0932000000   11.3407000000
H     52.5356000000  -14.6905000000    9.8629700000
H     50.4660000000  -13.1949000000   12.7290000000
H     51.9602000000  -13.9305000000   13.4223000000
H     50.3754000000  -14.7745000000   13.5178000000
H     49.6298000000  -13.9314000000   10.5710000000
H     49.2836000000  -15.4757000000   11.3825000000
H     50.2309000000  -15.4602000000    9.8504100000
H     52.7566000000  -16.1000000000   12.4680000000
H     52.0184000000  -16.7183000000   10.9412000000
H     51.0767000000  -16.7422000000   12.4747000000
H     51.8782000000  -13.1102000000    8.2445500000
H     51.4970000000  -10.8027000000    7.5719800000
H     48.0630000000   -8.0911800000    7.6615400000
H     48.2829000000   -8.8627000000    5.3727600000
H     49.7003000000   -9.0182700000    3.4114700000
H     51.0141000000   -7.8772600000    3.1032000000
H     50.6138000000   -5.8279700000    1.8784800000
H     49.3655000000   -5.2510900000    3.0370300000
H     48.9543000000   -5.4057300000    1.3122400000
H     50.3501000000   -8.0130900000    0.7819340000
H     48.6816000000   -7.5522000000    0.2729820000
H     48.9503000000   -9.0659700000    1.2043500000
H     47.4741000000   -6.6798000000    3.6177700000
H     47.3379000000   -8.3288600000    2.9237000000
H     47.0499000000   -6.8786300000    1.8997300000
H     51.2812000000   -5.8476100000    4.6178100000
H     51.0475000000   -5.0476000000    6.9037700000
H     48.1365000000   -2.7819500000    8.7442900000
H     50.0598000000   -1.4834700000    8.1639200000
H     52.7298000000   -1.3802600000    8.6991600000
H     53.1276000000   -1.1646500000   10.4082000000
H     50.1638000000    0.6765860000    8.8000400000
H     51.4158000000    0.3721920000    7.5371300000
H     51.2357000000    1.9941900000    8.2979800000
H     50.7819000000    0.7022080000   11.1487000000
H     51.6681000000    2.1990300000   10.7440000000
H     52.5059000000    0.8621030000   11.6154000000
H     53.8206000000    0.6553420000    8.1730700000
H     54.2570000000    0.8430710000    9.9115700000
H     53.4267000000    2.1838000000    9.0419900000
H     51.8724000000   -2.3821100000   11.9836000000
H     49.9571000000   -3.7885700000   12.5391000000
H     45.8790000000   -3.0415600000   13.9283000000
H     47.2057000000   -3.7340300000   15.8338000000
H     48.6874000000   -5.4920000000   16.7435000000
H     48.4715000000   -7.1945600000   16.3186000000
H     46.9104000000   -8.5914100000   17.5029000000
H     45.5135000000   -7.5413200000   17.0827000000
H     45.8558000000   -7.9055000000   18.7916000000
H     48.8582000000   -7.6378200000   18.6620000000
H     47.7646000000   -6.9511600000   19.9190000000
H     48.9034000000   -5.8751600000   19.0372000000
H     45.5681000000   -5.1577900000   17.6043000000
H     47.0405000000   -4.4221200000   18.3294000000
H     45.9663000000   -5.4835400000   19.3059000000
H     46.6795000000   -7.8779600000   14.7207000000
H     45.3262000000   -7.1855800000   12.8160000000
H     41.4504000000   -5.7567500000   12.4353000000
H     41.5996000000   -8.1001900000   11.9313000000
H     42.8556000000   -9.7752100000   10.1845000000
H     42.5397000000   -9.4411200000    8.4754000000
H     39.7685000000   -9.1439200000   11.1192000000
H     40.9634000000  -10.3808000000   11.6674000000
H     39.3918000000  -10.8609000000   10.9412000000
H     39.5939000000   -8.5703300000    8.7684400000
H     38.9484000000  -10.2186000000    8.5636100000
H     40.3131000000   -9.6576400000    7.5272200000
H     41.9071000000  -11.9392000000    9.9457500000
H     41.6317000000  -11.5934000000    8.1961200000
H     40.2750000000  -12.1714000000    9.2309700000
H     42.4926000000   -7.1841500000    7.7963200000
H     42.4425000000   -4.8098500000    8.3360600000
H     39.3964000000   -1.9508900000    8.7702200000
H     40.3650000000   -1.7559100000    6.5722400000
H     42.5047000000   -1.4462500000    5.3240400000
H     43.7576000000   -0.3584290000    5.9240400000
H     43.6344000000    2.0103300000    5.5875900000
H     42.0585000000    2.1477000000    6.4335700000
H     42.2124000000    2.7527400000    4.7602500000
H     43.8658000000    0.4715290000    3.6706100000
H     42.4258000000    1.2401100000    2.8996600000
H     42.4680000000   -0.5410470000    3.1666100000
H     40.1589000000    0.7903540000    5.7289900000
H     40.3524000000   -0.4327550000    4.4287300000
H     40.3298000000    1.3253500000    4.0383200000
H     43.5724000000    0.6600910000    8.1683600000
H     42.5939000000    0.4809280000   10.3969000000
H     39.0700000000    2.2114000000   12.1157000000
H     41.0604000000    3.4097100000   12.5745000000
H     43.5471000000    3.0109300000   13.6213000000
H     43.5444000000    2.4626600000   15.3023000000
H     41.0121000000    5.0734600000   14.0550000000
H     42.5182000000    5.2002300000   13.0602000000
H     42.1651000000    6.3738600000   14.3808000000
H     41.0952000000    4.0505000000   16.2626000000
H     42.0253000000    5.5065400000   16.7132000000
H     42.6732000000    3.8730600000   17.0964000000
H     44.7121000000    4.9929100000   14.2286000000
H     44.7583000000    4.4072800000   15.9338000000
H     44.1246000000    6.0482600000   15.5661000000
H     41.9644000000    0.7596770000   15.8624000000
H     39.9732000000   -0.5578890000   15.3159000000
H     33.5661000000    1.0335300000   12.0204000000
H     33.2419000000    3.1925100000   13.0797000000
H     33.7853000000    4.6630600000   14.7284000000
H     35.0541000000    4.3971400000   15.9232000000
H     34.6374000000    3.9130300000   18.0252000000
H     34.1712000000    2.2313100000   17.7118000000
H     33.0569000000    3.2358700000   18.6052000000
H     33.0874000000    5.7928000000   16.6538000000
H     31.7077000000    4.9349100000   17.4030000000
H     31.7927000000    5.1116400000   15.6513000000
H     32.5763000000    1.6219200000   16.1455000000
H     31.5797000000    2.8474100000   15.2634000000
H     31.3663000000    2.5724200000   17.0215000000
H     35.8244000000    1.9552800000   16.3620000000
H     35.9711000000   -0.2681850000   15.4005000000
H     31.2477000000   -3.3817800000   10.4111000000
H     31.7328000000   -5.5438400000    9.3898300000
H     32.2349000000   -8.0016800000    9.7844400000
H     32.9293000000   -8.5121900000   11.3274000000
H     35.3292000000   -7.9612400000   11.8441000000
H     35.2603000000   -6.2630300000   11.2597000000
H     36.3991000000   -7.4107400000   10.5104000000
H     34.6201000000   -9.7979200000   10.3301000000
H     35.6483000000   -9.1320000000    9.0181300000
H     33.8863000000   -9.4049800000    8.7350200000
H     34.3135000000   -5.7545800000    9.0712400000
H     33.6184000000   -7.0389200000    8.0537700000
H     35.4007000000   -6.8630100000    8.2964900000
H     33.3153000000   -6.9731800000   13.1630000000
H     32.8451000000   -4.8173500000   14.1697000000
H     30.0101000000   -3.5009200000   16.3435000000
H     29.6809000000   -5.0343100000   15.5644000000
H     28.3540000000   -3.7013100000   17.9722000000
H     29.4794000000   -5.0017700000   17.9504000000
H     26.7152000000   -5.1433500000   16.7143000000
H     28.1761000000   -6.6141700000   15.5354000000
H     27.0762000000   -7.5234100000   16.4722000000
H     30.0894000000   -6.9783900000   16.9712000000
H     29.4033000000   -8.4176700000   16.2779000000
H     29.0452000000   -7.4116600000   19.0956000000
H     26.9415000000   -8.3763900000   18.5392000000
H     27.7100000000   -9.5235900000   19.5261000000
H     27.3754000000   -9.5308000000   16.4457000000
H     26.4444000000  -10.4238000000   17.6009000000
H     29.3923000000  -10.7895000000   16.9153000000
H     29.1190000000  -11.1508000000   19.2949000000
H     29.4298000000  -12.6388000000   18.5678000000
H     26.6724000000  -11.4803000000   19.4468000000
H     27.6740000000  -12.4999000000   20.4111000000
H     26.3753000000  -13.2434000000   17.7542000000
H     28.5786000000  -14.3030000000   17.9375000000
H     27.3762000000  -15.4719000000   18.0279000000
H     28.8841000000  -14.1661000000   20.4394000000
H     29.4031000000  -15.5863000000   19.6258000000
H     26.7942000000  -15.2541000000   21.1749000000
H     26.3717000000  -16.6576000000   19.2189000000
H     26.3162000000  -17.6199000000   20.5931000000
H     28.7798000000  -17.2662000000   18.6927000000
H     27.5689000000  -18.4513000000   18.4654000000
H     29.3992000000  -18.2340000000   20.9033000000
H     27.2204000000  -19.0161000000   21.6398000000
H     28.2771000000  -20.3258000000   21.6914000000
H     26.2548000000  -19.6535000000   19.3996000000
H     25.9143000000  -20.6994000000   20.7031000000
H     28.1158000000  -21.1109000000   18.6209000000
H     28.8844000000  -21.9693000000   20.7709000000
H     28.5539000000  -23.2874000000   19.7738000000
H     26.6556000000  -22.0705000000   21.9320000000
H     27.7619000000  -23.3293000000   22.2451000000
H     25.4702000000  -23.4762000000   20.2248000000
H     27.3037000000  -24.8159000000   19.4012000000
H     26.1309000000  -25.8924000000   19.9805000000
H     28.6929000000  -24.9308000000   21.4714000000
H     28.5849000000  -26.3726000000   20.5647000000
H     26.9181000000  -25.7219000000   23.0484000000
H     25.5893000000  -27.0878000000   21.5413000000
H     26.0545000000  -28.0771000000   22.8414000000
H     27.4174000000  -27.9207000000   20.0557000000
H     26.1909000000  -29.0390000000   20.4608000000
H     28.9195000000  -28.8591000000   21.8283000000
H     27.3221000000  -29.6339000000   23.4465000000
H     28.2489000000  -30.9985000000   23.0048000000
H     25.4647000000  -30.2090000000   21.9419000000
H     25.7471000000  -31.2789000000   23.2439000000
H     26.6203000000  -31.7427000000   20.3326000000
H     28.2040000000  -32.8346000000   21.9378000000
H     27.3331000000  -34.0265000000   21.0229000000
H     25.7252000000  -34.3314000000   22.8534000000
H     26.4593000000  -33.0272000000   23.7643000000
H     27.8568000000  -35.6480000000   23.1522000000
H     28.6579000000  -33.3204000000   24.9959000000
H     29.5009000000  -33.8370000000   23.5336000000
H     29.4416000000  -34.9036000000   24.9428000000
H     26.5905000000  -37.3555000000   24.1438000000
H     24.8878000000  -38.1141000000   25.7138000000
H     23.0158000000  -37.4589000000   27.1533000000
H     22.8980000000  -35.8300000000   27.8144000000
H     24.0801000000  -35.2493000000   29.9091000000
H     25.6708000000  -35.8526000000   29.3370000000
H     24.9507000000  -36.5298000000   30.8212000000
H     22.1205000000  -36.7538000000   29.8836000000
H     23.0712000000  -38.0168000000   30.7409000000
H     22.2659000000  -38.3974000000   29.1729000000
H     25.8707000000  -38.0776000000   28.3715000000
H     24.4259000000  -39.1409000000   28.2359000000
H     25.1617000000  -38.7976000000   29.8459000000
H     24.8057000000  -34.1978000000   27.5460000000
H     26.5238000000  -33.4448000000   25.9939000000
H     23.6924000000  -31.4467000000   22.2937000000
H     21.5892000000  -32.5065000000   21.8332000000
H     20.5718000000  -34.7228000000   21.1694000000
H     21.2396000000  -35.6501000000   19.8232000000
H     18.3873000000  -34.5609000000   20.4050000000
H     18.9051000000  -35.7549000000   19.1590000000
H     18.0269000000  -34.2552000000   18.6724000000
H     19.5306000000  -32.3957000000   20.5852000000
H     19.0659000000  -32.1102000000   18.8758000000
H     20.7660000000  -31.9355000000   19.3597000000
H     20.7049000000  -35.1716000000   17.5866000000
H     21.5052000000  -33.5646000000   17.6912000000
H     19.8115000000  -33.6754000000   17.1332000000
H     23.5105000000  -35.1764000000   19.0327000000
H     25.6484000000  -34.1058000000   19.4851000000
H     27.5682000000  -29.7056000000   18.6745000000
H     28.6340000000  -31.2121000000   17.1095000000
H     29.8863000000  -33.2934000000   16.8244000000
H     30.9218000000  -33.9415000000   18.1044000000
H     33.2090000000  -33.1582000000   18.3690000000
H     32.7506000000  -31.4218000000   18.4694000000
H     33.8985000000  -31.9527000000   17.2195000000
H     32.5216000000  -34.4909000000   16.4151000000
H     33.1784000000  -33.2261000000   15.3113000000
H     31.4670000000  -33.7531000000   15.1528000000
H     31.3207000000  -30.4261000000   16.7677000000
H     30.6976000000  -31.4207000000   15.4084000000
H     32.4318000000  -30.9470000000   15.4801000000
H     31.2483000000  -32.6476000000   20.2374000000
H     30.2059000000  -31.1137000000   21.8097000000
H     30.2772000000  -26.4115000000   22.1956000000
H     31.8700000000  -27.5572000000   23.6109000000
H     32.1032000000  -29.5357000000   25.1099000000
H     30.8469000000  -29.9586000000   26.2739000000
H     33.8773000000  -29.6338000000   26.6035000000
H     32.6925000000  -30.2801000000   27.7952000000
H     33.7657000000  -28.8991000000   28.2406000000
H     33.4894000000  -27.4369000000   25.5549000000
H     33.4775000000  -26.7495000000   27.2164000000
H     32.1205000000  -26.4159000000   26.1127000000
H     30.7321000000  -28.9386000000   28.4211000000
H     30.4972000000  -27.3036000000   27.7139000000
H     31.8341000000  -27.5827000000   28.8646000000
H     28.6843000000  -28.7582000000   26.2693000000
H     27.0791000000  -27.5860000000   24.8680000000
H     25.9492000000  -23.2620000000   23.7282000000
H     24.3841000000  -24.0935000000   25.3707000000
H     22.8622000000  -25.9589000000   25.9616000000
H     21.9725000000  -26.8475000000   24.7206000000
H     19.9075000000  -25.9983000000   23.8107000000
H     20.6535000000  -24.4541000000   23.2766000000
H     19.2408000000  -24.4161000000   24.3628000000
H     20.0594000000  -26.6820000000   26.1709000000
H     19.4210000000  -25.0725000000   26.6744000000
H     20.9829000000  -25.6686000000   27.3390000000
H     21.8906000000  -23.0723000000   24.8658000000
H     22.1255000000  -23.6285000000   26.5588000000
H     20.5159000000  -23.0551000000   25.9936000000
H     22.3188000000  -26.3297000000   22.3069000000
H     23.8790000000  -25.4808000000   20.6385000000
H     24.5871000000  -21.1743000000   18.8180000000
H     23.1506000000  -22.5559000000   17.4427000000
H     22.9034000000  -24.8905000000   16.5321000000
H     24.2921000000  -25.7502000000   15.8662000000
H     21.5010000000  -25.2617000000   14.7052000000
H     22.8013000000  -26.3232000000   14.0545000000
H     22.0823000000  -25.0338000000   13.0178000000
H     21.9883000000  -22.9030000000   15.2219000000
H     22.4696000000  -22.7241000000   13.4992000000
H     23.5852000000  -22.2100000000   14.7844000000
H     25.0344000000  -25.4001000000   13.6256000000
H     25.3650000000  -23.6619000000   13.9319000000
H     24.2826000000  -24.1302000000   12.5907000000
H     26.5648000000  -24.8541000000   16.1356000000
H     28.0199000000  -23.4552000000   17.4958000000
H     29.5339000000  -19.0778000000   17.4549000000
H     31.1183000000  -20.6120000000   16.4667000000
H     32.2785000000  -22.8043000000   16.7735000000
H     32.8307000000  -23.3264000000   18.3675000000
H     34.9045000000  -22.5442000000   19.2961000000
H     34.3967000000  -20.8232000000   19.2002000000
H     35.9121000000  -21.3371000000   18.4134000000
H     34.8959000000  -23.9432000000   17.2789000000
H     35.8865000000  -22.7040000000   16.4224000000
H     34.3297000000  -23.2569000000   15.7125000000
H     33.6554000000  -19.8814000000   17.0626000000
H     33.5183000000  -20.9338000000   15.6118000000
H     35.1299000000  -20.4419000000   16.2433000000
H     32.2521000000  -22.0101000000   20.3911000000
H     30.6708000000  -20.4541000000   21.3991000000
H     30.2988000000  -15.7091000000   21.6677000000
H     31.3128000000  -16.6816000000   23.6445000000
H     31.1371000000  -18.4418000000   25.3509000000
H     29.5737000000  -19.0585000000   25.8906000000
H     28.3025000000  -17.8976000000   27.6033000000
H     28.2955000000  -16.3403000000   26.7050000000
H     28.9515000000  -16.3932000000   28.3608000000
H     30.4353000000  -18.9936000000   28.1397000000
H     31.0508000000  -17.4515000000   28.8463000000
H     31.9825000000  -18.2848000000   27.5521000000
H     30.4013000000  -15.3731000000   25.9092000000
H     31.9509000000  -16.2336000000   26.1864000000
H     31.0859000000  -15.4398000000   27.5511000000
H     27.4493000000  -18.1065000000   24.9274000000
H     26.4225000000  -17.1050000000   22.9586000000
H     25.5926000000  -12.6507000000   21.1945000000
H     23.6268000000  -13.5001000000   22.3189000000
H     21.9724000000  -15.0880000000   22.5784000000
H     22.0460000000  -16.5979000000   21.6713000000
H     20.4945000000  -17.0360000000   19.9141000000
H     20.8921000000  -15.5905000000   18.9199000000
H     19.2207000000  -15.8412000000   19.4655000000
H     19.6508000000  -16.6868000000   22.2435000000
H     18.5278000000  -15.4041000000   21.6505000000
H     19.7019000000  -15.0356000000   22.9614000000
H     21.1040000000  -13.4089000000   19.9519000000
H     20.6101000000  -13.1642000000   21.6560000000
H     19.3778000000  -13.5259000000   20.3936000000
H     22.9860000000  -16.2908000000   19.0885000000
H     24.8975000000  -15.3760000000   17.9105000000
H     26.1016000000  -11.3370000000   15.6372000000
H     25.4926000000  -13.0195000000   14.0275000000
H     25.7973000000  -15.3882000000   13.3656000000
H     27.3609000000  -16.1890000000   13.5089000000
H     27.1340000000  -12.8405000000   11.8026000000
H     25.5264000000  -13.6022000000   11.5477000000
H     26.7400000000  -13.5552000000   10.2196000000
H     29.1403000000  -14.2525000000   12.0099000000
H     28.7807000000  -14.9085000000   10.3874000000
H     29.0085000000  -16.0275000000   11.7816000000
H     25.3676000000  -16.0207000000   11.1529000000
H     26.8378000000  -17.0515000000   11.2825000000
H     26.6486000000  -15.9180000000    9.8925900000
H     29.2790000000  -14.9990000000   14.6128000000
H     29.9206000000  -13.2869000000   16.2326000000
H     29.5603000000   -8.8675000000   20.9891000000
H     31.3101000000  -10.2310000000   21.9860000000
H     33.3403000000  -11.3567000000   21.8607000000
H     34.4171000000  -11.1303000000   20.4811000000
H     34.5600000000  -12.8395000000   18.7575000000
H     32.7964000000  -12.9161000000   18.4038000000
H     33.6503000000  -14.3835000000   18.9201000000
H     35.3333000000  -13.3139000000   21.0921000000
H     34.2669000000  -14.7649000000   21.1511000000
H     34.1095000000  -13.4874000000   22.4040000000
H     31.1821000000  -12.9971000000   20.2186000000
H     31.7382000000  -13.2875000000   21.9005000000
H     31.9156000000  -14.5642000000   20.6432000000
H     33.1533000000  -10.6623000000   18.1014000000
H     31.3820000000   -9.3315500000   17.0984000000
H     24.9793000000   -6.4265700000   17.7471000000
H     23.9037000000   -7.0662600000   19.8442000000
H     23.9420000000   -6.8236100000   22.3823000000
H     25.4770000000   -6.5962700000   23.2204000000
H     23.3119000000   -8.6144300000   23.7903000000
H     24.8256000000   -8.3419800000   24.7278000000
H     24.4333000000   -9.9881400000   24.1073000000
H     23.4417000000   -9.0511000000   21.3490000000
H     24.4739000000  -10.4619000000   21.7762000000
H     25.0551000000   -9.2795800000   20.5811000000
H     27.0037000000   -8.4361900000   23.5885000000
H     27.0884000000   -8.8429300000   21.8446000000
H     26.5864000000  -10.0917000000   23.0135000000
H     27.5256000000   -6.0818200000   21.9999000000
H     28.5586000000   -5.3523200000   19.9299000000
H     25.6411000000   -2.5722500000   14.6868000000
H     23.7480000000   -3.8014400000   13.9564000000
H     22.7752000000   -6.0026800000   13.5099000000
H     23.7478000000   -7.3588300000   12.9448000000
H     21.1106000000   -6.1743100000   11.8552000000
H     21.9345000000   -7.6887100000   11.3509000000
H     21.5449000000   -6.4156600000   10.1278000000
H     22.3740000000   -4.0441800000   11.8788000000
H     22.6866000000   -4.3183700000   10.1375000000
H     24.0493000000   -3.9907100000   11.2481000000
H     24.2966000000   -7.6137600000   10.6414000000
H     25.1655000000   -6.0428900000   10.5852000000
H     23.8433000000   -6.3608800000    9.4229800000
H     26.2729000000   -7.0729700000   12.7664000000
H     28.2219000000   -5.8582500000   13.5491000000
H     26.5885000000   -2.9739900000   16.9352000000
H     25.8642000000   -0.9692390000   17.9489000000
H     21.3563000000    2.4445500000   16.5280000000
H     19.9590000000    0.5081110000   16.9379000000
H     19.5749000000   -1.8581200000   16.8000000000
H     20.9424000000   -2.9321900000   16.4745000000
H     21.2703000000   -3.8023800000   14.1513000000
H     21.1539000000   -2.2216600000   13.2964000000
H     20.0061000000   -3.5160900000   12.9099000000
H     19.3978000000   -4.6021100000   15.4199000000
H     18.1235000000   -3.9873700000   14.3064000000
H     18.1621000000   -3.4745400000   16.0352000000
H     19.5250000000   -0.6501060000   13.8374000000
H     18.2291000000   -1.0280600000   15.0055000000
H     18.2348000000   -1.8073700000   13.3811000000
H     22.7924000000   -1.9705700000   14.8186000000
H     24.1051000000   -0.0325070000   14.2842000000
H     23.2794000000    4.4687600000   11.7576000000
H     24.2472000000    2.8094300000   10.3662000000
H     26.0204000000    0.9934650000   10.2385000000
H     27.6213000000    1.2927200000   10.9032000000
H     29.1984000000    2.7225600000    9.8032400000
H     28.0828000000    4.1237600000    9.8425700000
H     28.7689000000    3.5758800000    8.2782700000
H     28.4622000000    0.5926020000    8.7454200000
H     28.0386000000    1.5112700000    7.2553900000
H     26.8063000000    0.4755910000    8.0674600000
H     25.8811000000    3.9694400000    8.8490300000
H     25.2696000000    2.3922500000    8.2235600000
H     26.5189000000    3.3181700000    7.3176800000
H     27.9720000000    3.1052500000   12.5393000000
H     26.9653000000    4.8013400000   14.0043000000
H     19.5941000000    5.8953700000   11.7467000000
H     19.6899000000    6.7987000000    9.4974900000
H     20.5541000000    8.3912800000    7.9385600000
H     21.8502000000    9.4902800000    8.4177800000
H     21.2495000000   11.7738000000    9.2536700000
H     19.9225000000   11.2813000000   10.3702000000
H     19.5690000000   12.3844000000    9.0248700000
H     21.0883000000   11.1364000000    6.8551100000
H     19.3558000000   11.6463000000    6.8161400000
H     19.8182000000    9.9792000000    6.3298200000
H     18.3110000000    9.5964400000    9.6931400000
H     18.2274000000    9.0970500000    7.9760700000
H     17.7834000000   10.7727000000    8.4490100000
H     21.9195000000   10.2011000000   10.9639000000
H     21.7245000000    9.3681900000   13.2174000000
H     17.7383000000    8.4848400000   16.1714000000
H     18.8819000000   10.5647000000   16.3807000000
H     21.3122000000   11.5838000000   16.4696000000
H     22.4343000000   10.8708000000   17.6252000000
H     22.0745000000   11.0555000000   20.0234000000
H     20.3844000000   10.4684000000   19.9457000000
H     20.7347000000   12.0753000000   20.6589000000
H     22.7756000000   12.9826000000   18.6211000000
H     21.3963000000   13.9425000000   19.2637000000
H     21.5994000000   13.7217000000   17.4834000000
H     18.7771000000   11.5498000000   18.5071000000
H     19.3032000000   12.7910000000   17.3113000000
H     19.1815000000   13.1899000000   19.0637000000
H     22.2255000000    8.5838200000   18.2738000000
H     21.0853000000    6.4402700000   18.0193000000
H     14.2765000000    7.3490600000   14.1982000000
H     12.7267000000    8.5165200000   15.6548000000
H     11.5570000000    8.7165500000   17.7124000000
H     12.0927000000    7.7755100000   19.1017000000
H      9.3813400000    8.9251500000   18.6217000000
H      9.8731300000    7.9453900000   20.0451000000
H      8.4235400000    7.4754600000   19.0753000000
H      9.5736100000    7.9996100000   16.4091000000
H      8.6937400000    6.5081800000   16.8589000000
H     10.3129000000    6.3839100000   16.1156000000
H     10.8900000000    5.6889000000   19.6881000000
H     10.8051000000    4.9700400000   18.0367000000
H      9.3049000000    5.3231400000   18.9118000000
H     13.0017000000    5.3246800000   18.5463000000
H     14.4745000000    4.1160600000   17.0706000000
H     13.7074000000    2.0141000000   12.4745000000
H     13.2070000000    0.7705420000   14.4133000000
H     14.0549000000    0.3336410000   16.9214000000
H     15.7632000000   -0.1026710000   17.0556000000
H     13.4031000000   -1.4480000000   14.3125000000
H     12.4843000000   -1.2077900000   15.8513000000
H     13.0291000000   -2.8505600000   15.3290000000
H     15.7709000000   -1.7637800000   14.3405000000
H     15.4683000000   -3.3034900000   15.2014000000
H     16.5907000000   -2.0961500000   15.8941000000
H     13.6136000000   -1.8200900000   18.0054000000
H     15.3765000000   -2.1851600000   17.9984000000
H     14.2326000000   -3.3541200000   17.2708000000
H     17.3531000000    0.9205600000   15.6176000000
H     17.8897000000    2.1984800000   13.5969000000
H     11.0625000000    3.8751000000   10.4143000000
H      9.9773100000    1.8495100000    9.6529300000
H      9.9997300000   -0.1842250000    8.3677200000
H     11.4731000000   -0.6830490000    7.5282400000
H      8.7381200000   -1.3186800000    6.6876500000
H     10.2343000000   -1.7274400000    5.7788500000
H      8.8905300000   -0.8621460000    4.9497000000
H      8.2436800000    1.0284700000    7.2320800000
H      8.4035300000    1.4462700000    5.4849500000
H      9.3631900000    2.3304100000    6.7107800000
H     11.8150000000    0.0778643000    5.1342900000
H     11.3170000000    1.7921100000    5.3699300000
H     10.4162000000    0.7620370000    4.2341800000
H     13.1547000000    1.1850200000    6.8056400000
H     14.1846000000    3.2777000000    7.4720000000
H     12.2685000000    8.0401800000    7.1939700000
H     13.4757000000    7.1816000000    5.3322400000
H     15.5367000000    5.7380000000    4.6702300000
H     17.0511000000    6.0324300000    5.5228900000
H     14.8209000000    8.8627000000    4.2627100000
H     14.6468000000    7.4697600000    3.1311900000
H     15.6686000000    8.8938000000    2.6989600000
H     16.8474000000    9.1660000000    5.5311900000
H     17.7479000000    9.3097300000    3.9910700000
H     18.2768000000    8.1297700000    5.2304400000
H     16.6434000000    6.1065800000    2.5827800000
H     18.1804000000    6.3794500000    3.4718400000
H     17.6074000000    7.6081500000    2.2930600000
H     17.0956000000    7.0521900000    7.6872800000
H     15.8631000000    7.9436900000    9.6152200000
H      8.2351100000    8.4150000000    7.8755500000
H      7.8133600000   10.1315000000    6.2152000000
H      8.0478600000   12.3538000000    5.4333200000
H      9.2310100000   13.4073000000    6.2167300000
H      8.4596100000   15.0636000000    7.8999100000
H      7.3785200000   13.9883000000    8.8572100000
H      6.7014200000   15.4171000000    8.0537000000
H      8.0011500000   15.3115000000    5.4459900000
H      6.2389000000   15.4776000000    5.7820000000
H      6.8281200000   14.2013000000    4.6527700000
H      5.9571500000   12.3766000000    7.7494600000
H      5.6701400000   12.4930000000    5.9826700000
H      5.0802000000   13.7899000000    7.0915800000
H      9.4626500000   13.1102000000    8.8775700000
H      9.7340000000   11.4354000000   10.5907000000
H      6.4478300000    8.7413000000   13.2472000000
H      7.2059100000   10.9115000000   13.9671000000
H      9.2586900000   12.4784000000   13.8878000000
H     10.8536000000   11.7929000000   14.1928000000
H      9.7139100000   14.2284000000   15.4316000000
H     11.3450000000   13.5339000000   15.7418000000
H     10.2477000000   13.8713000000   17.1226000000
H      7.7088800000   12.8459000000   15.7583000000
H      8.2613700000   12.5811000000   17.4590000000
H      7.8692000000   11.1799000000   16.4297000000
H     11.5528000000   11.1849000000   16.4705000000
H     10.0780000000   10.2323000000   16.7873000000
H     10.4937000000   11.5871000000   17.8665000000
H     11.2435000000    9.4283800000   14.2767000000
H     10.4743000000    7.2001400000   13.6244000000
H      2.4277700000    6.5314800000   11.6554000000
H      1.1932300000    6.9017900000   13.6804000000
H      0.9766100000    6.7093500000   16.0256000000
H      2.2938500000    6.0100100000   16.9666000000
H      0.0481137000    4.0826400000   14.6534000000
H     -0.9522930000    5.3920800000   15.3699000000
H     -1.1241600000    3.6910400000   15.9483000000
H      1.7221900000    2.9568400000   15.9921000000
H      0.6407970000    2.6966200000   17.3798000000
H      2.1796200000    3.5969300000   17.6101000000
H     -0.5761870000    6.1048200000   17.6892000000
H      0.7303100000    5.3417200000   18.6602000000
H     -0.7374100000    4.3935900000   18.2363000000
H      3.7257200000    4.0821400000   15.7534000000
H      4.9079800000    3.6207700000   13.6951000000
H      4.0807900000    5.0675200000    5.6393800000
H      1.8863000000    4.6882800000    4.6361200000
H     -0.3805980000    5.5350500000    4.2749100000
H     -1.0666000000    6.7827300000    5.3210000000
H      0.1396230000    3.3797000000    6.4548300000
H     -0.5797070000    3.1831400000    4.8220900000
H     -1.4853600000    2.6619500000    6.2890200000
H     -0.7735510000    5.0302600000    8.0091800000
H     -2.4119200000    4.3645100000    7.8235700000
H     -2.1174400000    6.1104200000    7.4951100000
H     -2.5396300000    4.5245100000    4.1734100000
H     -3.1972300000    5.7565000000    5.3115600000
H     -3.3888900000    4.0032800000    5.6729900000
H      0.1200440000    7.4357400000    7.4593400000
H      2.2828400000    7.8073500000    8.4731900000
Cl    48.0105000000    5.2556000000   38.8383000000
Cl    51.3961000000    6.2033000000   33.8112000000
Cl    47.6524000000   17.6325000000   26.9457000000
Cl    37.6090000000   16.7313000000   34.4655000000
Cl    43.8667000000   -1.6084000000   29.9879000000
Cl    45.5452000000    4.8810000000   24.0992000000
Cl    30.2250000000   17.4580000000   25.1798000000
Cl    29.8375000000   10.4962000000   30.2065000000
Cl    41.1209000000    2.0763000000   24.5010000000
Cl    36.2388000000    8.8755000000   11.0418000000
Cl    25.7128000000    9.5502000000   26.4442000000
Cl    21.9049000000    0.4026000000   25.0063000000
Cl    62.8043000000   -4.3855000000    4.5856000000
Cl    60.5292000000   -2.9171000000   11.7866000000
Cl    55.5074000000  -14.3948000000   14.2468000000
Cl    47.6214000000  -11.9797000000    3.1274000000
Cl    53.5239000000   -1.4689000000    5.1499000000
Cl    50.1409000000   -2.4748000000   18.1905000000
Cl    44.0615000000  -11.8514000000   12.9587000000
Cl    40.8272000000   -3.8765000000    3.1937000000
Cl    45.1183000000    4.3312000000   10.6163000000
Cl    30.8834000000    5.1062000000   12.2780000000
Cl    34.1363000000  -10.8612000000   13.8352000000
Cl    21.0355000000  -33.2084000000   29.5187000000
Cl    18.4803000000  -33.4457000000   23.9448000000
Cl    28.0765000000  -33.3006000000   13.6788000000
Cl    35.1794000000  -29.5903000000   23.1156000000
Cl    24.1136000000  -25.0909000000   29.2702000000
Cl    19.5043000000  -24.1153000000   17.6343000000
Cl    31.6189000000  -22.9038000000   13.1796000000
Cl    34.7491000000  -18.3047000000   25.0344000000
Cl    16.0425000000  -14.1517000000   19.1490000000
Cl    22.2542000000  -14.7328000000   12.7691000000
Cl    37.8381000000  -11.2307000000   19.2879000000
Cl    20.3389000000   -7.2109000000   22.0420000000
Cl    21.8177000000   -4.9087000000    6.7354000000
Cl    17.3684000000   -4.1454000000   10.6324000000
Cl    23.3790000000   -0.8129000000    8.4749000000
Cl    24.6305000000   11.7169000000    7.7123000000
Cl    20.4053000000   14.1029000000   14.0175000000
Cl    12.4366000000    7.3007000000   22.6667000000
Cl    10.9365000000    0.5881000000   18.7422000000
Cl    13.7240000000   -3.0180000000    5.8662000000
Cl    13.5882000000    4.0721000000    2.1118000000
Cl    11.5236000000   16.2359000000    6.1862000000
Cl    14.4727000000   11.9747000000   14.3774000000
Cl     4.1748000000    5.5052000000   20.0699000000
Cl    -3.4489000000    9.3254000000    6.3374000000
