1644

C          4.97675        8.18223        8.11863
C          4.75642        6.72395        7.69562
C          5.14008        5.71050        8.80172
C          4.29708        5.81625       10.07970
C          4.68654        4.86800       11.24780
C          6.18942        4.98953       11.62240
C          6.56063        6.34532       12.25030
C          8.05366        6.48681       12.61730
C          8.96578        6.29346       11.37000
C          8.80214        7.31573       10.21910
C          9.30883        8.76578       10.46330
C         10.81880        8.82262       10.79280
C         11.68760        8.57390        9.56797
C         13.18000        8.34337        9.85619
C         13.39200        7.21567       10.90240
C         12.76480        5.85054       10.54180
C         13.48220        4.99777        9.45394
C         14.92900        4.61942        9.87412
C         14.88310        3.57014       10.97570
C         16.15110        3.27282       11.77440
C         16.76170        4.57364       12.36070
C         15.85190        5.42261       13.28470
C         15.52550        4.85816       14.69420
C         16.79640        4.65608       15.55200
C         17.38460        5.98659       16.02100
C         18.77180        5.89910       16.67380
C         19.77290        5.14276       15.76530
C         19.92120        5.68301       14.32480
C         20.67870        7.02469       14.10780
C         22.14690        6.94221       14.58550
C         22.96210        6.07499       13.62910
C         24.37400        5.69161       14.06590
C         24.35120        5.09423       15.48760
C         23.39190        3.89632       15.71330
C         23.79270        2.54519       15.08500
C         25.22250        2.16879       15.49750
C         25.31470        1.93456       17.00200
C         26.71610        1.59839       17.55180
C         27.67940        2.79603       17.23560
C         27.37230        4.16331       17.85620
C         27.56160        4.21216       19.36680
C         28.93740        3.62931       19.76030
C         30.19380        4.36220       19.19530
C         30.67040        5.65854       19.91340
C         30.55330        5.32880       21.44410
C         31.22950        4.02647       22.00680
C         32.73120        4.09929       21.83290
C         33.17120        5.53025       22.22290
C         32.74670        5.88141       23.64290
C         33.67840        5.27301       24.67110
C         35.10740        5.74226       24.30300
C         35.22260        7.28264       24.14120
C         35.08450        7.96800       25.50380
C         36.12570        7.30646       26.44170
C         37.54360        7.26641       25.82790
C         38.15700        8.66733       25.76600
C         38.09290        9.25086       27.19790
C         38.67750        8.30088       28.26390
C         40.20050        8.21455       28.15100
C         40.76300        9.65241       28.27550
C         40.20430       10.42520       29.48600
C         40.69420        9.83356       30.81230
C         42.24230        9.83963       30.80060
C         42.85690       11.20450       30.44930
C         42.67990       12.24420       31.56570
C         43.31940       11.71660       32.87140
C         44.75500       11.21500       32.70480
C         45.80230       12.31950       32.43220
C         45.82250       13.36050       33.58620
C         46.26630       12.68840       34.87450
C         46.18950       13.49890       36.17040
C         44.75900       13.86420       36.56560
C         46.85650       12.59820       37.20180
C         48.11740       12.94270       37.69090
C         48.84650       12.03120       38.44810
C         48.33350       10.75380       38.71880
C         49.16010        9.76318       39.49580
N         48.88130        9.68530       40.98750
C         47.45960        9.24915       41.29370
C         49.84510        8.66354       41.60020
C         49.14860       11.04500       41.64720
C         47.05320       10.42080       38.26450
C         46.31780       11.33790       37.52280
C         47.19160       11.76970       32.12490
C         47.50520       10.40880       32.21060
C         48.81400        9.97031       32.04190
C         49.84190       10.88080       31.77270
C         51.27280       10.41250       31.69680
N         51.69720        9.79711       30.34800
C         53.09710        9.20006       30.55590
C         50.77310        8.70373       29.87960
C         51.78890       10.89150       29.29340
C         49.52840       12.23560       31.62790
C         48.21550       12.67280       31.79620
C         43.10790       13.65020       31.20330
C         43.75670       13.96930       30.00370
C         44.25470       15.24790       29.79060
C         44.10270       16.24120       30.76640
C         44.69770       17.61140       30.55770
N         43.75150       18.62670       29.91120
C         42.56380       18.92940       30.81410
C         44.55200       19.93080       29.72740
C         43.26810       18.16150       28.55710
C         43.38920       15.94990       31.93220
C         42.88030       14.67220       32.13710
C         40.06770       10.42210       32.06170
C         39.21570       11.53270       32.03640
C         38.84480       12.15970       33.22100
C         39.29830       11.67850       34.45600
C         39.00530       12.44300       35.72440
N         37.67050       12.11730       36.39090
C         37.49180       13.12010       37.55070
C         36.49720       12.27250       35.44990
C         37.68920       10.71400       36.97650
C         40.05250       10.50260       34.49190
C         40.41470        9.87076       33.30600
C         40.86490        7.16118       29.02070
C         40.17650        6.42645       29.99540
C         40.86550        5.59329       30.87190
C         42.25730        5.46042       30.78170
C         43.00330        4.61662       31.78280
N         43.20620        3.15373       31.36100
C         44.07990        3.05299       30.12590
C         43.92520        2.44431       32.52300
C         41.87990        2.46247       31.12470
C         42.93710        6.12262       29.75310
C         42.24420        6.94559       28.87130
C         39.50810        8.76488       25.07510
C         40.23250        7.64509       24.64500
C         41.55270        7.77859       24.22100
C         42.17040        9.03683       24.19380
C         43.63560        9.16634       23.86240
N         43.96300        9.29811       22.37120
C         45.49440        9.25536       22.23680
C         43.37070        8.18447       21.55290
C         43.47890       10.64960       21.84250
C         41.41520       10.16880       24.51120
C         40.09270       10.03340       24.92690
C         35.06610        9.48700       25.51890
C         35.35080       10.27900       24.40000
C         35.49530       11.66240       24.53090
C         35.33460       12.28670       25.77640
C         35.55880       13.77500       25.93350
N         34.31190       14.63600       25.75730
C         33.27600       14.36100       26.83850
C         34.74370       16.11570       25.89900
C         33.69350       14.46040       24.38900
C         34.95840       11.50890       26.87530
C         34.80340       10.13200       26.74090
C         33.18730        5.49034       26.09200
C         32.09380        6.31803       26.39710
C         31.76260        6.61375       27.71130
C         32.48670        6.04924       28.76590
C         32.13480        6.40736       30.19040
N         30.94040        5.65152       30.76590
C         30.65070        6.24790       32.15980
C         29.67660        5.79426       29.93880
C         31.27580        4.17828       30.93600
C         33.52590        5.16384       28.47420
C         33.86080        4.87235       27.15290
C         33.69190        3.04875       22.34600
C         33.33590        2.04172       23.24040
C         34.32280        1.21058       23.77830
C         35.67250        1.35948       23.42460
C         36.73190        0.46758       24.02720
N         37.19170       -0.68647       23.11240
C         37.93710       -0.18987       21.88830
C         38.15280       -1.56308       23.92970
C         36.00100       -1.52371       22.69160
C         36.02100        2.33614       22.48680
C         35.03790        3.14485       21.93560
C         31.94170        6.42613       19.32100
C         33.24730        5.91947       19.29900
C         34.39110        6.54126       18.75380
C         34.31620        7.76212       18.11150
C         35.61490        8.32857       17.52610
N         35.76160        8.45718       16.00140
C         35.32130        7.24846       15.23550
C         34.99290        9.68557       15.50460
C         37.25450        8.69114       15.65240
C         33.03900        8.34969       18.12670
C         31.88320        7.69855       18.71350
C         27.32810        5.55783       20.02150
C         27.12210        5.57879       21.41040
C         27.17690        6.77765       22.11680
C         27.42510        7.98254       21.44930
C         27.69410        9.25243       22.22380
N         29.13360        9.35637       22.80270
C         29.40010        8.28427       23.84650
C         30.16110        9.29816       21.70890
C         29.24850       10.71140       23.51490
C         27.49380        7.97548       20.04970
C         27.42820        6.77432       19.33990
C         26.59140        1.19447       19.06610
C         25.37020        1.32725       19.75910
C         25.14260        0.68150       20.96810
C         26.11980       -0.13973       21.52810
C         25.74110       -1.02854       22.69030
N         25.04890       -2.34614       22.25680
C         23.77760       -2.10841       21.45330
C         25.99260       -3.17122       21.43150
C         24.66230       -3.11704       23.52370
C         27.37570       -0.21415       20.90980
C         27.61100        0.45225       19.70090
C         27.16290        0.33661       16.78420
C         28.04700        0.36397       15.70260
C         28.40050       -0.80705       15.05430
C         27.95960       -2.04668       15.52320
C         28.36950       -3.39462       14.90700
C         29.38060       -3.21146       13.72090
C         30.77500       -2.72640       14.14890
C         31.72920       -2.59793       12.97730
C         33.01450       -1.98519       13.51250
C         33.99020       -1.71928       12.37500
C         35.19730       -0.95787       12.88380
C         36.06410       -0.46118       11.71950
C         37.23230        0.43836       12.18060
C         38.17530       -0.20531       13.23120
C         38.53910       -1.62997       12.75230
C         39.09740       -1.65199       11.31640
C         40.44160       -0.97539       11.20130
C         41.42620       -1.62788       12.21970
C         41.46350       -3.16235       12.08360
C         42.06950       -3.62795       10.70650
C         43.46310       -2.98662       10.57110
C         44.39490       -3.21471       11.77280
C         44.76000       -4.69206       11.93540
C         45.39590       -5.20136       10.61950
C         46.55370       -4.33066       10.10890
C         47.78450       -4.39942       11.02190
C         48.25690       -5.87258       11.14180
C         48.40290       -6.60876        9.79806
C         49.52420       -6.03243        8.92001
C         50.87890       -6.12027        9.66356
C         51.22610       -7.51480       10.19890
C         51.47930       -8.55532        9.09337
C         52.64840       -8.11507        8.17751
C         53.93550       -7.70933        8.90503
C         54.65600       -8.84453        9.66709
C         55.05850      -10.00280        8.72210
C         56.11430       -9.56864        7.71333
C         56.40420      -10.58120        6.59461
C         55.22550      -10.76180        5.63455
C         57.63360      -10.10980        5.83763
C         58.71400      -10.98040        5.67899
C         59.88800      -10.54680        5.06311
C         60.01180       -9.22558        4.60241
C         61.30640       -8.78301        3.95882
N         61.28060       -8.63432        2.43479
C         60.81560       -9.93099        1.77841
C         60.41040       -7.48601        1.97000
C         62.72140       -8.35342        1.97208
C         58.92440       -8.35719        4.74972
C         57.74250       -8.80140        5.34008
C         55.79980       -8.37717       10.55390
C         56.27240       -7.05874       10.55220
C         57.33720       -6.68289       11.36530
C         57.96500       -7.61810       12.19770
C         59.13800       -7.20053       13.04830
N         58.76780       -6.74550       14.47750
C         58.23280       -7.90828       15.29480
C         60.06340       -6.24912       15.13930
C         57.77060       -5.61395       14.45910
C         57.48440       -8.93230       12.22230
C         56.41090       -9.30298       11.41540
C         51.59510       -9.98752        9.58214
C         51.75790      -10.31540       10.93060
C         52.01890      -11.62720       11.30920
C         52.05080      -12.65900       10.36280
C         52.37740      -14.07890       10.76050
N         51.29200      -14.80270       11.58890
C         51.01420      -14.12450       12.91150
C         50.01560      -14.92620       10.78410
C         51.83410      -16.21090       11.89130
C         51.82210      -12.34410        9.01867
C         51.59650      -11.02390        8.63497
C         49.54370       -6.50954        7.47933
C         48.74940       -7.55940        7.00933
C         48.88070       -8.01447        5.69978
C         49.80140       -7.42031        4.82425
C         49.96650       -7.95370        3.41967
N         49.09830       -7.26471        2.36072
C         49.54830       -5.82807        2.12712
C         49.28890       -8.03850        1.04101
C         47.63280       -7.29425        2.72663
C         50.55380       -6.33031        5.27021
C         50.41230       -5.87113        6.57667
C         48.88400       -3.40417       10.69360
C         48.91910       -2.68787        9.49275
C         50.03450       -1.92938        9.15577
C         51.11020       -1.79048       10.04080
C         52.34400       -1.00525        9.65554
N         52.16530        0.51401        9.53424
C         51.17750        0.91627        8.45464
C         51.75380        1.11462       10.86220
C         53.53610        1.09989        9.13065
C         51.04280       -2.44124       11.27890
C         49.94350       -3.23752       11.60000
C         45.49820       -5.05934       13.21040
C         46.00480       -4.10718       14.10220
C         46.77850       -4.50168       15.19010
C         47.04700       -5.85768       15.42200
C         47.93420       -6.27084       16.56850
N         47.19990       -6.50782       17.89880
C         46.30650       -7.73294       17.81020
C         48.27360       -6.76686       18.96900
C         46.38810       -5.30112       18.31330
C         46.48190       -6.81674       14.57570
C         45.70330       -6.42013       13.49350
C         41.94160       -5.09145       10.42960
C         41.64450       -6.04324       11.40580
C         41.72530       -7.40053       11.11070
C         42.01550       -7.84194        9.81281
C         42.14330       -9.31293        9.49091
N         40.83230      -10.12650        9.55327
C         40.20450      -10.12820       10.92340
C         39.85070       -9.60216        8.51811
C         41.19430      -11.58120        9.19802
C         42.23440       -6.88770        8.81413
C         42.19650       -5.52867        9.11949
C         40.94090       -0.77973        9.78615
C         40.30160       -1.36114        8.67731
C         40.86280       -1.26207        7.40715
C         42.05340       -0.55710        7.21088
C         42.67080       -0.48874        5.83632
N         42.14340        0.62068        4.93822
C         42.54410        1.98975        5.46930
C         42.77950        0.43534        3.54914
C         40.63190        0.56831        4.76897
C         42.64920        0.09417        8.29602
C         42.08360       -0.00245        9.56579
C         39.32890        0.70601       13.67460
C         39.64900        1.87721       12.97390
C         40.81350        2.59023       13.24750
C         41.66160        2.22705       14.29590
C         42.95100        2.98701       14.54150
N         42.80000        4.43685       15.04510
C         42.07570        5.33951       14.05230
C         42.10190        4.46867       16.37870
C         44.22160        5.02049       15.20510
C         41.31110        1.10504       15.06100
C         40.16000        0.35615       14.75390
C         34.79540        0.26299       13.65470
C         34.00900        1.22964       12.99600
C         33.87200        2.43807       13.56850
C         34.52880        2.70721       14.75180
C         34.17560        3.93944       15.45700
N         33.11720        3.68494       16.51950
C         33.79600        3.25305       17.80840
C         32.37020        4.98489       16.57010
C         32.08670        2.59841       16.19760
C         35.30360        1.74529       15.43450
C         35.37780        0.48496       14.89210
C         31.99590       -3.94988       12.36630
C         31.67930       -4.17119       11.02510
C         31.94940       -5.40453       10.44910
C         32.54050       -6.42449       11.20870
C         32.94940       -7.72047       10.56880
N         34.35260       -7.71782        9.95292
C         35.41160       -7.30653       10.97070
C         34.65040       -9.12761        9.46679
C         34.41880       -6.75592        8.76489
C         32.83750       -6.20524       12.55880
C         32.57380       -4.97559       13.12870
C         29.19630       -4.16396       16.02270
C         28.64010       -4.57845       17.38190
C         27.51270       -5.59156       17.31560
C         27.94810       -6.87148       16.56410
C         29.21120       -7.63193       17.02020
C         29.09910       -8.25515       18.40990
C         27.78400       -9.05961       18.53950
C         27.45680      -10.04640       17.40620
C         28.43630      -11.21170       17.24030
C         28.66050      -11.86480       18.62210
C         27.39230      -12.30030       19.36930
C         26.71450      -13.52340       18.75340
C         27.77870      -14.63220       18.59840
C         28.49580      -15.03630       19.90230
C         27.61720      -15.88260       20.83170
C         27.02590      -17.04160       19.99960
C         28.07910      -17.88760       19.25600
C         28.84230      -18.83630       20.18560
C         27.79270      -19.66050       20.97290
C         26.74620      -20.35870       20.07500
C         27.35370      -21.52050       19.28090
C         28.04750      -22.46820       20.28830
C         27.13670      -22.92100       21.44240
C         26.09060      -23.94290       20.98800
C         26.83390      -25.13270       20.33160
C         27.97710      -25.70890       21.18980
C         27.46380      -26.44000       22.43750
C         26.47420      -27.54490       21.98610
C         27.02880      -28.48820       20.90500
C         28.09770      -29.45670       21.43570
C         27.52040      -30.29250       22.59940
C         26.18040      -30.96060       22.28940
C         26.24080      -32.13060       21.27930
C         27.20660      -33.24280       21.77740
C         26.68220      -33.84150       23.07260
C         27.58130      -34.82660       23.82460
C         28.86350      -34.18340       24.35310
C         26.69880      -35.34570       24.95280
C         26.22940      -36.65990       24.90060
C         25.24340      -37.08560       25.78700
C         24.69980      -36.20400       26.73210
C         23.59190      -36.66440       27.64500
N         24.02620      -37.18270       29.00830
C         24.73440      -36.12640       29.83220
C         22.76830      -37.62800       29.76510
C         24.94200      -38.39970       28.85200
C         25.19940      -34.89880       26.81430
C         26.19450      -34.47830       25.93970
C         24.86150      -32.68120       20.92640
C         23.68830      -32.23430       21.54780
C         22.46740      -32.84650       21.28850
C         22.38080      -33.91510       20.39030
C         21.06810      -34.63210       20.19550
N         20.07640      -33.95460       19.23380
C         18.73710      -34.69730       19.37710
C         19.84450      -32.49550       19.54170
C         20.56250      -34.10960       17.79900
C         23.53640      -34.33220       19.72230
C         24.76080      -33.71700       19.98380
C         28.79440      -30.28850       20.37770
C         28.39630      -30.30790       19.03550
C         28.99680      -31.18160       18.13580
C         30.01700      -32.04510       18.55400
C         30.63120      -33.02180       17.58460
N         31.86580      -32.49010       16.83860
C         33.01870      -32.24350       17.80000
C         32.29520      -33.58520       15.84690
C         31.55270      -31.23170       16.06540
C         30.46120      -31.98370       19.87900
C         29.86810      -31.10240       20.77370
C         28.53730      -26.92500       23.39830
C         29.90480      -26.87340       23.10430
C         30.82390      -27.54310       23.90960
C         30.39760      -28.25880       25.03670
C         31.37250      -29.11300       25.81200
N         32.15350      -28.39570       26.91250
C         33.21050      -29.38730       27.43540
C         32.86300      -27.16100       26.40990
C         31.23120      -28.03160       28.06980
C         29.05040      -28.20890       25.40160
C         28.13460      -27.53070       24.60020
C         25.05870      -24.31520       22.04050
C         25.14680      -23.90390       23.37750
C         24.25630      -24.39100       24.33060
C         23.24090      -25.28380       23.96780
C         22.31330      -25.84740       25.01730
N         21.07160      -24.99790       25.30310
C         20.14590      -24.96960       24.09590
C         20.31790      -25.66300       26.47050
C         21.42650      -23.58610       25.71530
C         23.09800      -25.63580       22.62170
C         23.98550      -25.14120       21.66840
C         26.42720      -22.21080       18.29210
C         25.05560      -21.94220       18.21030
C         24.22310      -22.74450       17.42870
C         24.74400      -23.81850       16.69320
C         23.82480      -24.76040       15.94960
N         23.42610      -24.32540       14.53990
C         22.36310      -25.32220       14.03380
C         22.81870      -22.93770       14.51360
C         24.61910      -24.38930       13.59860
C         26.12610      -24.02470       16.69030
C         26.95710      -23.21670       17.46530
C         29.95110      -19.64120       19.51780
C         30.14260      -19.67300       18.12860
C         31.04450      -20.56730       17.55210
C         31.80100      -21.43530       18.34990
C         32.72310      -22.45190       17.71350
N         34.13090      -21.93760       17.39340
C         34.89580      -21.64340       18.67650
C         34.87490      -23.05720       16.63960
C         34.10540      -20.71130       16.51040
C         31.68380      -21.34460       19.73980
C         30.78550      -20.44370       20.31490
C         28.27460      -16.32150       22.13470
C         29.64540      -16.18330       22.38460
C         30.23560      -16.76000       23.50910
C         29.46370      -17.47800       24.43020
C         30.11610      -18.14340       25.62240
N         30.21580      -17.26960       26.87240
C         28.83360      -16.95400       27.43280
C         30.98490      -18.06900       27.94630
C         30.97100      -15.98540       26.61630
C         28.08150      -17.55630       24.22910
C         27.49430      -16.96830       23.10670
C         25.42450      -13.93900       19.45030
C         25.01280      -13.40920       20.68170
C         23.88650      -13.90580       21.34140
C         23.13480      -14.95180       20.79290
C         21.95400      -15.51010       21.56470
N         20.56970      -15.19200       20.99900
C         20.26860      -15.98470       19.72940
C         19.52150      -15.61840       22.05300
C         20.40010      -13.71280       20.73400
C         23.51840      -15.45790       19.54540
C         24.62300      -14.93220       18.86840
C         28.06420      -12.17160       16.10870
C         26.83780      -12.10700       15.42680
C         26.47400      -13.08620       14.49930
C         27.32620      -14.15010       14.20230
C         26.88220      -15.23890       13.24690
N         27.14650      -14.97720       11.76600
C         26.59100      -13.64630       11.29880
C         28.63360      -15.05150       11.46110
C         26.44140      -16.08790       10.95190
C         28.58540      -14.18330       14.81710
C         28.95310      -13.19500       15.74120
C         30.31270       -8.99480       18.95750
C         30.35200       -9.24200       20.34410
C         31.34840      -10.03170       20.91530
C         32.36580      -10.57410       20.12270
C         33.41200      -11.46070       20.77000
N         33.30280      -12.96500       20.48110
C         33.60480      -13.29650       19.02930
C         34.34220      -13.69280       21.35520
C         31.92910      -13.49030       20.84250
C         32.36990      -10.27520       18.75060
C         31.35600       -9.49545       18.17350
C         26.85190       -5.83865       18.66480
C         25.52590       -6.29603       18.68060
C         24.92120       -6.67774       19.87590
C         25.63300       -6.62633       21.08320
C         25.00250       -7.10432       22.36980
N         25.10740       -8.60227       22.61240
C         24.35520       -8.91392       23.92370
C         24.46530       -9.40902       21.49880
C         26.55690       -9.02521       22.78580
C         26.94780       -6.14375       21.07710
C         27.53210       -5.71385       19.88680
C         27.13140       -4.13405       14.30100
C         25.83720       -3.57565       14.31980
C         24.71870       -4.27747       13.88600
C         24.84610       -5.55251       13.34570
C         23.61680       -6.27239       12.85750
N         23.19630       -5.95366       11.42660
C         21.83410       -6.61756       11.16150
C         23.06700       -4.46628       11.15100
C         24.20540       -6.54397       10.43810
C         26.12620       -6.09358       13.22080
C         27.24820       -5.38611       13.67550
C         27.04370       -2.05496       16.58260
C         26.61260       -0.89305       17.16340
C         22.85200        1.37323       15.36800
C         21.67600        1.48830       16.11840
C         20.87760        0.36924       16.36770
C         21.25480       -0.89204       15.89210
C         20.36490       -2.09061       16.07310
N         19.65850       -2.57502       14.79050
C         20.59420       -3.06211       13.71310
C         18.75740       -3.75198       15.16500
C         18.84470       -1.42545       14.20330
C         22.44920       -1.01213       15.18300
C         23.20870        0.10500       14.88430
C         25.03210        4.75323       13.04450
C         24.30930        4.19493       11.98000
C         24.86300        3.21777       11.16590
C         26.18100        2.80391       11.35650
C         26.76240        1.78136       10.42200
N         27.23790        2.30902        9.07731
C         28.41250        3.25930        9.26068
C         27.67170        1.12938        8.21202
C         26.13600        3.05543        8.30685
C         26.93770        3.39521       12.37570
C         26.37100        4.37244       13.20110
C         20.64250        7.54937       12.67950
C         20.08410        6.85275       11.60440
C         20.15160        7.36097       10.30670
C         20.80370        8.57508       10.05360
C         20.83200        9.16682        8.66567
N         19.87870       10.34070        8.43811
C         20.19770       11.54630        9.34144
C         20.05120       10.82050        6.98947
C         18.43940        9.92386        8.65796
C         21.38940        9.26352       11.11950
C         21.27720        8.78327       12.41680
C         19.33540        7.26587       17.04480
C         18.71460        8.46018       16.65050
C         19.37840        9.67403       16.76300
C         20.65250        9.73839       17.33120
C         21.36840       11.05860       17.43160
N         20.88240       11.99310       18.52540
C         21.02740       11.35190       19.89540
C         21.72990       13.26910       18.47040
C         19.42190       12.41740       18.33370
C         21.24040        8.56378       17.81570
C         20.58240        7.34315       17.68310
C         14.49710        5.62723       15.50650
C         13.98700        6.87193       15.13150
C         13.09910        7.54593       15.96890
C         12.70600        6.99554       17.19870
C         11.70180        7.69562       18.08080
N         10.31250        7.05154       18.14720
C          9.42160        7.92045       19.05080
C          9.66863        6.97602       16.77720
C         10.33320        5.65421       18.74750
C         13.24640        5.76913       17.58440
C         14.09750        5.07906       16.73680
C         15.86200        2.23068       12.86400
C         14.55730        1.76146       13.10930
C         14.25150        1.03352       14.24820
C         15.24860        0.69836       15.15760
C         14.89380       -0.11023       16.37950
N         14.58450       -1.59099       16.10710
C         13.26160       -1.78110       15.34290
C         15.67040       -2.23964       15.32270
C         14.42970       -2.29536       17.45800
C         16.56390        1.10983       14.89800
C         16.87430        1.83752       13.74500
C         12.73000        3.74192        9.01453
C         11.54270        3.31101        9.61773
C         10.91300        2.14209        9.18163
C         11.48640        1.35325        8.17882
C         10.75770        0.14291        7.64275
N         10.04580        0.33992        6.30836
C          9.42095       -1.00366        5.89422
C          8.92246        1.36543        6.44341
C         10.97070        0.77325        5.17528
C         12.69520        1.75767        7.60467
C         13.27980        2.96061        7.99020
C         13.96850        8.04561        8.58349
C         13.33350        7.86076        7.34471
C         14.02680        7.34642        6.25862
C         15.38430        7.04670        6.36726
C         16.12700        6.51428        5.17144
N         16.53290        7.56054        4.15114
C         15.31620        8.24760        3.50676
C         17.42410        8.61630        4.76833
C         17.30450        6.85856        3.02603
C         16.04340        7.28926        7.57937
C         15.34690        7.80674        8.66867
C          9.01160        9.78137        9.37699
C          8.49069        9.43935        8.12712
C          8.26209       10.42320        7.16455
C          8.59558       11.75840        7.41881
C          8.31510       12.82760        6.38726
N          7.19093       13.80060        6.73146
C          7.45601       14.63220        7.97584
C          7.04939       14.78150        5.55217
C          5.86885       13.05750        6.89784
C          9.16584       12.09000        8.65123
C          9.33017       11.12360        9.63119
C          8.40875        7.78017       13.35610
C          7.49918        8.83652       13.52350
C          7.93876       10.10240       13.92330
C          9.29376       10.34120       14.17680
C          9.79455       11.73100       14.48430
N          9.73007       12.14440       15.95170
C         10.30040       13.56710       16.07390
C          8.27112       12.19660       16.43600
C         10.51990       11.22810       16.83220
C         10.18480        9.26731       14.10800
C          9.74230        7.99750       13.73490
C          3.81407        5.06294       12.49440
C          2.73982        5.96491       12.53040
C          2.02321        6.19305       13.70660
C          2.36567        5.53155       14.88780
C          1.58619        5.80450       16.15320
N          0.64649        4.69587       16.62080
C         -0.43552        4.44767       15.56310
C          1.34930        3.39139       16.92510
C         -0.04600        5.17450       17.90750
C          3.42847        4.61995       14.85850
C          4.11540        4.36221       13.67270
C          3.37297        6.47426        7.13349
C          3.22163        5.58182        6.06291
C          1.96930        5.36500        5.48543
C          0.83797        6.03553        5.96796
C         -0.51538        5.83396        5.32181
N         -1.40688        4.77524        5.98212
C         -0.78769        3.39552        5.87439
C         -1.70448        5.09653        7.43584
C         -2.74760        4.76403        5.21982
C          0.98250        6.90260        7.05743
C          2.23217        7.11510        7.63626
H          6.00374        8.32823        8.45414
H          4.32682        8.49878        8.93899
H          4.79756        8.86025        7.27627
H          5.46820        6.55875        6.87289
H          6.19504        5.88177        9.03443
H          5.06893        4.68848        8.40879
H          3.25490        5.60503        9.81178
H          4.33345        6.85018       10.43690
H          4.51725        3.83879       10.90010
H          6.78260        4.79069       10.72750
H          6.47621        4.19155       12.31940
H          5.97626        6.48080       13.16870
H          6.26636        7.15447       11.57470
H          8.28345        5.67403       13.32320
H          8.77796        5.29689       10.95180
H         10.01230        6.23135       11.67960
H          7.74625        7.35192        9.93707
H          9.31790        6.89704        9.34669
H          8.75577        9.15650       11.31230
H         11.03390        8.08211       11.55420
H         11.09710        9.78715       11.23660
H         11.59780        9.42670        8.88344
H         11.28400        7.70715        9.03886
H         13.58730        9.27404       10.27490
H         12.95680        7.53956       11.85660
H         14.45140        7.10949       11.14420
H         11.72960        6.00974       10.23150
H         12.68130        5.28086       11.47440
H         13.53600        5.58472        8.54366
H         15.45800        5.51411       10.19440
H         15.50520        4.23184        9.02514
H         14.53780        2.62714       10.53340
H         14.12150        3.88506       11.69050
H         16.88910        2.82599       11.09000
H         17.05910        5.21777       11.52230
H         17.70840        4.34407       12.85270
H         14.91140        5.61782       12.76540
H         16.32560        6.40636       13.38500
H         15.04910        3.89098       14.55280
H         17.52150        4.10027       14.96420
H         16.59550        4.02503       16.42650
H         16.69830        6.45891       16.73380
H         17.43900        6.65458       15.15780
H         18.66390        5.33375       17.61020
H         19.44420        4.09596       15.69190
H         20.74130        5.06352       16.26000
H         18.92540        5.79075       13.89250
H         20.39120        4.88718       13.73660
H         20.17450        7.79573       14.68310
H         22.16310        6.54733       15.59910
H         22.60930        7.93334       14.65720
H         23.03620        6.57254       12.65540
H         22.39710        5.15338       13.46670
H         24.98080        6.60941       14.09220
H         24.05060        5.88251       16.18880
H         25.36640        4.85493       15.80160
H         22.39750        4.14797       15.35050
H         23.27090        3.78370       16.79660
H         23.76640        2.64846       13.99930
H         25.90820        2.95400       15.20730
H         25.56400        1.29302       14.94040
H         24.62000        1.12373       17.25360
H         24.95340        2.82503       17.52320
H         27.68600        2.99653       16.15860
H         28.71850        2.50385       17.42550
H         26.36130        4.49226       17.61040
H         28.03460        4.88815       17.36550
H         26.78200        3.57700       19.79540
H         29.02080        2.60451       19.39620
H         28.94900        3.46926       20.83990
H         30.00640        4.56002       18.14150
H         31.01180        3.63589       19.23460
H         29.89220        6.39969       19.73730
H         29.50820        5.20057       21.70640
H         30.79270        6.22606       22.01200
H         30.86810        3.11379       21.52200
H         30.95030        3.89172       23.05740
H         32.80980        3.87086       20.78120
H         32.69620        6.30887       21.62880
H         34.21380        5.72608       21.97350
H         31.72010        5.57518       23.85050
H         32.69360        6.97292       23.73430
H         33.65470        4.18927       24.57740
H         35.43900        5.31352       23.35650
H         35.83590        5.29390       24.97960
H         34.50160        7.68867       23.42670
H         36.17480        7.53158       23.65820
H         34.09280        7.74770       25.88820
H         35.87050        6.26845       26.64550
H         36.07300        7.72635       27.44630
H         37.55930        6.79992       24.84120
H         38.16790        6.57497       26.40620
H         37.53720        9.28258       25.11760
H         37.06460        9.42498       27.50320
H         38.49630       10.26490       27.22850
H         38.22960        7.30647       28.21780
H         38.36370        8.63653       29.25980
H         40.44580        7.84607       27.15830
H         40.49000       10.24580       27.40470
H         41.85420        9.66007       28.21860
H         39.11070       10.46270       29.46380
H         40.46970       11.48290       29.39130
H         40.35930        8.79936       30.86610
H         42.61360        9.15389       30.04100
H         42.65190        9.41070       31.71910
H         42.45030       11.58270       29.50690
H         43.91570       11.06150       30.20600
H         41.61280       12.37150       31.74020
H         42.75180       10.85330       33.22490
H         43.22250       12.42550       33.69620
H         44.79490       10.46160       31.91220
H         45.00680       10.63170       33.59700
H         45.52280       12.83120       31.51160
H         44.83460       13.79850       33.72190
H         46.48300       14.20210       33.35160
H         47.29730       12.34110       34.73430
H         45.65800       11.79470       35.02460
H         46.76390       14.42540       36.04990
H         44.11660       12.98110       36.65390
H         44.30130       14.52960       35.82690
H         44.74620       14.37980       37.53200
H         48.56660       13.90770       37.45570
H         49.83140       12.32650       38.81030
H         50.22700        9.99695       39.37020
H         49.00680        8.76045       39.07550
H         47.27390        8.29641       40.78840
H         46.76150       10.00920       40.93410
H         47.34820        9.13437       42.37360
H         49.64910        7.69465       41.13090
H         49.65960        8.61303       42.67580
H         50.86760        8.98747       41.39050
H         48.42000       11.76680       41.26750
H         50.16750       11.35410       41.40070
H         49.02620       10.92890       42.72660
H         46.62280        9.44496       38.47400
H         45.34620       11.03530       37.14400
H         46.76300        9.66377       32.47640
H         49.02910        8.91281       32.17500
H         51.43520        9.65043       32.47000
H         51.95980       11.24130       31.90580
H         53.01500        8.40403       31.30340
H         53.76380        9.99464       30.90200
H         53.43470        8.78919       29.60130
H         50.68190        7.94772       30.66780
H         51.18490        8.25327       28.97340
H         49.79460        9.13079       29.64060
H         52.47410       11.66720       29.64490
H         50.78890       11.30080       29.12700
H         52.15500       10.44010       28.36500
H         50.30580       12.97700       31.44410
H         48.01740       13.74270       31.73460
H         43.96100       13.21860       29.24620
H         44.80340       15.45720       28.87380
H         45.57620       17.52430       29.90570
H         45.03990       18.02370       31.51480
H         42.93610       19.23050       31.79830
H         41.94610       18.03250       30.89400
H         41.97310       19.72750       30.35610
H         44.89540       20.25970       30.71150
H         43.89060       20.67120       29.27060
H         45.39940       19.71280       29.07030
H         42.63850       17.27770       28.68730
H         44.13510       17.91820       27.93540
H         42.67530       18.95750       28.09850
H         43.25240       16.70000       32.70890
H         42.37290       14.46760       33.08000
H         38.90440       11.99810       31.10610
H         38.24510       13.06750       33.16960
H         39.01440       13.51740       35.49950
H         39.79830       12.26180       36.46170
H         37.46540       14.12580       37.12030
H         38.34280       13.00890       38.22760
H         36.55050       12.89000       38.05520
H         36.52670       13.27230       35.00660
H         35.56920       12.12400       36.00740
H         36.56460       11.50860       34.66720
H         38.54130       10.62580       37.65560
H         37.78110        9.99562       36.15650
H         36.74650       10.54310       37.50380
H         40.42210       10.10540       35.43720
H         41.06920        9.00203       33.36700
H         39.10960        6.55273       30.16030
H         40.31130        5.08753       31.66200
H         42.45910        4.60914       32.73600
H         43.99390        5.04912       31.97500
H         45.01780        3.58672       30.30930
H         43.54910        3.49261       29.27780
H         44.26780        1.99665       29.91480
H         44.88090        2.94897       32.68800
H         44.07900        1.40078       32.23570
H         43.28650        2.51293       33.40780
H         41.39220        2.91334       30.25610
H         41.25460        2.57718       32.01570
H         42.06640        1.40541       30.91530
H         44.01920        6.04467       29.66040
H         42.81120        7.50001       28.12450
H         39.82800        6.64160       24.73210
H         42.11610        6.88190       23.97330
H         44.16060        8.27629       24.23290
H         44.06950       10.03300       24.37760
H         45.83360        8.28202       22.60470
H         45.91630       10.06580       22.83630
H         45.74600        9.36963       21.17890
H         43.69450        7.22363       21.97380
H         43.70870        8.27672       20.51990
H         42.27800        8.25515       21.57710
H         43.91950       11.44290       22.45150
H         42.38790       10.67420       21.90230
H         43.78640       10.73710       20.79650
H         41.86310       11.16330       24.50430
H         39.55950       10.93090       25.24410
H         35.55440        9.83868       23.42930
H         35.77660       12.25150       23.65860
H         36.29690       14.10820       25.19240
H         35.97940       13.98700       26.92490
H         33.74940       14.47900       27.81850
H         32.91210       13.33440       26.71520
H         32.44230       15.05080       26.71370
H         35.18340       16.24460       26.89170
H         33.85590       16.74130       25.77500
H         35.48060       16.32480       25.11730
H         33.31910       13.43540       24.30310
H         34.46290       14.64050       23.62730
H         32.86200       15.15530       24.27680
H         34.82060       11.96230       27.85800
H         34.56870        9.55455       27.63600
H         31.51150        6.81719       25.63240
H         30.94230        7.30442       27.90530
H         31.91960        7.48235       30.24980
H         32.99470        6.21312       30.84460
H         30.39070        7.30203       32.02250
H         31.55660        6.14786       32.76320
H         29.81740        5.69468       32.59920
H         29.47600        6.85820       29.77920
H         28.84710        5.31722       30.46440
H         29.82070        5.28508       28.97880
H         32.17790        4.09210       31.54770
H         31.44980        3.74605       29.94570
H         30.42730        3.67708       31.40920
H         34.10740        4.71322       29.27990
H         34.70770        4.21563       26.96360
H         32.31310        1.94080       23.59710
H         34.02840        0.46483       24.51920
H         36.34470        0.00862       24.94600
H         37.61870        1.05378       24.30010
H         38.75820        0.45934       22.20860
H         37.24610        0.35231       21.23990
H         38.32060       -1.05377       21.33720
H         39.01090       -0.94917       24.21850
H         38.46960       -2.39550       23.29500
H         37.61710       -1.93014       24.80880
H         35.34910       -0.92319       22.05440
H         35.46420       -1.84988       23.59100
H         36.36260       -2.38421       22.12340
H         37.05710        2.50065       22.20140
H         35.35340        3.92671       21.24620
H         33.48260        4.96287       19.69640
H         35.34400        6.01608       18.82920
H         36.42420        7.64804       17.81110
H         35.86380        9.29547       17.98280
H         34.26010        7.08317       15.41580
H         35.90890        6.39295       15.57760
H         35.48540        7.40486       14.16280
H         33.93010        9.49598       15.66310
H         35.19230        9.80795       14.43740
H         35.33010       10.55190       16.07830
H         37.81070        7.79260       15.94590
H         37.61340        9.56136       16.20570
H         37.33970        8.83459       14.57110
H         32.89800        9.34410       17.69870
H         30.93410        8.23723       18.66430
H         27.02740        4.64937       21.97250
H         27.09610        6.74410       23.20200
H         26.98130        9.35701       23.05100
H         27.57440       10.11960       21.56130
H         29.40340        7.30095       23.36150
H         28.64040        8.32692       24.62370
H         30.39960        8.45201       24.26700
H         30.10090        8.32361       21.22000
H         31.16160        9.40266       22.15190
H         29.96720       10.09510       20.99160
H         28.50850       10.74700       24.32090
H         29.07110       11.49680       22.77390
H         30.26300       10.78870       23.91810
H         27.64950        8.89901       19.49570
H         27.54540        6.81579       18.26010
H         24.52150        1.87332       19.35180
H         24.15430        0.76394       21.42210
H         25.05650       -0.50597       23.36910
H         26.63630       -1.30863       23.25870
H         24.04220       -1.67408       20.48610
H         23.11200       -1.45422       22.02170
H         23.30090       -3.07689       21.26780
H         26.27550       -2.63714       20.52120
H         25.44220       -4.05891       21.13830
H         26.87370       -3.41531       22.03080
H         23.93950       -2.51905       24.08790
H         25.56880       -3.30344       24.10530
H         24.21570       -4.06697       23.21370
H         28.15770       -0.85218       21.31800
H         28.56230        0.28726       19.19610
H         28.44910        1.29010       15.30520
H         29.03070       -0.70274       14.17690
H         28.96340       -2.55381       12.94740
H         29.52680       -4.17692       13.22590
H         31.23330       -3.42310       14.85520
H         30.72740       -1.77437       14.68250
H         31.29310       -1.91538       12.23660
H         33.49270       -2.60605       14.28420
H         32.73840       -1.05385       14.02140
H         33.47510       -1.15907       11.58460
H         34.32880       -2.65858       11.92230
H         35.76050       -1.63259       13.53750
H         35.46430        0.12136       11.00780
H         36.39900       -1.33044       11.14180
H         36.85390        1.38665       12.58120
H         37.78180        0.73040       11.27970
H         37.63110       -0.36150       14.16140
H         37.64830       -2.26507       12.75570
H         39.19110       -2.12977       13.47500
H         38.39100       -1.18714       10.62070
H         39.12840       -2.69837       10.97330
H         40.32500        0.06019       11.48820
H         41.12130       -1.43238       13.23320
H         42.40650       -1.16757       12.16220
H         40.48410       -3.61136       12.23260
H         42.05000       -3.54979       12.96590
H         41.41110       -3.19333        9.96246
H         43.38640       -1.90169       10.48310
H         43.90630       -3.26872        9.61470
H         43.94730       -2.82782       12.69260
H         45.28950       -2.59213       11.65560
H         43.83230       -5.23606       12.08370
H         44.65450       -5.19524        9.82032
H         45.66050       -6.25914       10.69060
H         46.23200       -3.29252        9.97912
H         46.79860       -4.64049        9.08623
H         47.47800       -4.06469       12.01240
H         47.51740       -6.44642       11.70400
H         49.15520       -5.95316       11.75940
H         47.45250       -6.59290        9.25661
H         48.56200       -7.67607        9.99131
H         49.30230       -4.97999        8.77531
H         50.85260       -5.46819       10.54030
H         51.69080       -5.70129        9.06263
H         50.43450       -7.86178       10.87180
H         52.09980       -7.42413       10.85520
H         50.57710       -8.60136        8.48344
H         52.34000       -7.22486        7.62233
H         52.84600       -8.84973        7.39210
H         53.70710       -6.89080        9.59605
H         54.60410       -7.24898        8.16861
H         53.94530       -9.23859       10.39170
H         54.17630      -10.36430        8.19308
H         55.42310      -10.86510        9.29167
H         57.04240       -9.35763        8.26034
H         55.80400       -8.62897        7.25134
H         56.61550      -11.55280        7.06043
H         54.93490       -9.81484        5.16607
H         54.34670      -11.16560        6.14624
H         55.48510      -11.46220        4.83267
H         58.67120      -12.00500        6.04696
H         60.71190      -11.24920        4.96228
H         62.09270       -9.51320        4.19052
H         61.62390       -7.82281        4.38600
H         59.77050      -10.10580        2.05294
H         61.44750      -10.74840        2.13643
H         60.89370       -9.81851        0.69421
H         59.36620       -7.71464        2.18942
H         60.52450       -7.36759        0.88861
H         60.72160       -6.57499        2.49275
H         63.35100       -9.19098        2.28387
H         63.05050       -7.42362        2.44604
H         62.71720       -8.25263        0.88367
H         58.98590       -7.32589        4.41211
H         56.92190       -8.09529        5.43083
H         55.85660       -6.30270        9.89302
H         57.69820       -5.65704       11.31650
H         59.64920       -6.35541       12.56950
H         59.86300       -8.01928       13.13380
H         58.96130       -8.72421       15.27490
H         57.27800       -8.23033       14.87130
H         58.06380       -7.56211       16.31810
H         60.78250       -7.07231       15.14820
H         59.81990       -5.93128       16.15660
H         60.43910       -5.40315       14.55530
H         56.81780       -5.97932       14.05700
H         58.15940       -4.80248       13.83590
H         57.60830       -5.26852       15.48190
H         57.96010       -9.68906       12.84480
H         56.08310      -10.34180       11.43830
H         51.78840       -9.55239       11.70310
H         52.24410      -11.81530       12.35530
H         53.30820      -14.09320       11.34070
H         52.53560      -14.69050        9.86297
H         50.46600      -13.19490       12.72900
H         51.96020      -13.93050       13.42230
H         50.37540      -14.77450       13.51780
H         49.62980      -13.93140       10.57100
H         49.28360      -15.47570       11.38250
H         50.23090      -15.46020        9.85041
H         52.75660      -16.10000       12.46800
H         52.01840      -16.71830       10.94120
H         51.07670      -16.74220       12.47470
H         51.87820      -13.11020        8.24455
H         51.49700      -10.80270        7.57198
H         48.06300       -8.09118        7.66154
H         48.28290       -8.86270        5.37276
H         49.70030       -9.01827        3.41147
H         51.01410       -7.87726        3.10320
H         50.61380       -5.82797        1.87848
H         49.36550       -5.25109        3.03703
H         48.95430       -5.40573        1.31224
H         50.35010       -8.01309        0.78193
H         48.68160       -7.55220        0.27298
H         48.95030       -9.06597        1.20435
H         47.47410       -6.67980        3.61777
H         47.33790       -8.32886        2.92370
H         47.04990       -6.87863        1.89973
H         51.28120       -5.84761        4.61781
H         51.04750       -5.04760        6.90377
H         48.13650       -2.78195        8.74429
H         50.05980       -1.48347        8.16392
H         52.72980       -1.38026        8.69916
H         53.12760       -1.16465       10.40820
H         50.16380        0.67659        8.80004
H         51.41580        0.37219        7.53713
H         51.23570        1.99419        8.29798
H         50.78190        0.70221       11.14870
H         51.66810        2.19903       10.74400
H         52.50590        0.86210       11.61540
H         53.82060        0.65534        8.17307
H         54.25700        0.84307        9.91157
H         53.42670        2.18380        9.04199
H         51.87240       -2.38211       11.98360
H         49.95710       -3.78857       12.53910
H         45.87900       -3.04156       13.92830
H         47.20570       -3.73403       15.83380
H         48.68740       -5.49200       16.74350
H         48.47150       -7.19456       16.31860
H         46.91040       -8.59141       17.50290
H         45.51350       -7.54132       17.08270
H         45.85580       -7.90550       18.79160
H         48.85820       -7.63782       18.66200
H         47.76460       -6.95116       19.91900
H         48.90340       -5.87516       19.03720
H         45.56810       -5.15779       17.60430
H         47.04050       -4.42212       18.32940
H         45.96630       -5.48354       19.30590
H         46.67950       -7.87796       14.72070
H         45.32620       -7.18558       12.81600
H         41.45040       -5.75675       12.43530
H         41.59960       -8.10019       11.93130
H         42.85560       -9.77521       10.18450
H         42.53970       -9.44112        8.47540
H         39.76850       -9.14392       11.11920
H         40.96340      -10.38080       11.66740
H         39.39180      -10.86090       10.94120
H         39.59390       -8.57033        8.76844
H         38.94840      -10.21860        8.56361
H         40.31310       -9.65764        7.52722
H         41.90710      -11.93920        9.94575
H         41.63170      -11.59340        8.19612
H         40.27500      -12.17140        9.23097
H         42.49260       -7.18415        7.79632
H         42.44250       -4.80985        8.33606
H         39.39640       -1.95089        8.77022
H         40.36500       -1.75591        6.57224
H         42.50470       -1.44625        5.32404
H         43.75760       -0.35843        5.92404
H         43.63440        2.01033        5.58759
H         42.05850        2.14770        6.43357
H         42.21240        2.75274        4.76025
H         43.86580        0.47153        3.67061
H         42.42580        1.24011        2.89966
H         42.46800       -0.54105        3.16661
H         40.15890        0.79035        5.72899
H         40.35240       -0.43276        4.42873
H         40.32980        1.32535        4.03832
H         43.57240        0.66009        8.16836
H         42.59390        0.48093       10.39690
H         39.07000        2.21140       12.11570
H         41.06040        3.40971       12.57450
H         43.54710        3.01093       13.62130
H         43.54440        2.46266       15.30230
H         41.01210        5.07346       14.05500
H         42.51820        5.20023       13.06020
H         42.16510        6.37386       14.38080
H         41.09520        4.05050       16.26260
H         42.02530        5.50654       16.71320
H         42.67320        3.87306       17.09640
H         44.71210        4.99291       14.22860
H         44.75830        4.40728       15.93380
H         44.12460        6.04826       15.56610
H         41.96440        0.75968       15.86240
H         39.97320       -0.55789       15.31590
H         33.56610        1.03353       12.02040
H         33.24190        3.19251       13.07970
H         33.78530        4.66306       14.72840
H         35.05410        4.39714       15.92320
H         34.63740        3.91303       18.02520
H         34.17120        2.23131       17.71180
H         33.05690        3.23587       18.60520
H         33.08740        5.79280       16.65380
H         31.70770        4.93491       17.40300
H         31.79270        5.11164       15.65130
H         32.57630        1.62192       16.14550
H         31.57970        2.84741       15.26340
H         31.36630        2.57242       17.02150
H         35.82440        1.95528       16.36200
H         35.97110       -0.26819       15.40050
H         31.24770       -3.38178       10.41110
H         31.73280       -5.54384        9.38983
H         32.23490       -8.00168        9.78444
H         32.92930       -8.51219       11.32740
H         35.32920       -7.96124       11.84410
H         35.26030       -6.26303       11.25970
H         36.39910       -7.41074       10.51040
H         34.62010       -9.79792       10.33010
H         35.64830       -9.13200        9.01813
H         33.88630       -9.40498        8.73502
H         34.31350       -5.75458        9.07124
H         33.61840       -7.03892        8.05377
H         35.40070       -6.86301        8.29649
H         33.31530       -6.97318       13.16300
H         32.84510       -4.81735       14.16970
H         30.01010       -3.50092       16.34350
H         29.68090       -5.03431       15.56440
H         28.35400       -3.70131       17.97220
H         29.47940       -5.00177       17.95040
H         26.71520       -5.14335       16.71430
H         28.17610       -6.61417       15.53540
H         27.07620       -7.52341       16.47220
H         30.08940       -6.97839       16.97120
H         29.40330       -8.41767       16.27790
H         29.04520       -7.41166       19.09560
H         26.94150       -8.37639       18.53920
H         27.71000       -9.52359       19.52610
H         27.37540       -9.53080       16.44570
H         26.44440      -10.42380       17.60090
H         29.39230      -10.78950       16.91530
H         29.11900      -11.15080       19.29490
H         29.42980      -12.63880       18.56780
H         26.67240      -11.48030       19.44680
H         27.67400      -12.49990       20.41110
H         26.37530      -13.24340       17.75420
H         28.57860      -14.30300       17.93750
H         27.37620      -15.47190       18.02790
H         28.88410      -14.16610       20.43940
H         29.40310      -15.58630       19.62580
H         26.79420      -15.25410       21.17490
H         26.37170      -16.65760       19.21890
H         26.31620      -17.61990       20.59310
H         28.77980      -17.26620       18.69270
H         27.56890      -18.45130       18.46540
H         29.39920      -18.23400       20.90330
H         27.22040      -19.01610       21.63980
H         28.27710      -20.32580       21.69140
H         26.25480      -19.65350       19.39960
H         25.91430      -20.69940       20.70310
H         28.11580      -21.11090       18.62090
H         28.88440      -21.96930       20.77090
H         28.55390      -23.28740       19.77380
H         26.65560      -22.07050       21.93200
H         27.76190      -23.32930       22.24510
H         25.47020      -23.47620       20.22480
H         27.30370      -24.81590       19.40120
H         26.13090      -25.89240       19.98050
H         28.69290      -24.93080       21.47140
H         28.58490      -26.37260       20.56470
H         26.91810      -25.72190       23.04840
H         25.58930      -27.08780       21.54130
H         26.05450      -28.07710       22.84140
H         27.41740      -27.92070       20.05570
H         26.19090      -29.03900       20.46080
H         28.91950      -28.85910       21.82830
H         27.32210      -29.63390       23.44650
H         28.24890      -30.99850       23.00480
H         25.46470      -30.20900       21.94190
H         25.74710      -31.27890       23.24390
H         26.62030      -31.74270       20.33260
H         28.20400      -32.83460       21.93780
H         27.33310      -34.02650       21.02290
H         25.72520      -34.33140       22.85340
H         26.45930      -33.02720       23.76430
H         27.85680      -35.64800       23.15220
H         28.65790      -33.32040       24.99590
H         29.50090      -33.83700       23.53360
H         29.44160      -34.90360       24.94280
H         26.59050      -37.35550       24.14380
H         24.88780      -38.11410       25.71380
H         23.01580      -37.45890       27.15330
H         22.89800      -35.83000       27.81440
H         24.08010      -35.24930       29.90910
H         25.67080      -35.85260       29.33700
H         24.95070      -36.52980       30.82120
H         22.12050      -36.75380       29.88360
H         23.07120      -38.01680       30.74090
H         22.26590      -38.39740       29.17290
H         25.87070      -38.07760       28.37150
H         24.42590      -39.14090       28.23590
H         25.16170      -38.79760       29.84590
H         24.80570      -34.19780       27.54600
H         26.52380      -33.44480       25.99390
H         23.69240      -31.44670       22.29370
H         21.58920      -32.50650       21.83320
H         20.57180      -34.72280       21.16940
H         21.23960      -35.65010       19.82320
H         18.38730      -34.56090       20.40500
H         18.90510      -35.75490       19.15900
H         18.02690      -34.25520       18.67240
H         19.53060      -32.39570       20.58520
H         19.06590      -32.11020       18.87580
H         20.76600      -31.93550       19.35970
H         20.70490      -35.17160       17.58660
H         21.50520      -33.56460       17.69120
H         19.81150      -33.67540       17.13320
H         23.51050      -35.17640       19.03270
H         25.64840      -34.10580       19.48510
H         27.56820      -29.70560       18.67450
H         28.63400      -31.21210       17.10950
H         29.88630      -33.29340       16.82440
H         30.92180      -33.94150       18.10440
H         33.20900      -33.15820       18.36900
H         32.75060      -31.42180       18.46940
H         33.89850      -31.95270       17.21950
H         32.52160      -34.49090       16.41510
H         33.17840      -33.22610       15.31130
H         31.46700      -33.75310       15.15280
H         31.32070      -30.42610       16.76770
H         30.69760      -31.42070       15.40840
H         32.43180      -30.94700       15.48010
H         31.24830      -32.64760       20.23740
H         30.20590      -31.11370       21.80970
H         30.27720      -26.41150       22.19560
H         31.87000      -27.55720       23.61090
H         32.10320      -29.53570       25.10990
H         30.84690      -29.95860       26.27390
H         33.87730      -29.63380       26.60350
H         32.69250      -30.28010       27.79520
H         33.76570      -28.89910       28.24060
H         33.48940      -27.43690       25.55490
H         33.47750      -26.74950       27.21640
H         32.12050      -26.41590       26.11270
H         30.73210      -28.93860       28.42110
H         30.49720      -27.30360       27.71390
H         31.83410      -27.58270       28.86460
H         28.68430      -28.75820       26.26930
H         27.07910      -27.58600       24.86800
H         25.94920      -23.26200       23.72820
H         24.38410      -24.09350       25.37070
H         22.86220      -25.95890       25.96160
H         21.97250      -26.84750       24.72060
H         19.90750      -25.99830       23.81070
H         20.65350      -24.45410       23.27660
H         19.24080      -24.41610       24.36280
H         20.05940      -26.68200       26.17090
H         19.42100      -25.07250       26.67440
H         20.98290      -25.66860       27.33900
H         21.89060      -23.07230       24.86580
H         22.12550      -23.62850       26.55880
H         20.51590      -23.05510       25.99360
H         22.31880      -26.32970       22.30690
H         23.87900      -25.48080       20.63850
H         24.58710      -21.17430       18.81800
H         23.15060      -22.55590       17.44270
H         22.90340      -24.89050       16.53210
H         24.29210      -25.75020       15.86620
H         21.50100      -25.26170       14.70520
H         22.80130      -26.32320       14.05450
H         22.08230      -25.03380       13.01780
H         21.98830      -22.90300       15.22190
H         22.46960      -22.72410       13.49920
H         23.58520      -22.21000       14.78440
H         25.03440      -25.40010       13.62560
H         25.36500      -23.66190       13.93190
H         24.28260      -24.13020       12.59070
H         26.56480      -24.85410       16.13560
H         28.01990      -23.45520       17.49580
H         29.53390      -19.07780       17.45490
H         31.11830      -20.61200       16.46670
H         32.27850      -22.80430       16.77350
H         32.83070      -23.32640       18.36750
H         34.90450      -22.54420       19.29610
H         34.39670      -20.82320       19.20020
H         35.91210      -21.33710       18.41340
H         34.89590      -23.94320       17.27890
H         35.88650      -22.70400       16.42240
H         34.32970      -23.25690       15.71250
H         33.65540      -19.88140       17.06260
H         33.51830      -20.93380       15.61180
H         35.12990      -20.44190       16.24330
H         32.25210      -22.01010       20.39110
H         30.67080      -20.45410       21.39910
H         30.29880      -15.70910       21.66770
H         31.31280      -16.68160       23.64450
H         31.13710      -18.44180       25.35090
H         29.57370      -19.05850       25.89060
H         28.30250      -17.89760       27.60330
H         28.29550      -16.34030       26.70500
H         28.95150      -16.39320       28.36080
H         30.43530      -18.99360       28.13970
H         31.05080      -17.45150       28.84630
H         31.98250      -18.28480       27.55210
H         30.40130      -15.37310       25.90920
H         31.95090      -16.23360       26.18640
H         31.08590      -15.43980       27.55110
H         27.44930      -18.10650       24.92740
H         26.42250      -17.10500       22.95860
H         25.59260      -12.65070       21.19450
H         23.62680      -13.50010       22.31890
H         21.97240      -15.08800       22.57840
H         22.04600      -16.59790       21.67130
H         20.49450      -17.03600       19.91410
H         20.89210      -15.59050       18.91990
H         19.22070      -15.84120       19.46550
H         19.65080      -16.68680       22.24350
H         18.52780      -15.40410       21.65050
H         19.70190      -15.03560       22.96140
H         21.10400      -13.40890       19.95190
H         20.61010      -13.16420       21.65600
H         19.37780      -13.52590       20.39360
H         22.98600      -16.29080       19.08850
H         24.89750      -15.37600       17.91050
H         26.10160      -11.33700       15.63720
H         25.49260      -13.01950       14.02750
H         25.79730      -15.38820       13.36560
H         27.36090      -16.18900       13.50890
H         27.13400      -12.84050       11.80260
H         25.52640      -13.60220       11.54770
H         26.74000      -13.55520       10.21960
H         29.14030      -14.25250       12.00990
H         28.78070      -14.90850       10.38740
H         29.00850      -16.02750       11.78160
H         25.36760      -16.02070       11.15290
H         26.83780      -17.05150       11.28250
H         26.64860      -15.91800        9.89259
H         29.27900      -14.99900       14.61280
H         29.92060      -13.28690       16.23260
H         29.56030       -8.86750       20.98910
H         31.31010      -10.23100       21.98600
H         33.34030      -11.35670       21.86070
H         34.41710      -11.13030       20.48110
H         34.56000      -12.83950       18.75750
H         32.79640      -12.91610       18.40380
H         33.65030      -14.38350       18.92010
H         35.33330      -13.31390       21.09210
H         34.26690      -14.76490       21.15110
H         34.10950      -13.48740       22.40400
H         31.18210      -12.99710       20.21860
H         31.73820      -13.28750       21.90050
H         31.91560      -14.56420       20.64320
H         33.15330      -10.66230       18.10140
H         31.38200       -9.33155       17.09840
H         24.97930       -6.42657       17.74710
H         23.90370       -7.06626       19.84420
H         23.94200       -6.82361       22.38230
H         25.47700       -6.59627       23.22040
H         23.31190       -8.61443       23.79030
H         24.82560       -8.34198       24.72780
H         24.43330       -9.98814       24.10730
H         23.44170       -9.05110       21.34900
H         24.47390      -10.46190       21.77620
H         25.05510       -9.27958       20.58110
H         27.00370       -8.43619       23.58850
H         27.08840       -8.84293       21.84460
H         26.58640      -10.09170       23.01350
H         27.52560       -6.08182       21.99990
H         28.55860       -5.35232       19.92990
H         25.64110       -2.57225       14.68680
H         23.74800       -3.80144       13.95640
H         22.77520       -6.00268       13.50990
H         23.74780       -7.35883       12.94480
H         21.11060       -6.17431       11.85520
H         21.93450       -7.68871       11.35090
H         21.54490       -6.41566       10.12780
H         22.37400       -4.04418       11.87880
H         22.68660       -4.31837       10.13750
H         24.04930       -3.99071       11.24810
H         24.29660       -7.61376       10.64140
H         25.16550       -6.04289       10.58520
H         23.84330       -6.36088        9.42298
H         26.27290       -7.07297       12.76640
H         28.22190       -5.85825       13.54910
H         26.58850       -2.97399       16.93520
H         25.86420       -0.96924       17.94890
H         21.35630        2.44455       16.52800
H         19.95900        0.50811       16.93790
H         19.57490       -1.85812       16.80000
H         20.94240       -2.93219       16.47450
H         21.27030       -3.80238       14.15130
H         21.15390       -2.22166       13.29640
H         20.00610       -3.51609       12.90990
H         19.39780       -4.60211       15.41990
H         18.12350       -3.98737       14.30640
H         18.16210       -3.47454       16.03520
H         19.52500       -0.65011       13.83740
H         18.22910       -1.02806       15.00550
H         18.23480       -1.80737       13.38110
H         22.79240       -1.97057       14.81860
H         24.10510       -0.03251       14.28420
H         23.27940        4.46876       11.75760
H         24.24720        2.80943       10.36620
H         26.02040        0.99347       10.23850
H         27.62130        1.29272       10.90320
H         29.19840        2.72256        9.80324
H         28.08280        4.12376        9.84257
H         28.76890        3.57588        8.27827
H         28.46220        0.59260        8.74542
H         28.03860        1.51127        7.25539
H         26.80630        0.47559        8.06746
H         25.88110        3.96944        8.84903
H         25.26960        2.39225        8.22356
H         26.51890        3.31817        7.31768
H         27.97200        3.10525       12.53930
H         26.96530        4.80134       14.00430
H         19.59410        5.89537       11.74670
H         19.68990        6.79870        9.49749
H         20.55410        8.39128        7.93856
H         21.85020        9.49028        8.41778
H         21.24950       11.77380        9.25367
H         19.92250       11.28130       10.37020
H         19.56900       12.38440        9.02487
H         21.08830       11.13640        6.85511
H         19.35580       11.64630        6.81614
H         19.81820        9.97920        6.32982
H         18.31100        9.59644        9.69314
H         18.22740        9.09705        7.97607
H         17.78340       10.77270        8.44901
H         21.91950       10.20110       10.96390
H         21.72450        9.36819       13.21740
H         17.73830        8.48484       16.17140
H         18.88190       10.56470       16.38070
H         21.31220       11.58380       16.46960
H         22.43430       10.87080       17.62520
H         22.07450       11.05550       20.02340
H         20.38440       10.46840       19.94570
H         20.73470       12.07530       20.65890
H         22.77560       12.98260       18.62110
H         21.39630       13.94250       19.26370
H         21.59940       13.72170       17.48340
H         18.77710       11.54980       18.50710
H         19.30320       12.79100       17.31130
H         19.18150       13.18990       19.06370
H         22.22550        8.58382       18.27380
H         21.08530        6.44027       18.01930
H         14.27650        7.34906       14.19820
H         12.72670        8.51652       15.65480
H         11.55700        8.71655       17.71240
H         12.09270        7.77551       19.10170
H          9.38134        8.92515       18.62170
H          9.87313        7.94539       20.04510
H          8.42354        7.47546       19.07530
H          9.57361        7.99961       16.40910
H          8.69374        6.50818       16.85890
H         10.31290        6.38391       16.11560
H         10.89000        5.68890       19.68810
H         10.80510        4.97004       18.03670
H          9.30490        5.32314       18.91180
H         13.00170        5.32468       18.54630
H         14.47450        4.11606       17.07060
H         13.70740        2.01410       12.47450
H         13.20700        0.77054       14.41330
H         14.05490        0.33364       16.92140
H         15.76320       -0.10267       17.05560
H         13.40310       -1.44800       14.31250
H         12.48430       -1.20779       15.85130
H         13.02910       -2.85056       15.32900
H         15.77090       -1.76378       14.34050
H         15.46830       -3.30349       15.20140
H         16.59070       -2.09615       15.89410
H         13.61360       -1.82009       18.00540
H         15.37650       -2.18516       17.99840
H         14.23260       -3.35412       17.27080
H         17.35310        0.92056       15.61760
H         17.88970        2.19848       13.59690
H         11.06250        3.87510       10.41430
H          9.97731        1.84951        9.65293
H          9.99973       -0.18422        8.36772
H         11.47310       -0.68305        7.52824
H          8.73812       -1.31868        6.68765
H         10.23430       -1.72744        5.77885
H          8.89053       -0.86215        4.94970
H          8.24368        1.02847        7.23208
H          8.40353        1.44627        5.48495
H          9.36319        2.33041        6.71078
H         11.81500        0.07786        5.13429
H         11.31700        1.79211        5.36993
H         10.41620        0.76204        4.23418
H         13.15470        1.18502        6.80564
H         14.18460        3.27770        7.47200
H         12.26850        8.04018        7.19397
H         13.47570        7.18160        5.33224
H         15.53670        5.73800        4.67023
H         17.05110        6.03243        5.52289
H         14.82090        8.86270        4.26271
H         14.64680        7.46976        3.13119
H         15.66860        8.89380        2.69896
H         16.84740        9.16600        5.53119
H         17.74790        9.30973        3.99107
H         18.27680        8.12977        5.23044
H         16.64340        6.10658        2.58278
H         18.18040        6.37945        3.47184
H         17.60740        7.60815        2.29306
H         17.09560        7.05219        7.68728
H         15.86310        7.94369        9.61522
H          8.23511        8.41500        7.87555
H          7.81336       10.13150        6.21520
H          8.04786       12.35380        5.43332
H          9.23101       13.40730        6.21673
H          8.45961       15.06360        7.89991
H          7.37852       13.98830        8.85721
H          6.70142       15.41710        8.05370
H          8.00115       15.31150        5.44599
H          6.23890       15.47760        5.78200
H          6.82812       14.20130        4.65277
H          5.95715       12.37660        7.74946
H          5.67014       12.49300        5.98267
H          5.08020       13.78990        7.09158
H          9.46265       13.11020        8.87757
H          9.73400       11.43540       10.59070
H          6.44783        8.74130       13.24720
H          7.20591       10.91150       13.96710
H          9.25869       12.47840       13.88780
H         10.85360       11.79290       14.19280
H          9.71391       14.22840       15.43160
H         11.34500       13.53390       15.74180
H         10.24770       13.87130       17.12260
H          7.70888       12.84590       15.75830
H          8.26137       12.58110       17.45900
H          7.86920       11.17990       16.42970
H         11.55280       11.18490       16.47050
H         10.07800       10.23230       16.78730
H         10.49370       11.58710       17.86650
H         11.24350        9.42838       14.27670
H         10.47430        7.20014       13.62440
H          2.42777        6.53148       11.65540
H          1.19323        6.90179       13.68040
H          0.97661        6.70935       16.02560
H          2.29385        6.01001       16.96660
H          0.04811        4.08264       14.65340
H         -0.95229        5.39208       15.36990
H         -1.12416        3.69104       15.94830
H          1.72219        2.95684       15.99210
H          0.64080        2.69662       17.37980
H          2.17962        3.59693       17.61010
H         -0.57619        6.10482       17.68920
H          0.73031        5.34172       18.66020
H         -0.73741        4.39359       18.23630
H          3.72572        4.08214       15.75340
H          4.90798        3.62077       13.69510
H          4.08079        5.06752        5.63938
H          1.88630        4.68828        4.63612
H         -0.38060        5.53505        4.27491
H         -1.06660        6.78273        5.32100
H          0.13962        3.37970        6.45483
H         -0.57971        3.18314        4.82209
H         -1.48536        2.66195        6.28902
H         -0.77355        5.03026        8.00918
H         -2.41192        4.36451        7.82357
H         -2.11744        6.11042        7.49511
H         -2.53963        4.52451        4.17341
H         -3.19723        5.75650        5.31156
H         -3.38889        4.00328        5.67299
H          0.12004        7.43574        7.45934
H          2.28284        7.80735        8.47319
