25
Coordinates from ORCA-job PFOA_altB_r2 E -1953.039964041609
  F      -1.400241     -1.438345      1.847909
  F      -0.725260      0.556856      1.587894
  F       0.966337     -1.362971      2.670261
  F       0.878456     -2.484895      0.834620
  F      -0.107586     -1.011677     -1.268199
  F      -1.766381     -2.019492     -0.418438
  F       3.154923     -1.138275      1.470818
  F       2.335524     -0.747624     -0.468869
  F      -3.358460     -0.224450     -0.573037
  F      -2.041858      1.434085     -0.306722
  F       3.524628      1.359474      1.187719
  F       1.702951      1.273302      2.349597
  F      -2.200968     -0.783820     -3.030145
  F      -0.980180      0.977692     -2.880928
  F      -3.114576      1.143186     -2.821756
  O       1.914057      2.950212     -0.295369
  O       0.474043      1.240644     -0.494462
  C      -0.584627     -0.670295      1.080507
  C       0.849541     -1.228049      1.331519
  C      -1.100424     -0.839388     -0.387256
  C       2.132987     -0.498430      0.839740
  C      -2.123187      0.234238     -0.883912
  C       2.212562      1.013722      1.108709
  C      -2.079893      0.400767     -2.432580
  C       1.437733      1.863534     -0.047820
25
Coordinates from ORCA-job PFOA_altB_r2 E -1953.043298843882
  F      -1.412950     -1.468704      1.769368
  F      -0.870380      0.579099      1.511562
  F       0.879117     -1.265452      2.600515
  F       0.867811     -2.376628      0.734221
  F      -0.246681     -0.970299     -1.396000
  F      -1.795376     -2.097538     -0.460704
  F       3.081729     -1.184427      1.582525
  F       2.489447     -0.637856     -0.417897
  F      -3.555596     -0.489739     -0.603298
  F      -2.413392      1.321521     -0.444418
  F       3.813158      1.136738      1.487285
  F       1.885634      1.309199      2.479153
  F      -2.460638     -1.011583     -3.081775
  F      -1.423541      0.893637     -3.047399
  F      -3.575172      0.835423     -2.872506
  O       2.819571      3.130446      0.102965
  O       1.076013      1.834820     -0.500926
  C      -0.661784     -0.637347      0.989807
  C       0.814825     -1.122636      1.253050
  C      -1.222881     -0.861024     -0.478464
  C       2.186511     -0.425762      0.882405
  C      -2.384654      0.093407     -0.974467
  C       2.471067      1.053293      1.267789
  C      -2.439273      0.211144     -2.531944
  C       2.077536      2.150268      0.148951
25
Coordinates from ORCA-job PFOA_altB_r2 E -1953.053584446714
  F      -1.437637     -1.493328      1.839308
  F      -0.851343      0.568080      1.523194
  F       0.899452     -1.245264      2.662789
  F       0.856187     -2.422765      0.801512
  F      -0.181204     -0.930809     -1.313442
  F      -1.772274     -2.139862     -0.482123
  F       3.097577     -1.188864      1.515864
  F       2.366468     -0.668393     -0.468633
  F      -3.546150     -0.434844     -0.637419
  F      -2.291639      1.329384     -0.424422
  F       3.781225      1.163386      1.321614
  F       1.893749      1.308999      2.425529
  F      -2.395917     -0.960757     -3.095423
  F      -1.249580      0.896912     -2.959187
  F      -3.421900      0.958168     -2.875036
  O       2.627958      3.135158      0.033900
  O       0.868770      1.791800     -0.454088
  C      -0.676431     -0.676204      1.047855
  C       0.804948     -1.157536      1.306524
  C      -1.209030     -0.895297     -0.440450
  C       2.150742     -0.451306      0.850606
  C      -2.336431      0.100942     -0.962837
  C       2.426185      1.047675      1.189466
  C      -2.332825      0.253795     -2.519842
  C       1.929201      2.110930      0.114541
25
Coordinates from ORCA-job PFOA_altB_r2 E -1953.056175112090
  F      -1.434769     -1.490839      1.865812
  F      -0.783950      0.558044      1.545553
  F       0.922089     -1.281433      2.695386
  F       0.871351     -2.468854      0.836437
  F      -0.124569     -0.899973     -1.256130
  F      -1.749143     -2.116168     -0.473799
  F       3.118852     -1.177955      1.495311
  F       2.317725     -0.703068     -0.478823
  F      -3.487150     -0.355116     -0.622906
  F      -2.156100      1.364508     -0.389861
  F       3.683656      1.236333      1.244500
  F       1.792660      1.307253      2.361260
  F      -2.326527     -0.882984     -3.088653
  F      -1.125418      0.935386     -2.898251
  F      -3.295724      1.059707     -2.850415
  O       2.360730      3.084579     -0.090445
  O       0.721073      1.578974     -0.526302
  C      -0.650771     -0.694597      1.083466
  C       0.817770     -1.203267      1.340672
  C      -1.172283     -0.886246     -0.406611
  C       2.133305     -0.481210      0.842384
  C      -2.262156      0.142128     -0.936261
  C       2.335766      1.038647      1.132138
  C      -2.236546      0.316657     -2.490860
  C       1.730228      2.019495      0.066198
25
Coordinates from ORCA-job PFOA_altB_r2 E -1953.053955666088
  F      -1.427817     -1.387026      1.846673
  F      -0.693979      0.619061      1.468367
  F       0.917368     -1.280462      2.669582
  F       0.868149     -2.470670      0.820156
  F      -0.126932     -0.901773     -1.296251
  F      -1.747132     -2.080013     -0.457986
  F       3.131133     -1.218732      1.472676
  F       2.345889     -0.688201     -0.487699
  F      -3.457505     -0.284697     -0.564833
  F      -2.071909      1.407282     -0.501805
  F       3.713189      1.199988      1.262825
  F       1.839226      1.253502      2.406686
  F      -2.426658     -0.977722     -3.058490
  F      -1.202712      0.828186     -3.029529
  F      -3.361482      0.978393     -2.881672
  O       2.301783      3.124520      0.073956
  O       0.631748      1.651821     -0.323164
  C      -0.616155     -0.649146      1.043803
  C       0.831103     -1.203534      1.316957
  C      -1.158960     -0.860925     -0.431428
  C       2.156620     -0.497689      0.835009
  C      -2.243479      0.160290     -0.969182
  C       2.364547      1.013110      1.163037
  C      -2.295221      0.246958     -2.530269
  C       1.729287      2.017478      0.152380
25
Coordinates from ORCA-job PFOA_altB_r2 E -1953.056346437558
  F      -1.454435     -1.450457      1.769988
  F      -0.773727      0.584693      1.509023
  F       0.866213     -1.269275      2.676741
  F       0.867511     -2.452602      0.828146
  F      -0.106401     -0.721094     -1.327897
  F      -1.622796     -2.081168     -0.585939
  F       3.099240     -1.205729      1.596533
  F       2.429544     -0.727532     -0.413222
  F      -3.479933     -0.411047     -0.534157
  F      -2.225846      1.375770     -0.470207
  F       3.737254      1.149709      1.415418
  F       1.772444      1.330100      2.372361
  F      -2.442068     -0.981830     -3.067132
  F      -1.392389      0.927496     -3.033078
  F      -3.549466      0.872761     -2.827474
  O       2.558523      3.108756      0.061019
  O       0.901082      1.695742     -0.526768
  C      -0.640635     -0.656428      1.023545
  C       0.813988     -1.186907      1.323777
  C      -1.143002     -0.819311     -0.473655
  C       2.168214     -0.494677      0.889955
  C      -2.312319      0.129170     -0.959124
  C       2.398776      1.020358      1.190148
  C      -2.411039      0.239124     -2.516015
  C       1.941369      2.024378      0.077815
25
Coordinates from ORCA-job PFOA_altB_r2 E -1953.058008819270
  F      -1.469844     -1.427994      1.778603
  F      -0.777029      0.605233      1.475412
  F       0.864370     -1.264128      2.666108
  F       0.850949     -2.442986      0.808445
  F      -0.111298     -0.757252     -1.332429
  F      -1.638842     -2.102188     -0.572904
  F       3.092142     -1.217886      1.546248
  F       2.386941     -0.690368     -0.443378
  F      -3.481491     -0.385785     -0.514707
  F      -2.183209      1.375290     -0.498728
  F       3.759007      1.146229      1.400843
  F       1.821812      1.297074      2.416096
  F      -2.468366     -1.021683     -3.055521
  F      -1.381155      0.872032     -3.049290
  F      -3.542540      0.862310     -2.833796
  O       2.589207      3.131905      0.110287
  O       0.917249      1.738378     -0.501988
  C      -0.651219     -0.649114      1.016510
  C       0.803772     -1.179208      1.311939
  C      -1.150171     -0.838563     -0.476670
  C       2.155234     -0.482573      0.871247
  C      -2.306543      0.121068     -0.964618
  C       2.413287      1.023942      1.208460
  C      -2.413489      0.208428     -2.522685
  C       1.921326      2.077841      0.156315
25
Coordinates from ORCA-job PFOA_altB_r2 E -1953.058537733253
  F      -1.480501     -1.411058      1.777269
  F      -0.746537      0.612757      1.473819
  F       0.864111     -1.281113      2.678737
  F       0.844375     -2.458495      0.817631
  F      -0.074115     -0.725856     -1.313989
  F      -1.604873     -2.091909     -0.584038
  F       3.094441     -1.224261      1.537543
  F       2.359980     -0.708703     -0.448672
  F      -3.445320     -0.355039     -0.484062
  F      -2.120573      1.392986     -0.503295
  F       3.729707      1.161939      1.374923
  F       1.790425      1.291931      2.394249
  F      -2.452155     -1.012653     -3.045396
  F      -1.356052      0.877733     -3.040812
  F      -3.518812      0.876805     -2.818639
  O       2.494571      3.124456      0.091573
  O       0.854759      1.684653     -0.508231
  C      -0.641368     -0.647143      1.023436
  C       0.802558     -1.195773      1.324429
  C      -1.123008     -0.827906     -0.471636
  C       2.145601     -0.497927      0.868455
  C      -2.272988      0.135035     -0.955437
  C       2.385599      1.015493      1.188674
  C      -2.391618      0.217101     -2.513286
  C       1.861893      2.046947      0.136558
25
Coordinates from ORCA-job PFOA_altB_r2 E -1953.059096839866
  F      -1.481674     -1.371422      1.754580
  F      -0.723014      0.636903      1.434226
  F       0.849463     -1.280597      2.661258
  F       0.846954     -2.446806      0.796351
  F      -0.083369     -0.704933     -1.350676
  F      -1.593110     -2.081721     -0.603558
  F       3.094922     -1.239021      1.540381
  F       2.386072     -0.681878     -0.440975
  F      -3.438636     -0.337648     -0.444360
  F      -2.113678      1.405166     -0.564543
  F       3.749339      1.131546      1.428925
  F       1.804898      1.271758      2.436232
  F      -2.519132     -1.071012     -3.024000
  F      -1.440955      0.824489     -3.103793
  F      -3.594125      0.811829     -2.815170
  O       2.556841      3.138179      0.174380
  O       0.908638      1.734174     -0.478222
  C      -0.632470     -0.626973      0.994416
  C       0.804668     -1.187004      1.307901
  C      -1.120944     -0.814577     -0.497490
  C       2.158075     -0.493860      0.876461
  C      -2.283695      0.134178     -0.970918
  C       2.406360      1.010087      1.228479
  C      -2.453189      0.171010     -2.525529
  C       1.911863      2.068134      0.185444
25
Coordinates from ORCA-job PFOA_altB_r2 E -1953.059436400819
  F      -1.493653     -1.348664      1.730005
  F      -0.718405      0.654145      1.408437
  F       0.832318     -1.279582      2.655518
  F       0.841947     -2.437525      0.786307
  F      -0.076018     -0.664686     -1.370066
  F      -1.561002     -2.075811     -0.631098
  F       3.086951     -1.253455      1.546209
  F       2.393137     -0.672022     -0.433010
  F      -3.427312     -0.334045     -0.412468
  F      -2.111438      1.410029     -0.604835
  F       3.768332      1.110057      1.453521
  F       1.826216      1.264172      2.462187
  F      -2.559651     -1.110971     -3.012509
  F      -1.506400      0.794701     -3.141720
  F      -3.652506      0.761043     -2.804543
  O       2.604346      3.145749      0.228736
  O       0.950102      1.767486     -0.462184
  C      -0.631894     -0.612728      0.975531
  C       0.799769     -1.179834      1.302615
  C      -1.110924     -0.800968     -0.517962
  C       2.160993     -0.493128      0.884999
  C      -2.289488      0.130036     -0.980641
  C       2.424435      1.005763      1.251564
  C      -2.498000      0.137778     -2.531715
  C       1.948244      2.082458      0.216922
25
Coordinates from ORCA-job PFOA_altB_r2 E -1953.059894564451
  F      -1.503064     -1.323896      1.702877
  F      -0.702010      0.670641      1.376835
  F       0.814459     -1.289655      2.644681
  F       0.841996     -2.431930      0.765701
  F      -0.065533     -0.618547     -1.392712
  F      -1.524721     -2.068841     -0.667020
  F       3.080727     -1.264584      1.554874
  F       2.405470     -0.658014     -0.424583
  F      -3.403605     -0.298028     -0.360901
  F      -2.074295      1.423006     -0.666486
  F       3.775423      1.094355      1.495757
  F       1.822491      1.249939      2.484360
  F      -2.634986     -1.162839     -2.982665
  F      -1.576167      0.732125     -3.190457
  F      -3.711554      0.719234     -2.782387
  O       2.635431      3.161146      0.306276
  O       1.004872      1.796914     -0.465807
  C      -0.626388     -0.600820      0.952780
  C       0.797337     -1.178548      1.292892
  C      -1.096193     -0.787015     -0.542384
  C       2.164598     -0.492514      0.893967
  C      -2.285571      0.132422     -0.990564
  C       2.432876      1.001643      1.277771
  C      -2.551968      0.095707     -2.533329
  C       1.980475      2.098101      0.250324
25
Coordinates from ORCA-job PFOA_altB_r2 E -1953.060461561606
  F      -1.515731     -1.292296      1.660070
  F      -0.684132      0.693493      1.332601
  F       0.789581     -1.300478      2.627992
  F       0.842803     -2.421714      0.736432
  F      -0.045508     -0.554067     -1.423416
  F      -1.471560     -2.056422     -0.719775
  F       3.071651     -1.282028      1.558443
  F       2.417127     -0.631609     -0.416366
  F      -3.359652     -0.230716     -0.293913
  F      -2.013638      1.440988     -0.775984
  F       3.789028      1.067781      1.556162
  F       1.823387      1.223414      2.521723
  F      -2.764390     -1.245879     -2.924617
  F      -1.688189      0.617099     -3.274138
  F      -3.798222      0.660535     -2.745197
  O       2.680567      3.186105      0.438397
  O       1.090085      1.851417     -0.460707
  C      -0.619425     -0.583578      0.919213
  C       0.793622     -1.174167      1.278145
  C      -1.072572     -0.765916     -0.580118
  C       2.168772     -0.489220      0.904172
  C      -2.274904      0.138366     -1.013115
  C       2.447605      0.995202      1.318830
  C      -2.636148      0.027614     -2.535138
  C       2.029944      2.126076      0.310102
25
Coordinates from ORCA-job PFOA_altB_r2 E -1953.060999315119
  F      -1.522279     -1.264093      1.597569
  F      -0.658190      0.709850      1.259590
  F       0.761041     -1.327815      2.598253
  F       0.862753     -2.415156      0.690073
  F      -0.011428     -0.504629     -1.469819
  F      -1.417602     -2.048327     -0.791496
  F       3.068387     -1.291513      1.570966
  F       2.447490     -0.596514     -0.400938
  F      -3.263546     -0.081440     -0.202949
  F      -1.876008      1.454852     -0.959914
  F       3.787668      1.057190      1.639901
  F       1.800543      1.189660      2.567131
  F      -3.007315     -1.335143     -2.794974
  F      -1.828173      0.399990     -3.382536
  F      -3.872665      0.656288     -2.678388
  O       2.669262      3.228617      0.629034
  O       1.196230      1.904216     -0.465655
  C      -0.604025     -0.575708      0.865994
  C       0.797003     -1.177197      1.252361
  C      -1.037070     -0.754193     -0.637047
  C       2.178445     -0.482477      0.918835
  C      -2.236427      0.154854     -1.049545
  C       2.450072      0.992718      1.372832
  C      -2.747937     -0.054049     -2.519365
  C       2.063871      2.160017      0.389887
25
Coordinates from ORCA-job PFOA_altB_r2 E -1953.061523841837
  F      -1.510874     -1.264258      1.573149
  F      -0.642648      0.708228      1.221627
  F       0.759506     -1.359373      2.574630
  F       0.885898     -2.413152      0.649910
  F       0.015007     -0.512698     -1.490554
  F      -1.405702     -2.047614     -0.826366
  F       3.078129     -1.287426      1.570818
  F       2.467873     -0.570688     -0.396713
  F      -3.193608      0.052866     -0.166881
  F      -1.767781      1.457890     -1.091346
  F       3.775083      1.070119      1.680301
  F       1.779182      1.160989      2.594495
  F      -3.200233     -1.355845     -2.664904
  F      -1.892776      0.207198     -3.435893
  F      -3.864878      0.714301     -2.660369
  O       2.587136      3.263874      0.760592
  O       1.261035      1.918413     -0.485821
  C      -0.590983     -0.582364      0.839495
  C       0.807750     -1.185292      1.232251
  C      -1.018225     -0.757551     -0.665632
  C       2.187337     -0.476124      0.922256
  C      -2.201309      0.176066     -1.076640
  C       2.439416      0.994280      1.402063
  C      -2.806043     -0.091218     -2.499841
  C       2.051809      2.179380      0.439172
25
Coordinates from ORCA-job PFOA_altB_r2 E -1953.062234868332
  F      -1.476920     -1.261768      1.537260
  F      -0.609453      0.707507      1.140755
  F       0.771403     -1.419055      2.522323
  F       0.932240     -2.408121      0.568266
  F       0.067794     -0.557589     -1.528097
  F      -1.393781     -2.049978     -0.883073
  F       3.106717     -1.274339      1.559765
  F       2.510395     -0.522326     -0.396561
  F      -3.040899      0.317310     -0.143055
  F      -1.574352      1.431984     -1.352513
  F       3.745454      1.105430      1.739010
  F       1.744960      1.088073      2.647317
  F      -3.582156     -1.289482     -2.345045
  F      -2.042645     -0.234144     -3.470624
  F      -3.770899      0.847736     -2.695323
  O       2.348801      3.310338      1.027438
  O       1.392457      1.962541     -0.517169
  C      -0.561918     -0.595283      0.789687
  C       0.835480     -1.200403      1.187466
  C      -0.984956     -0.771530     -0.717122
  C       2.208613     -0.463943      0.919058
  C      -2.130012      0.215592     -1.137054
  C       2.412298      0.994451      1.452019
  C      -2.905226     -0.145532     -2.446249
  C       1.996705      2.212529      0.541320
25
Coordinates from ORCA-job PFOA_altB_r2 E -1953.062509227690
  F      -1.449224     -1.261231      1.581412
  F      -0.587328      0.705725      1.176810
  F       0.811703     -1.431160      2.526471
  F       0.924441     -2.418010      0.569486
  F       0.071092     -0.608490     -1.499352
  F      -1.441176     -2.023276     -0.855473
  F       3.136987     -1.269796      1.548098
  F       2.520988     -0.556029     -0.410155
  F      -3.076349      0.344659     -0.177507
  F      -1.570523      1.472682     -1.313466
  F       3.745137      1.142923      1.645433
  F       1.795834      1.058340      2.651809
  F      -3.574363     -1.227016     -2.317464
  F      -1.968887     -0.280530     -3.453324
  F      -3.672173      0.899292     -2.770179
  O       2.157873      3.296438      1.033686
  O       1.320194      1.900381     -0.532549
  C      -0.550604     -0.595416      0.819042
  C       0.852658     -1.210757      1.189970
  C      -0.995685     -0.761682     -0.686979
  C       2.223595     -0.479177      0.903091
  C      -2.122181      0.252567     -1.133175
  C       2.404982      0.984895      1.423710
  C      -2.850896     -0.114454     -2.457548
  C       1.894006      2.179121      0.537951
25
Coordinates from ORCA-job PFOA_altB_r2 E -1953.063585501589
  F      -1.464369     -1.215014      1.531567
  F      -0.553271      0.730141      1.122268
  F       0.785697     -1.443743      2.504545
  F       0.925444     -2.412834      0.541642
  F       0.092554     -0.578370     -1.538856
  F      -1.428266     -2.001549     -0.901466
  F       3.129700     -1.281124      1.572023
  F       2.550935     -0.557356     -0.393921
  F      -2.988791      0.431858     -0.155950
  F      -1.520041      1.460687     -1.435424
  F       3.755605      1.140547      1.639800
  F       1.829097      1.027170      2.688257
  F      -3.655518     -1.226413     -2.180200
  F      -2.067139     -0.426004     -3.443350
  F      -3.695922      0.865089     -2.778236
  O       2.032688      3.283899      1.171724
  O       1.400393      1.940693     -0.531497
  C      -0.538983     -0.576455      0.779498
  C       0.851467     -1.210897      1.171747
  C      -0.973174     -0.743048     -0.726905
  C       2.231775     -0.484329      0.913604
  C      -2.095947      0.269778     -1.160519
  C       2.411892      0.976333      1.445613
  C      -2.898761     -0.154846     -2.426836
  C       1.883039      2.185789      0.590670
25
Coordinates from ORCA-job PFOA_altB_r2 E -1953.064433986455
  F      -1.488140     -1.155751      1.510101
  F      -0.525219      0.764757      1.091259
  F       0.761261     -1.438815      2.494311
  F       0.904744     -2.400326      0.527611
  F       0.093628     -0.556695     -1.553834
  F      -1.430248     -1.989211     -0.895839
  F       3.113243     -1.294061      1.566809
  F       2.539270     -0.550104     -0.397570
  F      -2.968798      0.437091     -0.151959
  F      -1.527959      1.459799     -1.465869
  F       3.781807      1.122978      1.585151
  F       1.903487      0.984028      2.721836
  F      -3.672071     -1.252356     -2.142103
  F      -2.088250     -0.496133     -3.435435
  F      -3.710028      0.815789     -2.807475
  O       1.957087      3.266872      1.283408
  O       1.489208      1.995811     -0.526213
  C      -0.538697     -0.546707      0.763130
  C       0.838315     -1.200847      1.163762
  C      -0.966966     -0.727148     -0.738074
  C       2.224948     -0.484840      0.911375
  C      -2.094206      0.271032     -1.170816
  C       2.428586      0.966145      1.453522
  C      -2.911732     -0.189869     -2.423548
  C       1.886831      2.198560      0.636261
25
Coordinates from ORCA-job PFOA_altB_r2 E -1953.065059246875
  F      -1.487934     -1.132724      1.514287
  F      -0.501231      0.773341      1.081056
  F       0.760900     -1.444382      2.492212
  F       0.902949     -2.404730      0.525040
  F       0.094022     -0.570092     -1.554382
  F      -1.444412     -1.986206     -0.881830
  F       3.113334     -1.291911      1.576403
  F       2.544120     -0.568295     -0.398048
  F      -2.960464      0.452819     -0.159647
  F      -1.511933      1.460408     -1.473798
  F       3.785555      1.144017      1.505116
  F       1.968289      0.958683      2.734018
  F      -3.712821     -1.212530     -2.114136
  F      -2.088382     -0.562156     -3.416974
  F      -3.663004      0.830279     -2.850144
  O       1.830395      3.237887      1.354682
  O       1.521934      2.032412     -0.532207
  C      -0.532362     -0.541256      0.762124
  C       0.839529     -1.205634      1.162403
  C      -0.965984     -0.727041     -0.735838
  C       2.226331     -0.490776      0.909042
  C      -2.085123      0.277454     -1.176075
  C       2.428473      0.962984      1.442026
  C      -2.907448     -0.190807     -2.424504
  C       1.845367      2.198257      0.658974
25
Coordinates from ORCA-job PFOA_altB_r2 E -1953.065732179284
  F      -1.485855     -1.087068      1.547327
  F      -0.461350      0.787912      1.075411
  F       0.766025     -1.439246      2.500607
  F       0.891171     -2.415595      0.541521
  F       0.075393     -0.607033     -1.544015
  F      -1.481760     -1.983572     -0.831052
  F       3.119178     -1.289937      1.561346
  F       2.521890     -0.586314     -0.413329
  F      -2.986781      0.433612     -0.169164
  F      -1.514161      1.472235     -1.425286
  F       3.782218      1.167776      1.372387
  F       2.066425      0.928356      2.735552
  F      -3.714199     -1.173028     -2.137955
  F      -2.027305     -0.588718     -3.393160
  F      -3.582880      0.852317     -2.906935
  O       1.637562      3.178294      1.422060
  O       1.582854      2.075705     -0.549960
  C      -0.526014     -0.530827      0.775382
  C       0.837488     -1.211848      1.169710
  C      -0.977807     -0.730306     -0.713028
  C       2.220277     -0.499896      0.896708
  C      -2.084015      0.281954     -1.165010
  C       2.424905      0.956040      1.415228
  C      -2.870185     -0.179182     -2.438746
  C       1.787027      2.188368      0.674202
25
Coordinates from ORCA-job PFOA_altB_r2 E -1953.066070451221
  F      -1.491797     -1.101165      1.557413
  F      -0.473571      0.778305      1.095594
  F       0.766627     -1.426738      2.521468
  F       0.886852     -2.426085      0.573507
  F       0.079990     -0.596889     -1.527131
  F      -1.473450     -1.983850     -0.832462
  F       3.119394     -1.287452      1.566799
  F       2.506645     -0.610040     -0.412091
  F      -3.004343      0.409356     -0.170410
  F      -1.521161      1.483318     -1.383867
  F       3.782648      1.176627      1.275416
  F       2.140622      0.941708      2.729388
  F      -3.710199     -1.144547     -2.168951
  F      -1.989377     -0.578150     -3.385397
  F      -3.536108      0.882794     -2.926286
  O       1.544633      3.149638      1.420836
  O       1.584692      2.069697     -0.564737
  C      -0.532271     -0.539765      0.789229
  C       0.833089     -1.215753      1.188082
  C      -0.977428     -0.729235     -0.702988
  C       2.214541     -0.506775      0.899351
  C      -2.084634      0.283095     -1.154862
  C       2.428153      0.956223      1.393888
  C      -2.847687     -0.160622     -2.448183
  C       1.754241      2.176306      0.666192
25
Coordinates from ORCA-job PFOA_altB_r2 E -1953.066435471353
  F      -1.491818     -1.110210      1.549780
  F      -0.475979      0.773869      1.095418
  F       0.762495     -1.400091      2.539021
  F       0.882693     -2.438347      0.608920
  F       0.100150     -0.570075     -1.523794
  F      -1.444490     -1.977520     -0.864364
  F       3.119627     -1.290041      1.587109
  F       2.511558     -0.640204     -0.401968
  F      -2.985656      0.425167     -0.160919
  F      -1.505116      1.491565     -1.388671
  F       3.781495      1.185006      1.191992
  F       2.213573      0.956135      2.725742
  F      -3.731122     -1.106017     -2.147114
  F      -1.998245     -0.602557     -3.371714
  F      -3.507244      0.907496     -2.933765
  O       1.356082      3.072599      1.432391
  O       1.638227      2.076728     -0.577547
  C      -0.530656     -0.545150      0.787534
  C       0.832503     -1.217706      1.201603
  C      -0.964293     -0.721571     -0.710585
  C       2.216895     -0.517927      0.907756
  C      -2.074133      0.292820     -1.153290
  C       2.432902      0.952710      1.380419
  C      -2.846461     -0.147515     -2.441035
  C       1.707112      2.150838      0.666879
25
Coordinates from ORCA-job PFOA_altB_r2 E -1953.066481434788
  F      -1.503610     -1.165824      1.570600
  F      -0.535876      0.751284      1.144894
  F       0.766183     -1.329404      2.583712
  F       0.863686     -2.449822      0.694281
  F       0.086872     -0.540455     -1.488115
  F      -1.428325     -1.992863     -0.858694
  F       3.106848     -1.295539      1.576769
  F       2.467974     -0.666849     -0.410294
  F      -3.056925      0.319129     -0.158530
  F      -1.562405      1.501955     -1.259677
  F       3.803454      1.155272      1.119913
  F       2.267767      1.001952      2.690959
  F      -3.618147     -1.148992     -2.296438
  F      -1.887030     -0.413973     -3.397494
  F      -3.518520      0.940373     -2.891367
  O       1.361671      3.086941      1.346433
  O       1.632176      2.006315     -0.622347
  C      -0.555452     -0.563276      0.818403
  C       0.818475     -1.206439      1.237968
  C      -0.978174     -0.728918     -0.684267
  C       2.200899     -0.522233      0.904340
  C      -2.102039      0.272722     -1.116901
  C       2.452816      0.955261      1.344549
  C      -2.800040     -0.106180     -2.466294
  C       1.717824      2.139562      0.617394
25
Coordinates from ORCA-job PFOA_altB_r2 E -1953.066748133125
  F      -1.505339     -1.146431      1.547882
  F      -0.521966      0.763636      1.113774
  F       0.758872     -1.334027      2.569763
  F       0.862890     -2.442313      0.674088
  F       0.102795     -0.542496     -1.504547
  F      -1.425095     -1.985451     -0.877618
  F       3.107938     -1.300873      1.571319
  F       2.477488     -0.653271     -0.412234
  F      -3.004915      0.395666     -0.158433
  F      -1.516759      1.489723     -1.356757
  F       3.805492      1.156238      1.149322
  F       2.263172      0.970545      2.710415
  F      -3.672872     -1.149571     -2.208348
  F      -1.960719     -0.509064     -3.395687
  F      -3.541292      0.907391     -2.899157
  O       1.324983      3.054581      1.419354
  O       1.678431      2.078244     -0.590176
  C      -0.549675     -0.553688      0.798388
  C       0.819928     -1.201961      1.224482
  C      -0.966787     -0.724432     -0.704528
  C       2.206150     -0.519649      0.901794
  C      -2.083263      0.283122     -1.142569
  C       2.455991      0.951597      1.362629
  C      -2.834631     -0.137149     -2.450118
  C       1.719282      2.149632      0.656760
25
Coordinates from ORCA-job PFOA_altB_r2 E -1953.066782596822
  F      -1.503333     -1.125686      1.540476
  F      -0.505288      0.776111      1.105060
  F       0.749814     -1.333836      2.566297
  F       0.858862     -2.438741      0.669278
  F       0.099165     -0.524941     -1.516311
  F      -1.418045     -1.976996     -0.880043
  F       3.107194     -1.307824      1.585812
  F       2.493138     -0.657254     -0.402429
  F      -3.009424      0.389454     -0.157753
  F      -1.537507      1.495976     -1.363086
  F       3.808728      1.152546      1.164949
  F       2.257500      0.965002      2.717748
  F      -3.655414     -1.178259     -2.207344
  F      -1.968218     -0.485569     -3.403648
  F      -3.578945      0.885764     -2.883039
  O       1.327155      3.046141      1.413148
  O       1.697057      2.067918     -0.592555
  C      -0.542581     -0.540804      0.791032
  C       0.820820     -1.198742      1.221272
  C      -0.964283     -0.713394     -0.710169
  C       2.212596     -0.523975      0.909039
  C      -2.090677      0.284854     -1.144529
  C       2.460379      0.946774      1.369943
  C      -2.843170     -0.144091     -2.448080
  C       1.724575      2.139571      0.654730
25
Coordinates from ORCA-job PFOA_altB_r2 E -1953.066805731155
  F      -1.506211     -1.131719      1.541081
  F      -0.514624      0.774606      1.107347
  F       0.750354     -1.323573      2.571158
  F       0.855460     -2.438850      0.679786
  F       0.101167     -0.525203     -1.511009
  F      -1.415418     -1.979391     -0.880062
  F       3.105905     -1.310498      1.574363
  F       2.479839     -0.654570     -0.408296
  F      -3.011014      0.391590     -0.161365
  F      -1.534583      1.493339     -1.365353
  F       3.811405      1.147922      1.159818
  F       2.265028      0.963091      2.716291
  F      -3.648384     -1.183697     -2.212369
  F      -1.964330     -0.478402     -3.406398
  F      -3.581801      0.883010     -2.880006
  O       1.328412      3.044644      1.419490
  O       1.701095      2.076315     -0.590365
  C      -0.546536     -0.542287      0.793617
  C       0.818270     -1.195717      1.225011
  C      -0.964405     -0.715310     -0.708100
  C       2.208789     -0.522958      0.905217
  C      -2.090078      0.283361     -1.145468
  C       2.463794      0.946324      1.367653
  C      -2.840944     -0.145076     -2.449349
  C       1.728911      2.143051      0.657108
25
Coordinates from ORCA-job PFOA_altB_r2 E -1953.066808500925
  F      -1.507347     -1.133842      1.539988
  F      -0.517878      0.774179      1.107752
  F       0.748806     -1.320153      2.573382
  F       0.854578     -2.439080      0.684068
  F       0.101717     -0.521351     -1.510377
  F      -1.411659     -1.979830     -0.882433
  F       3.104819     -1.311571      1.575784
  F       2.478364     -0.656593     -0.407200
  F      -3.012752      0.390443     -0.162144
  F      -1.536398      1.493580     -1.364788
  F       3.813161      1.146303      1.156230
  F       2.270267      0.964559      2.715977
  F      -3.644286     -1.187822     -2.215628
  F      -1.964445     -0.471278     -3.408952
  F      -3.587372      0.881565     -2.876299
  O       1.326371      3.042909      1.418830
  O       1.705721      2.076929     -0.590962
  C      -0.547559     -0.542572      0.793752
  C       0.817370     -1.194797      1.226939
  C      -0.963934     -0.714914     -0.708372
  C       2.208262     -0.523509      0.906424
  C      -2.091072      0.282940     -1.145726
  C       2.466231      0.946043      1.366876
  C      -2.841510     -0.144944     -2.449902
  C       1.730646      2.142809      0.656580
25
Coordinates from ORCA-job PFOA_altB_r2 E -1953.066809059512
  F      -1.507849     -1.133073      1.539409
  F      -0.518220      0.774839      1.107391
  F       0.747877     -1.319604      2.573852
  F       0.854098     -2.438871      0.684892
  F       0.101919     -0.519359     -1.510622
  F      -1.409870     -1.979396     -0.883220
  F       3.104418     -1.312208      1.575905
  F       2.477430     -0.656881     -0.406915
  F      -3.013421      0.390602     -0.162781
  F      -1.537625      1.493971     -1.365622
  F       3.813635      1.145336      1.155061
  F       2.272446      0.964013      2.716448
  F      -3.642455     -1.190294     -2.215596
  F      -1.964896     -0.469925     -3.409742
  F      -3.589977      0.879623     -2.875278
  O       1.326543      3.042262      1.419749
  O       1.707110      2.077575     -0.590385
  C      -0.547642     -0.541838      0.793517
  C       0.816941     -1.194421      1.227461
  C      -0.963556     -0.714125     -0.708593
  C       2.207918     -0.523756      0.906897
  C      -2.091467      0.283099     -1.146210
  C       2.467142      0.945587      1.366984
  C      -2.841778     -0.145776     -2.449954
  C       1.731380      2.142622      0.657154
25
Coordinates from ORCA-job PFOA_altB_r2 E -1953.066809169619
  F      -1.507939     -1.132363      1.539174
  F      -0.517981      0.775263      1.106746
  F       0.747493     -1.319630      2.573761
  F       0.854054     -2.438725      0.684775
  F       0.101829     -0.518735     -1.511074
  F      -1.409277     -1.979350     -0.883463
  F       3.104267     -1.312361      1.576240
  F       2.477518     -0.656943     -0.406702
  F      -3.013616      0.390627     -0.162945
  F      -1.538080      1.493975     -1.366043
  F       3.813943      1.145035      1.155004
  F       2.273050      0.963800      2.716760
  F      -3.642405     -1.190964     -2.215302
  F      -1.965524     -0.470133     -3.410032
  F      -3.590800      0.878993     -2.875107
  O       1.327030      3.042235      1.420461
  O       1.707300      2.077825     -0.589862
  C      -0.547537     -0.541446      0.793193
  C       0.816861     -1.194327      1.227464
  C      -0.963476     -0.713937     -0.708837
  C       2.207914     -0.523794      0.907169
  C      -2.091673      0.283069     -1.146458
  C       2.467509      0.945468      1.367195
  C      -2.842104     -0.146210     -2.449985
  C       1.731743      2.142631      0.657667
