80
Coordinates from ORCA-job R4N+FHEA-_r2 E -2666.540147147772
  N       7.007590     -2.011705     -1.572398
  C       1.734451     -5.094446     -4.174256
  C       0.374983     -4.953588     -3.473504
  C       0.398123     -5.414769     -2.009081
  C       2.841402     -4.477530     -3.361714
  C       1.675747     -4.470270     -5.577308
  C       5.933763     -2.785829     -0.883407
  C       4.885469     -3.364983     -1.795432
  C       0.975466     -6.799605     -1.861254
  C       3.964589     -5.220782     -3.022330
  C       2.763667     -3.161964     -2.918881
  C      -1.012100     -5.361480     -1.414045
  C       7.756423     -2.879184     -2.493239
  C       7.915093     -1.480106     -0.543516
  C       6.427609     -0.884256     -2.315984
  C       4.974395     -4.674707     -2.251244
  C       3.764872     -2.617032     -2.139994
  C       2.944453     -4.737263     -6.378059
  C       2.064582     -7.014415     -1.026635
  C       0.435274     -7.886551     -2.539038
  C       2.604719     -8.279377     -0.872960
  C       0.973784     -9.152173     -2.390317
  C       2.061232     -9.353152     -1.556866
  H       1.949036     -6.163169     -4.283809
  H      -0.362881     -5.536531     -4.027695
  H       0.051828     -3.910902     -3.496724
  H       1.029564     -4.721758     -1.440177
  H       1.521229     -3.393439     -5.484477
  H       0.816847     -4.884888     -6.108935
  H       5.443367     -2.105793     -0.182001
  H       6.409892     -3.590512     -0.321308
  H       4.037723     -6.247600     -3.348728
  H       1.900818     -2.557040     -3.152831
  H      -0.989858     -5.663074     -0.369023
  H      -1.685256     -6.023775     -1.952275
  H      -1.405569     -4.348093     -1.465759
  H       8.218509     -3.694312     -1.942050
  H       8.531157     -2.302224     -2.991853
  H       7.082520     -3.293200     -3.239318
  H       8.349482     -2.293707      0.031929
  H       7.357384     -0.831601      0.129647
  H       8.711071     -0.908217     -1.013797
  H       5.828464     -0.278183     -1.638006
  H       5.789308     -1.252167     -3.115054
  H       7.221976     -0.274762     -2.738741
  H       5.822095     -5.286966     -1.983127
  H       3.649067     -1.612111     -1.763375
  H       2.866707     -4.294163     -7.367569
  H       3.103433     -5.807027     -6.490628
  H       3.807695     -4.311710     -5.872944
  H       2.492484     -6.175729     -0.495580
  H      -0.413851     -7.745132     -3.190702
  H       3.449247     -8.424484     -0.216034
  H       0.542235     -9.985030     -2.925461
  H       2.480653    -10.340947     -1.440027
  F       1.062667     -2.162257     -0.264383
  F      -0.911920     -2.208593      0.485763
  F       0.358330     -4.157304      1.460329
  F      -0.262322     -2.710705      2.936855
  F       0.855784     -0.282184      2.554309
  F      -0.954190     -0.084320      1.452499
  F       0.852675      0.216412     -0.931123
  F       0.207893      1.745246      0.427204
  F       1.702675     -4.114796      3.652251
  F       2.435302     -2.130794      3.444853
  F       3.325081     -5.062818      2.204096
  F       4.325130     -3.192767      2.061207
  F       2.905502     -3.796539      0.556354
  O       2.768014     -1.305528      1.183126
  O       4.484060     -0.192489      0.315206
  C       0.370031     -1.910868      0.848121
  C       0.357531     -0.416895      1.310286
  C       0.662705     -2.944996      1.979452
  C       1.004826      0.635552      0.353807
  C       2.013678     -3.168583      2.723033
  C       2.434038      0.996457      0.661265
  C       3.159252     -3.779066      1.854736
  C       3.328765     -0.287906      0.722321
  H       2.472232      1.483677      1.635996
  H       2.800534      1.676861     -0.107160
80
Coordinates from ORCA-job R4N+FHEA-_r2 E -2666.555145382823
  N       7.051254     -1.974553     -1.582466
  C       1.741659     -5.090075     -4.164641
  C       0.372482     -4.969189     -3.465164
  C       0.368883     -5.446939     -2.000381
  C       2.852504     -4.465091     -3.352756
  C       1.685626     -4.463470     -5.569855
  C       5.955482     -2.749658     -0.885255
  C       4.907573     -3.329289     -1.795616
  C       0.934507     -6.843264     -1.851533
  C       3.983681     -5.204294     -3.009108
  C       2.775272     -3.139248     -2.920459
  C      -1.048314     -5.379519     -1.413918
  C       7.809611     -2.859977     -2.505889
  C       7.966923     -1.443134     -0.535764
  C       6.485053     -0.834408     -2.351097
  C       4.997078     -4.647399     -2.239621
  C       3.783745     -2.580184     -2.149000
  C       2.961229     -4.710389     -6.375296
  C       2.022682     -7.079796     -1.010554
  C       0.380783     -7.925401     -2.539536
  C       2.547682     -8.358946     -0.858945
  C       0.903342     -9.205155     -2.393153
  C       1.989637     -9.427069     -1.552017
  H       1.968463     -6.158026     -4.280186
  H      -0.362659     -5.550071     -4.034694
  H       0.044659     -3.922718     -3.483074
  H       1.000269     -4.763693     -1.422048
  H       1.515670     -3.384425     -5.472135
  H       0.826275     -4.884823     -6.105187
  H       5.471947     -2.060574     -0.185398
  H       6.433492     -3.554691     -0.320103
  H       4.059239     -6.239597     -3.328527
  H       1.906355     -2.534930     -3.163654
  H      -1.037768     -5.688130     -0.364391
  H      -1.730630     -6.034704     -1.962934
  H      -1.433051     -4.356077     -1.465323
  H       8.260413     -3.678552     -1.941797
  H       8.594113     -2.281831     -2.997043
  H       7.134178     -3.268190     -3.260016
  H       8.386622     -2.268565      0.041747
  H       7.406744     -0.785362      0.131771
  H       8.773357     -0.880168     -1.008158
  H       5.885356     -0.216180     -1.683078
  H       5.854023     -1.208705     -3.157153
  H       7.297905     -0.240531     -2.771700
  H       5.852478     -5.257162     -1.962973
  H       3.669941     -1.559889     -1.788649
  H       2.881751     -4.262646     -7.369612
  H       3.138069     -5.783445     -6.495314
  H       3.828717     -4.274647     -5.869374
  H       2.466308     -6.244800     -0.477316
  H      -0.468197     -7.768429     -3.198845
  H       3.394068     -8.519268     -0.197962
  H       0.460225    -10.033623     -2.937232
  H       2.397404    -10.426476     -1.437935
  F       1.013407     -2.209400     -0.243152
  F      -0.966501     -2.240426      0.544835
  F       0.323484     -4.202509      1.478970
  F      -0.269745     -2.743844      2.996569
  F       0.843602     -0.230677      2.555203
  F      -0.985793     -0.052582      1.450546
  F       0.831982      0.227313     -0.955546
  F       0.192495      1.786451      0.407791
  F       1.681310     -4.225888      3.675936
  F       2.440790     -2.234161      3.507341
  F       3.353525     -5.160885      2.209849
  F       4.350920     -3.249540      2.077608
  F       2.901695     -3.871288      0.568334
  O       2.817969     -1.194855      1.158497
  O       4.523279     -0.087640      0.261518
  C       0.332159     -1.934821      0.878978
  C       0.331745     -0.397161      1.312513
  C       0.642795     -2.991395      2.018294
  C       0.987460      0.665476      0.331661
  C       2.012341     -3.259171      2.762511
  C       2.421493      1.061711      0.604788
  C       3.180718     -3.862528      1.870669
  C       3.353268     -0.180190      0.673947
  H       2.462010      1.567845      1.573593
  H       2.749720      1.748923     -0.178432
80
Coordinates from ORCA-job R4N+FHEA-_r2 E -2666.559248478262
  N       7.086858     -1.937946     -1.601700
  C       1.756151     -5.088100     -4.158946
  C       0.387487     -4.977640     -3.456768
  C       0.361400     -5.464395     -1.993999
  C       2.870937     -4.457216     -3.355141
  C       1.690041     -4.469207     -5.568411
  C       5.979982     -2.725644     -0.904279
  C       4.936336     -3.301999     -1.817470
  C       0.905021     -6.870260     -1.838890
  C       4.010939     -5.190373     -3.016973
  C       2.790211     -3.127204     -2.927757
  C      -1.060708     -5.369695     -1.420299
  C       7.853970     -2.823684     -2.533457
  C       8.006619     -1.417598     -0.539079
  C       6.530517     -0.780261     -2.374905
  C       5.029865     -4.623318     -2.257208
  C       3.802932     -2.558410     -2.164218
  C       2.967876     -4.689534     -6.379580
  C       1.979628     -7.127389     -0.982037
  C       0.339438     -7.944873     -2.535854
  C       2.480256     -8.419075     -0.822631
  C       0.837646     -9.236702     -2.382317
  C       1.910803     -9.479492     -1.524276
  H       1.993716     -6.155310     -4.273549
  H      -0.346347     -5.552647     -4.038213
  H       0.056969     -3.929482     -3.472187
  H       0.999180     -4.793918     -1.404663
  H       1.493257     -3.392101     -5.474070
  H       0.835090     -4.908799     -6.100324
  H       5.500742     -2.037755     -0.199370
  H       6.471032     -3.530687     -0.348876
  H       4.089841     -6.228724     -3.333839
  H       1.912032     -2.530307     -3.167316
  H      -1.071679     -5.682537     -0.369226
  H      -1.752793     -6.010920     -1.979412
  H      -1.427413     -4.337106     -1.475516
  H       8.291813     -3.648988     -1.966099
  H       8.644684     -2.235379     -3.005379
  H       7.178607     -3.214125     -3.298731
  H       8.413856     -2.259263      0.026354
  H       7.441921     -0.761691      0.128221
  H       8.817202     -0.857965     -1.011472
  H       5.929320     -0.157711     -1.707554
  H       5.909489     -1.154626     -3.190544
  H       7.360785     -0.200438     -2.784788
  H       5.894455     -5.225191     -1.982368
  H       3.684626     -1.536935     -1.804962
  H       2.876392     -4.250341     -7.379476
  H       3.174676     -5.760674     -6.496098
  H       3.832962     -4.229338     -5.884861
  H       2.436042     -6.297509     -0.445660
  H      -0.498447     -7.771583     -3.209069
  H       3.318369     -8.594869     -0.151708
  H       0.386532    -10.058205     -2.934409
  H       2.299819    -10.487979     -1.405348
  F       0.990921     -2.240218     -0.230200
  F      -1.003339     -2.273340      0.574842
  F       0.304751     -4.220823      1.492825
  F      -0.266847     -2.732369      3.021794
  F       0.788312     -0.246654      2.564890
  F      -1.027033     -0.068236      1.406197
  F       0.827392      0.193481     -0.951377
  F       0.193584      1.777744      0.416029
  F       1.663355     -4.209275      3.711799
  F       2.439217     -2.207521      3.457556
  F       3.341188     -5.208853      2.269554
  F       4.344622     -3.292182      2.111095
  F       2.900433     -3.919324      0.595028
  O       2.875788     -1.201299      1.155610
  O       4.546669     -0.035201      0.245510
  C       0.301057     -1.958417      0.886419
  C       0.295805     -0.412620      1.310779
  C       0.627293     -3.007055      2.031344
  C       0.976063      0.644643      0.336912
  C       2.004623     -3.271863      2.771624
  C       2.408046      1.043995      0.604541
  C       3.177611     -3.914625      1.900719
  C       3.368451     -0.160491      0.663563
  H       2.445343      1.551356      1.575235
  H       2.705995      1.753647     -0.173074
80
Coordinates from ORCA-job R4N+FHEA-_r2 E -2666.561289649505
  N       7.110291     -1.892590     -1.624574
  C       1.778815     -5.088356     -4.141802
  C       0.415816     -4.964553     -3.440030
  C       0.368365     -5.461307     -1.983586
  C       2.895880     -4.450239     -3.350237
  C       1.705008     -4.495086     -5.561621
  C       5.998882     -2.686208     -0.922571
  C       4.962026     -3.268618     -1.834734
  C       0.876429     -6.879392     -1.833358
  C       4.035881     -5.178792     -3.000684
  C       2.815102     -3.112753     -2.946787
  C      -1.057054     -5.327571     -1.428030
  C       7.887706     -2.786570     -2.546643
  C       8.026552     -1.366713     -0.555438
  C       6.564731     -0.733647     -2.415567
  C       5.056437     -4.597639     -2.252910
  C       3.826435     -2.530990     -2.192161
  C       2.982302     -4.704231     -6.372513
  C       1.931447     -7.168506     -0.962393
  C       0.298061     -7.934252     -2.551390
  C       2.401828     -8.473074     -0.809623
  C       0.765206     -9.238512     -2.403481
  C       1.819696     -9.513973     -1.530869
  H       2.018043     -6.157598     -4.240308
  H      -0.323499     -5.522250     -4.032088
  H       0.096723     -3.912380     -3.451068
  H       1.021009     -4.817748     -1.376110
  H       1.484286     -3.420761     -5.485635
  H       0.855968     -4.956974     -6.084149
  H       5.522531     -1.997179     -0.218286
  H       6.508669     -3.482327     -0.372163
  H       4.114384     -6.222155     -3.300332
  H       1.934472     -2.523930     -3.196004
  H      -1.102017     -5.649458     -0.381228
  H      -1.760036     -5.941921     -2.004160
  H      -1.393399     -4.284770     -1.482652
  H       8.309670     -3.609251     -1.964634
  H       8.684475     -2.194613     -3.002681
  H       7.216579     -3.168695     -3.318723
  H       8.422672     -2.213003      0.010023
  H       7.453502     -0.706006      0.099135
  H       8.838759     -0.815384     -1.033923
  H       5.961833     -0.095706     -1.762151
  H       5.956478     -1.121217     -3.234922
  H       7.412550     -0.176269     -2.819858
  H       5.923889     -5.190098     -1.968484
  H       3.703391     -1.506768     -1.847902
  H       2.879282     -4.291481     -7.382449
  H       3.217098     -5.771997     -6.467158
  H       3.841711     -4.213694     -5.898239
  H       2.397763     -6.353795     -0.409582
  H      -0.522828     -7.734652     -3.237506
  H       3.225950     -8.674287     -0.129284
  H       0.305942    -10.043688     -2.972013
  H       2.184458    -10.531607     -1.416894
  F       1.032241     -2.281913     -0.176833
  F      -0.976722     -2.296412      0.603449
  F       0.282081     -4.245186      1.527762
  F      -0.273394     -2.744455      3.057213
  F       0.845562     -0.258015      2.564325
  F      -1.003541     -0.105192      1.440086
  F       0.762949      0.137167     -0.949690
  F       0.162933      1.739711      0.424883
  F       1.603061     -4.298396      3.740542
  F       2.410684     -2.295079      3.537265
  F       3.312972     -5.285723      2.336737
  F       4.318176     -3.371612      2.200279
  F       2.889198     -3.971011      0.667993
  O       2.911513     -1.177428      1.096745
  O       4.550777      0.050076      0.194229
  C       0.324243     -1.989866      0.923692
  C       0.317828     -0.437474      1.327731
  C       0.621090     -3.041044      2.075152
  C       0.952617      0.613873      0.325281
  C       1.977741     -3.346071      2.834069
  C       2.378498      1.045155      0.536245
  C       3.157209     -3.993445      1.975188
  C       3.365452     -0.114581      0.600916
  H       2.430256      1.578742      1.493314
  H       2.620661      1.754792     -0.261634
80
Coordinates from ORCA-job R4N+FHEA-_r2 E -2666.562619635080
  N       7.123315     -1.870762     -1.639788
  C       1.788514     -5.087348     -4.125586
  C       0.423631     -4.963879     -3.433524
  C       0.366702     -5.466816     -1.983231
  C       2.901957     -4.445282     -3.329997
  C       1.713258     -4.504625     -5.549252
  C       6.014090     -2.660551     -0.928128
  C       4.973748     -3.249828     -1.831572
  C       0.860450     -6.889648     -1.836888
  C       4.043514     -5.169694     -2.979057
  C       2.817539     -3.107880     -2.926424
  C      -1.059385     -5.317720     -1.436089
  C       7.904639     -2.776664     -2.546476
  C       8.036897     -1.326886     -0.576986
  C       6.576341     -0.724890     -2.448899
  C       5.065611     -4.582491     -2.238720
  C       3.833165     -2.518876     -2.183794
  C       2.990977     -4.704226     -6.357542
  C       1.910034     -7.191944     -0.965056
  C       0.272854     -7.935972     -2.558791
  C       2.365513     -8.501287     -0.815090
  C       0.724806     -9.244635     -2.412797
  C       1.773678     -9.533379     -1.539155
  H       2.031381     -6.156394     -4.217544
  H      -0.312735     -5.515226     -4.034463
  H       0.104552     -3.912348     -3.441920
  H       1.025355     -4.834545     -1.372252
  H       1.476510     -3.433542     -5.481965
  H       0.870418     -4.979593     -6.068808
  H       5.546899     -1.964824     -0.225372
  H       6.534278     -3.449477     -0.378161
  H       4.124172     -6.213070     -3.275548
  H       1.935817     -2.522933     -3.176811
  H      -1.120601     -5.646094     -0.393247
  H      -1.765947     -5.918083     -2.021503
  H      -1.382161     -4.271492     -1.487662
  H       8.318545     -3.591959     -1.949860
  H       8.704733     -2.189185     -3.001106
  H       7.236965     -3.163134     -3.317655
  H       8.431864     -2.165461     -0.000543
  H       7.459397     -0.657508      0.063743
  H       8.847573     -0.783308     -1.065457
  H       5.981549     -0.068909     -1.806633
  H       5.965523     -1.129898     -3.257372
  H       7.428431     -0.184755     -2.866110
  H       5.936741     -5.168945     -1.956388
  H       3.713758     -1.492920     -1.846780
  H       2.880046     -4.309852     -7.373208
  H       3.245534     -5.767971     -6.436641
  H       3.842708     -4.192240     -5.895793
  H       2.383910     -6.385584     -0.407932
  H      -0.543849     -7.725823     -3.245390
  H       3.185503     -8.713264     -0.134176
  H       0.258175    -10.043048     -2.983575
  H       2.126438    -10.554631     -1.426554
  F       1.029047     -2.313781     -0.181195
  F      -0.980876     -2.318713      0.587215
  F       0.266650     -4.269629      1.530189
  F      -0.287187     -2.759881      3.047047
  F       0.869269     -0.303615      2.553356
  F      -0.991241     -0.122942      1.459175
  F       0.753479      0.128369     -0.945881
  F       0.159474      1.714804      0.442023
  F       1.585423     -4.285173      3.763437
  F       2.393164     -2.288705      3.505632
  F       3.281228     -5.311805      2.358666
  F       4.301980     -3.409623      2.244487
  F       2.899494     -3.993909      0.685865
  O       2.995392     -1.157990      1.121554
  O       4.569807      0.118740      0.178067
  C       0.317257     -2.016595      0.912950
  C       0.323241     -0.465067      1.324287
  C       0.607621     -3.063241      2.068551
  C       0.952665      0.593722      0.331040
  C       1.959755     -3.358904      2.834235
  C       2.376131      1.041614      0.535214
  C       3.143103     -4.023126      1.997736
  C       3.395436     -0.084231      0.600848
  H       2.423039      1.584572      1.487402
  H       2.593552      1.757785     -0.263862
80
Coordinates from ORCA-job R4N+FHEA-_r2 E -2666.564102833347
  N       7.132475     -1.846798     -1.661055
  C       1.803403     -5.085690     -4.109923
  C       0.437905     -4.947203     -3.424227
  C       0.372982     -5.456365     -1.978217
  C       2.916173     -4.439178     -3.316070
  C       1.732067     -4.521633     -5.540805
  C       6.031918     -2.632795     -0.936000
  C       4.987304     -3.234752     -1.825627
  C       0.844509     -6.887355     -1.841365
  C       4.055254     -5.162350     -2.957374
  C       2.831854     -3.099839     -2.919459
  C      -1.053127     -5.290227     -1.437405
  C       7.921249     -2.763480     -2.548123
  C       8.040037     -1.273347     -0.609940
  C       6.574798     -0.724266     -2.489786
  C       5.076735     -4.571042     -2.220862
  C       3.847322     -2.507253     -2.181324
  C       3.010650     -4.725658     -6.343151
  C       1.888528     -7.208329     -0.971661
  C       0.242371     -7.921046     -2.567779
  C       2.325301     -8.523744     -0.828439
  C       0.675176     -9.235644     -2.427930
  C       1.719409     -9.542938     -1.556826
  H       2.041825     -6.156684     -4.187749
  H      -0.302839     -5.486082     -4.030516
  H       0.128872     -3.893248     -3.429649
  H       1.044029     -4.841259     -1.362632
  H       1.486868     -3.451859     -5.489176
  H       0.893120     -5.008258     -6.054942
  H       5.572989     -1.928704     -0.235973
  H       6.565565     -3.409920     -0.382489
  H       4.134814     -6.207755     -3.245550
  H       1.951355     -2.516260     -3.175015
  H      -1.132732     -5.628174     -0.399341
  H      -1.763760     -5.873379     -2.034543
  H      -1.360352     -4.239845     -1.482798
  H       8.332384     -3.568056     -1.935897
  H       8.723277     -2.181802     -3.006291
  H       7.260058     -3.163122     -3.317355
  H       8.442182     -2.095517     -0.015467
  H       7.455941     -0.595339      0.015041
  H       8.846317     -0.734000     -1.109618
  H       5.988817     -0.052507     -1.857892
  H       5.957024     -1.149802     -3.281700
  H       7.423687     -0.194573     -2.926379
  H       5.947986     -5.154611     -1.934311
  H       3.733189     -1.478922     -1.850161
  H       2.894745     -4.358340     -7.367995
  H       3.278505     -5.787190     -6.396434
  H       3.856305     -4.192696     -5.896406
  H       2.370606     -6.413010     -0.408035
  H      -0.571732     -7.695975     -3.252152
  H       3.141376     -8.750768     -0.148049
  H       0.196820    -10.024769     -3.001438
  H       2.057086    -10.569497     -1.448633
  F       1.067259     -2.328085     -0.156718
  F      -0.961954     -2.344593      0.547923
  F       0.250379     -4.293699      1.547840
  F      -0.310463     -2.776770      3.048262
  F       0.855627     -0.333988      2.564340
  F      -1.004733     -0.169531      1.475325
  F       0.730460      0.097266     -0.932258
  F       0.149681      1.686541      0.449614
  F       1.572348     -4.269311      3.806269
  F       2.385425     -2.286448      3.487375
  F       3.228864     -5.345151      2.370224
  F       4.285294     -3.462828      2.301277
  F       2.907594     -4.006523      0.708261
  O       3.082813     -1.173474      1.120485
  O       4.583910      0.178438      0.164707
  C       0.321824     -2.041255      0.916427
  C       0.311914     -0.495143      1.335865
  C       0.592290     -3.085132      2.078539
  C       0.939121      0.562597      0.342383
  C       1.941269     -3.372699      2.848991
  C       2.367252      1.012620      0.533852
  C       3.121731     -4.054192      2.026348
  C       3.424870     -0.082941      0.593784
  H       2.414755      1.563695      1.481134
  H       2.564086      1.734844     -0.264848
80
Coordinates from ORCA-job R4N+FHEA-_r2 E -2666.565728081900
  N       7.136219     -1.819534     -1.684291
  C       1.821951     -5.080772     -4.088825
  C       0.451119     -4.929632     -3.415887
  C       0.375171     -5.446898     -1.973606
  C       2.928647     -4.428568     -3.289245
  C       1.764040     -4.533475     -5.526787
  C       6.044936     -2.589853     -0.933506
  C       4.993531     -3.212962     -1.799425
  C       0.818993     -6.888872     -1.849628
  C       4.063165     -5.150648     -2.914011
  C       2.843827     -3.085551     -2.904459
  C      -1.049326     -5.260982     -1.436814
  C       7.936016     -2.758622     -2.535449
  C       8.035780     -1.197955     -0.655199
  C       6.565282     -0.737383     -2.549595
  C       5.081247     -4.554349     -2.177267
  C       3.857370     -2.487708     -2.168918
  C       3.047607     -4.745014     -6.317633
  C       1.861317     -7.233507     -0.987830
  C       0.196425     -7.906796     -2.580351
  C       2.276847     -8.556732     -0.856244
  C       0.607978     -9.228995     -2.452247
  C       1.651246     -9.559789     -1.589258
  H       2.056658     -6.153312     -4.152085
  H      -0.291638     -5.456826     -4.030015
  H       0.151512     -3.873098     -3.418823
  H       1.063842     -4.853509     -1.355980
  H       1.513692     -3.464099     -5.490804
  H       0.929555     -5.029250     -6.039760
  H       5.598448     -1.866654     -0.243550
  H       6.591684     -3.347770     -0.365767
  H       4.142277     -6.199404     -3.190601
  H       1.967393     -2.501701     -3.173657
  H      -1.146627     -5.611224     -0.404479
  H      -1.765648     -5.823762     -2.046960
  H      -1.338895     -4.205448     -1.472678
  H       8.345761     -3.542715     -1.896013
  H       8.741056     -2.190926     -3.006220
  H       7.284609     -3.186712     -3.297822
  H       8.447743     -1.990901     -0.028063
  H       7.444818     -0.502502     -0.056261
  H       8.837895     -0.668956     -1.172734
  H       5.991014     -0.039681     -1.936331
  H       5.935215     -1.193119     -3.314062
  H       7.406788     -0.222761     -3.018557
  H       5.950886     -5.135702     -1.880316
  H       3.753806     -1.452506     -1.853123
  H       2.931458     -4.407094     -7.352769
  H       3.326980     -5.804779     -6.341436
  H       3.886119     -4.191303     -5.883028
  H       2.355867     -6.451417     -0.417072
  H      -0.617723     -7.662950     -3.258710
  H       3.091890     -8.802443     -0.180632
  H       0.113404    -10.006308     -3.028607
  H       1.972356    -10.592885     -1.490191
  F       1.141605     -2.349802     -0.123491
  F      -0.920232     -2.365457      0.493917
  F       0.232524     -4.332374      1.566237
  F      -0.337406     -2.798980      3.039180
  F       0.929391     -0.384081      2.561027
  F      -0.978848     -0.229556      1.551110
  F       0.690939      0.048638     -0.920213
  F       0.118088      1.633532      0.471006
  F       1.558554     -4.256586      3.851385
  F       2.380939     -2.290230      3.458677
  F       3.148061     -5.399499      2.370689
  F       4.264123     -3.545580      2.372615
  F       2.922034     -4.021723      0.727875
  O       3.195482     -1.159084      1.114852
  O       4.592629      0.290063      0.135501
  C       0.346812     -2.075699      0.917245
  C       0.333508     -0.539281      1.356993
  C       0.577911     -3.120112      2.085002
  C       0.921504      0.520771      0.348705
  C       1.921162     -3.395729      2.861762
  C       2.348365      0.992134      0.513508
  C       3.093175     -4.101457      2.053570
  C       3.460694     -0.055389      0.574999
  H       2.393627      1.562677      1.449709
  H       2.514013      1.710501     -0.295774
80
Coordinates from ORCA-job R4N+FHEA-_r2 E -2666.566802481741
  N       7.136184     -1.801998     -1.696899
  C       1.835744     -5.074943     -4.070142
  C       0.458120     -4.918276     -3.409872
  C       0.372033     -5.439994     -1.968517
  C       2.934788     -4.418087     -3.263199
  C       1.794257     -4.534960     -5.511559
  C       6.047734     -2.553160     -0.922871
  C       4.991554     -3.192993     -1.769435
  C       0.794363     -6.890468     -1.854203
  C       4.064929     -5.139165     -2.871004
  C       2.849591     -3.071104     -2.892194
  C      -1.049272     -5.238872     -1.430692
  C       7.941625     -2.762278     -2.517508
  C       8.032044     -1.146064     -0.687305
  C       6.561640     -0.749911     -2.592930
  C       5.079630     -4.538219     -2.132638
  C       3.858961     -2.468647     -2.154667
  C       3.086197     -4.754013     -6.287941
  C       1.840474     -7.254806     -1.004293
  C       0.150668     -7.895691     -2.584602
  C       2.238319     -8.584955     -0.883086
  C       0.544767     -9.224701     -2.467480
  C       1.591651     -9.575228     -1.616004
  H       2.068824     -6.148177     -4.124787
  H      -0.283454     -5.440634     -4.029618
  H       0.164810     -3.859811     -3.412558
  H       1.072954     -4.860076     -1.351970
  H       1.546202     -3.464696     -5.484058
  H       0.963855     -5.032653     -6.029886
  H       5.609044     -1.813741     -0.245044
  H       6.597906     -3.295801     -0.337965
  H       4.144367     -6.190638     -3.137628
  H       1.977566     -2.486824     -3.175305
  H      -1.150801     -5.595878     -0.401003
  H      -1.771960     -5.788596     -2.045589
  H      -1.326216     -4.179703     -1.459543
  H       8.351682     -3.528350     -1.856455
  H       8.748671     -2.209380     -3.002443
  H       7.296053     -3.215862     -3.270650
  H       8.448173     -1.915763     -0.034155
  H       7.440005     -0.434387     -0.108550
  H       8.833530     -0.629017     -1.218151
  H       5.993236     -0.033841     -1.995127
  H       5.923184     -1.223740     -3.338809
  H       7.397115     -0.245614     -3.083936
  H       5.946093     -5.118851     -1.824473
  H       3.762340     -1.427360     -1.854888
  H       2.977883     -4.431239     -7.328904
  H       3.367591     -5.813769     -6.293821
  H       3.919177     -4.191896     -5.852626
  H       2.350364     -6.482769     -0.432621
  H      -0.666512     -7.636569     -3.253980
  H       3.056051     -8.845783     -0.216246
  H       0.033670     -9.991879     -3.043238
  H       1.899161    -10.613406     -1.525840
  F       1.211247     -2.355673     -0.092807
  F      -0.871344     -2.389482      0.458219
  F       0.238345     -4.356387      1.577229
  F      -0.326646     -2.814985      3.041317
  F       0.963361     -0.389418      2.554057
  F      -0.971676     -0.285818      1.589825
  F       0.661730      0.003380     -0.923416
  F       0.072328      1.589852      0.460703
  F       1.577223     -4.268530      3.864933
  F       2.422628     -2.320008      3.438530
  F       3.092889     -5.460485      2.339298
  F       4.272263     -3.639535      2.403851
  F       2.950676     -4.037875      0.723877
  O       3.268585     -1.128446      1.103335
  O       4.581706      0.395226      0.110066
  C       0.378866     -2.097986      0.922546
  C       0.342078     -0.566608      1.366962
  C       0.589714     -3.144559      2.091319
  C       0.895925      0.491590      0.339527
  C       1.936102     -3.424831      2.860083
  C       2.316342      0.987657      0.489113
  C       3.090469     -4.153417      2.050811
  C       3.475103     -0.018486      0.556029
  H       2.352989      1.572965      1.416694
  H       2.462766      1.698476     -0.330686
80
Coordinates from ORCA-job R4N+FHEA-_r2 E -2666.567672676345
  N       7.136282     -1.790463     -1.705399
  C       1.847899     -5.068219     -4.053530
  C       0.461784     -4.914149     -3.408566
  C       0.362094     -5.439384     -1.967736
  C       2.936355     -4.405624     -3.237407
  C       1.824644     -4.529952     -5.496148
  C       6.041584     -2.513258     -0.909143
  C       4.983175     -3.167184     -1.740863
  C       0.770461     -6.895077     -1.859321
  C       4.059613     -5.125408     -2.822058
  C       2.851874     -3.052846     -2.887298
  C      -1.057350     -5.228404     -1.430841
  C       7.939931     -2.779168     -2.493820
  C       8.032617     -1.107590     -0.714358
  C       6.569208     -0.762128     -2.633618
  C       5.070615     -4.517655     -2.083126
  C       3.855591     -2.443802     -2.147055
  C       3.129235     -4.749708     -6.253571
  C       1.819568     -7.275520     -1.018553
  C       0.109818     -7.890154     -2.589411
  C       2.202771     -8.611429     -0.905701
  C       0.489669     -9.224792     -2.481204
  C       1.539026     -9.591521     -1.638563
  H       2.083838     -6.141178     -4.103246
  H      -0.273665     -5.436578     -4.035635
  H       0.170723     -3.854710     -3.411917
  H       1.067816     -4.865810     -1.350907
  H       1.577996     -3.459181     -5.472983
  H       1.001868     -5.028709     -6.025901
  H       5.609105     -1.755034     -0.249283
  H       6.585484     -3.242606     -0.301782
  H       4.138486     -6.180681     -3.074156
  H       1.985541     -2.468620     -3.188399
  H      -1.156318     -5.590514     -0.402339
  H      -1.784818     -5.769818     -2.047824
  H      -1.325799     -4.166865     -1.453670
  H       8.346503     -3.527064     -1.809886
  H       8.750650     -2.246178     -2.994645
  H       7.295174     -3.255284     -3.234361
  H       8.444427     -1.857627     -0.035939
  H       7.443880     -0.375693     -0.157336
  H       8.838182     -0.609577     -1.257541
  H       6.003779     -0.028596     -2.053478
  H       5.925983     -1.249114     -3.366841
  H       7.403869     -0.271532     -3.139496
  H       5.931493     -5.098046     -1.758783
  H       3.765058     -1.395901     -1.868455
  H       3.034732     -4.432594     -7.297749
  H       3.412132     -5.809363     -6.249227
  H       3.954156     -4.183246     -5.807430
  H       2.344434     -6.511960     -0.447871
  H      -0.709487     -7.618899     -3.251636
  H       3.022734     -8.884453     -0.246371
  H      -0.034527     -9.983385     -3.056790
  H       1.835397    -10.633635     -1.555544
  F       1.270629     -2.357320     -0.060603
  F      -0.829852     -2.404880      0.443007
  F       0.252347     -4.380702      1.581902
  F      -0.302060     -2.835972      3.050533
  F       1.028683     -0.400563      2.548768
  F      -0.946166     -0.336696      1.659785
  F       0.622640     -0.042530     -0.920553
  F       0.019034      1.544160      0.457980
  F       1.604315     -4.281788      3.876052
  F       2.466210     -2.346275      3.410610
  F       3.042924     -5.523622      2.299101
  F       4.290985     -3.746625      2.419982
  F       2.983776     -4.055199      0.715788
  O       3.333557     -1.073891      1.076372
  O       4.561575      0.516204      0.068324
  C       0.409681     -2.117768      0.935263
  C       0.363117     -0.592629      1.387854
  C       0.607959     -3.171256      2.098008
  C       0.867831      0.465427      0.333067
  C       1.960026     -3.454532      2.855434
  C       2.276438      0.998039      0.453007
  C       3.095014     -4.209036      2.039517
  C       3.481895      0.039550      0.521888
  H       2.308868      1.600589      1.369585
  H       2.395523      1.694579     -0.383445
80
Coordinates from ORCA-job R4N+FHEA-_r2 E -2666.568370527811
  N       7.136253     -1.781031     -1.707765
  C       1.858406     -5.062900     -4.037598
  C       0.464493     -4.916580     -3.408151
  C       0.350426     -5.444449     -1.968493
  C       2.934848     -4.392157     -3.213242
  C       1.850398     -4.524906     -5.480576
  C       6.028235     -2.469588     -0.895763
  C       4.971163     -3.134347     -1.719766
  C       0.747555     -6.903369     -1.862541
  C       4.051430     -5.108148     -2.774449
  C       2.849572     -3.033596     -2.885982
  C      -1.068569     -5.223037     -1.435113
  C       7.929489     -2.800214     -2.467611
  C       8.037336     -1.082700     -0.731443
  C       6.584529     -0.769421     -2.664856
  C       5.057709     -4.490784     -2.036637
  C       3.848046     -2.414685     -2.146556
  C       3.169082     -4.737318     -6.217694
  C       1.796964     -7.297240     -1.027778
  C       0.073377     -7.889955     -2.592389
  C       2.167121     -8.637560     -0.920830
  C       0.440163     -9.229056     -2.490107
  C       1.489680     -9.609173     -1.653227
  H       2.101379     -6.134616     -4.083807
  H      -0.261857     -5.441424     -4.043695
  H       0.172348     -3.857248     -3.412035
  H       1.056730     -4.873279     -1.349396
  H       1.600218     -3.454988     -5.460447
  H       1.038852     -5.027560     -6.023600
  H       5.599895     -1.691383     -0.257367
  H       6.557801     -3.189258     -0.264768
  H       4.130325     -6.167315     -3.009549
  H       1.988047     -2.451829     -3.205263
  H      -1.164595     -5.586624     -0.406698
  H      -1.800425     -5.758073     -2.052232
  H      -1.328174     -4.159355     -1.455125
  H       8.328367     -3.533228     -1.763380
  H       8.745194     -2.289206     -2.982757
  H       7.279646     -3.290126     -3.194848
  H       8.437524     -1.819829     -0.032277
  H       7.455245     -0.330159     -0.194983
  H       8.850396     -0.607881     -1.284341
  H       6.020001     -0.019951     -2.104121
  H       5.940668     -1.266610     -3.390920
  H       7.424295     -0.296086     -3.178003
  H       5.912990     -5.069246     -1.694791
  H       3.761276     -1.360725     -1.891169
  H       3.090276     -4.418756     -7.262661
  H       3.455946     -5.795922     -6.209842
  H       3.983374     -4.168030     -5.755321
  H       2.335215     -6.541109     -0.459844
  H      -0.746167     -7.608842     -3.250056
  H       2.987798     -8.920611     -0.266707
  H      -0.094389     -9.980281     -3.065776
  H       1.775851    -10.654427     -1.574655
  F       1.327434     -2.362556     -0.030867
  F      -0.785591     -2.422852      0.435120
  F       0.270760     -4.401864      1.581353
  F      -0.264091     -2.860630      3.064665
  F       1.084633     -0.406306      2.542659
  F      -0.917082     -0.379337      1.713419
  F       0.595201     -0.084567     -0.917567
  F      -0.035436      1.497886      0.452575
  F       1.647494     -4.306403      3.880584
  F       2.524454     -2.383399      3.375469
  F       3.003132     -5.587084      2.253548
  F       4.313612     -3.855054      2.416886
  F       3.010205     -4.080868      0.701282
  O       3.398864     -0.999123      1.044667
  O       4.536679      0.645970      0.015644
  C       0.444520     -2.137023      0.949044
  C       0.387093     -0.615163      1.403818
  C       0.634388     -3.198455      2.104439
  C       0.844627      0.444330      0.326356
  C       1.994265     -3.491971      2.846119
  C       2.236569      1.021876      0.417946
  C       3.104534     -4.269360      2.018604
  C       3.486141      0.115713      0.481844
  H       2.263271      1.637163      1.326106
  H       2.322804      1.706646     -0.432206
80
Coordinates from ORCA-job R4N+FHEA-_r2 E -2666.569031687455
  N       7.132959     -1.771876     -1.707113
  C       1.867995     -5.058111     -4.018754
  C       0.464422     -4.922245     -3.410358
  C       0.334577     -5.453288     -1.972820
  C       2.927304     -4.373513     -3.185098
  C       1.880667     -4.524850     -5.463440
  C       6.001946     -2.407669     -0.881191
  C       4.947670     -3.085542     -1.698129
  C       0.722295     -6.914479     -1.869634
  C       4.033346     -5.082713     -2.711809
  C       2.840635     -3.007411     -2.891298
  C      -1.085671     -5.224153     -1.445140
  C       7.907332     -2.831952     -2.429490
  C       8.041762     -1.059913     -0.747404
  C       6.608069     -0.780935     -2.701041
  C       5.031262     -4.450578     -1.975482
  C       3.831926     -2.372810     -2.155338
  C       3.219935     -4.724284     -6.168876
  C       1.769584     -7.324312     -1.039916
  C       0.035329     -7.890875     -2.601789
  C       2.125588     -8.669027     -0.941486
  C       0.387742     -9.234413     -2.507541
  C       1.435390     -9.630090     -1.675842
  H       2.121988     -6.127789     -4.057246
  H      -0.249146     -5.450700     -4.057083
  H       0.168824     -3.863816     -3.414777
  H       1.037549     -4.880520     -1.350161
  H       1.621122     -3.457287     -5.451611
  H       1.088096     -5.037341     -6.024368
  H       5.578717     -1.599637     -0.275449
  H       6.506431     -3.115118     -0.216937
  H       4.111760     -6.147274     -2.920414
  H       1.985994     -2.430876     -3.237043
  H      -1.177031     -5.587008     -0.415872
  H      -1.820492     -5.755606     -2.061138
  H      -1.338253     -4.159134     -1.464638
  H       8.291363     -3.547615     -1.699919
  H       8.731887     -2.352088     -2.959919
  H       7.247984     -3.332665     -3.140971
  H       8.420981     -1.782794     -0.022351
  H       7.470092     -0.279687     -0.239825
  H       8.867374     -0.619620     -1.310203
  H       6.043842     -0.010293     -2.169840
  H       5.966563     -1.290943     -3.420623
  H       7.459782     -0.334725     -3.217928
  H       5.877715     -5.025070     -1.606799
  H       3.749436     -1.310715     -1.934699
  H       3.164904     -4.403573     -7.214478
  H       3.514559     -5.780560     -6.155666
  H       4.017102     -4.150021     -5.682556
  H       2.322718     -6.578833     -0.473213
  H      -0.783204     -7.598558     -3.255395
  H       2.945627     -8.963803     -0.291976
  H      -0.156755     -9.976513     -3.085456
  H       1.710533    -10.678557     -1.603041
  F       1.412922     -2.368028      0.013087
  F      -0.717583     -2.437309      0.422106
  F       0.295668     -4.427554      1.579802
  F      -0.211751     -2.893781      3.082229
  F       1.177503     -0.421710      2.536262
  F      -0.860131     -0.433764      1.798996
  F       0.570744     -0.136625     -0.903611
  F      -0.102741      1.434589      0.456167
  F       1.705292     -4.321765      3.895732
  F       2.605693     -2.426145      3.312611
  F       2.931102     -5.675161      2.203742
  F       4.338259     -4.023260      2.421287
  F       3.050229     -4.127020      0.692397
  O       3.502987     -0.873375      0.987679
  O       4.493018      0.845194     -0.074978
  C       0.498829     -2.159180      0.968557
  C       0.432553     -0.643836      1.431044
  C       0.672012     -3.233264      2.112582
  C       0.822180      0.420124      0.327084
  C       2.040456     -3.539544      2.834171
  C       2.185403      1.065417      0.377051
  C       3.111578     -4.360678      2.000064
  C       3.494410      0.240724      0.417189
  H       2.205779      1.692074      1.277440
  H       2.215700      1.739037     -0.485599
80
Coordinates from ORCA-job R4N+FHEA-_r2 E -2666.569452795318
  N       7.130268     -1.776519     -1.702123
  C       1.868917     -5.059713     -4.020474
  C       0.462809     -4.926032     -3.417763
  C       0.329200     -5.455341     -1.979501
  C       2.922844     -4.368599     -3.184898
  C       1.886961     -4.532253     -5.467603
  C       5.988369     -2.392293     -0.876673
  C       4.935314     -3.070550     -1.696253
  C       0.719745     -6.914618     -1.871960
  C       4.024077     -5.075452     -2.698284
  C       2.835941     -2.999937     -2.902314
  C      -1.093603     -5.227915     -1.455730
  C       7.891192     -2.846663     -2.424189
  C       8.047827     -1.074967     -0.743244
  C       6.616115     -0.781514     -2.698878
  C       5.017054     -4.438404     -1.960512
  C       3.823707     -2.359779     -2.165271
  C       3.231876     -4.728123     -6.163933
  C       1.765861     -7.322544     -1.040412
  C       0.034220     -7.892827     -2.603172
  C       2.122343     -8.666808     -0.939965
  C       0.386960     -9.235835     -2.506430
  C       1.433617     -9.629523     -1.672988
  H       2.126796     -6.128613     -4.053800
  H      -0.246212     -5.457453     -4.066994
  H       0.164976     -3.868318     -3.424251
  H       1.024717     -4.876459     -1.354483
  H       1.623402     -3.465712     -5.461546
  H       1.100724     -5.050156     -6.032253
  H       5.565512     -1.575528     -0.283755
  H       6.476827     -3.100385     -0.200973
  H       4.102196     -6.141827     -2.897386
  H       1.983893     -2.425458     -3.257709
  H      -1.183022     -5.586406     -0.424629
  H      -1.827181     -5.763090     -2.069615
  H      -1.346911     -4.163050     -1.478921
  H       8.269510     -3.564743     -1.693995
  H       8.719017     -2.375260     -2.957448
  H       7.224571     -3.340144     -3.133358
  H       8.417058     -1.802180     -0.017370
  H       7.484939     -0.287292     -0.237299
  H       8.878841     -0.646064     -1.306780
  H       6.049785     -0.009933     -2.172753
  H       5.978504     -1.291074     -3.422493
  H       7.473286     -0.339336     -3.210240
  H       5.859373     -5.011912     -1.580939
  H       3.739035     -1.295038     -1.954907
  H       3.185008     -4.402038     -7.208253
  H       3.526471     -5.784401     -6.153511
  H       4.024684     -4.156371     -5.668135
  H       2.320642     -6.577307     -0.474897
  H      -0.783843     -7.602435     -3.258210
  H       2.941818     -8.959994     -0.288933
  H      -0.156706     -9.979008     -3.083813
  H       1.709266    -10.677727     -1.597796
  F       1.443805     -2.355240      0.028503
  F      -0.691125     -2.438224      0.418874
  F       0.309970     -4.426879      1.575178
  F      -0.184137     -2.905010      3.092425
  F       1.199324     -0.419910      2.539739
  F      -0.846867     -0.443751      1.825518
  F       0.574684     -0.143025     -0.895471
  F      -0.132986      1.420499      0.455808
  F       1.738450     -4.310699      3.904682
  F       2.652575     -2.434841      3.276886
  F       2.895642     -5.706020      2.183972
  F       4.353980     -4.104365      2.425528
  F       3.070683     -4.145247      0.689070
  O       3.516072     -0.825059      0.966999
  O       4.467977      0.913592     -0.094782
  C       0.519351     -2.156805      0.977280
  C       0.443465     -0.644370      1.442630
  C       0.692880     -3.238049      2.115364
  C       0.812314      0.424005      0.333027
  C       2.067452     -3.550378      2.826425
  C       2.162591      1.095704      0.379750
  C       3.117773     -4.396556      1.994045
  C       3.484693      0.292481      0.403038
  H       2.178391      1.714421      1.285718
  H       2.174688      1.776032     -0.477675
80
Coordinates from ORCA-job R4N+FHEA-_r2 E -2666.570254187794
  N       7.127611     -1.782276     -1.695876
  C       1.866730     -5.063443     -4.025846
  C       0.459364     -4.928299     -3.426655
  C       0.322728     -5.454715     -1.987524
  C       2.916826     -4.363744     -3.191681
  C       1.887971     -4.549491     -5.477929
  C       5.970508     -2.373230     -0.877346
  C       4.919849     -3.051663     -1.702558
  C       0.717695     -6.910849     -1.873071
  C       4.012842     -5.067266     -2.689369
  C       2.830768     -2.992142     -2.924404
  C      -1.104622     -5.228976     -1.471064
  C       7.872509     -2.860923     -2.422791
  C       8.055190     -1.100800     -0.732405
  C       6.627798     -0.776085     -2.690432
  C       4.998838     -4.423319     -1.949984
  C       3.815083     -2.344337     -2.188227
  C       3.236935     -4.742014     -6.166541
  C       1.761634     -7.311838     -1.036789
  C       0.038783     -7.894118     -2.603739
  C       2.122502     -8.654347     -0.931127
  C       0.395711     -9.235046     -2.501288
  C       1.440444     -9.621961     -1.662781
  H       2.127953     -6.131681     -4.049395
  H      -0.246345     -5.461829     -4.077836
  H       0.159092     -3.871524     -3.436341
  H       1.008125     -4.870333     -1.356977
  H       1.615912     -3.485040     -5.483824
  H       1.108439     -5.078386     -6.041616
  H       5.548349     -1.543289     -0.303988
  H       6.435423     -3.083039     -0.186570
  H       4.090538     -6.135950     -2.875832
  H       1.982049     -2.420794     -3.292614
  H      -1.199793     -5.580859     -0.438035
  H      -1.835081     -5.768100     -2.084903
  H      -1.357557     -4.163858     -1.500664
  H       8.238934     -3.587380     -1.694756
  H       8.707692     -2.397274     -2.951940
  H       7.199213     -3.338093     -3.136166
  H       8.409278     -1.838114     -0.009207
  H       7.503393     -0.305677     -0.225961
  H       8.894402     -0.684989     -1.293302
  H       6.057270     -0.006703     -2.167331
  H       5.998719     -1.283396     -3.423157
  H       7.493835     -0.335774     -3.188756
  H       5.836425     -4.994198     -1.555903
  H       3.726092     -1.277295     -1.991190
  H       3.196229     -4.412574     -7.210124
  H       3.533261     -5.797821     -6.157796
  H       4.026304     -4.170877     -5.664973
  H       2.313776     -6.564748     -0.470939
  H      -0.777757     -7.609187     -3.263166
  H       2.940545     -8.942192     -0.275711
  H      -0.143288     -9.981973     -3.078363
  H       1.719848    -10.668903     -1.582614
  F       1.505857     -2.354670      0.055036
  F      -0.637794     -2.451281      0.393003
  F       0.319907     -4.428242      1.574312
  F      -0.155721     -2.912796      3.099957
  F       1.220502     -0.433050      2.545863
  F      -0.829622     -0.470954      1.841326
  F       0.600632     -0.142963     -0.887515
  F      -0.168275      1.396148      0.458700
  F       1.775729     -4.282011      3.929860
  F       2.710279     -2.442726      3.223471
  F       2.829638     -5.745120      2.167432
  F       4.358609     -4.223816      2.456175
  F       3.094705     -4.169882      0.697731
  O       3.535344     -0.759015      0.931413
  O       4.436823      1.007343     -0.122377
  C       0.556676     -2.162260      0.981820
  C       0.461542     -0.653955      1.450426
  C       0.716954     -3.246193      2.119488
  C       0.807712      0.429171      0.344129
  C       2.095476     -3.563697      2.822789
  C       2.137761      1.141557      0.399093
  C       3.115200     -4.447382      2.001203
  C       3.474033      0.367427      0.385044
  H       2.144548      1.736217      1.321357
  H       2.118743      1.846260     -0.437843
80
Coordinates from ORCA-job R4N+FHEA-_r2 E -2666.570885492316
  N       7.126323     -1.787047     -1.694500
  C       1.862941     -5.067265     -4.033869
  C       0.456670     -4.928403     -3.433107
  C       0.320849     -5.452945     -1.993892
  C       2.913714     -4.364988     -3.202056
  C       1.882248     -4.561609     -5.488470
  C       5.963192     -2.370559     -0.883879
  C       4.913497     -3.048736     -1.711671
  C       0.721105     -6.907189     -1.875535
  C       4.008013     -5.067991     -2.694291
  C       2.829694     -2.992328     -2.941085
  C      -1.110134     -5.231583     -1.483815
  C       7.867888     -2.865213     -2.425770
  C       8.055707     -1.116546     -0.725105
  C       6.632518     -0.772224     -2.683657
  C       4.990961     -4.421957     -1.953824
  C       3.813600     -2.341981     -2.205952
  C       3.229200     -4.754330     -6.178795
  C       1.763081     -7.301354     -1.033904
  C       0.050332     -7.895269     -2.607199
  C       2.129078     -8.642217     -0.923246
  C       0.412766     -9.234052     -2.500164
  C       1.455247     -9.614354     -1.655871
  H       2.123719     -6.135638     -4.052144
  H      -0.250173     -5.461967     -4.083212
  H       0.155465     -3.872059     -3.445017
  H       0.999828     -4.866339     -1.359033
  H       1.604682     -3.498498     -5.501216
  H       1.102878     -5.096828     -6.046622
  H       5.542015     -1.533048     -0.321170
  H       6.417721     -3.080898     -0.186628
  H       4.085235     -6.137475     -2.876235
  H       1.983016     -2.421812     -3.315304
  H      -1.214681     -5.578167     -0.449856
  H      -1.835383     -5.775611     -2.099695
  H      -1.366151     -4.167348     -1.520205
  H       8.225696     -3.598203     -1.700002
  H       8.709049     -2.402685     -2.946395
  H       7.195787     -3.332452     -3.146785
  H       8.403364     -1.859993     -0.005136
  H       7.507418     -0.320248     -0.216797
  H       8.898944     -0.703594     -1.281987
  H       6.058829     -0.007100     -2.157833
  H       6.009707     -1.276475     -3.423549
  H       7.503015     -0.328391     -3.171303
  H       5.827047     -4.991018     -1.553720
  H       3.722260     -1.274284     -2.013693
  H       3.186006     -4.426826     -7.222969
  H       3.527507     -5.809570     -6.169367
  H       4.019932     -4.180986     -5.681765
  H       2.309170     -6.552163     -0.465114
  H      -0.764396     -7.615325     -3.271082
  H       2.945189     -8.924836     -0.263105
  H      -0.120224     -9.984662     -3.078076
  H       1.739117    -10.659824     -1.571958
  F       1.533073     -2.350331      0.066678
  F      -0.613548     -2.446966      0.381259
  F       0.318591     -4.425417      1.580311
  F      -0.149071     -2.909067      3.103401
  F       1.230996     -0.441198      2.554582
  F      -0.819940     -0.482723      1.848308
  F       0.630825     -0.145279     -0.876845
  F      -0.181418      1.383392      0.458637
  F       1.785085     -4.245525      3.955888
  F       2.737065     -2.438758      3.190967
  F       2.779923     -5.764421      2.179698
  F       4.345715     -4.291982      2.505592
  F       3.116885     -4.190960      0.720531
  O       3.539162     -0.726717      0.909448
  O       4.425191      1.049585     -0.136568
  C       0.574282     -2.159955      0.983930
  C       0.472793     -0.655528      1.457222
  C       0.724141     -3.245280      2.123737
  C       0.811934      0.434331      0.355882
  C       2.102143     -3.563642      2.827120
  C       2.130067      1.170189      0.422483
  C       3.105847     -4.476812      2.025996
  C       3.469004      0.407358      0.378098
  H       2.131699      1.744686      1.357635
  H       2.089714      1.896863     -0.394855
80
Coordinates from ORCA-job R4N+FHEA-_r2 E -2666.571695866523
  N       7.122421     -1.785174     -1.692538
  C       1.860339     -5.071196     -4.036847
  C       0.453852     -4.927143     -3.436981
  C       0.316151     -5.451214     -1.998216
  C       2.909883     -4.364888     -3.207238
  C       1.881740     -4.574727     -5.493999
  C       5.949771     -2.354632     -0.890212
  C       4.903468     -3.038475     -1.717727
  C       0.716426     -6.905826     -1.879355
  C       4.001237     -5.065482     -2.688380
  C       2.826818     -2.990774     -2.958224
  C      -1.117478     -5.231700     -1.494438
  C       7.863489     -2.869235     -2.415245
  C       8.049101     -1.116620     -0.719080
  C       6.639560     -0.769344     -2.685202
  C       4.980376     -4.414316     -1.948000
  C       3.808585     -2.335038     -2.225347
  C       3.229352     -4.769328     -6.180861
  C       1.757260     -7.298592     -1.035798
  C       0.048341     -7.894892     -2.612084
  C       2.123877     -8.639363     -0.923180
  C       0.411659     -9.233218     -2.503711
  C       1.452654     -9.612338     -1.656850
  H       2.119855     -6.139930     -4.048041
  H      -0.254726     -5.458945     -4.086810
  H       0.154216     -3.870414     -3.450606
  H       0.992253     -4.866573     -1.358349
  H       1.599607     -3.512902     -5.515311
  H       1.103884     -5.116266     -6.048466
  H       5.529177     -1.503881     -0.346335
  H       6.391621     -3.058614     -0.178451
  H       4.078240     -6.136456     -2.861276
  H       1.982762     -2.422733     -3.342110
  H      -1.231913     -5.572974     -0.459686
  H      -1.837911     -5.779793     -2.112599
  H      -1.376028     -4.168246     -1.537883
  H       8.208620     -3.603338     -1.684459
  H       8.713738     -2.414129     -2.927457
  H       7.195754     -3.333157     -3.142877
  H       8.388220     -1.859114      0.005913
  H       7.502570     -0.314862     -0.217420
  H       8.898656     -0.710477     -1.271468
  H       6.060442     -0.006377     -2.161310
  H       6.024516     -1.272520     -3.432078
  H       7.515432     -0.323463     -3.161304
  H       5.814023     -4.979620     -1.537462
  H       3.714680     -1.266243     -2.043307
  H       3.187208     -4.447274     -7.226869
  H       3.529690     -5.823915     -6.166143
  H       4.019609     -4.191940     -5.687006
  H       2.300724     -6.549775     -0.464477
  H      -0.765254     -7.615611     -3.277690
  H       2.938698     -8.920780     -0.260926
  H      -0.119527     -9.984523     -3.082378
  H       1.737167    -10.657544     -1.571774
  F       1.593690     -2.361248      0.090389
  F      -0.561128     -2.454713      0.353330
  F       0.323985     -4.429937      1.590138
  F      -0.130270     -2.904833      3.104635
  F       1.259078     -0.449764      2.554742
  F      -0.795157     -0.511025      1.858788
  F       0.670893     -0.148841     -0.872607
  F      -0.202733      1.354711      0.453427
  F       1.811967     -4.205074      3.985534
  F       2.786489     -2.447218      3.135119
  F       2.706498     -5.800465      2.183215
  F       4.327550     -4.404067      2.566519
  F       3.159368     -4.232204      0.745860
  O       3.559689     -0.669480      0.871213
  O       4.399878      1.129153     -0.174744
  C       0.612279     -2.168193      0.982863
  C       0.497676     -0.665685      1.459917
  C       0.741761     -3.251691      2.127719
  C       0.817511      0.435297      0.363215
  C       2.120234     -3.573195      2.827082
  C       2.114670      1.208171      0.445054
  C       3.095782     -4.529745      2.050404
  C       3.463781      0.471400      0.357355
  H       2.109034      1.755591      1.396326
  H       2.042825      1.960335     -0.347061
80
Coordinates from ORCA-job R4N+FHEA-_r2 E -2666.572665330533
  N       7.112310     -1.783949     -1.680284
  C       1.850907     -5.074788     -4.037112
  C       0.443547     -4.922147     -3.440365
  C       0.305713     -5.446410     -2.003105
  C       2.899062     -4.364261     -3.209695
  C       1.875426     -4.591067     -5.497886
  C       5.927860     -2.339109     -0.889750
  C       4.888392     -3.031184     -1.718807
  C       0.706398     -6.902370     -1.887042
  C       3.987740     -5.063236     -2.680081
  C       2.818105     -2.989236     -2.972222
  C      -1.129537     -5.231977     -1.503621
  C       7.857741     -2.875534     -2.385453
  C       8.029705     -1.111106     -0.700957
  C       6.644548     -0.770478     -2.680761
  C       4.964800     -4.408985     -1.939449
  C       3.798017     -2.330321     -2.240292
  C       3.222947     -4.793575     -6.181012
  C       1.751135     -7.290479     -1.046231
  C       0.039183     -7.894083     -2.616594
  C       2.121514     -8.630237     -0.930359
  C       0.406324     -9.231450     -2.506142
  C       1.450512     -9.606430     -1.660541
  H       2.106836     -6.144403     -4.038105
  H      -0.268510     -5.450293     -4.089530
  H       0.147181     -3.864491     -3.455897
  H       0.982584     -4.866244     -1.358932
  H       1.591611     -3.530004     -5.530558
  H       1.096914     -5.138293     -6.046284
  H       5.507549     -1.472180     -0.370220
  H       6.356621     -3.030811     -0.158147
  H       4.063669     -6.135517     -2.844986
  H       1.977399     -2.422342     -3.365076
  H      -1.252545     -5.567792     -0.468522
  H      -1.843231     -5.787450     -2.123398
  H      -1.396452     -4.170841     -1.555179
  H       8.185208     -3.608836     -1.645722
  H       8.720956     -2.431687     -2.885355
  H       7.199764     -3.340533     -3.121762
  H       8.359324     -1.847695      0.034360
  H       7.481833     -0.302758     -0.211168
  H       8.887433     -0.711296     -1.245503
  H       6.057102     -0.011400     -2.159250
  H       6.038900     -1.270821     -3.436977
  H       7.525455     -0.319306     -3.142081
  H       5.795312     -4.971171     -1.518487
  H       3.702111     -1.261199     -2.066913
  H       3.181231     -4.484591     -7.231069
  H       3.524093     -5.847659     -6.153668
  H       4.013595     -4.209359     -5.695229
  H       2.291752     -6.537429     -0.478280
  H      -0.776821     -7.617395     -3.280333
  H       2.938945     -8.907723     -0.269775
  H      -0.124340     -9.985399     -3.081732
  H       1.737464    -10.650802     -1.574079
  F       1.678766     -2.379723      0.113397
  F      -0.484611     -2.468810      0.305848
  F       0.342592     -4.439059      1.599965
  F      -0.092764     -2.899844      3.099213
  F       1.296921     -0.457817      2.544463
  F      -0.760275     -0.555706      1.857583
  F       0.766397     -0.169553     -0.877037
  F      -0.227709      1.296862      0.407681
  F       1.883113     -4.130993      4.005783
  F       2.861411     -2.443739      3.019390
  F       2.626378     -5.828811      2.165692
  F       4.308290     -4.528695      2.623342
  F       3.230958     -4.284029      0.756120
  O       3.584045     -0.595674      0.827879
  O       4.362196      1.228997     -0.222039
  C       0.667758     -2.182542      0.970755
  C       0.533664     -0.683108      1.452442
  C       0.773036     -3.259976      2.122454
  C       0.835047      0.426885      0.360963
  C       2.159596     -3.572109      2.803330
  C       2.094833      1.253557      0.488781
  C       3.095314     -4.583377      2.057077
  C       3.455788      0.553139      0.339429
  H       2.072716      1.751221      1.466478
  H       1.985488      2.044417     -0.260862
80
Coordinates from ORCA-job R4N+FHEA-_r2 E -2666.573422451109
  N       7.097773     -1.771613     -1.660395
  C       1.849559     -5.079593     -4.032594
  C       0.439758     -4.918724     -3.442709
  C       0.294236     -5.442386     -2.005652
  C       2.892394     -4.360689     -3.207853
  C       1.884583     -4.611341     -5.497952
  C       5.895732     -2.307646     -0.882313
  C       4.867941     -3.009850     -1.716407
  C       0.684022     -6.902238     -1.891305
  C       3.976659     -5.053345     -2.660975
  C       2.810552     -2.983454     -2.990776
  C      -1.140945     -5.220815     -1.508749
  C       7.846528     -2.874329     -2.343956
  C       8.003686     -1.093984     -0.673575
  C       6.650785     -0.763514     -2.675599
  C       4.946999     -4.390255     -1.919663
  C       3.783088     -2.316037     -2.258224
  C       3.239327     -4.820144     -6.165284
  C       1.728886     -7.300254     -1.055246
  C       0.005909     -7.887731     -2.619217
  C       2.088522     -8.643038     -0.941454
  C       0.362231     -9.228267     -2.511102
  C       1.406148     -9.612941     -1.669521
  H       2.104347     -6.149377     -4.020819
  H      -0.272939     -5.442544     -4.094670
  H       0.149101     -3.859537     -3.460136
  H       0.972362     -4.866172     -1.357880
  H       1.599981     -3.551095     -5.545019
  H       1.111706     -5.165254     -6.047451
  H       5.472097     -1.425915     -0.391801
  H       6.306163     -2.986162     -0.128069
  H       4.053303     -6.127585     -2.811598
  H       1.973538     -2.421476     -3.398111
  H      -1.266680     -5.550937     -0.471830
  H      -1.855266     -5.777389     -2.126647
  H      -1.406172     -4.159527     -1.566174
  H       8.156076     -3.603888     -1.592916
  H       8.721197     -2.440924     -2.832963
  H       7.196456     -3.340438     -3.087156
  H       8.317547     -1.825024      0.073945
  H       7.452572     -0.277769     -0.200601
  H       8.871686     -0.704283     -1.208950
  H       6.049987     -0.004529     -2.167967
  H       6.060248     -1.267102     -3.441703
  H       7.540264     -0.313110     -3.120481
  H       5.772478     -4.947076     -1.482335
  H       3.682404     -1.245932     -2.101472
  H       3.209235     -4.521402     -7.218643
  H       3.539931     -5.873899     -6.124471
  H       4.025398     -4.231758     -5.676106
  H       2.278951     -6.551368     -0.492051
  H      -0.809858     -7.603638     -3.279961
  H       2.906533     -8.927653     -0.284768
  H      -0.176757     -9.977146     -3.085421
  H       1.684234    -10.659777     -1.584944
  F       1.781975     -2.400224      0.150070
  F      -0.389359     -2.494296      0.269242
  F       0.381030     -4.451730      1.605105
  F      -0.018981     -2.910211      3.108829
  F       1.352613     -0.461506      2.528872
  F      -0.711175     -0.605994      1.867863
  F       0.841099     -0.196173     -0.884319
  F      -0.265121      1.221463      0.362574
  F       1.996587     -4.081090      4.011917
  F       2.969405     -2.470931      2.892119
  F       2.564572     -5.873000      2.140915
  F       4.313327     -4.684563      2.645945
  F       3.307320     -4.361412      0.754466
  O       3.620920     -0.493195      0.763752
  O       4.294820      1.364762     -0.300957
  C       0.739366     -2.202883      0.969364
  C       0.580119     -0.704979      1.447499
  C       0.829732     -3.278074      2.122185
  C       0.843604      0.411488      0.350638
  C       2.231580     -3.591542      2.772049
  C       2.056602      1.300560      0.503978
  C       3.114413     -4.660175      2.047432
  C       3.435448      0.656219      0.294249
  H       2.027303      1.757153      1.500912
  H       1.898542      2.113585     -0.212499
80
Coordinates from ORCA-job R4N+FHEA-_r2 E -2666.574111118917
  N       7.098474     -1.745602     -1.659104
  C       1.861004     -5.086343     -4.027937
  C       0.451883     -4.916692     -3.439460
  C       0.288117     -5.439383     -2.003183
  C       2.906357     -4.359725     -3.214010
  C       1.891044     -4.632712     -5.498500
  C       5.892439     -2.289142     -0.885549
  C       4.877798     -2.998652     -1.726243
  C       0.658710     -6.905289     -1.889213
  C       3.996252     -5.045635     -2.670263
  C       2.820530     -2.981190     -3.003246
  C      -1.149091     -5.199794     -1.523595
  C       7.859404     -2.847833     -2.328492
  C       7.993138     -1.056289     -0.669493
  C       6.653643     -0.745628     -2.684701
  C       4.966144     -4.377691     -1.932262
  C       3.789007     -2.309427     -2.269382
  C       3.241372     -4.852266     -6.171174
  C       1.694959     -7.317198     -1.047640
  C      -0.026348     -7.880902     -2.623518
  C       2.039149     -8.663921     -0.934821
  C       0.314764     -9.225740     -2.516268
  C       1.349309     -9.624196     -1.669419
  H       2.113444     -6.156508     -4.006239
  H      -0.262917     -5.434201     -4.094083
  H       0.170487     -3.855035     -3.459266
  H       0.969580     -4.876981     -1.346416
  H       1.610052     -3.572029     -5.554378
  H       1.113439     -5.189105     -6.038474
  H       5.461606     -1.406326     -0.404630
  H       6.306491     -2.957305     -0.124216
  H       4.076961     -6.119751     -2.818896
  H       1.980650     -2.423132     -3.409530
  H      -1.292851     -5.523700     -0.487678
  H      -1.860450     -5.752438     -2.148328
  H      -1.406273     -4.137189     -1.590091
  H       8.163924     -3.572523     -1.570838
  H       8.737275     -2.413891     -2.810815
  H       7.219315     -3.321688     -3.074374
  H       8.306623     -1.781052      0.084081
  H       7.434769     -0.241058     -0.204206
  H       8.861980     -0.663769     -1.201270
  H       6.041125      0.010755     -2.185995
  H       6.072076     -1.255350     -3.453756
  H       7.542327     -0.289489     -3.124508
  H       5.794154     -4.930151     -1.494930
  H       3.681449     -1.239701     -2.111427
  H       3.204837     -4.571533     -7.229091
  H       3.542201     -5.905142     -6.114368
  H       4.029640     -4.256120     -5.697183
  H       2.249441     -6.572377     -0.482431
  H      -0.834099     -7.585929     -3.288998
  H       2.850304     -8.959424     -0.274821
  H      -0.228553     -9.967295     -3.095647
  H       1.614497    -10.674273     -1.586121
  F       1.847403     -2.423595      0.188004
  F      -0.328656     -2.505575      0.244559
  F       0.375094     -4.461282      1.613076
  F       0.005906     -2.916531      3.119530
  F       1.385405     -0.467534      2.527184
  F      -0.678296     -0.636041      1.871950
  F       0.919127     -0.224165     -0.883441
  F      -0.283959      1.153198      0.316060
  F       2.028717     -4.058658      4.030096
  F       3.008291     -2.506388      2.830818
  F       2.536666     -5.924027      2.174372
  F       4.293621     -4.763261      2.713532
  F       3.348414     -4.446887      0.788877
  O       3.644935     -0.423380      0.736967
  O       4.246545      1.444140     -0.356671
  C       0.780924     -2.221017      0.975201
  C       0.612239     -0.722697      1.448626
  C       0.842926     -3.296406      2.129518
  C       0.858060      0.393217      0.345347
  C       2.249802     -3.617728      2.769284
  C       2.031308      1.328127      0.527992
  C       3.115038     -4.723368      2.077047
  C       3.421001      0.722241      0.273746
  H       1.996156      1.747375      1.540063
  H       1.842008      2.156582     -0.162834
80
Coordinates from ORCA-job R4N+FHEA-_r2 E -2666.574701120157
  N       7.099929     -1.718935     -1.661606
  C       1.875079     -5.089127     -4.018970
  C       0.463088     -4.916045     -3.439596
  C       0.280752     -5.437037     -2.003143
  C       2.916229     -4.355658     -3.205372
  C       1.913641     -4.642725     -5.492446
  C       5.889443     -2.258584     -0.884305
  C       4.879837     -2.976890     -1.723514
  C       0.633219     -6.906791     -1.888389
  C       4.003113     -5.034550     -2.650008
  C       2.826391     -2.974025     -3.006238
  C      -1.156139     -5.178321     -1.532852
  C       7.866308     -2.827471     -2.314337
  C       7.988539     -1.016436     -0.676205
  C       6.657876     -0.734550     -2.703555
  C       4.969588     -4.357754     -1.914743
  C       3.789996     -2.294025     -2.273503
  C       3.268770     -4.869862     -6.155554
  C       1.661283     -7.337922     -1.046015
  C      -0.064212     -7.869608     -2.628258
  C       1.986473     -8.689496     -0.940471
  C       0.257599     -9.219624     -2.526877
  C       1.284490     -9.636493     -1.680611
  H       2.127585     -6.159248     -3.991126
  H      -0.248360     -5.432397     -4.098649
  H       0.189423     -3.852393     -3.460872
  H       0.964372     -4.881678     -1.343399
  H       1.639815     -3.580465     -5.553550
  H       1.138602     -5.197887     -6.036879
  H       5.450833     -1.375645     -0.410715
  H       6.304683     -2.918453     -0.116527
  H       4.085735     -6.110150     -2.787924
  H       1.987415     -2.420156     -3.419932
  H      -1.302857     -5.501876     -0.496684
  H      -1.872488     -5.721443     -2.159934
  H      -1.398796     -4.112301     -1.598301
  H       8.172914     -3.541328     -1.547223
  H       8.742493     -2.395304     -2.801703
  H       7.229067     -3.313366     -3.054550
  H       8.299510     -1.732772      0.086535
  H       7.426062     -0.198031     -0.221797
  H       8.858581     -0.627905     -1.208925
  H       6.037538      0.027867     -2.224497
  H       6.082592     -1.257658     -3.468694
  H       7.547509     -0.283854     -3.147102
  H       5.795806     -4.907259     -1.470335
  H       3.679092     -1.222825     -2.122722
  H       3.240453     -4.594387     -7.214995
  H       3.564608     -5.923752     -6.090373
  H       4.054381     -4.274497     -5.676725
  H       2.226303     -6.604458     -0.476608
  H      -0.866436     -7.561124     -3.294304
  H       2.791784     -9.000088     -0.280078
  H      -0.295030     -9.950729     -3.110914
  H       1.534620    -10.690696     -1.601742
  F       1.890816     -2.434757      0.214935
  F      -0.289407     -2.513664      0.247109
  F       0.379323     -4.476316      1.611653
  F       0.036569     -2.942898      3.138091
  F       1.445984     -0.482784      2.522793
  F      -0.633028     -0.656898      1.916268
  F       0.928382     -0.263589     -0.879452
  F      -0.310713      1.090920      0.306953
  F       2.042803     -4.093208      4.041013
  F       3.038200     -2.556678      2.834158
  F       2.530409     -5.978444      2.194916
  F       4.301544     -4.841321      2.738779
  F       3.365207     -4.515042      0.808626
  O       3.681557     -0.349790      0.707290
  O       4.197863      1.520711     -0.426222
  C       0.812949     -2.238558      0.992066
  C       0.647789     -0.742195      1.463578
  C       0.862032     -3.323339      2.140336
  C       0.856536      0.368416      0.340408
  C       2.270326     -3.661518      2.777739
  C       2.001758      1.343663      0.498075
  C       3.125121     -4.784824      2.093250
  C       3.410257      0.779769      0.230866
  H       1.972484      1.764782      1.508961
  H       1.786374      2.157131     -0.201868
80
Coordinates from ORCA-job R4N+FHEA-_r2 E -2666.575029925235
  N       7.107506     -1.706801     -1.672842
  C       1.877920     -5.085486     -4.013894
  C       0.465703     -4.914272     -3.435940
  C       0.277244     -5.436066     -2.000593
  C       2.922768     -4.352262     -3.201708
  C       1.909125     -4.637030     -5.487672
  C       5.906852     -2.259026     -0.885921
  C       4.895238     -2.978987     -1.721551
  C       0.623920     -6.907247     -1.888651
  C       4.011749     -5.032400     -2.652541
  C       2.833836     -2.969832     -2.994786
  C      -1.159766     -5.171484     -1.536807
  C       7.884473     -2.811879     -2.318145
  C       7.990763     -0.987416     -0.695652
  C       6.651761     -0.736958     -2.721000
  C       4.983314     -4.358653     -1.919210
  C       3.801312     -2.293454     -2.262072
  C       3.257799     -4.867861     -6.163134
  C       1.646198     -7.341858     -1.040926
  C      -0.070872     -7.866953     -2.635008
  C       1.970141     -8.693743     -0.937915
  C       0.249723     -9.217771     -2.536025
  C       1.271892     -9.637873     -1.685720
  H       2.130413     -6.155772     -3.988057
  H      -0.244208     -5.432668     -4.095067
  H       0.192420     -3.850464     -3.457366
  H       0.965129     -4.889398     -1.338617
  H       1.640503     -3.573064     -5.543840
  H       1.128083     -5.188240     -6.027570
  H       5.463665     -1.383259     -0.401930
  H       6.338829     -2.916278     -0.125468
  H       4.093724     -6.107808     -2.794446
  H       1.993818     -2.412406     -3.401723
  H      -1.310384     -5.494674     -0.501247
  H      -1.874599     -5.713644     -2.166702
  H      -1.400362     -4.105097     -1.603735
  H       8.203118     -3.516013     -1.546777
  H       8.753910     -2.375313     -2.813823
  H       7.251864     -3.314145     -3.050678
  H       8.313365     -1.694073      0.071532
  H       7.421194     -0.172381     -0.243377
  H       8.854692     -0.591481     -1.233215
  H       6.031212      0.027571     -2.247370
  H       6.072739     -1.269738     -3.476766
  H       7.533708     -0.284486     -3.178266
  H       5.812029     -4.911702     -1.483498
  H       3.691916     -1.222978     -2.099371
  H       3.217391     -4.599513     -7.224069
  H       3.554288     -5.921426     -6.093496
  H       4.046388     -4.268128     -5.696167
  H       2.204764     -6.608982     -0.463936
  H      -0.869672     -7.556188     -3.304319
  H       2.770924     -9.007457     -0.273222
  H      -0.300247     -9.947050     -3.125147
  H       1.521030    -10.692648     -1.609027
  F       1.914648     -2.446013      0.232163
  F      -0.268381     -2.525407      0.224064
  F       0.363807     -4.485784      1.614992
  F       0.017498     -2.946721      3.133158
  F       1.446346     -0.492777      2.514174
  F      -0.630454     -0.659384      1.897557
  F       0.998745     -0.290802     -0.891269
  F      -0.304449      1.048528      0.240896
  F       2.006874     -4.079989      4.064294
  F       3.018082     -2.562665      2.847054
  F       2.510611     -5.998456      2.252204
  F       4.277955     -4.857360      2.801417
  F       3.360659     -4.562768      0.851171
  O       3.705885     -0.323436      0.729422
  O       4.186904      1.533310     -0.440254
  C       0.819970     -2.250963      0.989561
  C       0.652654     -0.753831      1.451879
  C       0.847769     -3.333879      2.142583
  C       0.874814      0.349082      0.319924
  C       2.249977     -3.668763      2.795871
  C       1.999351      1.342332      0.507177
  C       3.109852     -4.806645      2.137294
  C       3.417639      0.794806      0.238062
  H       1.957760      1.739635      1.527056
  H       1.785477      2.163546     -0.183469
80
Coordinates from ORCA-job R4N+FHEA-_r2 E -2666.575280477424
  N       7.099655     -1.698050     -1.670500
  C       1.875087     -5.080884     -4.009544
  C       0.461025     -4.906352     -3.436920
  C       0.272733     -5.428957     -2.002114
  C       2.917416     -4.349270     -3.193043
  C       1.913474     -4.633752     -5.483384
  C       5.900466     -2.248375     -0.881497
  C       4.887621     -2.974789     -1.710950
  C       0.613131     -6.901771     -1.894559
  C       4.000747     -5.030494     -2.634006
  C       2.830475     -2.966575     -2.990177
  C      -1.161542     -5.158986     -1.532412
  C       7.885260     -2.806374     -2.300001
  C       7.974177     -0.963474     -0.697349
  C       6.643169     -0.744427     -2.730585
  C       4.971644     -4.355756     -1.899791
  C       3.797129     -2.290096     -2.257932
  C       3.265074     -4.868555     -6.152469
  C       1.631723     -7.342764     -1.046356
  C      -0.083814     -7.857158     -2.644847
  C       1.951432     -8.695970     -0.947559
  C       0.232524     -9.209319     -2.550230
  C       1.252459     -9.635411     -1.700281
  H       2.126439     -6.151447     -3.981462
  H      -0.247472     -5.425171     -4.097178
  H       0.188562     -3.842319     -3.457982
  H       0.965515     -4.886396     -1.340992
  H       1.648343     -3.568915     -5.541214
  H       1.134010     -5.183893     -6.026703
  H       5.451631     -1.373013     -0.400485
  H       6.336314     -2.900865     -0.119157
  H       4.080120     -6.107029     -2.769810
  H       1.992936     -2.407789     -3.401004
  H      -1.306339     -5.480434     -0.494865
  H      -1.881234     -5.700234     -2.157656
  H      -1.398297     -4.091733     -1.599322
  H       8.208073     -3.498231     -1.519191
  H       8.752461     -2.370545     -2.800611
  H       7.257569     -3.323275     -3.027518
  H       8.297563     -1.659769      0.079150
  H       7.398004     -0.146955     -0.255917
  H       8.838590     -0.568107     -1.234773
  H       6.017349      0.024462     -2.271638
  H       6.069552     -1.289404     -3.481874
  H       7.524978     -0.294735     -3.191569
  H       5.797515     -4.910240     -1.459857
  H       3.688611     -1.219893     -2.096105
  H       3.228267     -4.604540     -7.214746
  H       3.560063     -5.922234     -6.076990
  H       4.052274     -4.266932     -5.684129
  H       2.188485     -6.614705     -0.462102
  H      -0.881700     -7.542473     -3.313682
  H       2.749565     -9.014626     -0.281702
  H      -0.319282     -9.935001     -3.142375
  H       1.498985    -10.691222     -1.627004
  F       1.991471     -2.460202      0.265434
  F      -0.193885     -2.555834      0.189393
  F       0.385623     -4.495817      1.620853
  F       0.045187     -2.948307      3.129856
  F       1.483617     -0.500079      2.487117
  F      -0.599298     -0.685658      1.889214
  F       1.063414     -0.316935     -0.908969
  F      -0.314023      0.983363      0.179757
  F       2.043571     -4.050145      4.084973
  F       3.068708     -2.591816      2.807882
  F       2.455159     -6.025062      2.287385
  F       4.261439     -4.952561      2.844964
  F       3.374949     -4.636737      0.880253
  O       3.738564     -0.250822      0.718161
  O       4.136182      1.598502     -0.494298
  C       0.868213     -2.269096      0.985668
  C       0.681408     -0.772399      1.434539
  C       0.877048     -3.345980      2.144947
  C       0.887222      0.327297      0.292963
  C       2.277881     -3.685466      2.801069
  C       1.975499      1.356862      0.498707
  C       3.102091     -4.859579      2.166898
  C       3.406872      0.849393      0.212904
  H       1.926551      1.730792      1.527325
  H       1.738254      2.182891     -0.177512
80
Coordinates from ORCA-job R4N+FHEA-_r2 E -2666.575585923052
  N       7.106474     -1.706808     -1.691674
  C       1.868497     -5.065796     -4.007863
  C       0.454690     -4.898215     -3.433272
  C       0.275369     -5.426987     -2.000375
  C       2.913581     -4.344605     -3.183796
  C       1.902824     -4.602637     -5.476740
  C       5.926687     -2.267517     -0.884359
  C       4.898199     -2.990052     -1.699933
  C       0.625215     -6.897407     -1.896688
  C       3.995732     -5.034930     -2.632634
  C       2.832118     -2.963392     -2.965620
  C      -1.157755     -5.166063     -1.521622
  C       7.896207     -2.812909     -2.321517
  C       7.984337     -0.957935     -0.732784
  C       6.631128     -0.767084     -2.754740
  C       4.973719     -4.370052     -1.897646
  C       3.807251     -2.296967     -2.234757
  C       3.251198     -4.826586     -6.155452
  C       1.639317     -7.331603     -1.040557
  C      -0.056595     -7.856933     -2.655799
  C       1.970628     -8.682306     -0.942904
  C       0.271324     -9.206396     -2.562740
  C       1.288328     -9.625726     -1.705596
  H       2.121470     -6.136220     -3.991437
  H      -0.251861     -5.419205     -4.093719
  H       0.176321     -3.835611     -3.449298
  H       0.970303     -4.883624     -1.342522
  H       1.635322     -3.537699     -5.521237
  H       1.122342     -5.148709     -6.022744
  H       5.479914     -1.404542     -0.379717
  H       6.383868     -2.927103     -0.140903
  H       4.070408     -6.110695     -2.776736
  H       1.993782     -2.397297     -3.365419
  H      -1.292321     -5.491468     -0.484226
  H      -1.878635     -5.709754     -2.143502
  H      -1.398633     -4.099523     -1.583636
  H       8.239087     -3.492026     -1.538100
  H       8.750241     -2.371751     -2.839934
  H       7.264822     -3.344951     -3.034554
  H       8.322441     -1.646080      0.044824
  H       7.404483     -0.144081     -0.291100
  H       8.839483     -0.558283     -1.281768
  H       6.015330      0.010427     -2.298322
  H       6.047461     -1.322669     -3.490282
  H       7.506063     -0.324575     -3.236007
  H       5.800839     -4.932292     -1.469582
  H       3.709346     -1.227853     -2.057502
  H       3.204893     -4.556029     -7.215816
  H       3.552552     -5.879058     -6.088695
  H       4.037888     -4.222578     -5.689653
  H       2.179816     -6.601723     -0.443258
  H      -0.852478     -7.548128     -3.329914
  H       2.765044     -8.995921     -0.270115
  H      -0.269054     -9.935233     -3.161590
  H       1.545111    -10.679249     -1.633826
  F       1.989327     -2.452943      0.277088
  F      -0.194004     -2.570838      0.171441
  F       0.371906     -4.497777      1.622568
  F      -0.004880     -2.938622      3.110971
  F       1.448194     -0.502893      2.478934
  F      -0.627108     -0.671306      1.847235
  F       1.084504     -0.347639     -0.922413
  F      -0.298966      0.974998      0.130529
  F       1.967231     -4.045901      4.114496
  F       3.023709     -2.584841      2.869762
  F       2.424566     -6.018782      2.359723
  F       4.229878     -4.931084      2.886386
  F       3.327156     -4.649630      0.923633
  O       3.768790     -0.255847      0.782118
  O       4.158171      1.564541     -0.476776
  C       0.853375     -2.271445      0.981427
  C       0.659814     -0.774801      1.416238
  C       0.849838     -3.342294      2.146602
  C       0.895343      0.310623      0.269304
  C       2.233518     -3.679419      2.837967
  C       1.988921      1.332171      0.483292
  C       3.065226     -4.853042      2.217891
  C       3.430367      0.824426      0.237327
  H       1.922842      1.712126      1.509032
  H       1.768398      2.154010     -0.202908
80
Coordinates from ORCA-job R4N+FHEA-_r2 E -2666.575794231362
  N       7.105384     -1.718119     -1.700066
  C       1.860480     -5.054919     -4.011106
  C       0.447903     -4.892611     -3.431746
  C       0.275608     -5.425832     -2.000251
  C       2.907088     -4.340697     -3.183778
  C       1.890882     -4.580941     -5.476261
  C       5.934205     -2.283736     -0.886329
  C       4.899378     -3.001825     -1.697576
  C       0.636510     -6.893648     -1.895759
  C       3.989499     -5.037608     -2.640152
  C       2.829458     -2.961285     -2.957208
  C      -1.158630     -5.176960     -1.517558
  C       7.895841     -2.822945     -2.332296
  C       7.986092     -0.964648     -0.746710
  C       6.623073     -0.781072     -2.763613
  C       4.971479     -4.380622     -1.903818
  C       3.809212     -2.302500     -2.226077
  C       3.238546     -4.792644     -6.159252
  C       1.645144     -7.318619     -1.028278
  C      -0.029052     -7.859032     -2.661499
  C       1.986524     -8.666656     -0.925597
  C       0.309075     -9.205559     -2.563812
  C       1.320430     -9.616053     -1.695249
  H       2.114783     -6.125009     -4.002866
  H      -0.258879     -5.412050     -4.093112
  H       0.165768     -3.831040     -3.443823
  H       0.968207     -4.877988     -1.343343
  H       1.616917     -3.517446     -5.512987
  H       1.111782     -5.127239     -6.023999
  H       5.489865     -1.426452     -0.371582
  H       6.396788     -2.948538     -0.150852
  H       4.061162     -6.112369     -2.791559
  H       1.991543     -2.391153     -3.351790
  H      -1.288147     -5.502417     -0.480196
  H      -1.876515     -5.727166     -2.137075
  H      -1.407720     -4.112460     -1.579928
  H       8.246936     -3.497203     -1.548558
  H       8.743788     -2.379174     -2.858030
  H       7.261200     -3.359223     -3.038913
  H       8.329320     -1.650494      0.030437
  H       7.405614     -0.151330     -0.305202
  H       8.837504     -0.564594     -1.300958
  H       6.011231     -0.001188     -2.305217
  H       6.036406     -1.339481     -3.494435
  H       7.495713     -0.340038     -3.250038
  H       5.798492     -4.947046     -1.481593
  H       3.718681     -1.234428     -2.041150
  H       3.188219     -4.515100     -7.217554
  H       3.546877     -5.843444     -6.100865
  H       4.023123     -4.186980     -5.692526
  H       2.172452     -6.583637     -0.424766
  H      -0.820162     -7.557110     -3.344103
  H       2.776291     -8.973069     -0.244388
  H      -0.218718     -9.939012     -3.167883
  H       1.585367    -10.667132     -1.620213
  F       2.010116     -2.456177      0.296116
  F      -0.170456     -2.578769      0.147103
  F       0.363670     -4.497704      1.621203
  F      -0.032795     -2.928536      3.094312
  F       1.431933     -0.504209      2.475514
  F      -0.633898     -0.675211      1.812935
  F       1.117749     -0.358558     -0.931378
  F      -0.283076      0.965303      0.094963
  F       1.931017     -4.028615      4.130573
  F       3.005806     -2.586348      2.878664
  F       2.394667     -6.020525      2.402480
  F       4.201422     -4.927633      2.911786
  F       3.296117     -4.668020      0.949587
  O       3.787394     -0.243044      0.818441
  O       4.168439      1.555319     -0.474662
  C       0.859708     -2.274911      0.975689
  C       0.658298     -0.777945      1.401612
  C       0.835778     -3.339657      2.144692
  C       0.909135      0.303444      0.255415
  C       2.208698     -3.676024      2.853978
  C       1.997390      1.326978      0.482997
  C       3.036531     -4.857457      2.247668
  C       3.442056      0.823875      0.250162
  H       1.919089      1.705610      1.508183
  H       1.777434      2.149741     -0.202463
80
Coordinates from ORCA-job R4N+FHEA-_r2 E -2666.575971975543
  N       7.100002     -1.733742     -1.702805
  C       1.849836     -5.045432     -4.017399
  C       0.438799     -4.887694     -3.431641
  C       0.275059     -5.423945     -2.000728
  C       2.897444     -4.337864     -3.186716
  C       1.878811     -4.560286     -5.478552
  C       5.933917     -2.302322     -0.886210
  C       4.894369     -3.014219     -1.696581
  C       0.651725     -6.887801     -1.892202
  C       3.979071     -5.041360     -2.649218
  C       2.823217     -2.960085     -2.953444
  C      -1.161114     -5.193806     -1.513352
  C       7.886379     -2.836656     -2.344632
  C       7.987148     -0.983726     -0.751543
  C       6.614458     -0.790546     -2.761749
  C       4.963687     -4.392123     -1.910533
  C       3.805905     -2.308649     -2.220073
  C       3.228166     -4.760080     -6.161016
  C       1.653517     -7.301994     -1.011177
  C       0.004781     -7.860121     -2.664532
  C       2.004859     -8.646997     -0.900614
  C       0.352965     -9.203432     -2.559291
  C       1.356106     -9.603644     -1.676291
  H       2.103868     -6.115506     -4.017741
  H      -0.270404     -5.403459     -4.093476
  H       0.155287     -3.826440     -3.439381
  H       0.960896     -4.864161     -1.347063
  H       1.598461     -3.498325     -5.508552
  H       1.102280     -5.106289     -6.030282
  H       5.493390     -1.447916     -0.363763
  H       6.394237     -2.973916     -0.155443
  H       4.047675     -6.115088     -2.808114
  H       1.986380     -2.386972     -3.345531
  H      -1.282399     -5.519712     -0.475341
  H      -1.873943     -5.753899     -2.129679
  H      -1.423646     -4.132495     -1.575800
  H       8.243094     -3.512378     -1.564908
  H       8.729734     -2.390249     -2.875061
  H       7.245059     -3.369607     -3.047784
  H       8.331380     -1.672478      0.022329
  H       7.410028     -0.169753     -0.307280
  H       8.836982     -0.585562     -1.309340
  H       6.005386     -0.012622     -2.295313
  H       6.026149     -1.345442     -3.493610
  H       7.486636     -0.347298     -3.246387
  H       5.789506     -4.961897     -1.491048
  H       3.723800     -1.241028     -2.030575
  H       3.180048     -4.470361     -7.216092
  H       3.540352     -5.810246     -6.114714
  H       4.010733     -4.157803     -5.686464
  H       2.169193     -6.560758     -0.405640
  H      -0.779241     -7.565598     -3.358291
  H       2.789048     -8.944785     -0.209492
  H      -0.160334     -9.942336     -3.168930
  H       1.628549    -10.652216     -1.595455
  F       2.034444     -2.451376      0.310558
  F      -0.142167     -2.580514      0.119356
  F       0.362268     -4.495319      1.610356
  F      -0.052070     -2.922554      3.074894
  F       1.413545     -0.497819      2.474328
  F      -0.641153     -0.682623      1.778979
  F       1.140100     -0.361477     -0.939896
  F      -0.268873      0.965060      0.070800
  F       1.909510     -4.010603      4.135934
  F       2.998124     -2.587339      2.873896
  F       2.374553     -6.023278      2.433073
  F       4.185842     -4.925570      2.914685
  F       3.268993     -4.685771      0.960757
  O       3.799553     -0.229693      0.855751
  O       4.182455      1.545298     -0.469440
  C       0.871019     -2.273844      0.966616
  C       0.657074     -0.777206      1.388108
  C       0.828165     -3.335560      2.136804
  C       0.920060      0.302408      0.244722
  C       2.193683     -3.671158      2.858780
  C       2.006110      1.325381      0.482445
  C       3.016448     -4.862207      2.262911
  C       3.451724      0.824147      0.263878
  H       1.915598      1.709234      1.504473
  H       1.787937      2.146881     -0.205737
80
Coordinates from ORCA-job R4N+FHEA-_r2 E -2666.576048819363
  N       7.097167     -1.739912     -1.702838
  C       1.844718     -5.041733     -4.020084
  C       0.434162     -4.887042     -3.431884
  C       0.273777     -5.423406     -2.000803
  C       2.892605     -4.337050     -3.187233
  C       1.873323     -4.550711     -5.479267
  C       5.932861     -2.310212     -0.885452
  C       4.891382     -3.019156     -1.696100
  C       0.658437     -6.884826     -1.889224
  C       3.973851     -5.043036     -2.652478
  C       2.818869     -2.959880     -2.950191
  C      -1.163462     -5.202535     -1.512241
  C       7.879526     -2.840730     -2.353492
  C       7.988943     -0.995494     -0.751163
  C       6.609515     -0.790124     -2.755725
  C       4.959593     -4.396787     -1.912953
  C       3.802709     -2.311356     -2.215957
  C       3.222845     -4.748858     -6.161813
  C       1.656312     -7.294019     -1.001378
  C       0.019896     -7.860284     -2.664394
  C       2.011570     -8.637572     -0.886692
  C       0.371943     -9.202256     -2.554839
  C       1.370431     -9.597643     -1.664626
  H       2.098130     -6.111909     -4.025191
  H      -0.276022     -5.401595     -4.093700
  H       0.150394     -3.825742     -3.438088
  H       0.955343     -4.855915     -1.349807
  H       1.593232     -3.488561     -5.505491
  H       1.096214     -5.093804     -6.033134
  H       5.494730     -1.456337     -0.359617
  H       6.391766     -2.984717     -0.156519
  H       4.041412     -6.116274     -2.815295
  H       1.982035     -2.385869     -3.340959
  H      -1.280958     -5.529398     -0.473896
  H      -1.873166     -5.767350     -2.127824
  H      -1.433295     -4.142887     -1.574139
  H       8.238035     -3.521154     -1.578647
  H       8.721527     -2.392754     -2.884722
  H       7.234020     -3.368588     -3.056804
  H       8.332609     -1.688056      0.019588
  H       7.415364     -0.181148     -0.303026
  H       8.838671     -0.598336     -1.309819
  H       6.000886     -0.016166     -2.282094
  H       6.020158     -1.340367     -3.490114
  H       7.481194     -0.343121     -3.237686
  H       5.785666     -4.967484     -1.495196
  H       3.724962     -1.243684     -2.025396
  H       3.177288     -4.451385     -7.214866
  H       3.532461     -5.800126     -6.122879
  H       4.006736     -4.152485     -5.681779
  H       2.167676     -6.549375     -0.396471
  H      -0.760091     -7.568820     -3.363998
  H       2.792727     -8.931480     -0.190464
  H      -0.134577     -9.943815     -3.166986
  H       1.645411    -10.645307     -1.580241
  F       2.047580     -2.447074      0.312931
  F      -0.127117     -2.581849      0.101298
  F       0.363036     -4.495501      1.598202
  F      -0.058601     -2.924226      3.061781
  F       1.399410     -0.495650      2.473127
  F      -0.647622     -0.689408      1.757251
  F       1.149705     -0.357993     -0.946084
  F      -0.261440      0.968969      0.061989
  F       1.899449     -4.005758      4.134197
  F       2.993840     -2.586889      2.872969
  F       2.376192     -6.025419      2.447811
  F       4.186584     -4.918329      2.912763
  F       3.259256     -4.695119      0.962002
  O       3.805564     -0.223379      0.876450
  O       4.192382      1.538174     -0.465424
  C       0.877874     -2.273835      0.958061
  C       0.654798     -0.777851      1.379085
  C       0.826088     -3.335800      2.128200
  C       0.925416      0.303823      0.239282
  C       2.188719     -3.669810      2.857335
  C       2.012269      1.324907      0.482369
  C       3.013829     -4.863354      2.266906
  C       3.458324      0.823522      0.272518
  H       1.914705      1.712479      1.502288
  H       1.798485      2.145383     -0.208708
80
Coordinates from ORCA-job R4N+FHEA-_r2 E -2666.576118886745
  N       7.094018     -1.743486     -1.701021
  C       1.839745     -5.039105     -4.021977
  C       0.428995     -4.888039     -3.432829
  C       0.270934     -5.423276     -2.001012
  C       2.887773     -4.336642     -3.186821
  C       1.868676     -4.542787     -5.479401
  C       5.930841     -2.316289     -0.883810
  C       4.887961     -3.022409     -1.695378
  C       0.662499     -6.882294     -1.885995
  C       3.968808     -5.044142     -2.654424
  C       2.813935     -2.959651     -2.946359
  C      -1.167141     -5.210064     -1.511836
  C       7.870729     -2.840695     -2.364165
  C       7.991349     -1.008851     -0.747086
  C       6.603562     -0.783757     -2.743605
  C       4.955439     -4.399800     -1.914469
  C       3.798414     -2.313201     -2.211178
  C       3.217616     -4.744169     -6.162384
  C       1.657144     -7.287017     -0.992804
  C       0.030086     -7.860715     -2.662490
  C       2.015401     -8.629241     -0.874132
  C       0.385027     -9.201625     -2.548640
  C       1.379929     -9.592519     -1.652803
  H       2.092674     -6.109385     -4.031623
  H      -0.281177     -5.403008     -4.094305
  H       0.144433     -3.826788     -3.438538
  H       0.948566     -4.847706     -1.353436
  H       1.592510     -3.479480     -5.501917
  H       1.089280     -5.080620     -6.035258
  H       5.495310     -1.462674     -0.354711
  H       6.389575     -2.993252     -0.157102
  H       4.035620     -6.117007     -2.820506
  H       1.976657     -2.385147     -3.335582
  H      -1.281405     -5.538426     -0.473212
  H      -1.873845     -5.778853     -2.127269
  H      -1.443911     -4.152023     -1.572769
  H       8.229694     -3.529735     -1.597044
  H       8.712598     -2.390849     -2.894148
  H       7.220964     -3.360229     -3.069970
  H       8.333746     -1.707574      0.018773
  H       7.422812     -0.194652     -0.292166
  H       8.841574     -0.611977     -1.305252
  H       5.993722     -0.017062     -2.260027
  H       6.013423     -1.326747     -3.482699
  H       7.474145     -0.329909     -3.221199
  H       5.782450     -4.970844     -1.498816
  H       3.724671     -1.245170     -2.020056
  H       3.175530     -4.439023     -7.213425
  H       3.520476     -5.797723     -6.130492
  H       4.004875     -4.156692     -5.676555
  H       2.165299     -6.538886     -0.389930
  H      -0.746895     -7.571969     -3.366629
  H       2.794217     -8.919726     -0.173707
  H      -0.116361     -9.945813     -3.161983
  H       1.656636    -10.639526     -1.564777
  F       2.065353     -2.440633      0.312191
  F      -0.106496     -2.585815      0.077148
  F       0.368851     -4.496998      1.581291
  F      -0.060414     -2.928618      3.044929
  F       1.383185     -0.494639      2.468806
  F      -0.655099     -0.700241      1.730796
  F       1.160560     -0.352969     -0.954431
  F      -0.254104      0.973104      0.052139
  F       1.893764     -4.000636      4.129176
  F       2.992019     -2.583880      2.870621
  F       2.384453     -6.025819      2.463126
  F       4.194094     -4.909346      2.910810
  F       3.256245     -4.706817      0.961191
  O       3.812474     -0.215562      0.899972
  O       4.201782      1.530685     -0.460560
  C       0.888336     -2.274632      0.945261
  C       0.652207     -0.780307      1.366691
  C       0.828345     -3.337529      2.115489
  C       0.930926      0.305255      0.232022
  C       2.188839     -3.668044      2.852192
  C       2.018240      1.324505      0.482800
  C       3.018040     -4.863502      2.269055
  C       3.465661      0.823398      0.283291
  H       1.912018      1.714518      1.500945
  H       1.811354      2.144152     -0.211493
80
Coordinates from ORCA-job R4N+FHEA-_r2 E -2666.576161854512
  N       7.091549     -1.743711     -1.699355
  C       1.836689     -5.038036     -4.022431
  C       0.425482     -4.888891     -3.434086
  C       0.267832     -5.422653     -2.001540
  C       2.884568     -4.336623     -3.185994
  C       1.866471     -4.539617     -5.479158
  C       5.928739     -2.318896     -0.882603
  C       4.885397     -3.023293     -1.695036
  C       0.662610     -6.880273     -1.884103
  C       3.965496     -5.044521     -2.654487
  C       2.810469     -2.959556     -2.944119
  C      -1.170671     -5.211984     -1.512909
  C       7.863678     -2.837703     -2.372510
  C       7.993071     -1.017738     -0.743041
  C       6.598773     -0.775680     -2.732817
  C       4.952516     -4.400586     -1.914677
  C       3.795129     -2.313746     -2.208728
  C       3.214572     -4.745850     -6.162600
  C       1.656482     -7.281855     -0.988925
  C       0.032583     -7.860947     -2.659911
  C       2.016785     -8.623198     -0.867708
  C       0.389489     -9.201123     -2.543282
  C       1.383739     -9.588778     -1.645435
  H       2.089677     -6.108344     -4.033975
  H      -0.283606     -5.405522     -4.095342
  H       0.139690     -3.827880     -3.440518
  H       0.943787     -4.843132     -1.355798
  H       1.594598     -3.475152     -5.500008
  H       1.084921     -5.073424     -6.035897
  H       5.495090     -1.465489     -0.351415
  H       6.389173     -2.997101     -0.158172
  H       4.031874     -6.117300     -2.821607
  H       1.972775     -2.384989     -3.332466
  H      -1.284652     -5.541997     -0.474600
  H      -1.875894     -5.781731     -2.129268
  H      -1.450292     -4.154608     -1.572786
  H       8.222073     -3.534196     -1.611788
  H       8.706126     -2.386376     -2.900431
  H       7.211280     -3.350092     -3.081227
  H       8.334758     -1.721809      0.018282
  H       7.428368     -0.204312     -0.281875
  H       8.843555     -0.620230     -1.300423
  H       5.986874     -0.015658     -2.241516
  H       6.008700     -1.312990     -3.476156
  H       7.468159     -0.315638     -3.206755
  H       5.780328     -4.971522     -1.500315
  H       3.723574     -1.245479     -2.017720
  H       3.174654     -4.437408     -7.212775
  H       3.511534     -5.801211     -6.133589
  H       4.004800     -4.164367     -5.674164
  H       2.162664     -6.531134     -0.387669
  H      -0.743910     -7.574412     -3.365529
  H       2.795078     -8.911347     -0.165644
  H      -0.109820     -9.947311     -3.155976
  H       1.661777    -10.635296     -1.555150
  F       2.081590     -2.436457      0.312315
  F      -0.087203     -2.592227      0.057415
  F       0.376582     -4.500033      1.568039
  F      -0.060089     -2.933634      3.031155
  F       1.370650     -0.496688      2.465066
  F      -0.660278     -0.710846      1.708315
  F       1.169627     -0.350246     -0.960566
  F      -0.248185      0.974702      0.044845
  F       1.889646     -3.999713      4.125402
  F       2.990512     -2.581671      2.871632
  F       2.393692     -6.025773      2.474309
  F       4.201016     -4.901291      2.913516
  F       3.259256     -4.714955      0.962363
  O       3.820699     -0.208098      0.917900
  O       4.206929      1.525487     -0.459029
  C       0.898264     -2.276903      0.935014
  C       0.650980     -0.784289      1.356444
  C       0.832484     -3.340636      2.105366
  C       0.935717      0.304971      0.226527
  C       2.190533     -3.668136      2.848924
  C       2.022604      1.323512      0.483561
  C       3.024030     -4.863246      2.271776
  C       3.471777      0.823898      0.291264
  H       1.910001      1.713511      1.501056
  H       1.820244      2.142856     -0.212370
80
Coordinates from ORCA-job R4N+FHEA-_r2 E -2666.576210970160
  N       7.088000     -1.742392     -1.696751
  C       1.833913     -5.038460     -4.022872
  C       0.421846     -4.890051     -3.436709
  C       0.263203     -5.421333     -2.003066
  C       2.881475     -4.337149     -3.185857
  C       1.865532     -4.540215     -5.479655
  C       5.925157     -2.320814     -0.881033
  C       4.882164     -3.023244     -1.695205
  C       0.659680     -6.877903     -1.882589
  C       3.962524     -5.044751     -2.654638
  C       2.807100     -2.959804     -2.943733
  C      -1.175763     -5.210641     -1.516151
  C       7.854552     -2.832222     -2.381898
  C       7.994427     -1.027476     -0.737221
  C       6.592594     -0.763908     -2.718599
  C       4.949367     -4.400440     -1.914969
  C       3.791514     -2.313779     -2.208191
  C       3.213004     -4.752611     -6.162761
  C       1.655047     -7.275623     -0.987659
  C       0.030056     -7.861536     -2.655235
  C       2.017730     -8.615994     -0.863500
  C       0.389301     -9.200808     -2.535599
  C       1.385388     -9.584480     -1.638027
  H       2.087281     -6.108743     -4.034394
  H      -0.285274     -5.409733     -4.097579
  H       0.134321     -3.829499     -3.445281
  H       0.938448     -4.839548     -1.358602
  H       1.598372     -3.474571     -5.500464
  H       1.082194     -5.070844     -6.036903
  H       5.493459     -1.467773     -0.347688
  H       6.388360     -3.000365     -0.159690
  H       4.028795     -6.117551     -2.821724
  H       1.969043     -2.385430     -3.331646
  H      -1.291758     -5.542676     -0.478590
  H      -1.879985     -5.779671     -2.134456
  H      -1.456142     -4.153457     -1.574979
  H       8.212024     -3.537589     -1.628885
  H       8.697846     -2.379077     -2.907000
  H       7.199416     -3.335959     -3.094343
  H       8.336162     -1.738425      0.017675
  H       7.433939     -0.215975     -0.267492
  H       8.844672     -0.627924     -1.293551
  H       5.977365     -0.012689     -2.218009
  H       6.003418     -1.294428     -3.467610
  H       7.460104     -0.295608     -3.187915
  H       5.777779     -4.971069     -1.501300
  H       3.721096     -1.245233     -2.017682
  H       3.175188     -4.443352     -7.212755
  H       3.504177     -5.809598     -6.134038
  H       4.005847     -4.175664     -5.673062
  H       2.159517     -6.521829     -0.388889
  H      -0.747972     -7.578097     -3.360418
  H       2.797156     -8.901265     -0.161469
  H      -0.109591     -9.949544     -3.145543
  H       1.665245    -10.630330     -1.545450
  F       2.101526     -2.430911      0.312167
  F      -0.063140     -2.601156      0.035543
  F       0.390083     -4.504402      1.553526
  F      -0.058199     -2.939461      3.014496
  F       1.356627     -0.500701      2.461190
  F      -0.665332     -0.724847      1.682341
  F       1.179823     -0.347335     -0.966936
  F      -0.241181      0.976132      0.037308
  F       1.886680     -4.000620      4.120839
  F       2.989474     -2.577378      2.875625
  F       2.407842     -6.023896      2.483251
  F       4.211063     -4.890710      2.919006
  F       3.270290     -4.719671      0.964906
  O       3.830391     -0.199964      0.940580
  O       4.210980      1.517748     -0.456997
  C       0.911116     -2.279789      0.923383
  C       0.650271     -0.789800      1.344870
  C       0.840232     -3.344366      2.093787
  C       0.941338      0.304027      0.221046
  C       2.194868     -3.667705      2.845866
  C       2.027146      1.321638      0.486710
  C       3.034550     -4.860608      2.274882
  C       3.478294      0.823535      0.301995
  H       1.907576      1.709089      1.504401
  H       1.829605      2.141678     -0.209623
80
Coordinates from ORCA-job R4N+FHEA-_r2 E -2666.576281501048
  N       7.081709     -1.738669     -1.693454
  C       1.831282     -5.040718     -4.023710
  C       0.417775     -4.890204     -3.442171
  C       0.255350     -5.417175     -2.006972
  C       2.877912     -4.338456     -3.186655
  C       1.867357     -4.546315     -5.481754
  C       5.918563     -2.321539     -0.879119
  C       4.877001     -3.022112     -1.695912
  C       0.651806     -6.872962     -1.881735
  C       3.958630     -5.045140     -2.653728
  C       2.803430     -2.960614     -2.946638
  C      -1.184407     -5.203222     -1.524307
  C       7.841943     -2.823220     -2.392587
  C       7.993558     -1.036791     -0.729965
  C       6.583237     -0.747769     -2.701313
  C       4.944452     -4.399450     -1.914056
  C       3.786851     -2.313261     -2.211080
  C       3.215291     -4.766581     -6.161871
  C       1.650852     -7.265316     -0.988680
  C       0.020851     -7.860807     -2.648114
  C       2.016262     -8.604528     -0.860117
  C       0.382826     -9.198887     -2.524109
  C       1.383048     -9.577119     -1.628602
  H       2.084649     -6.111088     -4.031934
  H      -0.286419     -5.414102     -4.102775
  H       0.128863     -3.830117     -3.455120
  H       0.930377     -4.835130     -1.362426
  H       1.605237     -3.479517     -5.505468
  H       1.083296     -5.075240     -6.039561
  H       5.488632     -1.469094     -0.343589
  H       6.385772     -3.002324     -0.161623
  H       4.024967     -6.118209     -2.818911
  H       1.965535     -2.386757     -3.335709
  H      -1.305974     -5.538275     -0.488307
  H      -1.888058     -5.768851     -2.146536
  H      -1.462370     -4.145413     -1.581666
  H       8.198898     -3.538290     -1.648475
  H       8.685779     -2.367530     -2.914702
  H       7.183722     -3.317242     -3.109020
  H       8.336625     -1.756139      0.016301
  H       7.437191     -0.228849     -0.249241
  H       8.842656     -0.633235     -1.285176
  H       5.962496     -0.008306     -2.190102
  H       5.996847     -1.270703     -3.457953
  H       7.448121     -0.268454     -3.164300
  H       5.772711     -4.969567     -1.499354
  H       3.716332     -1.244414     -2.022316
  H       3.180618     -4.460124     -7.212759
  H       3.501102     -5.824900     -6.129382
  H       4.009761     -4.191934     -5.672007
  H       2.153791     -6.507508     -0.393546
  H      -0.760537     -7.581919     -3.351393
  H       2.798349     -8.885856     -0.159453
  H      -0.117133     -9.951194     -3.128743
  H       1.665200    -10.622053     -1.532836
  F       2.132991     -2.423889      0.316684
  F      -0.025361     -2.615752      0.008372
  F       0.414149     -4.513546      1.534784
  F      -0.053918     -2.951552      2.992630
  F       1.341298     -0.509086      2.458434
  F      -0.668520     -0.746388      1.650372
  F       1.195684     -0.346635     -0.972666
  F      -0.232645      0.971958      0.028493
  F       1.884138     -4.006534      4.116437
  F       2.989805     -2.574143      2.884849
  F       2.430254     -6.023512      2.491334
  F       4.225662     -4.878870      2.931847
  F       3.293515     -4.722848      0.971644
  O       3.847455     -0.182786      0.972186
  O       4.210915      1.509315     -0.460465
  C       0.932042     -2.285757      0.910684
  C       0.652307     -0.799746      1.332028
  C       0.854521     -3.352430      2.079809
  C       0.949661      0.299916      0.215998
  C       2.203082     -3.669905      2.844666
  C       2.031559      1.318745      0.492995
  C       3.052277     -4.858217      2.280918
  C       3.486083      0.825848      0.314986
  H       1.903980      1.699910      1.512041
  H       1.836683      2.140470     -0.201818
80
Coordinates from ORCA-job R4N+FHEA-_r2 E -2666.576311559787
  N       7.078819     -1.736225     -1.693135
  C       1.831236     -5.043463     -4.025617
  C       0.416818     -4.890763     -3.446720
  C       0.251165     -5.415188     -2.010629
  C       2.877209     -4.339573     -3.188858
  C       1.869600     -4.552494     -5.485129
  C       5.915344     -2.320348     -0.879734
  C       4.874916     -3.020711     -1.697909
  C       0.647461     -6.870810     -1.881891
  C       3.958152     -5.045223     -2.654761
  C       2.801959     -2.961494     -2.949831
  C      -1.189711     -5.199719     -1.531513
  C       7.837966     -2.819621     -2.395521
  C       7.991500     -1.037342     -0.728009
  C       6.579967     -0.741677     -2.697661
  C       4.943116     -4.398274     -1.914997
  C       3.784876     -2.312618     -2.214482
  C       3.218678     -4.774887     -6.162860
  C       1.646942     -7.260436     -0.988065
  C       0.016908     -7.860890     -2.645423
  C       2.013129     -8.599076     -0.855839
  C       0.379798     -9.198418     -2.518002
  C       1.380494     -9.573874     -1.621770
  H       2.084358     -6.114069     -4.030821
  H      -0.286395     -5.416263     -4.107181
  H       0.128132     -3.830676     -3.462516
  H       0.924568     -4.833483     -1.364172
  H       1.607911     -3.485330     -5.511453
  H       1.086185     -5.082607     -6.043226
  H       5.485435     -1.468259     -0.343574
  H       6.382816     -3.001718     -0.162910
  H       4.025307     -6.118429     -2.818866
  H       1.963992     -2.388209     -3.339748
  H      -1.314044     -5.535164     -0.495826
  H      -1.892909     -5.764296     -2.155496
  H      -1.466149     -4.141374     -1.589375
  H       8.195498     -3.536634     -1.653078
  H       8.681429     -2.362960     -2.917254
  H       7.179317     -3.312069     -3.112802
  H       8.335461     -1.758843      0.015937
  H       7.435561     -0.230733     -0.244251
  H       8.839883     -0.631863     -1.282678
  H       5.957723     -0.005642     -2.183006
  H       5.994894     -1.262183     -3.457213
  H       7.444310     -0.258926     -3.158479
  H       5.771276     -4.967931     -1.499218
  H       3.712986     -1.243649     -2.026246
  H       3.184889     -4.471042     -7.214844
  H       3.504549     -5.833616     -6.127351
  H       4.012623     -4.198641     -5.673188
  H       2.149180     -6.500895     -0.394940
  H      -0.764886     -7.584364     -3.349202
  H       2.795526     -8.878205     -0.154671
  H      -0.119822     -9.952511     -3.120507
  H       1.663440    -10.618331     -1.523417
  F       2.143671     -2.419702      0.319430
  F      -0.012624     -2.618180      0.002754
  F       0.422630     -4.516550      1.528376
  F      -0.051274     -2.956589      2.986312
  F       1.340266     -0.512987      2.460865
  F      -0.666433     -0.752395      1.646032
  F       1.205056     -0.345027     -0.970863
  F      -0.229146      0.969849      0.028422
  F       1.884440     -4.012296      4.111818
  F       2.991590     -2.578532      2.890028
  F       2.436111     -6.024947      2.490288
  F       4.230387     -4.879055      2.937940
  F       3.303845     -4.722325      0.973893
  O       3.853168     -0.175283      0.986454
  O       4.209254      1.507395     -0.463057
  C       0.939922     -2.286781      0.908722
  C       0.655420     -0.802587      1.331572
  C       0.860369     -3.355473      2.075807
  C       0.954173      0.299422      0.218328
  C       2.206854     -3.672828      2.844346
  C       2.033510      1.319555      0.500742
  C       3.058639     -4.858863      2.282816
  C       3.488590      0.828311      0.321438
  H       1.903720      1.695492      1.521738
  H       1.838712      2.143796     -0.191761
80
Coordinates from ORCA-job R4N+FHEA-_r2 E -2666.575515525576
  N       7.065503     -1.742472     -1.697300
  C       1.827326     -5.056590     -4.043270
  C       0.409582     -4.897709     -3.474559
  C       0.232627     -5.410609     -2.034435
  C       2.869765     -4.343834     -3.208635
  C       1.871900     -4.579366     -5.508220
  C       5.899281     -2.323006     -0.886944
  C       4.860645     -3.016549     -1.712011
  C       0.636851     -6.863631     -1.885404
  C       3.951747     -5.046647     -2.667957
  C       2.794622     -2.964085     -2.977342
  C      -1.216598     -5.193966     -1.575084
  C       7.810906     -2.824529     -2.418962
  C       7.990098     -1.066099     -0.725925
  C       6.569877     -0.724427     -2.683589
  C       4.930850     -4.395541     -1.924824
  C       3.776722     -2.307996     -2.243432
  C       3.227162     -4.791099     -6.178333
  C       1.641181     -7.227436     -0.983930
  C       0.019853     -7.873270     -2.634303
  C       2.023862     -8.560028     -0.827744
  C       0.400747     -9.204147     -2.485997
  C       1.406421     -9.554072     -1.581737
  H       2.083910     -6.126875     -4.034693
  H      -0.286415     -5.435423     -4.133184
  H       0.114088     -3.840206     -3.505742
  H       0.893038     -4.830838     -1.372863
  H       1.597506     -3.514409     -5.544509
  H       1.097319     -5.124623     -6.066394
  H       5.474349     -1.470853     -0.346736
  H       6.362129     -3.014046     -0.174249
  H       4.022510     -6.120680     -2.825728
  H       1.958056     -2.391717     -3.373800
  H      -1.358974     -5.527291     -0.541245
  H      -1.914064     -5.757579     -2.207553
  H      -1.487483     -4.133604     -1.640427
  H       8.170567     -3.550872     -1.684898
  H       8.652343     -2.366909     -2.942260
  H       7.145200     -3.304330     -3.137565
  H       8.339036     -1.802207      0.001859
  H       7.440559     -0.265723     -0.223425
  H       8.833819     -0.653332     -1.281022
  H       5.947932     -0.002607     -2.148117
  H       5.989071     -1.227890     -3.458216
  H       7.434983     -0.230678     -3.132511
  H       5.756086     -4.964883     -1.500672
  H       3.696345     -1.237182     -2.059314
  H       3.190317     -4.494116     -7.232784
  H       3.527793     -5.847201     -6.136326
  H       4.012664     -4.199045     -5.691704
  H       2.131560     -6.454121     -0.399145
  H      -0.765554     -7.618357     -3.343711
  H       2.809831     -8.818282     -0.121786
  H      -0.088403     -9.973208     -3.078292
  H       1.705047    -10.592704     -1.468129
  F       2.179195     -2.384701      0.333161
  F       0.030574     -2.624713     -0.015788
  F       0.467364     -4.525787      1.509213
  F      -0.060847     -2.968207      2.953589
  F       1.312834     -0.530139      2.487598
  F      -0.674498     -0.770281      1.623694
  F       1.230432     -0.331849     -0.950582
  F      -0.214363      0.989339      0.048286
  F       1.858433     -4.010250      4.127645
  F       2.996736     -2.554849      2.919670
  F       2.438947     -6.028819      2.481041
  F       4.247498     -4.880753      2.982963
  F       3.353251     -4.680099      0.998942
  O       3.873327     -0.155240      1.068558
  O       4.221535      1.480653     -0.446694
  C       0.962230     -2.281683      0.905490
  C       0.654656     -0.807332      1.337222
  C       0.879280     -3.357523      2.063522
  C       0.970131      0.308307      0.243995
  C       2.209693     -3.665108      2.859437
  C       2.052498      1.325257      0.552172
  C       3.076369     -4.849743      2.304389
  C       3.508965      0.827679      0.370788
  H       1.907654      1.675076      1.585178
  H       1.862242      2.171044     -0.125905
80
Coordinates from ORCA-job R4N+FHEA-_r2 E -2666.574686633608
  N       7.041825     -1.726829     -1.680735
  C       1.833692     -5.077652     -4.057347
  C       0.415919     -4.905012     -3.493842
  C       0.222619     -5.402360     -2.048434
  C       2.873225     -4.356069     -3.229809
  C       1.889088     -4.610808     -5.524382
  C       5.867457     -2.316471     -0.887884
  C       4.844623     -3.011536     -1.726132
  C       0.612154     -6.859274     -1.884498
  C       3.954981     -5.049125     -2.680181
  C       2.792609     -2.976574     -3.010244
  C      -1.226881     -5.164930     -1.600389
  C       7.801662     -2.803087     -2.393596
  C       7.948816     -1.046978     -0.695117
  C       6.559649     -0.707585     -2.671177
  C       4.924162     -4.389065     -1.932826
  C       3.765656     -2.309681     -2.274728
  C       3.254880     -4.814571     -6.178188
  C       1.615257     -7.227648     -0.981554
  C      -0.013760     -7.867755     -2.623792
  C       1.986658     -8.561330     -0.815634
  C       0.357305     -9.199900     -2.467842
  C       1.361188     -9.553487     -1.563293
  H       2.086634     -6.147724     -4.036535
  H      -0.280186     -5.448466     -4.147361
  H       0.127384     -3.846655     -3.538601
  H       0.877814     -4.831937     -1.375672
  H       1.612610     -3.546864     -5.567201
  H       1.123452     -5.163703     -6.088179
  H       5.427957     -1.474675     -0.349117
  H       6.323309     -3.007278     -0.174815
  H       4.033070     -6.122535     -2.829625
  H       1.957669     -2.409608     -3.415637
  H      -1.375389     -5.491377     -0.564555
  H      -1.930207     -5.720201     -2.232663
  H      -1.478644     -4.100050     -1.671460
  H       8.165150     -3.522394     -1.655514
  H       8.639555     -2.336597     -2.912234
  H       7.144671     -3.290585     -3.115256
  H       8.299926     -1.783506      0.029008
  H       7.384307     -0.258937     -0.193082
  H       8.790697     -0.619362     -1.237987
  H       5.926670      0.007570     -2.141590
  H       5.995818     -1.206269     -3.460378
  H       7.429745     -0.208537     -3.104347
  H       5.744805     -4.954860     -1.497415
  H       3.665262     -1.240824     -2.095565
  H       3.224220     -4.523788     -7.232820
  H       3.563427     -5.867706     -6.127351
  H       4.030781     -4.211598     -5.686578
  H       2.115846     -6.457963     -0.406095
  H      -0.797708     -7.612260     -3.334725
  H       2.772638     -8.821716     -0.111060
  H      -0.138139     -9.966923     -3.055553
  H       1.653179    -10.592548     -1.444661
  F       2.203830     -2.378832      0.336936
  F       0.063320     -2.623912      0.010939
  F       0.525780     -4.533497      1.500548
  F      -0.012700     -2.986314      2.954441
  F       1.357330     -0.533553      2.492913
  F      -0.626224     -0.769234      1.648148
  F       1.244076     -0.309333     -0.940738
  F      -0.192932      0.972806      0.077309
  F       1.908226     -4.039047      4.112220
  F       3.040810     -2.580518      2.926689
  F       2.506661     -6.026826      2.461852
  F       4.274742     -4.884044      2.960558
  F       3.410086     -4.690030      0.998639
  O       3.842701     -0.118860      1.070649
  O       4.165242      1.443676     -0.493058
  C       0.996317     -2.282824      0.915840
  C       0.692426     -0.808236      1.348694
  C       0.929014     -3.365722      2.062226
  C       0.989034      0.310149      0.257238
  C       2.258459     -3.680058      2.856856
  C       2.053752      1.325687      0.559065
  C       3.124806     -4.858037      2.292906
  C       3.483050      0.827785      0.357252
  H       1.934090      1.659520      1.595710
  H       1.859231      2.158237     -0.115077
80
Coordinates from ORCA-job R4N+FHEA-_r2 E -2666.571145942071
  N       7.057194     -1.703149     -1.678596
  C       1.845476     -5.062332     -4.029163
  C       0.429004     -4.888167     -3.465689
  C       0.237027     -5.401007     -2.028900
  C       2.884666     -4.353078     -3.191072
  C       1.905708     -4.580601     -5.490136
  C       5.886600     -2.293855     -0.870653
  C       4.862064     -3.008932     -1.696421
  C       0.602722     -6.864822     -1.889429
  C       3.960748     -5.049982     -2.637276
  C       2.803876     -2.972303     -2.970375
  C      -1.204829     -5.159415     -1.570942
  C       7.825765     -2.787350     -2.373894
  C       7.958971     -0.999818     -0.704376
  C       6.567146     -0.707806     -2.692309
  C       4.936020     -4.390496     -1.894452
  C       3.776319     -2.310217     -2.234910
  C       3.255678     -4.824593     -6.156191
  C       1.595081     -7.271519     -0.991432
  C      -0.052146     -7.845777     -2.644659
  C       1.932027     -8.618109     -0.850437
  C       0.280507     -9.192308     -2.506742
  C       1.274507     -9.584580     -1.609098
  H       2.086955     -6.133864     -4.021273
  H      -0.276589     -5.410997     -4.126967
  H       0.157536     -3.823618     -3.492472
  H       0.912814     -4.837057     -1.368477
  H       1.667230     -3.512066     -5.520591
  H       1.119457     -5.095030     -6.051444
  H       5.445179     -1.440452     -0.342312
  H       6.352152     -2.964453     -0.142136
  H       4.033502     -6.125474     -2.787274
  H       1.970349     -2.403810     -3.376898
  H      -1.344704     -5.495000     -0.537036
  H      -1.909923     -5.709827     -2.203745
  H      -1.461581     -4.097276     -1.632293
  H       8.184233     -3.502233     -1.628108
  H       8.668974     -2.326823     -2.895243
  H       7.172313     -3.285759     -3.092949
  H       8.303418     -1.724447      0.038522
  H       7.394803     -0.198216     -0.218250
  H       8.808113     -0.585118     -1.255070
  H       5.929707      0.026127     -2.185774
  H       5.999060     -1.229711     -3.466039
  H       7.434330     -0.217320     -3.142286
  H       5.759002     -4.955048     -1.462475
  H       3.687620     -1.239013     -2.063424
  H       3.240409     -4.517615     -7.203385
  H       3.516134     -5.882172     -6.121541
  H       4.052654     -4.271260     -5.659474
  H       2.116215     -6.515687     -0.407094
  H      -0.829949     -7.556406     -3.349511
  H       2.709747     -8.911298     -0.147699
  H      -0.238140     -9.939878     -3.103128
  H       1.533452    -10.636273     -1.502652
  F       2.249730     -2.411687      0.356379
  F       0.085621     -2.654998     -0.033429
  F       0.514824     -4.559044      1.508938
  F       0.005422     -3.026845      2.978741
  F       1.369618     -0.527454      2.469566
  F      -0.641974     -0.822090      1.655392
  F       1.209967     -0.360308     -0.970400
  F      -0.250390      0.908957      0.022711
  F       1.962147     -4.049712      4.109504
  F       3.039709     -2.602922      2.896416
  F       2.587000     -6.017353      2.485199
  F       4.284917     -4.844735      2.923866
  F       3.389308     -4.750145      0.982440
  O       3.915756     -0.091162      1.054107
  O       4.154707      1.531137     -0.544306
  C       1.010416     -2.316775      0.915398
  C       0.683438     -0.837298      1.340738
  C       0.928352     -3.398857      2.072363
  C       0.949105      0.273010      0.217285
  C       2.275975     -3.702471      2.845113
  C       2.000761      1.324135      0.499320
  C       3.146169     -4.864390      2.277959
  C       3.483534      0.871279      0.315025
  H       1.881933      1.689312      1.515826
  H       1.779590      2.139087     -0.195993
80
Coordinates from ORCA-job R4N+FHEA-_r2 E -2666.573990839249
  N       7.064245     -1.734822     -1.693821
  C       1.825356     -5.047823     -4.026577
  C       0.408558     -4.893576     -3.456906
  C       0.234329     -5.410595     -2.023972
  C       2.869834     -4.345338     -3.188215
  C       1.869012     -4.562399     -5.486181
  C       5.907851     -2.330662     -0.874182
  C       4.865865     -3.031354     -1.692953
  C       0.638009     -6.859815     -1.886940
  C       3.947090     -5.053488     -2.650680
  C       2.800454     -2.966254     -2.956109
  C      -1.208460     -5.199881     -1.559993
  C       7.810174     -2.804365     -2.422018
  C       7.992715     -1.052907     -0.733865
  C       6.556693     -0.726972     -2.676027
  C       4.931898     -4.408728     -1.909683
  C       3.781679     -2.321070     -2.218720
  C       3.211389     -4.801487     -6.165810
  C       1.645445     -7.226343     -0.998500
  C       0.013285     -7.863811     -2.635804
  C       2.029250     -8.556009     -0.861019
  C       0.390951     -9.193964     -2.498542
  C       1.402168     -9.545742     -1.611470
  H       2.075084     -6.118065     -4.027313
  H      -0.289817     -5.423885     -4.118622
  H       0.118139     -3.834158     -3.479729
  H       0.901992     -4.826825     -1.375112
  H       1.620129     -3.495175     -5.515646
  H       1.079811     -5.082680     -6.038965
  H       5.482815     -1.481243     -0.324879
  H       6.384254     -3.015425     -0.165914
  H       4.011839     -6.127130     -2.813304
  H       1.966821     -2.390241     -3.349882
  H      -1.344595     -5.529504     -0.527878
  H      -1.898994     -5.768593     -2.189158
  H      -1.489407     -4.147073     -1.624428
  H       8.177755     -3.530909     -1.701852
  H       8.645777     -2.338435     -2.950726
  H       7.138406     -3.284658     -3.133972
  H       8.347912     -1.788372     -0.013038
  H       7.446899     -0.258726     -0.225078
  H       8.833796     -0.635802     -1.295285
  H       5.935547     -0.002156     -2.148215
  H       5.969288     -1.236261     -3.439054
  H       7.415319     -0.232771     -3.132135
  H       5.757401     -4.979105     -1.492633
  H       3.711416     -1.252087     -2.035349
  H       3.183639     -4.497440     -7.216455
  H       3.479162     -5.859321     -6.130604
  H       4.011417     -4.241523     -5.679401
  H       2.138855     -6.453482     -0.410846
  H      -0.775889     -7.604949     -3.332569
  H       2.817876     -8.817630     -0.164491
  H      -0.104862     -9.960370     -3.087316
  H       1.697037    -10.584240     -1.506023
  F       2.218133     -2.395328      0.349450
  F       0.063668     -2.626832     -0.067749
  F       0.461653     -4.525237      1.499450
  F      -0.070425     -2.976074      2.944096
  F       1.302905     -0.512150      2.460520
  F      -0.677439     -0.779715      1.580814
  F       1.245157     -0.328758     -0.975476
  F      -0.196137      0.967599      0.011525
  F       1.845327     -4.026164      4.110315
  F       2.964852     -2.583982      2.940171
  F       2.441569     -6.035269      2.497581
  F       4.250336     -4.865922      3.017677
  F       3.349394     -4.685861      1.003123
  O       3.923291     -0.133052      1.082265
  O       4.213995      1.486497     -0.466701
  C       0.978442     -2.288312      0.891755
  C       0.654006     -0.809781      1.311873
  C       0.870491     -3.361431      2.057920
  C       0.974786      0.297215      0.214255
  C       2.197728     -3.673869      2.860447
  C       2.042537      1.309594      0.529608
  C       3.077072     -4.846278      2.315754
  C       3.517303      0.833471      0.362654
  H       1.896539      1.673603      1.546994
  H       1.852443      2.133056     -0.151955
80
Coordinates from ORCA-job R4N+FHEA-_r2 E -2666.574632903440
  N       7.053646     -1.735720     -1.676460
  C       1.821926     -5.051952     -4.038510
  C       0.401432     -4.890966     -3.472966
  C       0.226942     -5.404184     -2.033685
  C       2.862320     -4.339081     -3.200815
  C       1.876087     -4.582880     -5.507117
  C       5.884951     -2.316788     -0.871847
  C       4.848380     -3.012591     -1.698970
  C       0.627854     -6.859183     -1.891904
  C       3.937371     -5.043440     -2.649872
  C       2.790793     -2.957637     -2.977717
  C      -1.216914     -5.183491     -1.559802
  C       7.803249     -2.819172     -2.394283
  C       7.972170     -1.057980     -0.700168
  C       6.563443     -0.720440     -2.667645
  C       4.915747     -4.392283     -1.905470
  C       3.768363     -2.304496     -2.237239
  C       3.233794     -4.821743     -6.163910
  C       1.637076     -7.233085     -1.000506
  C      -0.003483     -7.862581     -2.638979
  C       2.012633     -8.569731     -0.855060
  C       0.367271     -9.198472     -2.497392
  C       1.378164     -9.558502     -1.603992
  H       2.075060     -6.123916     -4.025903
  H      -0.297517     -5.424033     -4.132300
  H       0.112926     -3.830863     -3.501532
  H       0.889293     -4.819790     -1.382287
  H       1.616718     -3.512877     -5.555032
  H       1.097847     -5.122615     -6.067310
  H       5.456707     -1.466720     -0.330754
  H       6.345474     -3.005599     -0.156806
  H       4.004380     -6.118729     -2.803115
  H       1.957995     -2.384773     -3.380996
  H      -1.348181     -5.515349     -0.522570
  H      -1.922351     -5.746162     -2.185166
  H      -1.485110     -4.120176     -1.618707
  H       8.158028     -3.548442     -1.657866
  H       8.648810     -2.363773     -2.913973
  H       7.138387     -3.297438     -3.116323
  H       8.314535     -1.794516      0.033127
  H       7.419226     -0.254439     -0.202030
  H       8.821016     -0.648678     -1.250584
  H       5.939058      0.003856     -2.137861
  H       5.983524     -1.224626     -3.443029
  H       7.431761     -0.229551     -3.113409
  H       5.738328     -4.961214     -1.475781
  H       3.691576     -1.234113     -2.059423
  H       3.212233     -4.533273     -7.225446
  H       3.520295     -5.885908     -6.107596
  H       4.024224     -4.234418     -5.671059
  H       2.138606     -6.462417     -0.419706
  H      -0.793153     -7.598387     -3.340442
  H       2.802348     -8.836567     -0.155658
  H      -0.134116     -9.963276     -3.086507
  H       1.667307    -10.601741     -1.494400
  F       2.199025     -2.385517      0.329054
  F       0.075799     -2.649218     -0.011743
  F       0.509473     -4.533999      1.489595
  F      -0.009140     -2.982280      2.947269
  F       1.330883     -0.529669      2.468496
  F      -0.665822     -0.809367      1.618315
  F       1.233484     -0.351377     -0.971874
  F      -0.244078      0.961955      0.017962
  F       1.915571     -4.016849      4.104946
  F       3.042963     -2.556381      2.902724
  F       2.500739     -6.022578      2.474788
  F       4.293048     -4.864412      2.946434
  F       3.385060     -4.696299      0.977581
  O       3.868136     -0.109677      1.058727
  O       4.205466      1.480218     -0.462068
  C       0.996465     -2.293513      0.896319
  C       0.666325     -0.822285      1.322572
  C       0.922771     -3.367260      2.049684
  C       0.962841      0.298548      0.221020
  C       2.259090     -3.666759      2.839831
  C       2.039248      1.334830      0.531210
  C       3.124729     -4.847295      2.280890
  C       3.500965      0.847306      0.357726
  H       1.885350      1.692815      1.561239
  H       1.843399      2.177363     -0.153439
80
Coordinates from ORCA-job R4N+FHEA-_r2 E -2666.576220555784
  N       7.051148     -1.718255     -1.682389
  C       1.835770     -5.061235     -4.042766
  C       0.418840     -4.896229     -3.474906
  C       0.235988     -5.403279     -2.033624
  C       2.874075     -4.346273     -3.207313
  C       1.887918     -4.589755     -5.508357
  C       5.882634     -2.307712     -0.880900
  C       4.852373     -3.008395     -1.708387
  C       0.622172     -6.861919     -1.884710
  C       3.952057     -5.043101     -2.658040
  C       2.794622     -2.967361     -2.983281
  C      -1.209515     -5.169425     -1.571583
  C       7.810463     -2.797733     -2.392219
  C       7.961203     -1.030840     -0.704898
  C       6.561602     -0.710913     -2.680843
  C       4.926971     -4.386089     -1.914561
  C       3.768896     -2.307281     -2.245266
  C       3.243132     -4.822677     -6.170369
  C       1.621561     -7.248642     -0.985161
  C      -0.015373     -7.857361     -2.634564
  C       1.979849     -8.588925     -0.835324
  C       0.339264     -9.196523     -2.489750
  C       1.339435     -9.569005     -1.588544
  H       2.088060     -6.132100     -4.030543
  H      -0.281632     -5.428364     -4.132966
  H       0.134550     -3.835624     -3.507073
  H       0.902791     -4.825646     -1.376704
  H       1.629874     -3.521471     -5.551216
  H       1.108284     -5.126914     -6.066760
  H       5.447524     -1.463110     -0.342962
  H       6.343808     -2.992399     -0.165059
  H       4.025086     -6.116620     -2.811165
  H       1.959138     -2.400389     -3.385679
  H      -1.349473     -5.494855     -0.533234
  H      -1.914485     -5.729131     -2.198583
  H      -1.469704     -4.106318     -1.640688
  H       8.167214     -3.520030     -1.652989
  H       8.653381     -2.336362     -2.909087
  H       7.151399     -3.282533     -3.114209
  H       8.305569     -1.762896      0.028840
  H       7.401027     -0.232689     -0.211555
  H       8.808020     -0.615999     -1.252628
  H       5.933716      0.017390     -2.162378
  H       5.988019     -1.222385     -3.455627
  H       7.430769     -0.221385     -3.125940
  H       5.751416     -4.950230     -1.485221
  H       3.681632     -1.238046     -2.067785
  H       3.218036     -4.530467     -7.226018
  H       3.528730     -5.882754     -6.120045
  H       4.034160     -4.238681     -5.680656
  H       2.129917     -6.486896     -0.401834
  H      -0.797190     -7.584586     -3.342351
  H       2.761851     -8.865287     -0.130583
  H      -0.166741     -9.954301     -3.082340
  H       1.616043    -10.614500     -1.476605
  F       2.225367     -2.391191      0.335934
  F       0.076325     -2.640212     -0.030459
  F       0.499921     -4.539520      1.497469
  F      -0.016954     -2.986898      2.952375
  F       1.338197     -0.537654      2.471041
  F      -0.641582     -0.793837      1.621708
  F       1.235479     -0.321338     -0.958767
  F      -0.210651      0.955762      0.062834
  F       1.905754     -4.031765      4.114958
  F       3.030697     -2.580321      2.905137
  F       2.505717     -6.037535      2.489168
  F       4.276969     -4.887855      2.957447
  F       3.387170     -4.724596      0.993070
  O       3.881602     -0.113220      1.055284
  O       4.174750      1.488302     -0.499701
  C       1.000623     -2.295806      0.899467
  C       0.679565     -0.822029      1.329861
  C       0.916065     -3.374853      2.056580
  C       0.974394      0.297166      0.239603
  C       2.250324     -3.686007      2.849180
  C       2.037071      1.320029      0.537806
  C       3.118788     -4.870514      2.294022
  C       3.489313      0.843571      0.342942
  H       1.904978      1.674467      1.567892
  H       1.834483      2.151740     -0.142941
80
Coordinates from ORCA-job R4N+FHEA-_r2 E -2666.576341456791
  N       7.055596     -1.733404     -1.680690
  C       1.825817     -5.054127     -4.036304
  C       0.408959     -4.892010     -3.466346
  C       0.230501     -5.404594     -2.029230
  C       2.869210     -4.348424     -3.199115
  C       1.875068     -4.570760     -5.496400
  C       5.890837     -2.324373     -0.872015
  C       4.856676     -3.025996     -1.697475
  C       0.627835     -6.857829     -1.885768
  C       3.945207     -5.054177     -2.653028
  C       2.797510     -2.968528     -2.972128
  C      -1.212789     -5.185153     -1.565018
  C       7.811569     -2.811332     -2.395028
  C       7.971297     -1.047443     -0.709203
  C       6.563155     -0.725373     -2.675942
  C       4.925014     -4.405622     -1.908042
  C       3.774825     -2.317422     -2.231882
  C       3.223361     -4.803883     -6.169615
  C       1.634333     -7.229713     -0.994371
  C      -0.001609     -7.859674     -2.632692
  C       2.008961     -8.562719     -0.849333
  C       0.368994     -9.192395     -2.491520
  C       1.376780     -9.550050     -1.599157
  H       2.073378     -6.124702     -4.032799
  H      -0.292352     -5.421010     -4.126260
  H       0.123532     -3.831413     -3.494099
  H       0.895962     -4.824087     -1.374797
  H       1.623137     -3.503964     -5.526987
  H       1.089178     -5.094717     -6.052797
  H       5.458594     -1.475366     -0.329926
  H       6.356074     -3.008567     -0.155059
  H       4.012212     -6.129030     -2.809698
  H       1.965086     -2.394275     -3.373225
  H      -1.347898     -5.512853     -0.530248
  H      -1.910265     -5.750399     -2.192503
  H      -1.485547     -4.127878     -1.631434
  H       8.170759     -3.534902     -1.661974
  H       8.653585     -2.350156     -2.916366
  H       7.149095     -3.295407     -3.113421
  H       8.318204     -1.780767      0.020883
  H       7.416507     -0.249591     -0.210987
  H       8.817874     -0.632633     -1.262008
  H       5.938807      0.005372     -2.155240
  H       5.984590     -1.233532     -3.447539
  H       7.430465     -0.236247     -3.123630
  H       5.747508     -4.975423     -1.481259
  H       3.694374     -1.247095     -2.052662
  H       3.197752     -4.499287     -7.218501
  H       3.497252     -5.860645     -6.134721
  H       4.019578     -4.238920     -5.679852
  H       2.135938     -6.459330     -0.414093
  H      -0.788099     -7.596795     -3.333869
  H       2.796856     -8.827818     -0.151597
  H      -0.130041     -9.956397     -3.080895
  H       1.665919    -10.590228     -1.490786
  F       2.212401     -2.395330      0.339682
  F       0.065281     -2.638504     -0.034872
  F       0.495381     -4.539108      1.497315
  F      -0.033271     -2.995874      2.951926
  F       1.326347     -0.518721      2.471055
  F      -0.664992     -0.796539      1.609783
  F       1.235659     -0.342846     -0.973185
  F      -0.218393      0.956294      0.011024
  F       1.898520     -4.033450      4.103759
  F       3.004369     -2.577927      2.916894
  F       2.514278     -6.022314      2.470381
  F       4.275661     -4.843259      2.964225
  F       3.377826     -4.684989      0.983777
  O       3.891008     -0.120544      1.078303
  O       4.195421      1.476244     -0.483170
  C       0.988820     -2.295750      0.899701
  C       0.665523     -0.818259      1.324170
  C       0.902315     -3.373585      2.057098
  C       0.967454      0.293413      0.217795
  C       2.236485     -3.677220      2.847578
  C       2.036153      1.318986      0.524843
  C       3.115737     -4.840772      2.287401
  C       3.499209      0.837715      0.354995
  H       1.897852      1.684977      1.543214
  H       1.840070      2.141805     -0.162535
80
Coordinates from ORCA-job R4N+FHEA-_r2 E -2666.576632789380
  N       7.052708     -1.724042     -1.682628
  C       1.830568     -5.059911     -4.041175
  C       0.412304     -4.893410     -3.475849
  C       0.229499     -5.401648     -2.036784
  C       2.871342     -4.345663     -3.207050
  C       1.882855     -4.592298     -5.508340
  C       5.886683     -2.314250     -0.878463
  C       4.854287     -3.013761     -1.706970
  C       0.620666     -6.857649     -1.887880
  C       3.948664     -5.046293     -2.658663
  C       2.796082     -2.965561     -2.982955
  C      -1.215884     -5.174190     -1.576304
  C       7.809662     -2.801331     -2.396973
  C       7.966571     -1.039387     -0.707614
  C       6.560737     -0.714919     -2.677016
  C       4.925844     -4.392576     -1.915029
  C       3.771983     -2.309126     -2.243941
  C       3.239989     -4.821458     -6.168301
  C       1.623402     -7.233858     -0.990178
  C      -0.012934     -7.859221     -2.633538
  C       1.988677     -8.571259     -0.836016
  C       0.349082     -9.195752     -2.484693
  C       1.352277     -9.558219     -1.584533
  H       2.081024     -6.131220     -4.026119
  H      -0.287389     -5.425668     -4.134990
  H       0.127029     -3.832882     -3.508554
  H       0.893585     -4.823166     -1.378905
  H       1.618965     -3.525371     -5.553736
  H       1.106036     -5.133687     -6.066323
  H       5.453311     -1.468386     -0.335396
  H       6.349901     -3.001336     -0.163994
  H       4.018857     -6.120852     -2.812298
  H       1.962163     -2.395082     -3.385252
  H      -1.355235     -5.501080     -0.540412
  H      -1.917151     -5.735707     -2.204776
  H      -1.480543     -4.113237     -1.643772
  H       8.170056     -3.523939     -1.662163
  H       8.650632     -2.338860     -2.917406
  H       7.148042     -3.285829     -3.116536
  H       8.314605     -1.773503      0.021632
  H       7.409020     -0.243575     -0.208758
  H       8.811825     -0.622006     -1.258075
  H       5.936376      0.013348     -2.154840
  H       5.983568     -1.223355     -3.450490
  H       7.428375     -0.225182     -3.123474
  H       5.749004     -4.959366     -1.485959
  H       3.686895     -1.239528     -2.064736
  H       3.214051     -4.534351     -7.226255
  H       3.530937     -5.879510     -6.113534
  H       4.027218     -4.232809     -5.680344
  H       2.128703     -6.464571     -0.410887
  H      -0.797030     -7.593363     -3.339789
  H       2.773193     -8.839975     -0.132342
  H      -0.153714     -9.959123     -3.073333
  H       1.634561    -10.601799     -1.469291
  F       2.219556     -2.386992      0.338613
  F       0.076252     -2.643113     -0.032187
  F       0.510200     -4.543005      1.489850
  F      -0.025284     -3.000910      2.945303
  F       1.326526     -0.535319      2.477973
  F      -0.659758     -0.803610      1.616288
  F       1.235329     -0.329124     -0.960215
  F      -0.215843      0.958995      0.043917
  F       1.900435     -4.038456      4.106270
  F       3.017926     -2.576534      2.920435
  F       2.516332     -6.028971      2.467345
  F       4.285319     -4.860135      2.964216
  F       3.392581     -4.688126      0.986735
  O       3.894180     -0.114685      1.084450
  O       4.191885      1.471690     -0.484702
  C       0.997098     -2.296650      0.899366
  C       0.669222     -0.824083      1.330070
  C       0.914626     -3.377168      2.052928
  C       0.970502      0.295662      0.235296
  C       2.246253     -3.681135      2.848547
  C       2.039255      1.318910      0.542835
  C       3.124947     -4.849151      2.288434
  C       3.501373      0.837628      0.360383
  H       1.899247      1.672362      1.569952
  H       1.840137      2.154057     -0.137595
80
Coordinates from ORCA-job R4N+FHEA-_r2 E -2666.576564043047
  N       7.044832     -1.727438     -1.675285
  C       1.828689     -5.061792     -4.044605
  C       0.411991     -4.896655     -3.477124
  C       0.230362     -5.400529     -2.036392
  C       2.868294     -4.348261     -3.209763
  C       1.880409     -4.587411     -5.507833
  C       5.874012     -2.314425     -0.874404
  C       4.845389     -3.014111     -1.705835
  C       0.621283     -6.856030     -1.884480
  C       3.944849     -5.047099     -2.658921
  C       2.791720     -2.968840     -2.987308
  C      -1.214508     -5.169036     -1.576424
  C       7.804011     -2.810045     -2.382702
  C       7.954452     -1.039123     -0.697602
  C       6.558448     -0.720133     -2.676229
  C       4.918692     -4.392304     -1.912584
  C       3.765513     -2.310376     -2.247789
  C       3.232801     -4.818916     -6.173972
  C       1.627810     -7.230445     -0.991154
  C      -0.013856     -7.858597     -2.625984
  C       1.995706     -8.565955     -0.838800
  C       0.350934     -9.193253     -2.478883
  C       1.358409     -9.553310     -1.584315
  H       2.079108     -6.132152     -4.033322
  H      -0.287573     -5.431802     -4.133553
  H       0.125312     -3.836827     -3.512118
  H       0.895144     -4.822588     -1.379768
  H       1.624706     -3.520544     -5.546501
  H       1.099018     -5.119765     -6.064478
  H       5.438887     -1.467236     -0.335364
  H       6.333128     -3.000378     -0.157080
  H       4.016597     -6.120869     -2.811598
  H       1.959018     -2.399133     -3.392875
  H      -1.356230     -5.490190     -0.538837
  H      -1.915936     -5.732020     -2.202616
  H      -1.477316     -4.107976     -1.648763
  H       8.160130     -3.531214     -1.641651
  H       8.647976     -2.350723     -2.901692
  H       7.145314     -3.297287     -3.103980
  H       8.299096     -1.771557      0.037076
  H       7.394505     -0.239541     -0.203497
  H       8.802201     -0.623890     -1.246807
  H       5.932645      0.011263     -2.157627
  H       5.983620     -1.230863     -3.450895
  H       7.428643     -0.232649     -3.122607
  H       5.740763     -4.958016     -1.480699
  H       3.677530     -1.240423     -2.071770
  H       3.208554     -4.519983     -7.225479
  H       3.512237     -5.876328     -6.131739
  H       4.025608     -4.244848     -5.684023
  H       2.134822     -6.461804     -0.414633
  H      -0.800644     -7.595016     -3.328864
  H       2.783735     -8.832723     -0.139778
  H      -0.152551     -9.956987     -3.065163
  H       1.643418    -10.595096     -1.471208
  F       2.235561     -2.385457      0.332981
  F       0.089758     -2.642281     -0.043907
  F       0.520324     -4.544856      1.484728
  F      -0.017126     -2.998761      2.937107
  F       1.326545     -0.536189      2.471046
  F      -0.648332     -0.805875      1.600962
  F       1.253314     -0.333422     -0.965665
  F      -0.215027      0.951691      0.036961
  F       1.906315     -4.041826      4.101890
  F       3.024412     -2.576464      2.916412
  F       2.531876     -6.030024      2.465740
  F       4.292089     -4.864520      2.967010
  F       3.417875     -4.690809      0.988184
  O       3.889773     -0.099520      1.085363
  O       4.178788      1.468948     -0.496475
  C       1.008895     -2.296948      0.891537
  C       0.678054     -0.825459      1.321900
  C       0.924474     -3.378093      2.046432
  C       0.978246      0.294843      0.231854
  C       2.255008     -3.683113      2.844654
  C       2.040834      1.322882      0.547439
  C       3.138059     -4.852881      2.287881
  C       3.496707      0.843406      0.358848
  H       1.899427      1.671536      1.577969
  H       1.842677      2.157822     -0.128044
80
Coordinates from ORCA-job R4N+FHEA-_r2 E -2666.576710019847
  N       7.038527     -1.724909     -1.671931
  C       1.827107     -5.065844     -4.046842
  C       0.408357     -4.894983     -3.484783
  C       0.221732     -5.395535     -2.043027
  C       2.865820     -4.352231     -3.211011
  C       1.886444     -4.596810     -5.512443
  C       5.868787     -2.316754     -0.872543
  C       4.841371     -3.016594     -1.706001
  C       0.613252     -6.850191     -1.886330
  C       3.940604     -5.051883     -2.656139
  C       2.790012     -2.971599     -2.991800
  C      -1.223930     -5.163829     -1.586206
  C       7.797587     -2.802330     -2.386601
  C       7.948923     -1.042326     -0.690908
  C       6.549920     -0.711703     -2.666057
  C       4.913982     -4.396182     -1.909594
  C       3.762284     -2.312770     -2.250831
  C       3.242615     -4.833139     -6.170650
  C       1.620560     -7.219751     -0.992422
  C      -0.021331     -7.856201     -2.623661
  C       1.989751     -8.554111     -0.834724
  C       0.344782     -9.189938     -2.471228
  C       1.352804     -9.545202     -1.575681
  H       2.074747     -6.137078     -4.030741
  H      -0.290810     -5.430301     -4.141999
  H       0.124514     -3.834334     -3.523518
  H       0.883839     -4.815752     -1.384856
  H       1.632272     -3.529317     -5.555852
  H       1.107237     -5.129856     -6.072031
  H       5.433955     -1.470936     -0.330803
  H       6.330096     -3.003413     -0.156681
  H       4.011388     -6.126901     -2.806022
  H       1.958416     -2.401508     -3.400257
  H      -1.366337     -5.486940     -0.549148
  H      -1.924934     -5.725582     -2.214284
  H      -1.486281     -4.102617     -1.657543
  H       8.155681     -3.527596     -1.650932
  H       8.640381     -2.339065     -2.903593
  H       7.138471     -3.285576     -3.110189
  H       8.296019     -1.779015      0.037625
  H       7.388909     -0.247901     -0.190233
  H       8.794815     -0.621867     -1.237881
  H       5.921717      0.014039     -2.142232
  H       5.976675     -1.217952     -3.444840
  H       7.418712     -0.218652     -3.108488
  H       5.734746     -4.962290     -1.474502
  H       3.673880     -1.242228     -2.076611
  H       3.223817     -4.538919     -7.224538
  H       3.521221     -5.891430     -6.122254
  H       4.033380     -4.257540     -5.678007
  H       2.127739     -6.447192     -0.421215
  H      -0.808468     -7.596122     -3.327238
  H       2.778544     -8.817161     -0.135411
  H      -0.158037     -9.956668     -3.054225
  H       1.638804    -10.586230     -1.458483
  F       2.244840     -2.373468      0.337827
  F       0.108281     -2.648034     -0.045169
  F       0.544385     -4.551363      1.469831
  F      -0.006988     -3.016291      2.928585
  F       1.324840     -0.539750      2.477524
  F      -0.652390     -0.820742      1.601211
  F       1.244018     -0.324663     -0.962838
  F      -0.208617      0.956243      0.045575
  F       1.918296     -4.048278      4.094764
  F       3.033762     -2.573512      2.919149
  F       2.558019     -6.029213      2.453999
  F       4.312521     -4.849778      2.958780
  F       3.431372     -4.681487      0.980297
  O       3.903913     -0.089478      1.114600
  O       4.179257      1.455779     -0.500341
  C       1.019399     -2.298473      0.890956
  C       0.677535     -0.830253      1.324427
  C       0.938781     -3.384733      2.039064
  C       0.977478      0.294804      0.234867
  C       2.268854     -3.683805      2.839628
  C       2.042071      1.317303      0.548074
  C       3.157337     -4.846267      2.279565
  C       3.501467      0.839948      0.367891
  H       1.901954      1.666926      1.575020
  H       1.844782      2.148684     -0.132378
80
Coordinates from ORCA-job R4N+FHEA-_r2 E -2666.576664262364
  N       7.041252     -1.721109     -1.674154
  C       1.827826     -5.064814     -4.048828
  C       0.408841     -4.894253     -3.486935
  C       0.223008     -5.395347     -2.046233
  C       2.867803     -4.348238     -3.215997
  C       1.882816     -4.605776     -5.518841
  C       5.875399     -2.318433     -0.876306
  C       4.846342     -3.015723     -1.711161
  C       0.613047     -6.850744     -1.887569
  C       3.944128     -5.048375     -2.665295
  C       2.792562     -2.967909     -2.994030
  C      -1.223687     -5.165400     -1.590884
  C       7.797911     -2.788348     -2.398512
  C       7.956029     -1.046888     -0.694538
  C       6.549755     -0.704192     -2.657848
  C       4.919379     -4.394105     -1.919853
  C       3.766068     -2.311399     -2.252232
  C       3.243833     -4.832687     -6.171861
  C       1.616146     -7.220155     -0.986784
  C      -0.022722     -7.858194     -2.623867
  C       1.979050     -8.557295     -0.819851
  C       0.336823     -9.194642     -2.461938
  C       1.339616     -9.550615     -1.558191
  H       2.076984     -6.136482     -4.027403
  H      -0.290244     -5.429399     -4.144543
  H       0.124096     -3.833801     -3.525595
  H       0.885951     -4.815087     -1.388056
  H       1.613152     -3.539791     -5.571895
  H       1.110604     -5.155068     -6.076826
  H       5.441077     -1.476380     -0.328166
  H       6.338507     -3.009004     -0.165598
  H       4.014462     -6.123211     -2.817711
  H       1.959673     -2.397953     -3.398306
  H      -1.366349     -5.487644     -0.554345
  H      -1.923418     -5.729059     -2.219000
  H      -1.487850     -4.104916     -1.663871
  H       8.159756     -3.516402     -1.673921
  H       8.637558     -2.319542     -2.914386
  H       7.135738     -3.265227     -3.121267
  H       8.307617     -1.788040      0.022009
  H       7.398656     -0.261766     -0.184792
  H       8.798735     -0.620307     -1.240242
  H       5.924555      0.018087     -2.130535
  H       5.974155     -1.204721     -3.435985
  H       7.417334     -0.209795     -3.097423
  H       5.741199     -4.960255     -1.487937
  H       3.678586     -1.242338     -2.073008
  H       3.217924     -4.556648     -7.234105
  H       3.543026     -5.889980     -6.104998
  H       4.025892     -4.231856     -5.686545
  H       2.123597     -6.444858     -0.415863
  H      -0.807081     -7.597179     -3.331876
  H       2.763376     -8.821160     -0.113526
  H      -0.167998     -9.963014     -3.042723
  H       1.619463    -10.594276     -1.432277
  F       2.254628     -2.372055      0.341100
  F       0.115558     -2.652956     -0.063031
  F       0.547614     -4.554740      1.463427
  F      -0.016690     -3.023698      2.919085
  F       1.308207     -0.543683      2.480946
  F      -0.663456     -0.828187      1.585130
  F       1.255917     -0.324424     -0.962019
  F      -0.207365      0.955871      0.038017
  F       1.908875     -4.053287      4.091203
  F       3.020187     -2.575550      2.929177
  F       2.562848     -6.024456      2.451182
  F       4.313303     -4.836723      2.965060
  F       3.429974     -4.668992      0.982424
  O       3.914205     -0.089322      1.136861
  O       4.190375      1.445272     -0.487125
  C       1.020962     -2.300868      0.886323
  C       0.670871     -0.833991      1.320924
  C       0.935762     -3.387617      2.034700
  C       0.979555      0.293554      0.236014
  C       2.261967     -3.683899      2.841416
  C       2.044785      1.316491      0.561574
  C       3.157478     -4.837136      2.282077
  C       3.509863      0.836787      0.383820
  H       1.895841      1.660955      1.589931
  H       1.849014      2.155749     -0.113279
80
Coordinates from ORCA-job R4N+FHEA-_r2 E -2666.576870082445
  N       7.031109     -1.724504     -1.667962
  C       1.824470     -5.069300     -4.054353
  C       0.404983     -4.896537     -3.494989
  C       0.216660     -5.391767     -2.052354
  C       2.862663     -4.353063     -3.219773
  C       1.884400     -4.608196     -5.522674
  C       5.860813     -2.319420     -0.872512
  C       4.835392     -3.017083     -1.711111
  C       0.609513     -6.845160     -1.887713
  C       3.937259     -5.052001     -2.664218
  C       2.786841     -2.972419     -3.001445
  C      -1.230537     -5.160295     -1.600328
  C       7.788683     -2.797676     -2.389022
  C       7.943002     -1.049088     -0.684138
  C       6.543331     -0.705377     -2.655360
  C       4.909111     -4.396094     -1.916073
  C       3.757978     -2.313488     -2.258935
  C       3.243944     -4.840342     -6.175669
  C       1.616133     -7.207670     -0.989076
  C      -0.024209     -7.856921     -2.618802
  C       1.984419     -8.541719     -0.819463
  C       0.341104     -9.190316     -2.454505
  C       1.347429     -9.539073     -1.553245
  H       2.072155     -6.140711     -4.032814
  H      -0.292954     -5.434891     -4.151154
  H       0.120039     -3.836409     -3.538387
  H       0.876261     -4.809689     -1.393607
  H       1.622443     -3.541859     -5.573078
  H       1.109758     -5.150252     -6.081635
  H       5.425954     -1.475673     -0.326749
  H       6.321059     -3.009687     -0.159067
  H       4.008488     -6.126863     -2.814091
  H       1.955746     -2.402906     -3.410749
  H      -1.376168     -5.478996     -0.562897
  H      -1.929009     -5.725249     -2.228275
  H      -1.494018     -4.099941     -1.676855
  H       8.146928     -3.526731     -1.658673
  H       8.631421     -2.331919     -2.904315
  H       7.128390     -3.275924     -3.114135
  H       8.290138     -1.791033      0.038732
  H       7.384037     -0.257613     -0.177752
  H       8.789296     -0.625732     -1.229789
  H       5.915883      0.017036     -2.127261
  H       5.970409     -1.206613     -3.436924
  H       7.412484     -0.210097     -3.093803
  H       5.729295     -4.961407     -1.479650
  H       3.668185     -1.243359     -2.084159
  H       3.223784     -4.555636     -7.233390
  H       3.531888     -5.897635     -6.117303
  H       4.029654     -4.252849     -5.685895
  H       2.123164     -6.429410     -0.423274
  H      -0.810702     -7.601666     -3.325722
  H       2.771912     -8.799909     -0.115716
  H      -0.161580     -9.961951     -3.032004
  H       1.632214    -10.580125     -1.426038
  F       2.270176     -2.360145      0.341766
  F       0.137381     -2.654208     -0.068369
  F       0.572171     -4.559446      1.449556
  F      -0.005122     -3.034860      2.907559
  F       1.305497     -0.548541      2.483125
  F      -0.657746     -0.838540      1.576108
  F       1.261487     -0.316364     -0.960348
  F      -0.201857      0.956861      0.046958
  F       1.917597     -4.058461      4.086992
  F       3.030058     -2.570804      2.931120
  F       2.588646     -6.024846      2.446045
  F       4.331614     -4.831835      2.968954
  F       3.459572     -4.662573      0.982841
  O       3.923317     -0.067687      1.158071
  O       4.182184      1.435404     -0.499158
  C       1.035976     -2.300468      0.882165
  C       0.676563     -0.837421      1.319144
  C       0.952405     -3.392046      2.025943
  C       0.984974      0.295428      0.240307
  C       2.276234     -3.684770      2.838058
  C       2.047708      1.318081      0.569382
  C       3.179440     -4.835304      2.280902
  C       3.511487      0.841459      0.389408
  H       1.898332      1.656914      1.599762
  H       1.851094      2.158762     -0.103633
80
Coordinates from ORCA-job R4N+FHEA-_r2 E -2666.576977217030
  N       7.022266     -1.723947     -1.658491
  C       1.821669     -5.070819     -4.057902
  C       0.401852     -4.897750     -3.498796
  C       0.214531     -5.389232     -2.054626
  C       2.858287     -4.355740     -3.220650
  C       1.884897     -4.607419     -5.524954
  C       5.849901     -2.320660     -0.867922
  C       4.827309     -3.018958     -1.708990
  C       0.606816     -6.842353     -1.886837
  C       3.931411     -5.054040     -2.662808
  C       2.781053     -2.975653     -3.002046
  C      -1.231206     -5.154020     -1.599148
  C       7.786337     -2.797098     -2.372961
  C       7.927031     -1.043943     -0.671193
  C       6.538044     -0.709507     -2.651854
  C       4.901636     -4.397735     -1.912861
  C       3.750813     -2.316326     -2.258498
  C       3.244256     -4.842954     -6.176200
  C       1.614521     -7.204841     -0.990034
  C      -0.029416     -7.854165     -2.614930
  C       1.981213     -8.538526     -0.820051
  C       0.334250     -9.187296     -2.449771
  C       1.341330     -9.535764     -1.550585
  H       2.068103     -6.142379     -4.037663
  H      -0.296751     -5.436231     -4.154026
  H       0.118176     -3.837289     -3.543674
  H       0.875225     -4.804651     -1.400633
  H       1.627232     -3.540802     -5.574496
  H       1.109360     -5.145259     -6.085276
  H       5.412453     -1.478584     -0.322747
  H       6.308291     -3.010103     -0.153303
  H       4.002848     -6.128640     -2.812552
  H       1.950754     -2.406781     -3.413538
  H      -1.374210     -5.466894     -0.558824
  H      -1.932209     -5.721201     -2.222379
  H      -1.493538     -4.093079     -1.679418
  H       8.141819     -3.524380     -1.638908
  H       8.631080     -2.331004     -2.884284
  H       7.130468     -3.277869     -3.100880
  H       8.272940     -1.783473      0.054200
  H       7.362931     -0.254482     -0.168767
  H       8.774071     -0.618667     -1.212109
  H       5.910319      0.016941     -2.130155
  H       5.966211     -1.213842     -3.432183
  H       7.409356     -0.217995     -3.090170
  H       5.721035     -4.962285     -1.474141
  H       3.660610     -1.246615     -2.085042
  H       3.228958     -4.555577     -7.232550
  H       3.526684     -5.900423     -6.119568
  H       4.031162     -4.261268     -5.683512
  H       2.125530     -6.426921     -0.428433
  H      -0.816111     -7.598797     -3.320910
  H       2.769851     -8.796552     -0.118353
  H      -0.170080     -9.958836     -3.025306
  H       1.624702    -10.576543     -1.422801
  F       2.286475     -2.356761      0.339101
  F       0.159107     -2.657576     -0.076794
  F       0.591801     -4.562806      1.436499
  F       0.011140     -3.041120      2.898323
  F       1.310589     -0.550498      2.476650
  F      -0.649574     -0.850174      1.568546
  F       1.263924     -0.312584     -0.965186
  F      -0.200946      0.952413      0.047177
  F       1.934150     -4.063279      4.077693
  F       3.045776     -2.570602      2.923103
  F       2.614811     -6.027151      2.437186
  F       4.350390     -4.830595      2.957731
  F       3.481477     -4.664180      0.974837
  O       3.930454     -0.045405      1.169557
  O       4.170372      1.426103     -0.513902
  C       1.052375     -2.301962      0.875270
  C       0.684120     -0.841456      1.312893
  C       0.969555     -3.395917      2.016634
  C       0.987421      0.295033      0.236730
  C       2.293844     -3.687197      2.829451
  C       2.047377      1.317280      0.567081
  C       3.200683     -4.837133      2.271441
  C       3.509187      0.844967      0.388533
  H       1.898619      1.658357      1.595780
  H       1.851035      2.152850     -0.107317
80
Coordinates from ORCA-job R4N+FHEA-_r2 E -2666.577143400159
  N       7.013790     -1.727028     -1.650867
  C       1.817591     -5.073902     -4.065432
  C       0.397464     -4.901163     -3.506964
  C       0.211402     -5.387355     -2.061324
  C       2.852866     -4.357605     -3.227330
  C       1.881171     -4.612592     -5.532742
  C       5.836906     -2.322010     -0.865483
  C       4.817898     -3.019912     -1.711482
  C       0.606082     -6.838801     -1.887466
  C       3.924852     -5.055588     -2.666800
  C       2.774709     -2.977274     -3.009471
  C      -1.234351     -5.151709     -1.606451
  C       7.782072     -2.803705     -2.358141
  C       7.912919     -1.043962     -0.660127
  C       6.535858     -0.715296     -2.650882
  C       4.892836     -4.399040     -1.914377
  C       3.743280     -2.317441     -2.264559
  C       3.241569     -4.845139     -6.182264
  C       1.615501     -7.195526     -0.990566
  C      -0.029599     -7.854531     -2.610371
  C       1.983427     -8.527771     -0.814987
  C       0.335581     -9.186165     -2.439698
  C       1.343493     -9.529044     -1.539858
  H       2.064238     -6.145331     -4.043723
  H      -0.300520     -5.442085     -4.160720
  H       0.112474     -3.841230     -3.555389
  H       0.870964     -4.799104     -1.410172
  H       1.619925     -3.547115     -5.584663
  H       1.107513     -5.153563     -6.092489
  H       5.397796     -1.479624     -0.321273
  H       6.290309     -3.012489     -0.147927
  H       3.996397     -6.130475     -2.815701
  H       1.945388     -2.408766     -3.423753
  H      -1.377863     -5.456582     -0.563882
  H      -1.934395     -5.723995     -2.226021
  H      -1.498264     -4.091717     -1.693701
  H       8.132589     -3.529667     -1.619101
  H       8.630466     -2.339939     -2.866474
  H       7.129984     -3.286305     -3.088444
  H       8.254102     -1.782460      0.070423
  H       7.345610     -0.251336     -0.163001
  H       8.763906     -0.620863     -1.198542
  H       5.910284      0.016969     -2.134232
  H       5.964041     -1.221732     -3.430031
  H       7.410735     -0.229586     -3.089223
  H       5.710930     -4.963003     -1.472031
  H       3.652323     -1.247732     -2.091659
  H       3.227058     -4.560005     -7.238849
  H       3.527120     -5.901208     -6.123280
  H       4.026313     -4.260566     -5.690349
  H       2.128117     -6.414363     -0.434712
  H      -0.816789     -7.602988     -3.316900
  H       2.773239     -8.781516     -0.113338
  H      -0.168249     -9.960872     -3.011341
  H       1.627730    -10.568723     -1.407534
  F       2.302744     -2.346399      0.339981
  F       0.178514     -2.656948     -0.089356
  F       0.614344     -4.566853      1.419813
  F       0.018280     -3.055182      2.885388
  F       1.304787     -0.555301      2.480344
  F      -0.648124     -0.860877      1.559347
  F       1.269357     -0.302536     -0.962087
  F      -0.196427      0.956893      0.056343
  F       1.941955     -4.071482      4.069260
  F       3.049131     -2.565322      2.925362
  F       2.646293     -6.023021      2.420198
  F       4.369936     -4.816403      2.957049
  F       3.509534     -4.643478      0.970072
  O       3.946188     -0.024221      1.196480
  O       4.167149      1.407410     -0.522183
  C       1.065110     -2.300633      0.869965
  C       0.686530     -0.844453      1.311980
  C       0.982637     -3.400334      2.006598
  C       0.991338      0.298423      0.243220
  C       2.304685     -3.687093      2.823953
  C       2.051911      1.318085      0.580970
  C       3.223452     -4.827246      2.264328
  C       3.514296      0.846102      0.399213
  H       1.900605      1.654286      1.611264
  H       1.855224      2.158493     -0.089322
80
Coordinates from ORCA-job R4N+FHEA-_r2 E -2666.577412694150
  N       7.005522     -1.727056     -1.640765
  C       1.816425     -5.078509     -4.081798
  C       0.397041     -4.906164     -3.519880
  C       0.214574     -5.384699     -2.071432
  C       2.851808     -4.359080     -3.246123
  C       1.874899     -4.622090     -5.550299
  C       5.822156     -2.321874     -0.868329
  C       4.810723     -3.020304     -1.723775
  C       0.609006     -6.835057     -1.888238
  C       3.924887     -5.055130     -2.686620
  C       2.770141     -2.978936     -3.025943
  C      -1.230966     -5.146900     -1.616434
  C       7.788500     -2.806242     -2.326513
  C       7.888116     -1.030654     -0.645581
  C       6.539626     -0.731214     -2.659456
  C       4.890005     -4.398159     -1.931073
  C       3.736144     -2.319395     -2.277085
  C       3.234060     -4.849796     -6.201679
  C       1.616142     -7.189299     -0.986330
  C      -0.029405     -7.853417     -2.605667
  C       1.976707     -8.522856     -0.799490
  C       0.328838     -9.186046     -2.423830
  C       1.332418     -9.527056     -1.517379
  H       2.063787     -6.149828     -4.057774
  H      -0.302041     -5.448891     -4.170784
  H       0.111169     -3.846572     -3.572636
  H       0.873702     -4.789978     -1.426007
  H       1.606203     -3.559231     -5.607478
  H       1.102941     -5.169705     -6.104784
  H       5.375074     -1.482393     -0.325968
  H       6.266176     -3.013788     -0.145617
  H       3.998295     -6.129443     -2.837931
  H       1.939619     -2.412613     -3.440021
  H      -1.373909     -5.435134     -0.568822
  H      -1.930977     -5.729029     -2.227576
  H      -1.496553     -4.088380     -1.717456
  H       8.130787     -3.523120     -1.576957
  H       8.642163     -2.344023     -2.826870
  H       7.147811     -3.297578     -3.060414
  H       8.223097     -1.761248      0.094728
  H       7.310235     -0.237746     -0.162843
  H       8.744502     -0.607993     -1.176191
  H       5.921508      0.019118     -2.162859
  H       5.965877     -1.247675     -3.429653
  H       7.422102     -0.264142     -3.100938
  H       5.708344     -4.959771     -1.486795
  H       3.642174     -1.251741     -2.098188
  H       3.217295     -4.571622     -7.259746
  H       3.526740     -5.902373     -6.136285
  H       4.015557     -4.257927     -5.716153
  H       2.134832     -6.406604     -0.436813
  H      -0.813902     -7.602143     -3.316315
  H       2.763887     -8.775421     -0.093060
  H      -0.177612     -9.962908     -2.991007
  H       1.610023    -10.567977     -1.374922
  F       2.310929     -2.336469      0.343338
  F       0.185788     -2.651348     -0.091383
  F       0.637870     -4.569254      1.400240
  F       0.022089     -3.078794      2.877913
  F       1.301708     -0.560656      2.492441
  F      -0.648111     -0.866260      1.565406
  F       1.268390     -0.290725     -0.950578
  F      -0.195047      0.966686      0.078531
  F       1.947639     -4.090647      4.061191
  F       3.044418     -2.559742      2.939453
  F       2.689286     -6.015858      2.387902
  F       4.394033     -4.797103      2.958154
  F       3.546647     -4.600706      0.965736
  O       3.973185     -0.001256      1.234142
  O       4.159347      1.365089     -0.538399
  C       1.071080     -2.296738      0.872208
  C       0.685983     -0.845597      1.321922
  C       0.993230     -3.405983      2.000492
  C       0.991464      0.303854      0.260654
  C       2.313027     -3.688446      2.821706
  C       2.058439      1.316264      0.606852
  C       3.252358     -4.809302      2.254448
  C       3.520161      0.838514      0.414344
  H       1.907582      1.648234      1.639662
  H       1.862465      2.165438     -0.056009
80
Coordinates from ORCA-job R4N+FHEA-_r2 E -2666.577649143596
  N       6.992085     -1.732606     -1.628316
  C       1.809645     -5.083946     -4.095002
  C       0.390945     -4.907588     -3.532869
  C       0.213558     -5.374916     -2.080609
  C       2.844990     -4.361681     -3.261879
  C       1.866785     -4.637247     -5.567001
  C       5.800900     -2.325318     -0.865986
  C       4.796927     -3.023975     -1.730051
  C       0.609889     -6.823398     -1.888542
  C       3.916766     -5.058261     -2.698572
  C       2.762189     -2.980893     -3.042631
  C      -1.230746     -5.134906     -1.623653
  C       7.785806     -2.816545     -2.296485
  C       7.861197     -1.027564     -0.627637
  C       6.537820     -0.745047     -2.660714
  C       4.878574     -4.401948     -1.938538
  C       3.724649     -2.322208     -2.288599
  C       3.230349     -4.860057     -6.213349
  C       1.621863     -7.169372     -0.989833
  C      -0.030081     -7.847596     -2.595797
  C       1.985800     -8.500438     -0.796578
  C       0.331454     -9.177798     -2.407497
  C       1.340213     -9.510356     -1.504691
  H       2.056735     -6.155479     -4.064563
  H      -0.308855     -5.455456     -4.178238
  H       0.103991     -3.848707     -3.593232
  H       0.874759     -4.774781     -1.441858
  H       1.588660     -3.575619     -5.633057
  H       1.099517     -5.196805     -6.119581
  H       5.348337     -1.485742     -0.327147
  H       6.237741     -3.017113     -0.137792
  H       3.990208     -6.133146     -2.849003
  H       1.932452     -2.414533     -3.459315
  H      -1.372455     -5.411288     -0.573069
  H      -1.930942     -5.724356     -2.227067
  H      -1.498412     -4.078210     -1.735091
  H       8.118634     -3.528325     -1.537101
  H       8.646039     -2.357623     -2.789038
  H       7.156023     -3.314280     -3.035385
  H       8.189902     -1.752544      0.121545
  H       7.275733     -0.232754     -0.156001
  H       8.722761     -0.605872     -1.151290
  H       5.922505      0.015880     -2.175230
  H       5.964522     -1.265910     -3.428126
  H       7.426007     -0.288670     -3.102555
  H       5.694796     -4.963807     -1.489750
  H       3.629469     -1.254256     -2.106771
  H       3.210182     -4.598011     -7.276993
  H       3.537506     -5.910876     -6.131494
  H       4.005407     -4.248744     -5.734855
  H       2.142127     -6.382710     -0.448139
  H      -0.818133     -7.602455     -3.303660
  H       2.777031     -8.746354     -0.093406
  H      -0.175985     -9.959241     -2.967056
  H       1.620605    -10.549213     -1.357506
  F       2.330478     -2.314050      0.345512
  F       0.207190     -2.647645     -0.106793
  F       0.669782     -4.575802      1.376412
  F       0.030318     -3.101720      2.861342
  F       1.300459     -0.569202      2.503846
  F      -0.648794     -0.882364      1.570861
  F       1.265099     -0.278606     -0.940479
  F      -0.191928      0.975129      0.099567
  F       1.959801     -4.108682      4.045684
  F       3.045918     -2.554130      2.946649
  F       2.735636     -6.008105      2.358693
  F       4.419685     -4.773298      2.955492
  F       3.587468     -4.568369      0.957463
  O       3.992993      0.022629      1.271193
  O       4.148632      1.322371     -0.551383
  C       1.084655     -2.293380      0.867961
  C       0.687192     -0.850222      1.329275
  C       1.009918     -3.413716      1.987178
  C       0.992636      0.307645      0.274885
  C       2.327775     -3.689989      2.813051
  C       2.065988      1.312640      0.626206
  C       3.284758     -4.792935      2.241529
  C       3.524307      0.830123      0.429388
  H       1.918280      1.639614      1.659727
  H       1.873548      2.164109     -0.034095
80
Coordinates from ORCA-job R4N+FHEA-_r2 E -2666.578029548166
  N       6.972729     -1.733427     -1.611211
  C       1.803775     -5.093407     -4.115111
  C       0.384789     -4.910809     -3.555226
  C       0.210516     -5.361119     -2.096747
  C       2.837867     -4.368398     -3.283503
  C       1.864335     -4.654881     -5.589427
  C       5.772206     -2.327183     -0.865758
  C       4.779454     -3.026896     -1.742289
  C       0.605803     -6.807858     -1.888530
  C       3.909873     -5.062632     -2.717421
  C       2.751204     -2.987913     -3.064916
  C      -1.232624     -5.113924     -1.638901
  C       7.782423     -2.817779     -2.259418
  C       7.821131     -1.018472     -0.599958
  C       6.531249     -0.754310     -2.657308
  C       4.866506     -4.404442     -1.952583
  C       3.708473     -2.327151     -2.306505
  C       3.230165     -4.881510     -6.230907
  C       1.621726     -7.143887     -0.990444
  C      -0.039439     -7.840376     -2.578866
  C       1.984399     -8.473366     -0.780988
  C       0.320613     -9.168999     -2.374392
  C       1.333679     -9.491546     -1.472186
  H       2.049637     -6.164898     -4.078279
  H      -0.315224     -5.466826     -4.193701
  H       0.096886     -3.853010     -3.627576
  H       0.874192     -4.754145     -1.466376
  H       1.586776     -3.593699     -5.661872
  H       1.098272     -5.217598     -6.140702
  H       5.310957     -1.488964     -0.332011
  H       6.200221     -3.018693     -0.131927
  H       3.985933     -6.137361     -2.867626
  H       1.921361     -2.423625     -3.484212
  H      -1.372842     -5.375884     -0.584335
  H      -1.935302     -5.710500     -2.232299
  H      -1.499608     -4.058391     -1.763858
  H       8.104442     -3.524325     -1.490691
  H       8.649551     -2.358347     -2.738034
  H       7.169030     -3.322065     -3.007796
  H       8.143720     -1.736804      0.157867
  H       7.222853     -0.226147     -0.141095
  H       8.687142     -0.592735     -1.110965
  H       5.916963      0.014888     -2.183094
  H       5.960844     -1.280281     -3.424049
  H       7.424855     -0.306609     -3.097177
  H       5.681283     -4.964734     -1.499366
  H       3.608570     -1.259413     -2.121836
  H       3.212763     -4.627200     -7.296248
  H       3.538115     -5.931132     -6.140705
  H       4.003446     -4.265700     -5.754913
  H       2.145812     -6.351558     -0.460990
  H      -0.831174     -7.602957     -3.285402
  H       2.778640     -8.711469     -0.078301
  H      -0.191236     -9.957000     -2.920613
  H       1.612941    -10.529212     -1.312112
  F       2.357067     -2.284775      0.343810
  F       0.242932     -2.649384     -0.124006
  F       0.724584     -4.587503      1.338376
  F       0.050097     -3.138394      2.833681
  F       1.290202     -0.585102      2.516161
  F      -0.647964     -0.908681      1.562197
  F       1.263932     -0.261615     -0.928951
  F      -0.184068      0.984267      0.132864
  F       1.981324     -4.141227      4.020378
  F       3.053210     -2.551337      2.962116
  F       2.805264     -5.998983      2.313779
  F       4.462753     -4.745593      2.949056
  F       3.647810     -4.526160      0.945126
  O       4.026675      0.057054      1.325517
  O       4.131934      1.254363     -0.570041
  C       1.108713     -2.292853      0.859258
  C       0.689843     -0.860889      1.333485
  C       1.042382     -3.427700      1.965062
  C       0.997489      0.309482      0.293995
  C       2.355889     -3.696173      2.799947
  C       2.077751      1.304273      0.655780
  C       3.336210     -4.773039      2.221912
  C       3.532648      0.815198      0.451469
  H       1.930843      1.621172      1.692469
  H       1.892047      2.161662      0.001955
80
Coordinates from ORCA-job R4N+FHEA-_r2 E -2666.578561966220
  N       6.955026     -1.733634     -1.588517
  C       1.798836     -5.109832     -4.152418
  C       0.382012     -4.922275     -3.585941
  C       0.219465     -5.343680     -2.115184
  C       2.837297     -4.381710     -3.329603
  C       1.852363     -4.676932     -5.628858
  C       5.734476     -2.328492     -0.879381
  C       4.764906     -3.034502     -1.776905
  C       0.608452     -6.789634     -1.882605
  C       3.918603     -5.069625     -2.773606
  C       2.740189     -3.004289     -3.103189
  C      -1.219873     -5.080930     -1.650227
  C       7.800992     -2.817666     -2.185671
  C       7.754266     -0.991426     -0.557901
  C       6.542284     -0.776447     -2.666957
  C       4.868959     -4.408274     -2.003274
  C       3.688359     -2.340279     -2.337614
  C       3.215902     -4.909790     -6.275595
  C       1.631227     -7.115875     -0.988640
  C      -0.050308     -7.832142     -2.546237
  C       1.989575     -8.444711     -0.757607
  C       0.304100     -9.159976     -2.319635
  C       1.326772     -9.472323     -1.422789
  H       2.045523     -6.180627     -4.112791
  H      -0.320696     -5.494494     -4.208277
  H       0.089231     -3.867519     -3.676370
  H       0.894891     -4.725834     -1.505543
  H       1.578919     -3.614980     -5.702541
  H       1.081894     -5.239598     -6.174688
  H       5.251304     -1.490778     -0.367066
  H       6.144224     -3.012809     -0.130464
  H       4.003675     -6.142209     -2.931926
  H       1.904054     -2.445401     -3.515768
  H      -1.352871     -5.319309     -0.589311
  H      -1.930179     -5.689463     -2.221509
  H      -1.486281     -4.027849     -1.798767
  H       8.093280     -3.511902     -1.395999
  H       8.685186     -2.356547     -2.627668
  H       7.229073     -3.336437     -2.956526
  H       8.057210     -1.689477      0.224313
  H       7.129357     -0.200620     -0.136978
  H       8.633048     -0.562228     -1.040773
  H       5.928595      0.008913     -2.218282
  H       5.979134     -1.315309     -3.430926
  H       7.446558     -0.346629     -3.103064
  H       5.687077     -4.965107     -1.553568
  H       3.578291     -1.276037     -2.139323
  H       3.192859     -4.662172     -7.342700
  H       3.523522     -5.959689     -6.180118
  H       3.992375     -4.289989     -5.807009
  H       2.161871     -6.318438     -0.473443
  H      -0.849742     -7.603286     -3.247615
  H       2.789424     -8.674461     -0.057889
  H      -0.219036     -9.955409     -2.844439
  H       1.602487    -10.509310     -1.245652
  F       2.361320     -2.252339      0.330650
  F       0.252170     -2.639109     -0.121788
  F       0.780250     -4.590868      1.298890
  F       0.065951     -3.171443      2.807698
  F       1.268056     -0.598769      2.543198
  F      -0.658367     -0.924455      1.564545
  F       1.215222     -0.213518     -0.901350
  F      -0.172407      1.033819      0.229613
  F       1.998802     -4.193695      3.981314
  F       3.041668     -2.544832      3.002178
  F       2.887669     -5.969031      2.236054
  F       4.503586     -4.697745      2.938030
  F       3.716835     -4.446155      0.927577
  O       4.050768      0.048927      1.392297
  O       4.107630      1.095875     -0.590136
  C       1.119170     -2.283654      0.855404
  C       0.681565     -0.862348      1.351226
  C       1.071970     -3.434837      1.943893
  C       0.992631      0.326701      0.338209
  C       2.380332     -3.698480      2.785982
  C       2.105479      1.283597      0.704116
  C       3.391719     -4.731024      2.190633
  C       3.539055      0.749193      0.483045
  H       1.972677      1.593934      1.744545
  H       1.948346      2.151087      0.057719
80
Coordinates from ORCA-job R4N+FHEA-_r2 E -2666.579038195067
  N       6.911479     -1.744787     -1.553972
  C       1.782067     -5.128629     -4.189259
  C       0.365389     -4.928282     -3.628186
  C       0.209420     -5.311630     -2.145768
  C       2.819374     -4.398023     -3.368256
  C       1.843014     -4.705821     -5.668337
  C       5.675167     -2.342681     -0.875056
  C       4.727568     -3.048207     -1.795319
  C       0.603368     -6.749779     -1.877651
  C       3.900520     -5.082896     -2.807693
  C       2.718147     -3.021782     -3.143467
  C      -1.227442     -5.037037     -1.679082
  C       7.770778     -2.823250     -2.136462
  C       7.687299     -1.006554     -0.503666
  C       6.516845     -0.781704     -2.633887
  C       4.841068     -4.419904     -2.026676
  C       3.656967     -2.355635     -2.369355
  C       3.204174     -4.954702     -6.312656
  C       1.635424     -7.046638     -0.984623
  C      -0.052210     -7.812839     -2.511569
  C       2.007053     -8.365598     -0.724750
  C       0.316265     -9.130819     -2.258156
  C       1.349640     -9.413352     -1.362905
  H       2.024892     -6.199918     -4.139714
  H      -0.336262     -5.519626     -4.233588
  H       0.068244     -3.877488     -3.744878
  H       0.887938     -4.678990     -1.555307
  H       1.583262     -3.641678     -5.746664
  H       1.068209     -5.261716     -6.212347
  H       5.178417     -1.505319     -0.376034
  H       6.069457     -3.026718     -0.118226
  H       3.990205     -6.154865     -2.966058
  H       1.883971     -2.464145     -3.562242
  H      -1.353901     -5.250289     -0.611479
  H      -1.941658     -5.659683     -2.230427
  H      -1.496133     -3.988535     -1.853974
  H       8.044809     -3.521400     -1.344963
  H       8.664429     -2.357189     -2.553654
  H       7.218894     -3.337792     -2.924448
  H       7.977338     -1.706730      0.278668
  H       7.052031     -0.222719     -0.091115
  H       8.573689     -0.570594     -0.964968
  H       5.895149     -0.002169     -2.186069
  H       5.966682     -1.316384     -3.409874
  H       7.426629     -0.348018     -3.054399
  H       5.654998     -4.976947     -1.569283
  H       3.541338     -1.292051     -2.169537
  H       3.185248     -4.707503     -7.378924
  H       3.497136     -6.006510     -6.215941
  H       3.986236     -4.344901     -5.844322
  H       2.161952     -6.234000     -0.490792
  H      -0.858752     -7.608362     -3.212896
  H       2.815091     -8.571538     -0.027300
  H      -0.203403     -9.942206     -2.761456
  H       1.638056    -10.442138     -1.166653
  F       2.428359     -2.177283      0.335806
  F       0.349895     -2.641016     -0.171498
  F       0.898278     -4.607365      1.220245
  F       0.106929     -3.235382      2.733502
  F       1.233129     -0.627641      2.557255
  F      -0.653152     -0.980008      1.509360
  F       1.229840     -0.190314     -0.895156
  F      -0.153569      1.047492      0.268560
  F       2.026834     -4.235797      3.941244
  F       3.055124     -2.533265      3.023583
  F       3.003356     -5.960042      2.204808
  F       4.580831     -4.659900      2.946461
  F       3.829824     -4.402877      0.923757
  O       4.115758      0.122311      1.482566
  O       4.065955      0.959002     -0.606357
  C       1.179508     -2.279775      0.830906
  C       0.689183     -0.883536      1.342210
  C       1.142567     -3.456276      1.892024
  C       1.008945      0.327496      0.359030
  C       2.433039     -3.704653      2.764893
  C       2.126295      1.266992      0.755004
  C       3.483531     -4.709653      2.178735
  C       3.554067      0.722683      0.526208
  H       1.986218      1.552294      1.801681
  H       1.983923      2.146568      0.123297
80
Coordinates from ORCA-job R4N+FHEA-_r2 E -2666.579404723566
  N       6.902572     -1.760285     -1.544754
  C       1.778922     -5.133227     -4.211283
  C       0.363688     -4.935124     -3.645224
  C       0.214803     -5.306937     -2.159501
  C       2.817600     -4.402659     -3.390834
  C       1.834598     -4.707063     -5.689539
  C       5.658944     -2.353868     -0.877764
  C       4.719219     -3.057929     -1.806530
  C       0.618175     -6.739622     -1.877086
  C       3.898683     -5.089124     -2.830510
  C       2.715753     -3.026285     -3.163605
  C      -1.221740     -5.035461     -1.689101
  C       7.761353     -2.841866     -2.123906
  C       7.672203     -1.026554     -0.486450
  C       6.518406     -0.792200     -2.623835
  C       4.835711     -4.428774     -2.043197
  C       3.651418     -2.363100     -2.382278
  C       3.187245     -4.962921     -6.344084
  C       1.648835     -7.021915     -0.976578
  C      -0.029336     -7.812673     -2.502001
  C       2.026750     -8.335995     -0.701047
  C       0.345381     -9.125891     -2.232830
  C       1.376889     -9.393846     -1.330294
  H       2.021757     -6.205085     -4.164037
  H      -0.337955     -5.532275     -4.243995
  H       0.061994     -3.886165     -3.768373
  H       0.891529     -4.664354     -1.579271
  H       1.581655     -3.641756     -5.764029
  H       1.052923     -5.254482     -6.229138
  H       5.157114     -1.514320     -0.387930
  H       6.041247     -3.038841     -0.114482
  H       3.989652     -6.160858     -2.992061
  H       1.882229     -2.467769     -3.584070
  H      -1.342288     -5.237633     -0.618110
  H      -1.935035     -5.668295     -2.231257
  H      -1.497139     -3.990304     -1.874563
  H       8.023144     -3.545091     -1.331242
  H       8.662093     -2.379119     -2.532415
  H       7.212044     -3.349785     -2.918611
  H       7.946379     -1.730141      0.301579
  H       7.037120     -0.234651     -0.082844
  H       8.568716     -0.599499     -0.939555
  H       5.897611     -0.013157     -2.175665
  H       5.971382     -1.322534     -3.404032
  H       7.432529     -0.360734     -3.035952
  H       5.648367     -4.987378     -1.584036
  H       3.537218     -1.300776     -2.178746
  H       3.167216     -4.702639     -7.406807
  H       3.466743     -6.017118     -6.261095
  H       3.977586     -4.370856     -5.874023
  H       2.169222     -6.202238     -0.488571
  H      -0.834763     -7.619935     -3.208156
  H       2.832825     -8.529944      0.003200
  H      -0.168564     -9.945115     -2.728826
  H       1.669531    -10.419334     -1.121247
  F       2.432371     -2.143356      0.341407
  F       0.355973     -2.624211     -0.181127
  F       0.922297     -4.598138      1.196557
  F       0.104733     -3.248189      2.714493
  F       1.208062     -0.629499      2.580820
  F      -0.668018     -0.983597      1.510660
  F       1.172938     -0.156281     -0.874111
  F      -0.153871      1.089157      0.338184
  F       2.027069     -4.252067      3.924327
  F       3.043571     -2.520248      3.043535
  F       3.041206     -5.934619      2.178981
  F       4.601080     -4.614913      2.926638
  F       3.836035     -4.351527      0.911883
  O       4.112826      0.109976      1.519954
  O       4.068230      0.883461     -0.588778
  C       1.179970     -2.263505      0.833074
  C       0.676189     -0.876137      1.357040
  C       1.149548     -3.450092      1.880906
  C       0.996851      0.346671      0.388572
  C       2.434856     -3.695049      2.760861
  C       2.138026      1.260334      0.772649
  C       3.500313     -4.676909      2.164166
  C       3.557436      0.687322      0.550077
  H       2.002670      1.555272      1.816708
  H       2.009722      2.143026      0.135625
80
Coordinates from ORCA-job R4N+FHEA-_r2 E -2666.579565711454
  N       6.921767     -1.779603     -1.558800
  C       1.776848     -5.133888     -4.224290
  C       0.366459     -4.952150     -3.641408
  C       0.224059     -5.323197     -2.157054
  C       2.825103     -4.408338     -3.408672
  C       1.806037     -4.691371     -5.698267
  C       5.673852     -2.371424     -0.894044
  C       4.735540     -3.079165     -1.821845
  C       0.642687     -6.748778     -1.874350
  C       3.909361     -5.100042     -2.860925
  C       2.725316     -3.033024     -3.168662
  C      -1.211265     -5.061176     -1.684348
  C       7.774223     -2.863359     -2.143843
  C       7.692892     -1.055113     -0.494578
  C       6.542415     -0.801833     -2.630843
  C       4.850500     -4.448410     -2.070759
  C       3.664627     -2.379633     -2.382764
  C       3.149037     -4.930263     -6.377947
  C       1.666966     -7.020009     -0.965287
  C       0.017245     -7.827088     -2.510988
  C       2.062014     -8.327552     -0.696171
  C       0.408170     -9.134455     -2.245887
  C       1.433775     -9.391052     -1.337547
  H       2.023117     -6.205807     -4.192807
  H      -0.333890     -5.553327     -4.235707
  H       0.056464     -3.904927     -3.761304
  H       0.897829     -4.673406     -1.585313
  H       1.542581     -3.624730     -5.755060
  H       1.018283     -5.238323     -6.234008
  H       5.164696     -1.525782     -0.421600
  H       6.052443     -3.049261     -0.121941
  H       4.000087     -6.170447     -3.033145
  H       1.889430     -2.470286     -3.579007
  H      -1.325837     -5.257668     -0.613298
  H      -1.918023     -5.704278     -2.221865
  H      -1.496940     -4.021132     -1.873975
  H       8.026398     -3.576189     -1.354130
  H       8.680757     -2.403509     -2.548684
  H       7.219405     -3.359432     -2.942318
  H       7.945166     -1.766073      0.298604
  H       7.064961     -0.249228     -0.099625
  H       8.602725     -0.644963     -0.942591
  H       5.914763     -0.031953     -2.181786
  H       6.004658     -1.328399     -3.418684
  H       7.458735     -0.363066     -3.030871
  H       5.666239     -5.012507     -1.623699
  H       3.558168     -1.320375     -2.168193
  H       3.105974     -4.654159     -7.437691
  H       3.437230     -5.988271     -6.315957
  H       3.945563     -4.340214     -5.910471
  H       2.167393     -6.195646     -0.463995
  H      -0.782483     -7.644097     -3.223569
  H       2.862304     -8.511816      0.015533
  H      -0.088758     -9.958060     -2.750823
  H       1.738983    -10.412385     -1.132589
  F       2.417550     -2.145771      0.372740
  F       0.336932     -2.596812     -0.162759
  F       0.883452     -4.564209      1.227964
  F       0.066296     -3.205049      2.732397
  F       1.166635     -0.594384      2.591537
  F      -0.686607     -0.937733      1.484382
  F       1.119220     -0.105716     -0.873759
  F      -0.160985      1.146118      0.387608
  F       1.974336     -4.208480      3.969056
  F       3.013351     -2.493597      3.070521
  F       2.978531     -5.920373      2.244719
  F       4.557918     -4.602360      2.958141
  F       3.769019     -4.358515      0.946511
  O       4.076734      0.051531      1.531434
  O       4.071897      0.853178     -0.567431
  C       1.158930     -2.237794      0.854920
  C       0.657455     -0.839902      1.359596
  C       1.113600     -3.414653      1.908366
  C       0.982655      0.384614      0.400579
  C       2.391686     -3.664349      2.797866
  C       2.142696      1.268438      0.781731
  C       3.446526     -4.666674      2.208020
  C       3.549459      0.656797      0.563806
  H       2.007356      1.571278      1.823539
  H       2.039541      2.156439      0.150870
80
Coordinates from ORCA-job R4N+FHEA-_r2 E -2666.579973454709
  N       6.897835     -1.790545     -1.537628
  C       1.770847     -5.144012     -4.248461
  C       0.359738     -4.955665     -3.668632
  C       0.222030     -5.306872     -2.179847
  C       2.815671     -4.416305     -3.431405
  C       1.803938     -4.710515     -5.724472
  C       5.644717     -2.385042     -0.885055
  C       4.714062     -3.088219     -1.827483
  C       0.646424     -6.727633     -1.877698
  C       3.896867     -5.107125     -2.877553
  C       2.712818     -3.041911     -3.191291
  C      -1.212030     -5.043725     -1.704906
  C       7.751375     -2.872482     -2.127809
  C       7.666541     -1.076605     -0.463340
  C       6.525718     -0.803175     -2.605179
  C       4.832029     -4.456506     -2.079402
  C       3.646308     -2.388628     -2.398306
  C       3.146736     -4.961473     -6.400462
  C       1.671259     -6.981967     -0.963212
  C       0.023338     -7.817664     -2.497057
  C       2.067563     -8.285584     -0.670764
  C       0.415242     -9.121495     -2.208063
  C       1.439848     -9.361627     -1.293406
  H       2.014824     -6.215906     -4.209897
  H      -0.341628     -5.562977     -4.256226
  H       0.049584     -3.910009     -3.801550
  H       0.894090     -4.645859     -1.619422
  H       1.545340     -3.643689     -5.788294
  H       1.013520     -5.256375     -6.257443
  H       5.132780     -1.540108     -0.412698
  H       6.015334     -3.066174     -0.112314
  H       3.989357     -6.176892     -3.050843
  H       1.879165     -2.480613     -3.606653
  H      -1.321250     -5.222718     -0.629946
  H      -1.917974     -5.698181     -2.229338
  H      -1.503367     -4.007643     -1.909266
  H       7.998471     -3.592472     -1.342983
  H       8.660041     -2.412123     -2.524778
  H       7.199238     -3.360885     -2.932719
  H       7.914291     -1.794969      0.323476
  H       7.039739     -0.273342     -0.063206
  H       8.578444     -0.664516     -0.903951
  H       5.896412     -0.033512     -2.151740
  H       5.990796     -1.324595     -3.400652
  H       7.445980     -0.363041     -2.997375
  H       5.645101     -5.019774     -1.627810
  H       3.537280     -1.328494     -2.186217
  H       3.108586     -4.689666     -7.461219
  H       3.428685     -6.020536     -6.333967
  H       3.946165     -4.374063     -5.933490
  H       2.169534     -6.146352     -0.476245
  H      -0.776213     -7.646694     -3.213722
  H       2.867242     -8.456830      0.045546
  H      -0.080658     -9.955009     -2.699098
  H       1.744803    -10.380324     -1.069046
  F       2.452354     -2.096805      0.375032
  F       0.390636     -2.591150     -0.193923
  F       0.944244     -4.565847      1.176573
  F       0.091564     -3.239923      2.692138
  F       1.142672     -0.618743      2.605264
  F      -0.693360     -0.979120      1.471263
  F       1.110556     -0.075167     -0.853425
  F      -0.157080      1.153824      0.436450
  F       2.008309     -4.223546      3.933235
  F       3.023165     -2.489924      3.060512
  F       3.059645     -5.899301      2.213603
  F       4.606868     -4.555735      2.938275
  F       3.821209     -4.320721      0.920555
  O       4.104051      0.108705      1.593652
  O       4.053142      0.787007     -0.550579
  C       1.190050     -2.228815      0.839428
  C       0.653125     -0.851863      1.362509
  C       1.150204     -3.422411      1.875226
  C       0.980927      0.389986      0.428451
  C       2.424414     -3.662473      2.772259
  C       2.145039      1.266487      0.817968
  C       3.500992     -4.638418      2.182400
  C       3.551927      0.653153      0.599525
  H       2.008578      1.562892      1.861565
  H       2.044416      2.158409      0.189069
80
Coordinates from ORCA-job R4N+FHEA-_r2 E -2666.580115907993
  N       6.894571     -1.787866     -1.542949
  C       1.776744     -5.152608     -4.253115
  C       0.362808     -4.956293     -3.681700
  C       0.219344     -5.305080     -2.191915
  C       2.816528     -4.423592     -3.431052
  C       1.820262     -4.720855     -5.730090
  C       5.645649     -2.384633     -0.885793
  C       4.712885     -3.088231     -1.825799
  C       0.638788     -6.729154     -1.886426
  C       3.893975     -5.113571     -2.867415
  C       2.713156     -3.047697     -3.195089
  C      -1.216036     -5.034041     -1.720361
  C       7.745551     -2.864144     -2.142570
  C       7.669445     -1.080210     -0.469426
  C       6.519360     -0.797411     -2.604300
  C       4.828177     -4.459144     -2.069764
  C       3.645954     -2.390201     -2.402908
  C       3.158392     -4.993377     -6.407327
  C       1.660792     -6.983065     -0.966839
  C       0.018575     -7.820264     -2.506762
  C       2.055286     -8.287140     -0.667652
  C       0.410505     -9.124806     -2.213917
  C       1.431146     -9.364451     -1.292457
  H       2.018929     -6.224715     -4.209428
  H      -0.338521     -5.563507     -4.270974
  H       0.056755     -3.909994     -3.819424
  H       0.892917     -4.648433     -1.626187
  H       1.580843     -3.652192     -5.793299
  H       1.022254     -5.251189     -6.262485
  H       5.133813     -1.541202     -0.411490
  H       6.022335     -3.065041     -0.116673
  H       3.986416     -6.185253     -3.033809
  H       1.881726     -2.485879     -3.615871
  H      -1.326798     -5.211448     -0.644235
  H      -1.926233     -5.684758     -2.245048
  H      -1.498953     -3.994340     -1.926152
  H       8.005310     -3.582013     -1.363332
  H       8.646159     -2.399983     -2.546705
  H       7.188432     -3.353483     -2.942626
  H       7.930540     -1.800387      0.305518
  H       7.043336     -0.289187     -0.056839
  H       8.571226     -0.657574     -0.911259
  H       5.887548     -0.032832     -2.149373
  H       5.987716     -1.314422     -3.404327
  H       7.437717     -0.351825     -2.992775
  H       5.638496     -5.023701     -1.612378
  H       3.533931     -1.327629     -2.193387
  H       3.130452     -4.711320     -7.463676
  H       3.415831     -6.053327     -6.351278
  H       3.966490     -4.430630     -5.935924
  H       2.154396     -6.145806     -0.479418
  H      -0.778187     -7.650408     -3.228859
  H       2.852680     -8.457522      0.052136
  H      -0.082652     -9.959135     -2.706959
  H       1.736469    -10.382901     -1.065529
  F       2.467700     -2.073409      0.396457
  F       0.414707     -2.585176     -0.193744
  F       0.951242     -4.562826      1.184029
  F       0.099374     -3.233139      2.700227
  F       1.157564     -0.626313      2.620706
  F      -0.688092     -0.990703      1.501548
  F       1.110701     -0.067742     -0.833829
  F      -0.172322      1.148132      0.456575
  F       2.023967     -4.201393      3.942299
  F       3.051256     -2.486132      3.043823
  F       3.042462     -5.905703      2.228146
  F       4.608181     -4.573068      2.936168
  F       3.817375     -4.344120      0.922179
  O       4.096615      0.140562      1.603014
  O       4.032693      0.823102     -0.542331
  C       1.201591     -2.221530      0.849147
  C       0.658582     -0.853466      1.380228
  C       1.158718     -3.418619      1.882205
  C       0.974386      0.394469      0.449458
  C       2.436716     -3.657038      2.775345
  C       2.131872      1.281721      0.836746
  C       3.499092     -4.648752      2.187298
  C       3.541853      0.680784      0.610327
  H       1.999257      1.565350      1.883786
  H       2.021512      2.176257      0.210391
80
Coordinates from ORCA-job R4N+FHEA-_r2 E -2666.580352866276
  N       6.884361     -1.794562     -1.536428
  C       1.776225     -5.162550     -4.268171
  C       0.361428     -4.968748     -3.695552
  C       0.219180     -5.307116     -2.202837
  C       2.814849     -4.430280     -3.447902
  C       1.816698     -4.734512     -5.746027
  C       5.632149     -2.393255     -0.887868
  C       4.704709     -3.093400     -1.836149
  C       0.639736     -6.728903     -1.888280
  C       3.893491     -5.116485     -2.886105
  C       2.706930     -3.055672     -3.208129
  C      -1.214700     -5.031958     -1.730523
  C       7.740833     -2.870260     -2.131238
  C       7.651661     -1.087871     -0.456872
  C       6.516365     -0.805176     -2.600460
  C       4.824573     -4.461508     -2.085577
  C       3.636528     -2.397681     -2.413229
  C       3.158963     -5.001792     -6.420206
  C       1.661140     -6.977204     -0.967040
  C       0.021833     -7.823440     -2.504173
  C       2.056785     -8.278853     -0.662349
  C       0.415854     -9.125772     -2.206368
  C       1.435320     -9.359464     -1.283416
  H       2.021231     -6.233879     -4.222586
  H      -0.338165     -5.581546     -4.280992
  H       0.052783     -3.924170     -3.840037
  H       0.892754     -4.644676     -1.644340
  H       1.569326     -3.666486     -5.813041
  H       1.021885     -5.273187     -6.278258
  H       5.117280     -1.551757     -0.413132
  H       6.005476     -3.075381     -0.119517
  H       3.989166     -6.186606     -3.055464
  H       1.874557     -2.495906     -3.627812
  H      -1.321655     -5.194741     -0.651327
  H      -1.926104     -5.688872     -2.245317
  H      -1.497389     -3.994405     -1.946606
  H       7.997772     -3.587713     -1.350396
  H       8.643293     -2.405709     -2.530481
  H       7.189013     -3.360448     -2.934540
  H       7.905978     -1.808751      0.321376
  H       7.022629     -0.294451     -0.048801
  H       8.557864     -0.666965     -0.893096
  H       5.887272     -0.034876     -2.151447
  H       5.984653     -1.321446     -3.400674
  H       7.438119     -0.365552     -2.986420
  H       5.635584     -5.024397     -1.628907
  H       3.521554     -1.336663     -2.203165
  H       3.127183     -4.730188     -7.480767
  H       3.429121     -6.061767     -6.353990
  H       3.962889     -4.423345     -5.951875
  H       2.153097     -6.136999     -0.484646
  H      -0.773837     -7.657799     -3.227777
  H       2.853843     -8.444863      0.058195
  H      -0.074757     -9.962833     -2.696730
  H       1.741890    -10.375986     -1.052522
  F       2.475259     -2.047882      0.409671
  F       0.431207     -2.569987     -0.195373
  F       0.970202     -4.549305      1.172607
  F       0.107153     -3.238961      2.699324
  F       1.141986     -0.618441      2.635754
  F      -0.690232     -0.986541      1.496518
  F       1.091956     -0.043620     -0.816769
  F      -0.169240      1.175091      0.495338
  F       2.035702     -4.201463      3.937805
  F       3.058530     -2.475749      3.052161
  F       3.074163     -5.890299      2.212557
  F       4.627711     -4.542858      2.922436
  F       3.824140     -4.313601      0.914759
  O       4.115915      0.169055      1.643363
  O       4.020373      0.780359     -0.525333
  C       1.208319     -2.205841      0.854951
  C       0.654371     -0.843766      1.390606
  C       1.168786     -3.410328      1.881795
  C       0.970969      0.410369      0.473343
  C       2.447508     -3.647618      2.775294
  C       2.137841      1.284693      0.862475
  C       3.516657     -4.626919      2.177957
  C       3.545545      0.676021      0.638289
  H       2.008674      1.572652      1.907797
  H       2.037525      2.175142      0.235172
80
Coordinates from ORCA-job R4N+FHEA-_r2 E -2666.580551749795
  N       6.890500     -1.803024     -1.550035
  C       1.778132     -5.164987     -4.275253
  C       0.364618     -4.979653     -3.696422
  C       0.227553     -5.318475     -2.204049
  C       2.818543     -4.435647     -3.454725
  C       1.809916     -4.730057     -5.750919
  C       5.642686     -2.407842     -0.896182
  C       4.710239     -3.105598     -1.840959
  C       0.652769     -6.738909     -1.892821
  C       3.896634     -5.123740     -2.896520
  C       2.710059     -3.061433     -3.207501
  C      -1.205155     -5.048098     -1.729451
  C       7.747056     -2.877262     -2.151236
  C       7.661527     -1.097811     -0.471308
  C       6.518363     -0.812850     -2.612062
  C       4.828706     -4.472401     -2.094946
  C       3.640017     -2.407956     -2.410810
  C       3.148648     -4.996181     -6.432849
  C       1.668322     -6.989248     -0.965051
  C       0.042092     -7.832061     -2.519243
  C       2.065129     -8.291631     -0.665806
  C       0.437570     -9.135129     -2.226126
  C       1.450831     -9.370682     -1.297452
  H       2.026096     -6.235896     -4.236700
  H      -0.333324     -5.594882     -4.280148
  H       0.051966     -3.935999     -3.839401
  H       0.900941     -4.651221     -1.651440
  H       1.560756     -3.660976     -5.813230
  H       1.011886     -5.268026     -6.281347
  H       5.129623     -1.569508     -0.414854
  H       6.025095     -3.090912     -0.132893
  H       3.991401     -6.193088     -3.069924
  H       1.876985     -2.500039     -3.623076
  H      -1.308669     -5.204415     -0.649814
  H      -1.914501     -5.710444     -2.239451
  H      -1.491501     -4.012858     -1.947386
  H       8.009226     -3.596044     -1.371508
  H       8.648153     -2.411180     -2.554938
  H       7.192218     -3.367855     -2.952561
  H       7.915819     -1.820703      0.307494
  H       7.034687     -0.300980     -0.060490
  H       8.568891     -0.678909     -0.911767
  H       5.892013     -0.038889     -2.163987
  H       5.982499     -1.329427     -3.409731
  H       7.439521     -0.374795     -3.001851
  H       5.641194     -5.036223     -1.642725
  H       3.528346     -1.347801     -2.198243
  H       3.108823     -4.726848     -7.495215
  H       3.423277     -6.058159     -6.365977
  H       3.955251     -4.412945     -5.969297
  H       2.153666     -6.148802     -0.474659
  H      -0.749203     -7.664454     -3.246737
  H       2.857126     -8.460125      0.060455
  H      -0.047193     -9.971320     -2.724372
  H       1.757583    -10.388233     -1.069438
  F       2.470223     -2.035030      0.430037
  F       0.435378     -2.553204     -0.195822
  F       0.950020     -4.525780      1.183995
  F       0.087452     -3.215993      2.707566
  F       1.112961     -0.601616      2.642864
  F      -0.706346     -0.968873      1.477465
  F       1.074335     -0.001041     -0.807502
  F      -0.167876      1.211736      0.528480
  F       2.008260     -4.161349      3.964404
  F       3.038737     -2.456570      3.058941
  F       3.047870     -5.876695      2.271020
  F       4.606282     -4.521753      2.944618
  F       3.791072     -4.323779      0.935888
  O       4.112812      0.179019      1.677922
  O       4.022657      0.773042     -0.492136
  C       1.199310     -2.186166      0.860475
  C       0.639049     -0.823992      1.391496
  C       1.149925     -3.388035      1.893061
  C       0.963049      0.436613      0.490449
  C       2.424474     -3.625046      2.794217
  C       2.137924      1.296589      0.887100
  C       3.490665     -4.615635      2.208448
  C       3.545589      0.680852      0.669194
  H       2.004023      1.585652      1.933213
  H       2.048981      2.191064      0.264053
80
Coordinates from ORCA-job R4N+FHEA-_r2 E -2666.580710639937
  N       6.877916     -1.810027     -1.548359
  C       1.778694     -5.180855     -4.294664
  C       0.364420     -4.993046     -3.718148
  C       0.228173     -5.317155     -2.222046
  C       2.817957     -4.449355     -3.474800
  C       1.812407     -4.749413     -5.771330
  C       5.626225     -2.417808     -0.903342
  C       4.700002     -3.115699     -1.852692
  C       0.654373     -6.733674     -1.897262
  C       3.893462     -5.137056     -2.908985
  C       2.708873     -3.073504     -3.231835
  C      -1.203702     -5.041096     -1.748851
  C       7.739434     -2.880607     -2.147051
  C       7.641739     -1.108693     -0.462697
  C       6.512355     -0.816693     -2.609053
  C       4.820457     -4.483809     -2.103236
  C       3.632789     -2.418519     -2.429778
  C       3.150649     -5.021330     -6.452378
  C       1.670856     -6.973390     -0.968594
  C       0.045894     -7.833615     -2.512401
  C       2.072606     -8.271042     -0.659941
  C       0.445985     -9.132252     -2.209128
  C       1.462037     -9.356653     -1.281969
  H       2.027151     -6.251453     -4.252377
  H      -0.331247     -5.616753     -4.295253
  H       0.048776     -3.951933     -3.872133
  H       0.902667     -4.645294     -1.676586
  H       1.567774     -3.679202     -5.835415
  H       1.012584     -5.285679     -6.301400
  H       5.110663     -1.580091     -0.424664
  H       6.006106     -3.101161     -0.138362
  H       3.989055     -6.207730     -3.077900
  H       1.877851     -2.511926     -3.652740
  H      -1.304717     -5.184779     -0.667555
  H      -1.915092     -5.708097     -2.249852
  H      -1.488367     -4.007982     -1.977775
  H       7.998809     -3.600575     -1.368017
  H       8.642480     -2.411611     -2.543893
  H       7.190891     -3.369890     -2.952911
  H       7.896589     -1.834282      0.311562
  H       7.010404     -0.319211     -0.049287
  H       8.548363     -0.682601     -0.895674
  H       5.885855     -0.042524     -2.162675
  H       5.978887     -1.329181     -3.410415
  H       7.435500     -0.379014     -2.994309
  H       5.629660     -5.047885     -1.644279
  H       3.517205     -1.358080     -2.218699
  H       3.112628     -4.751837     -7.514120
  H       3.419912     -6.084038     -6.385643
  H       3.959394     -4.442392     -5.988669
  H       2.152492     -6.128143     -0.483709
  H      -0.747388     -7.675278     -3.238437
  H       2.865646     -8.430959      0.065932
  H      -0.036614     -9.973741     -2.698843
  H       1.773173    -10.370620     -1.046885
  F       2.481280     -1.993406      0.443946
  F       0.458606     -2.529219     -0.201846
  F       0.974083     -4.511264      1.169269
  F       0.096533     -3.217890      2.696614
  F       1.092257     -0.606840      2.664919
  F      -0.711135     -0.970618      1.474981
  F       1.051125      0.044660     -0.777028
  F      -0.165200      1.243934      0.598453
  F       2.020017     -4.150155      3.959738
  F       3.046364     -2.439782      3.057723
  F       3.067957     -5.859642      2.258667
  F       4.622046     -4.500774      2.937112
  F       3.803008     -4.296533      0.930592
  O       4.126989      0.200406      1.723616
  O       4.002677      0.728257     -0.463060
  C       1.208772     -2.165630      0.862710
  C       0.632941     -0.815456      1.406240
  C       1.163806     -3.377088      1.885894
  C       0.958951      0.458507      0.530502
  C       2.436038     -3.611171      2.790830
  C       2.143821      1.300322      0.935350
  C       3.505184     -4.596127      2.201644
  C       3.546169      0.673719      0.709586
  H       2.010514      1.579885      1.984606
  H       2.066740      2.202520      0.320974
80
Coordinates from ORCA-job R4N+FHEA-_r2 E -2666.580870074410
  N       6.873551     -1.806391     -1.561919
  C       1.789026     -5.196465     -4.303547
  C       0.372819     -5.004779     -3.733694
  C       0.230280     -5.323373     -2.235822
  C       2.825243     -4.462501     -3.482167
  C       1.830242     -4.766693     -5.780610
  C       5.627346     -2.421502     -0.912120
  C       4.699641     -3.120279     -1.857470
  C       0.648339     -6.740876     -1.904027
  C       3.901955     -5.145091     -2.913472
  C       2.712117     -3.087529     -3.240686
  C      -1.202849     -5.038317     -1.769265
  C       7.738112     -2.873247     -2.162097
  C       7.636582     -1.099718     -0.478807
  C       6.501775     -0.816097     -2.623410
  C       4.824972     -4.487042     -2.106662
  C       3.632156     -2.426833     -2.438502
  C       3.169663     -5.044196     -6.456780
  C       1.659886     -6.982447     -0.969592
  C       0.037191     -7.840122     -2.517616
  C       2.054798     -8.281122     -0.653910
  C       0.430581     -9.139603     -2.207803
  C       1.442756     -9.365956     -1.275181
  H       2.037582     -6.266788     -4.257829
  H      -0.320785     -5.632333     -4.309675
  H       0.057962     -3.964438     -3.893841
  H       0.906623     -4.654528     -1.688136
  H       1.592684     -3.695684     -5.845692
  H       1.030342     -5.299081     -6.313213
  H       5.113780     -1.588923     -0.423460
  H       6.016688     -3.107142     -0.153370
  H       4.002304     -6.214173     -3.081632
  H       1.880183     -2.529411     -3.662973
  H      -1.307093     -5.180258     -0.687814
  H      -1.918564     -5.700696     -2.270840
  H      -1.478185     -4.002798     -2.001070
  H       8.007743     -3.588411     -1.382213
  H       8.635343     -2.398822     -2.565259
  H       7.189495     -3.369639     -2.963665
  H       7.904992     -1.823991      0.292461
  H       6.999457     -0.318311     -0.058367
  H       8.535240     -0.661600     -0.916196
  H       5.878115     -0.040050     -2.177676
  H       5.964267     -1.329772     -3.422084
  H       7.421621     -0.378277     -3.015802
  H       5.635936     -5.046387     -1.647219
  H       3.508993     -1.365818     -2.232057
  H       3.137994     -4.773286     -7.516847
  H       3.431114     -6.106481     -6.390328
  H       3.979048     -4.472014     -5.990524
  H       2.143564     -6.138122     -0.485059
  H      -0.753406     -7.680602     -3.247572
  H       2.844369     -8.443076      0.075693
  H      -0.053585     -9.980462     -2.696936
  H       1.749840    -10.380464     -1.035670
  F       2.487083     -1.962018      0.461085
  F       0.474342     -2.507976     -0.204875
  F       0.975507     -4.498857      1.169825
  F       0.097284     -3.206580      2.698161
  F       1.078347     -0.615738      2.688022
  F      -0.717167     -0.968207      1.482016
  F       1.036570      0.088423     -0.743347
  F      -0.167660      1.270404      0.659473
  F       2.022184     -4.129965      3.964854
  F       3.055482     -2.428721      3.052502
  F       3.058974     -5.854415      2.262193
  F       4.621249     -4.497376      2.934797
  F       3.793330     -4.291988      0.932583
  O       4.138276      0.227335      1.768900
  O       3.988174      0.726301     -0.423436
  C       1.211844     -2.148890      0.868584
  C       0.627303     -0.807579      1.423790
  C       1.166212     -3.365914      1.887933
  C       0.955143      0.480291      0.570650
  C       2.438065     -3.600739      2.793882
  C       2.145674      1.311317      0.984294
  C       3.500349     -4.590826      2.204074
  C       3.545481      0.685753      0.754823
  H       2.013287      1.580334      2.034962
  H       2.075060      2.219025      0.376791
80
Coordinates from ORCA-job R4N+FHEA-_r2 E -2666.580958795197
  N       6.872962     -1.798832     -1.571743
  C       1.794086     -5.204862     -4.302196
  C       0.377161     -5.006278     -3.737588
  C       0.230075     -5.323701     -2.239725
  C       2.829527     -4.469555     -3.481164
  C       1.843268     -4.782405     -5.781893
  C       5.631303     -2.419636     -0.917918
  C       4.701762     -3.120005     -1.859993
  C       0.643635     -6.741700     -1.906380
  C       3.903533     -5.152129     -2.905033
  C       2.717825     -3.092660     -3.248036
  C      -1.203559     -5.035552     -1.776803
  C       7.737684     -2.861701     -2.177452
  C       7.637811     -1.091456     -0.490926
  C       6.493619     -0.807804     -2.629648
  C       4.825989     -4.489681     -2.100993
  C       3.635262     -2.428442     -2.445505
  C       3.184353     -5.067644     -6.450227
  C       1.654568     -6.985781     -0.972646
  C       0.028085     -7.839362     -2.519147
  C       2.045205     -8.285669     -0.656998
  C       0.416653     -9.139659     -2.209123
  C       1.428836     -9.368808     -1.277232
  H       2.039468     -6.275951     -4.250465
  H      -0.317341     -5.632581     -4.314073
  H       0.066347     -3.964962     -3.899494
  H       0.905950     -4.656436     -1.689402
  H       1.610659     -3.711068     -5.853422
  H       1.044706     -5.313992     -6.315494
  H       5.120459     -1.590569     -0.420607
  H       6.026370     -3.107454     -0.164131
  H       4.001706     -6.224106     -3.065166
  H       1.886980     -2.535700     -3.675375
  H      -1.310457     -5.181771     -0.696332
  H      -1.920235     -5.693806     -2.282132
  H      -1.475495     -3.998741     -2.006458
  H       8.012008     -3.577866     -1.400650
  H       8.631755     -2.383427     -2.582741
  H       7.186883     -3.357702     -2.977700
  H       7.916104     -1.817625      0.275026
  H       6.997563     -0.316675     -0.062664
  H       8.530754     -0.644689     -0.931791
  H       5.870907     -0.032885     -2.180335
  H       5.952533     -1.321065     -3.426024
  H       7.410539     -0.368147     -3.027007
  H       5.635253     -5.047662     -1.634996
  H       3.507530     -1.367190     -2.243314
  H       3.158795     -4.803001     -7.512701
  H       3.441581     -6.130273     -6.375156
  H       3.992947     -4.495402     -5.983809
  H       2.143503     -6.143763     -0.488683
  H      -0.762237     -7.677464     -3.248793
  H       2.834688     -8.450232      0.071747
  H      -0.070943     -9.979151     -2.697738
  H       1.732994    -10.383910     -1.037900
  F       2.486084     -1.949003      0.466885
  F       0.477945     -2.498451     -0.209112
  F       0.971927     -4.494676      1.163061
  F       0.096827     -3.206077      2.695157
  F       1.063554     -0.623348      2.700348
  F      -0.723058     -0.963717      1.476621
  F       1.036042      0.110880     -0.727067
  F      -0.162257      1.282802      0.688577
  F       2.021147     -4.125454      3.960596
  F       3.056198     -2.428672      3.045879
  F       3.055859     -5.853462      2.258288
  F       4.618574     -4.498538      2.929882
  F       3.790373     -4.291850      0.928354
  O       4.147369      0.234264      1.790061
  O       3.985913      0.728169     -0.400488
  C       1.209968     -2.143103      0.869351
  C       0.621610     -0.805193      1.430742
  C       1.164967     -3.363830      1.883833
  C       0.956482      0.489051      0.590228
  C       2.437178     -3.600397      2.789054
  C       2.148140      1.312512      1.014619
  C       3.497577     -4.591473      2.199927
  C       3.546934      0.689409      0.779614
  H       2.011905      1.571143      2.067937
  H       2.081062      2.228979      0.416313
80
Coordinates from ORCA-job R4N+FHEA-_r2 E -2666.581032290549
  N       6.874577     -1.787943     -1.582329
  C       1.800543     -5.211957     -4.298977
  C       0.383094     -5.009129     -3.738902
  C       0.230911     -5.324626     -2.241435
  C       2.835569     -4.474291     -3.479059
  C       1.855014     -4.795895     -5.780096
  C       5.637847     -2.414642     -0.924661
  C       4.706943     -3.117675     -1.863603
  C       0.638911     -6.743305     -1.905703
  C       3.912025     -5.153048     -2.904340
  C       2.722248     -3.098430     -3.249383
  C      -1.203164     -5.033207     -1.782621
  C       7.740245     -2.847003     -2.193366
  C       7.640064     -1.078919     -0.503615
  C       6.484131     -0.795917     -2.635633
  C       4.834154     -4.486905     -2.103248
  C       3.639065     -2.429941     -2.449122
  C       3.200438     -5.079833     -6.440182
  C       1.647957     -6.990861     -0.971244
  C       0.016277     -7.839008     -2.515479
  C       2.030155     -8.292729     -0.651485
  C       0.395688     -9.140757     -2.201163
  C       1.406147     -9.373823     -1.267838
  H       2.043495     -6.283279     -4.242842
  H      -0.311473     -5.634704     -4.315919
  H       0.074459     -3.967581     -3.901971
  H       0.905598     -4.658832     -1.688391
  H       1.620382     -3.725087     -5.856608
  H       1.060399     -5.331840     -6.315591
  H       5.129063     -1.588195     -0.420410
  H       6.037648     -3.103954     -0.174865
  H       4.012261     -6.224064     -3.064004
  H       1.890091     -2.544735     -3.677606
  H      -1.314448     -5.187602     -0.703946
  H      -1.919670     -5.686088     -2.294571
  H      -1.472661     -3.995011     -2.007837
  H       8.016148     -3.566153     -1.419172
  H       8.632849     -2.365622     -2.598727
  H       7.188193     -3.341431     -2.994107
  H       7.928398     -1.806888      0.257356
  H       6.995902     -0.311060     -0.068067
  H       8.527019     -0.623037     -0.947522
  H       5.859552     -0.025887     -2.179330
  H       5.940619     -1.309952     -3.429790
  H       7.396273     -0.350612     -3.038066
  H       5.646364     -5.040520     -1.638283
  H       3.506422     -1.369204     -2.250945
  H       3.179697     -4.818448     -7.503072
  H       3.458930     -6.141835     -6.359943
  H       4.005813     -4.504656     -5.971273
  H       2.144353     -6.152209     -0.488888
  H      -0.773031     -7.673995     -3.245634
  H       2.818036     -8.460430      0.078819
  H      -0.098227     -9.978454     -2.686690
  H       1.703145    -10.390362     -1.024321
  F       2.484652     -1.942274      0.464571
  F       0.477909     -2.489735     -0.216717
  F       0.965178     -4.493184      1.149557
  F       0.091430     -3.207928      2.682800
  F       1.050077     -0.634388      2.707976
  F      -0.729053     -0.961587      1.465764
  F       1.036927      0.130457     -0.716411
  F      -0.152566      1.295704      0.711614
  F       2.010277     -4.130166      3.951147
  F       3.047678     -2.433781      3.042041
  F       3.048723     -5.856632      2.250914
  F       4.611700     -4.504964      2.927854
  F       3.790958     -4.294156      0.923367
  O       4.158073      0.227629      1.806840
  O       3.988436      0.723008     -0.380646
  C       1.208266     -2.140388      0.865214
  C       0.617322     -0.805131      1.432329
  C       1.160783     -3.364705      1.873221
  C       0.961132      0.495874      0.603522
  C       2.430587     -3.605073      2.780533
  C       2.155806      1.308162      1.039957
  C       3.492475     -4.596274      2.194436
  C       3.551754      0.683628      0.801011
  H       2.015873      1.556616      2.095116
  H       2.095399      2.232237      0.452201
80
Coordinates from ORCA-job R4N+FHEA-_r2 E -2666.581080472964
  N       6.878664     -1.774501     -1.591974
  C       1.806709     -5.214777     -4.290467
  C       0.388101     -5.009180     -3.734870
  C       0.230385     -5.326346     -2.238602
  C       2.840405     -4.473840     -3.471580
  C       1.865699     -4.806192     -5.773548
  C       5.646273     -2.403838     -0.928273
  C       4.713084     -3.110123     -1.863671
  C       0.632674     -6.747123     -1.904522
  C       3.917835     -5.150196     -2.895404
  C       2.725941     -3.097500     -3.246847
  C      -1.203716     -5.031935     -1.782481
  C       7.744063     -2.831591     -2.206365
  C       7.647262     -1.062361     -0.518096
  C       6.479458     -0.784697     -2.643670
  C       4.840988     -4.480460     -2.098809
  C       3.643332     -2.425583     -2.449779
  C       3.214613     -5.089974     -6.426626
  C       1.641201     -7.000220     -0.971741
  C       0.003684     -7.839325     -2.514475
  C       2.016301     -8.304457     -0.652950
  C       0.375602     -9.143188     -2.201010
  C       1.385126     -9.381994     -1.268447
  H       2.048189     -6.286236     -4.229007
  H      -0.306412     -5.632254     -4.314694
  H       0.082250     -3.966695     -3.897042
  H       0.904574     -4.663265     -1.681441
  H       1.628116     -3.736287     -5.856561
  H       1.074757     -5.347315     -6.309343
  H       5.138354     -1.578612     -0.419705
  H       6.049420     -3.093476     -0.180277
  H       4.018341     -6.221968     -3.051445
  H       1.893125     -2.545901     -3.676757
  H      -1.318651     -5.195378     -0.705517
  H      -1.920450     -5.678767     -2.301918
  H      -1.470144     -3.991528     -2.000969
  H       8.021716     -3.551520     -1.434178
  H       8.635190     -2.349223     -2.613850
  H       7.189334     -3.325603     -3.005439
  H       7.942983     -1.790010      0.240363
  H       7.002182     -0.297469     -0.078265
  H       8.530271     -0.602365     -0.967249
  H       5.853681     -0.017686     -2.184131
  H       5.933846     -1.301118     -3.434256
  H       7.388228     -0.336768     -3.050799
  H       5.654968     -5.031515     -1.633323
  H       3.507693     -1.364811     -2.254788
  H       3.196820     -4.835483     -7.491805
  H       3.476700     -6.151173     -6.337865
  H       4.016308     -4.508208     -5.957898
  H       2.144207     -6.165550     -0.489583
  H      -0.784833     -7.669651     -3.244213
  H       2.803973     -8.476301      0.076410
  H      -0.123802     -9.977826     -2.686286
  H       1.676033    -10.400186     -1.024975
  F       2.482505     -1.950678      0.463231
  F       0.471610     -2.486509     -0.218030
  F       0.951812     -4.494661      1.141745
  F       0.081691     -3.209907      2.677268
  F       1.046745     -0.642154      2.710189
  F      -0.729481     -0.955955      1.461251
  F       1.046008      0.135403     -0.711698
  F      -0.144963      1.298141      0.716727
  F       1.997078     -4.142315      3.944480
  F       3.039282     -2.446127      3.042427
  F       3.032627     -5.865127      2.238741
  F       4.597368     -4.520370      2.926739
  F       3.783633     -4.300713      0.920600
  O       4.171828      0.222747      1.806673
  O       3.991601      0.729346     -0.376492
  C       1.204808     -2.142923      0.864258
  C       0.617817     -0.806432      1.432678
  C       1.151421     -3.368764      1.868288
  C       0.967801      0.496515      0.608542
  C       2.420073     -3.615038      2.775988
  C       2.162814      1.304210      1.052104
  C       3.480740     -4.606330      2.189304
  C       3.558411      0.681922      0.806515
  H       2.022718      1.543354      2.108981
  H       2.103640      2.233293      0.473011
80
Coordinates from ORCA-job R4N+FHEA-_r2 E -2666.581133797004
  N       6.876391     -1.763445     -1.598546
  C       1.812494     -5.222027     -4.287619
  C       0.392678     -5.011749     -3.737247
  C       0.231835     -5.323936     -2.241045
  C       2.843934     -4.477412     -3.469449
  C       1.876376     -4.822960     -5.772863
  C       5.648038     -2.397079     -0.931781
  C       4.715363     -3.107017     -1.865939
  C       0.628979     -6.745908     -1.903868
  C       3.922944     -5.150372     -2.892657
  C       2.726323     -3.101455     -3.247127
  C      -1.201041     -5.024391     -1.785212
  C       7.743598     -2.816545     -2.217606
  C       7.646330     -1.049406     -0.526520
  C       6.467696     -0.773827     -2.647080
  C       4.845896     -4.477450     -2.098909
  C       3.643404     -2.426376     -2.452316
  C       3.227253     -5.111345     -6.419974
  C       1.637633     -7.000830     -0.971909
  C      -0.005468     -7.837116     -2.510606
  C       2.006246     -8.306227     -0.648954
  C       0.360004     -9.142090     -2.193323
  C       1.368484     -9.382846     -1.260055
  H       2.051762     -6.293565     -4.218785
  H      -0.301909     -5.634461     -4.317335
  H       0.089171     -3.969016     -3.902998
  H       0.906809     -4.660584     -1.684646
  H       1.638257     -3.753699     -5.863538
  H       1.086964     -5.367678     -6.307419
  H       5.138384     -1.572751     -0.423325
  H       6.053391     -3.085595     -0.184332
  H       4.025370     -6.222170     -3.046901
  H       1.892707     -2.552441     -3.678091
  H      -1.317089     -5.193640     -0.709125
  H      -1.919282     -5.666747     -2.308686
  H      -1.464717     -3.982185     -1.999143
  H       8.022012     -3.538974     -1.448167
  H       8.633446     -2.331679     -2.624047
  H       7.188325     -3.308805     -3.017768
  H       7.947931     -1.777429      0.229865
  H       6.999889     -0.287106     -0.083051
  H       8.525890     -0.585393     -0.979002
  H       5.836856     -0.014049     -2.181842
  H       5.923547     -1.292871     -3.437143
  H       7.372406     -0.318683     -3.055327
  H       5.662341     -5.025571     -1.634287
  H       3.505247     -1.365248     -2.260371
  H       3.212654     -4.863106     -7.487269
  H       3.489435     -6.172648     -6.323809
  H       4.027603     -4.526044     -5.951569
  H       2.145754     -6.167258     -0.493217
  H      -0.793147     -7.665824     -3.241172
  H       2.794096     -8.478776      0.080321
  H      -0.144181     -9.975743     -2.675925
  H       1.653594    -10.401888     -1.012849
  F       2.486457     -1.941206      0.465373
  F       0.478533     -2.474628     -0.228016
  F       0.952663     -4.490214      1.118806
  F       0.074541     -3.218251      2.659204
  F       1.032035     -0.650182      2.717350
  F      -0.732667     -0.953634      1.448415
  F       1.048761      0.152856     -0.700521
  F      -0.132574      1.311675      0.739998
  F       1.986185     -4.155431      3.930132
  F       3.031685     -2.453902      3.041656
  F       3.024518     -5.868886      2.221840
  F       4.589384     -4.529299      2.921470
  F       3.783630     -4.302190      0.912415
  O       4.190632      0.221402      1.821797
  O       3.986420      0.707659     -0.364086
  C       1.207270     -2.137491      0.860691
  C       0.615166     -0.805392      1.434287
  C       1.148446     -3.369969      1.854479
  C       0.974208      0.502575      0.623419
  C       2.413536     -3.621120      2.766135
  C       2.173932      1.296487      1.077640
  C       3.476033     -4.610956      2.179311
  C       3.565747      0.669938      0.823977
  H       2.035929      1.522318      2.137291
  H       2.120863      2.232656      0.511004
80
Coordinates from ORCA-job R4N+FHEA-_r2 E -2666.581192206575
  N       6.878919     -1.750061     -1.608548
  C       1.820273     -5.227430     -4.279829
  C       0.398226     -5.017516     -3.734205
  C       0.232108     -5.329330     -2.238838
  C       2.848524     -4.477112     -3.463079
  C       1.886929     -4.835831     -5.766304
  C       5.653529     -2.383668     -0.937085
  C       4.720461     -3.097624     -1.867762
  C       0.624001     -6.753185     -1.901924
  C       3.931235     -5.144595     -2.887888
  C       2.726904     -3.100999     -3.243333
  C      -1.200613     -5.025696     -1.785286
  C       7.746769     -2.801955     -2.229488
  C       7.651771     -1.034476     -0.539713
  C       6.465359     -0.761889     -2.657099
  C       4.854369     -4.467582     -2.098278
  C       3.645210     -2.421613     -2.453611
  C       3.240802     -5.122204     -6.408859
  C       1.634718     -7.012155     -0.973751
  C      -0.016788     -7.841754     -2.505465
  C       1.998175     -8.318664     -0.651323
  C       0.343707     -9.148009     -2.188516
  C       1.353508     -9.392506     -1.258935
  H       2.060756     -6.298066     -4.204846
  H      -0.294190     -5.639931     -4.317071
  H       0.094885     -3.975026     -3.901864
  H       0.907111     -4.668273     -1.679869
  H       1.643489     -3.768307     -5.863394
  H       1.100502     -5.387207     -6.299481
  H       5.142941     -1.557556     -0.432686
  H       6.059962     -3.069175     -0.187946
  H       4.037089     -6.215832     -3.040606
  H       1.891558     -2.555192     -3.673953
  H      -1.321122     -5.202618     -0.710935
  H      -1.919733     -5.661208     -2.315932
  H      -1.459138     -3.980666     -1.991900
  H       8.025802     -3.524722     -1.460700
  H       8.636036     -2.316885     -2.636207
  H       7.190857     -3.293990     -3.029244
  H       7.959855     -1.761420      0.213890
  H       7.005391     -0.275770     -0.092918
  H       8.526735     -0.567338     -0.995439
  H       5.830177     -0.007032     -2.189936
  H       5.923969     -1.283363     -3.446973
  H       7.368162     -0.302262     -3.064607
  H       5.674028     -5.012009     -1.635540
  H       3.505373     -1.359581     -2.265915
  H       3.228033     -4.878275     -7.476772
  H       3.507317     -6.182036     -6.308364
  H       4.037967     -4.531792     -5.940775
  H       2.148066     -6.180843     -0.497622
  H      -0.805534     -7.667736     -3.233205
  H       2.787866     -8.493211      0.074697
  H      -0.165666     -9.979326     -2.668618
  H       1.633783    -10.412396     -1.011623
  F       2.482672     -1.946048      0.466912
  F       0.469994     -2.459034     -0.230082
  F       0.935667     -4.484555      1.104043
  F       0.056490     -3.218084      2.648825
  F       1.035630     -0.653449      2.724233
  F      -0.730326     -0.942018      1.453852
  F       1.053853      0.167356     -0.689362
  F      -0.119030      1.324862      0.758859
  F       1.962201     -4.170277      3.920818
  F       3.018293     -2.467594      3.042046
  F       2.990744     -5.877616      2.200453
  F       4.561214     -4.557598      2.922123
  F       3.773336     -4.306905      0.909159
  O       4.211851      0.212146      1.814254
  O       3.985204      0.709505     -0.366620
  C       1.201819     -2.132405      0.860705
  C       0.618292     -0.800195      1.440279
  C       1.132618     -3.369670      1.846896
  C       0.983033      0.510096      0.636982
  C       2.394075     -3.630505      2.760230
  C       2.188325      1.293713      1.095263
  C       3.453194     -4.623455      2.171156
  C       3.577235      0.664720      0.825420
  H       2.058072      1.504939      2.158776
  H       2.135357      2.238351      0.542763
80
Coordinates from ORCA-job R4N+FHEA-_r2 E -2666.581245297702
  N       6.877547     -1.741603     -1.615976
  C       1.826013     -5.232836     -4.276358
  C       0.402136     -5.023239     -3.735038
  C       0.234764     -5.332932     -2.239664
  C       2.851203     -4.478590     -3.459648
  C       1.895558     -4.846187     -5.763941
  C       5.653936     -2.373702     -0.940329
  C       4.721245     -3.092266     -1.867329
  C       0.623235     -6.757620     -1.902092
  C       3.934850     -5.143414     -2.881655
  C       2.726899     -3.101288     -3.242462
  C      -1.197339     -5.025636     -1.785913
  C       7.744447     -2.793657     -2.238433
  C       7.654029     -1.025196     -0.549890
  C       6.461954     -0.753470     -2.664347
  C       4.856832     -4.463262     -2.093166
  C       3.644426     -2.419002     -2.454635
  C       3.249261     -5.136364     -6.404773
  C       1.635883     -7.018952     -0.975640
  C      -0.021818     -7.844734     -2.503248
  C       1.995723     -8.326292     -0.651672
  C       0.335794     -9.151990     -2.185317
  C       1.346577     -9.398818     -1.256852
  H       2.068129     -6.302728     -4.196380
  H      -0.287855     -5.647677     -4.318509
  H       0.097746     -3.981580     -3.906380
  H       0.912057     -4.672826     -1.682314
  H       1.653009     -3.779105     -5.865326
  H       1.108838     -5.398499     -6.295624
  H       5.141733     -1.544829     -0.442827
  H       6.062097     -3.054662     -0.187621
  H       4.042715     -6.215404     -3.030978
  H       1.890870     -2.556918     -3.674648
  H      -1.319193     -5.206479     -0.712346
  H      -1.919059     -5.655764     -2.319423
  H      -1.450480     -3.978396     -1.987720
  H       8.025729     -3.515610     -1.469614
  H       8.632825     -2.308145     -2.646993
  H       7.187725     -3.286542     -3.036928
  H       7.962627     -1.751048      0.205153
  H       7.009893     -0.263580     -0.103312
  H       8.529049     -0.560850     -1.009439
  H       5.822157     -0.003103     -2.196609
  H       5.924685     -1.276358     -3.455951
  H       7.363527     -0.289092     -3.068778
  H       5.676892     -5.006377     -1.628502
  H       3.505565     -1.355623     -2.270724
  H       3.238371     -4.893846     -7.472738
  H       3.513492     -6.195991     -6.303279
  H       4.046969     -4.547570     -5.937160
  H       2.151735     -6.187386     -0.502264
  H      -0.811890     -7.669187     -3.229661
  H       2.786515     -8.502170      0.073442
  H      -0.176871     -9.982273     -2.663711
  H       1.623674    -10.419629     -1.008561
  F       2.481563     -1.938702      0.470155
  F       0.469335     -2.441535     -0.235236
  F       0.929392     -4.476035      1.086012
  F       0.043739     -3.218287      2.635265
  F       1.033700     -0.657119      2.731609
  F      -0.730676     -0.934101      1.457549
  F       1.051736      0.188120     -0.675207
  F      -0.108939      1.340566      0.787802
  F       1.943648     -4.180694      3.911209
  F       3.008558     -2.475819      3.043417
  F       2.964841     -5.882047      2.182299
  F       4.540583     -4.577642      2.921310
  F       3.765383     -4.307696      0.905896
  O       4.230696      0.206843      1.812623
  O       3.979017      0.703454     -0.366324
  C       1.199301     -2.123158      0.858851
  C       0.618219     -0.794126      1.446463
  C       1.123508     -3.366585      1.837362
  C       0.988055      0.520085      0.654376
  C       2.380534     -3.635003      2.754667
  C       2.200630      1.291064      1.114968
  C       3.436562     -4.630400      2.163863
  C       3.586047      0.658765      0.830147
  H       2.078403      1.489579      2.182100
  H       2.149965      2.242153      0.575435
80
Coordinates from ORCA-job R4N+FHEA-_r2 E -2666.581285104466
  N       6.875640     -1.736701     -1.621661
  C       1.830328     -5.238683     -4.274645
  C       0.405119     -5.028920     -3.736639
  C       0.236476     -5.337100     -2.240782
  C       2.853385     -4.481474     -3.458313
  C       1.903052     -4.856278     -5.763486
  C       5.652651     -2.366948     -0.943480
  C       4.720812     -3.089401     -1.867571
  C       0.623020     -6.761736     -1.901809
  C       3.938335     -5.143385     -2.879348
  C       2.726515     -3.103892     -3.242273
  C      -1.195768     -5.027127     -1.788444
  C       7.741212     -2.789792     -2.244935
  C       7.654840     -1.020059     -0.556948
  C       6.459841     -0.748043     -2.670450
  C       4.858807     -4.460367     -2.091082
  C       3.642723     -2.418622     -2.455694
  C       3.256681     -5.151001     -6.401735
  C       1.639151     -7.023310     -0.978928
  C      -0.026055     -7.848588     -2.498716
  C       1.998891     -8.330379     -0.655293
  C       0.331623     -9.155780     -2.180806
  C       1.346333     -9.402730     -1.256950
  H       2.073930     -6.307967     -4.190702
  H      -0.283060     -5.655317     -4.320319
  H       0.100257     -3.987893     -3.911364
  H       0.915762     -4.677690     -1.684903
  H       1.662906     -3.789408     -5.868749
  H       1.116160     -5.408329     -6.294360
  H       5.139712     -1.534920     -0.452289
  H       6.062237     -3.043257     -0.187167
  H       4.048938     -6.215038     -3.027787
  H       1.889198     -2.561689     -3.674738
  H      -1.320172     -5.209795     -0.715391
  H      -1.919742     -5.652568     -2.324376
  H      -1.443313     -3.978007     -1.987697
  H       8.025908     -3.510185     -1.475298
  H       8.628147     -2.303645     -2.656224
  H       7.183688     -3.284703     -3.041688
  H       7.964144     -1.745092      0.198494
  H       7.012538     -0.257445     -0.109942
  H       8.529136     -0.557110     -1.018273
  H       5.816672      0.000647     -2.203675
  H       5.926096     -1.272089     -3.464470
  H       7.361035     -0.280209     -3.071908
  H       5.679443     -5.001300     -1.625529
  H       3.505035     -1.354337     -2.275650
  H       3.247963     -4.911714     -7.470552
  H       3.518560     -6.210527     -6.297221
  H       4.054929     -4.563099     -5.935380
  H       2.156908     -6.190780     -0.508938
  H      -0.819278     -7.672939     -3.221496
  H       2.792301     -8.506613      0.066517
  H      -0.183658     -9.986190     -2.656135
  H       1.623493    -10.423506     -1.009415
  F       2.477541     -1.927764      0.473656
  F       0.465661     -2.420919     -0.239166
  F       0.921312     -4.465929      1.069525
  F       0.032607     -3.217675      2.625129
  F       1.031390     -0.658727      2.742538
  F      -0.732435     -0.922705      1.465299
  F       1.047028      0.211791     -0.658374
  F      -0.098821      1.358448      0.820494
  F       1.927896     -4.187748      3.901730
  F       3.000639     -2.482250      3.042515
  F       2.944270     -5.884099      2.161776
  F       4.522080     -4.594178      2.919414
  F       3.758844     -4.302663      0.902017
  O       4.245668      0.201189      1.810997
  O       3.974034      0.701240     -0.364752
  C       1.194158     -2.111805      0.858204
  C       0.616407     -0.785750      1.456121
  C       1.114311     -3.362006      1.829400
  C       0.991838      0.532116      0.674419
  C       2.368622     -3.637912      2.748484
  C       2.212143      1.291021      1.135755
  C       3.422060     -4.634426      2.155431
  C       3.593153      0.656194      0.835199
  H       2.098338      1.479024      2.205953
  H       2.162007      2.249946      0.607361
80
Coordinates from ORCA-job R4N+FHEA-_r2 E -2666.581313067774
  N       6.874293     -1.731825     -1.627303
  C       1.834255     -5.243938     -4.273203
  C       0.408226     -5.034877     -3.737513
  C       0.238647     -5.341637     -2.241160
  C       2.855974     -4.484271     -3.457258
  C       1.909082     -4.863849     -5.762603
  C       5.651548     -2.359980     -0.946558
  C       4.720688     -3.086658     -1.868010
  C       0.623154     -6.766278     -1.901083
  C       3.941244     -5.144260     -2.875895
  C       2.727877     -3.106109     -3.244325
  C      -1.193456     -5.028883     -1.790370
  C       7.738421     -2.786201     -2.250220
  C       7.655309     -1.014238     -0.564460
  C       6.458505     -0.743614     -2.676708
  C       4.860213     -4.458333     -2.087979
  C       3.642160     -2.417947     -2.458046
  C       3.264651     -5.157038     -6.397399
  C       1.642220     -7.028696     -0.981191
  C      -0.031136     -7.852528     -2.493582
  C       2.000158     -8.336133     -0.656544
  C       0.324797     -9.160051     -2.174621
  C       1.342805     -9.408019     -1.254125
  H       2.079512     -6.312638     -4.187316
  H      -0.278152     -5.663630     -4.320728
  H       0.102242     -3.994703     -3.914521
  H       0.919647     -4.683243     -1.686503
  H       1.668030     -3.797322     -5.869912
  H       1.124184     -5.418022     -6.294381
  H       5.138285     -1.525536     -0.459597
  H       6.062551     -3.031984     -0.187065
  H       4.053100     -6.216602     -3.021584
  H       1.889934     -2.565668     -3.678567
  H      -1.320314     -5.212959     -0.717965
  H      -1.919342     -5.649839     -2.328385
  H      -1.435730     -3.978321     -1.987990
  H       8.026966     -3.504179     -1.479563
  H       8.623608     -2.299787     -2.665450
  H       7.179466     -3.283673     -3.044140
  H       7.963909     -1.738312      0.192642
  H       7.014242     -0.249456     -0.118472
  H       8.530174     -0.553646     -1.027405
  H       5.813426      0.005032     -2.212196
  H       5.927199     -1.268338     -3.472002
  H       7.359508     -0.273905     -3.076445
  H       5.680283     -4.997820     -1.619353
  H       3.505438     -1.353218     -2.281524
  H       3.257403     -4.920279     -7.466346
  H       3.528161     -6.215659     -6.290334
  H       4.061251     -4.566953     -5.931353
  H       2.163341     -6.196115     -0.514711
  H      -0.827268     -7.675914     -3.213292
  H       2.795490     -8.513943      0.063016
  H      -0.194336     -9.990308     -2.646244
  H       1.618794    -10.429188     -1.006040
  F       2.473472     -1.918707      0.474685
  F       0.461794     -2.403032     -0.243534
  F       0.913758     -4.457911      1.052846
  F       0.022640     -3.217993      2.613687
  F       1.028830     -0.662432      2.751616
  F      -0.734705     -0.912039      1.470878
  F       1.042844      0.233499     -0.643748
  F      -0.089460      1.374251      0.849548
  F       1.912353     -4.195899      3.891307
  F       2.991971     -2.489549      3.041785
  F       2.929476     -5.886505      2.140819
  F       4.505976     -4.608543      2.917787
  F       3.756135     -4.295511      0.898668
  O       4.259102      0.193814      1.808068
  O       3.970501      0.700888     -0.363856
  C       1.189212     -2.102827      0.856422
  C       0.614364     -0.779109      1.463865
  C       1.106431     -3.358964      1.820327
  C       0.995434      0.542672      0.691430
  C       2.357653     -3.642260      2.741457
  C       2.222551      1.289847      1.154028
  C       3.410418     -4.638144      2.146999
  C       3.599348      0.653899      0.838992
  H       2.115354      1.469207      2.226520
  H       2.174146      2.254221      0.635793
80
Coordinates from ORCA-job R4N+FHEA-_r2 E -2666.581332521957
  N       6.873762     -1.729929     -1.630617
  C       1.835712     -5.246289     -4.271493
  C       0.409139     -5.037560     -3.737465
  C       0.239106     -5.343300     -2.240656
  C       2.856712     -4.485697     -3.455066
  C       1.913030     -4.867143     -5.761291
  C       5.650832     -2.355860     -0.947600
  C       4.720164     -3.085438     -1.867086
  C       0.623282     -6.767650     -1.899935
  C       3.941947     -5.144560     -2.872789
  C       2.728196     -3.107707     -3.243956
  C      -1.192414     -5.029044     -1.789927
  C       7.735465     -2.785923     -2.253733
  C       7.656779     -1.012094     -0.569509
  C       6.457397     -0.742367     -2.680098
  C       4.860277     -4.457163     -2.085344
  C       3.641527     -2.417980     -2.457855
  C       3.270185     -5.160516     -6.392542
  C       1.645101     -7.029230     -0.983258
  C      -0.034184     -7.854311     -2.488646
  C       2.003782     -8.336328     -0.658557
  C       0.322176     -9.161477     -2.169388
  C       1.343762     -9.408679     -1.252594
  H       2.081491     -6.314945     -4.185132
  H      -0.276370     -5.667800     -4.320168
  H       0.102719     -3.997664     -3.915163
  H       0.921176     -4.684964     -1.687306
  H       1.672753     -3.800458     -5.869561
  H       1.129777     -5.421605     -6.294762
  H       5.137872     -1.519732     -0.462670
  H       6.062662     -3.024946     -0.186094
  H       4.054535     -6.216615     -3.018031
  H       1.890066     -2.568506     -3.679258
  H      -1.319743     -5.214877     -0.717874
  H      -1.919582     -5.647075     -2.329382
  H      -1.431979     -3.977665     -1.985990
  H       8.027193     -3.502153     -1.482401
  H       8.619228     -2.300451     -2.673625
  H       7.173643     -3.285243     -3.044549
  H       7.963994     -1.735600      0.188818
  H       7.017477     -0.245176     -0.124424
  H       8.532640     -0.554144     -1.033511
  H       5.811183      0.006584     -2.217504
  H       5.927312     -1.267626     -3.475952
  H       7.358022     -0.271459     -3.079566
  H       5.680491     -4.995377     -1.616080
  H       3.506559     -1.352964     -2.283426
  H       3.264821     -4.926500     -7.462438
  H       3.534113     -6.218927     -6.281943
  H       4.065432     -4.568651     -5.926187
  H       2.168141     -6.196443     -0.519485
  H      -0.833033     -7.677996     -3.205407
  H       2.801345     -8.514408      0.058365
  H      -0.199254     -9.992297     -2.637655
  H       1.620662    -10.429544     -1.004484
  F       2.471284     -1.912156      0.474835
  F       0.461235     -2.392500     -0.248726
  F       0.909538     -4.453964      1.038978
  F       0.016179     -3.220593      2.603470
  F       1.023374     -0.667007      2.756007
  F      -0.737569     -0.906164      1.469500
  F       1.040312      0.247250     -0.635813
  F      -0.084078      1.382898      0.867353
  F       1.901926     -4.202185      3.882573
  F       2.985490     -2.495404      3.040897
  F       2.922203     -5.888780      2.125732
  F       4.496753     -4.617045      2.915322
  F       3.753859     -4.291075      0.895742
  O       4.266347      0.187475      1.804644
  O       3.969051      0.704187     -0.363559
  C       1.186456     -2.098389      0.853842
  C       0.611766     -0.776530      1.466706
  C       1.101739     -3.358598      1.812049
  C       0.997301      0.548325      0.700880
  C       2.350662     -3.646430      2.735321
  C       2.228207      1.288398      1.165182
  C       3.403777     -4.640806      2.140571
  C       3.602814      0.653365      0.840454
  H       2.124066      1.461743      2.239042
  H       2.180462      2.256836      0.653759
80
Coordinates from ORCA-job R4N+FHEA-_r2 E -2666.581347378726
  N       6.873342     -1.728076     -1.633501
  C       1.837129     -5.248297     -4.270790
  C       0.410713     -5.040129     -3.736502
  C       0.240216     -5.345145     -2.239333
  C       2.858063     -4.487457     -3.454255
  C       1.914353     -4.868295     -5.760395
  C       5.650867     -2.353853     -0.948955
  C       4.720809     -3.085883     -1.867357
  C       0.623508     -6.769956     -1.898355
  C       3.942953     -5.146184     -2.870934
  C       2.729345     -3.109580     -3.244773
  C      -1.190714     -5.028630     -1.789037
  C       7.735700     -2.784646     -2.254297
  C       7.655452     -1.006661     -0.574110
  C       6.455515     -0.744028     -2.685241
  C       4.861053     -4.458080     -2.084099
  C       3.642190     -2.419126     -2.458695
  C       3.273299     -5.157380     -6.390143
  C       1.647938     -7.031499     -0.984680
  C      -0.036964     -7.856655     -2.484295
  C       2.006727     -8.338810     -0.660175
  C       0.319209     -9.163959     -2.165146
  C       1.343765     -9.411198     -1.251380
  H       2.083156     -6.317007     -4.185449
  H      -0.274869     -5.671004     -4.318525
  H       0.104087     -4.000253     -3.913902
  H       0.923254     -4.687598     -1.686118
  H       1.671438     -3.801870     -5.867951
  H       1.133286     -5.424795     -6.295246
  H       5.137672     -1.517587     -0.464386
  H       6.063531     -3.020753     -0.186163
  H       4.055244     -6.218602     -3.015112
  H       1.891499     -2.570964     -3.681401
  H      -1.319182     -5.214888     -0.717226
  H      -1.918635     -5.644845     -2.329593
  H      -1.428276     -3.976708     -1.984934
  H       8.030823     -3.497317     -1.481050
  H       8.617304     -2.299481     -2.678463
  H       7.172695     -3.287789     -3.041903
  H       7.962590     -1.727733      0.186370
  H       7.015605     -0.238965     -0.131605
  H       8.531163     -0.549550     -1.038677
  H       5.809180      0.006671     -2.225494
  H       5.925718     -1.271666     -3.479918
  H       7.355459     -0.273323     -3.086567
  H       5.681192     -4.995761     -1.613833
  H       3.508383     -1.354235     -2.284589
  H       3.267482     -4.925662     -7.460570
  H       3.541436     -6.214785     -6.276866
  H       4.066017     -4.561037     -5.924321
  H       2.173617     -6.199112     -0.523147
  H      -0.837837     -7.679955     -3.198885
  H       2.806528     -8.517682      0.054160
  H      -0.204553     -9.994917     -2.630934
  H       1.621048    -10.432097     -1.003308
  F       2.470564     -1.909936      0.475120
  F       0.461224     -2.384473     -0.253097
  F       0.905246     -4.450896      1.029028
  F       0.008148     -3.221299      2.594246
  F       1.017381     -0.669728      2.758971
  F      -0.739814     -0.899690      1.464815
  F       1.040049      0.258302     -0.630249
  F      -0.077174      1.391471      0.879612
  F       1.888842     -4.207477      3.876824
  F       2.976429     -2.499805      3.043240
  F       2.918616     -5.889981      2.115100
  F       4.487264     -4.621211      2.919291
  F       3.755197     -4.284110      0.897758
  O       4.271699      0.179339      1.802727
  O       3.969220      0.702199     -0.363801
  C       1.184564     -2.095286      0.852086
  C       0.610145     -0.773841      1.467638
  C       1.096461     -3.357985      1.805871
  C       1.000611      0.553263      0.707490
  C       2.342033     -3.649857      2.732386
  C       2.235175      1.286355      1.173782
  C       3.398371     -4.641543      2.138802
  C       3.606404      0.650132      0.841478
  H       2.134284      1.455133      2.248305
  H       2.188771      2.257104      0.667137
80
Coordinates from ORCA-job R4N+FHEA-_r2 E -2666.581360360416
  N       6.873196     -1.728666     -1.634665
  C       1.836953     -5.248193     -4.269347
  C       0.410241     -5.041029     -3.735579
  C       0.239872     -5.345268     -2.238306
  C       2.857232     -4.487254     -3.451848
  C       1.914857     -4.866858     -5.758482
  C       5.650654     -2.352969     -0.948262
  C       4.719963     -3.085606     -1.865632
  C       0.623755     -6.769932     -1.897405
  C       3.941250     -5.145872     -2.867454
  C       2.728929     -3.109434     -3.243875
  C      -1.190129     -5.028267     -1.786586
  C       7.733971     -2.786552     -2.254849
  C       7.656573     -1.006479     -0.577209
  C       6.454948     -0.746551     -2.687248
  C       4.859430     -4.457758     -2.081108
  C       3.642011     -2.419048     -2.458004
  C       3.275430     -5.153102     -6.386468
  C       1.650313     -7.030552     -0.986244
  C      -0.037994     -7.857166     -2.480890
  C       2.010450     -8.337535     -0.661857
  C       0.319170     -9.164169     -2.161699
  C       1.346192     -9.410428     -1.250469
  H       2.083132     -6.316979     -4.185051
  H      -0.274997     -5.672560     -4.317225
  H       0.103003     -4.001253     -3.912514
  H       0.922846     -4.687332     -1.685648
  H       1.670363     -3.800522     -5.865099
  H       1.135503     -5.424336     -6.295109
  H       5.138196     -1.516458     -0.463104
  H       6.063523     -3.019298     -0.185331
  H       4.052775     -6.218247     -3.010907
  H       1.891995     -2.570926     -3.681780
  H      -1.317116     -5.215761     -0.714810
  H      -1.918375     -5.643901     -2.327307
  H      -1.428058     -3.976334     -1.981253
  H       8.030828     -3.497443     -1.480876
  H       8.614683     -2.303233     -2.682960
  H       7.168262     -3.291054     -3.039597
  H       7.961962     -1.726489      0.184972
  H       7.018260     -0.236294     -0.136666
  H       8.533566     -0.552315     -1.042877
  H       5.808435      0.004726     -2.229354
  H       5.925321     -1.274909     -3.481119
  H       7.354726     -0.276362     -3.089683
  H       5.679557     -4.995196     -1.610753
  H       3.509922     -1.353861     -2.284392
  H       3.270611     -4.921400     -7.456830
  H       3.545416     -6.210031     -6.272410
  H       4.066197     -4.555003     -5.919057
  H       2.177306     -6.198199     -0.526658
  H      -0.840607     -7.681098     -3.193591
  H       2.812328     -8.515914      0.050278
  H      -0.205717     -9.995522     -2.625326
  H       1.624606    -10.430972     -1.002139
  F       2.472620     -1.907277      0.475729
  F       0.466517     -2.381848     -0.259488
  F       0.906763     -4.450849      1.019387
  F       0.004224     -3.225161      2.584084
  F       1.011785     -0.673506      2.757493
  F      -0.741025     -0.900251      1.456380
  F       1.039563      0.263579     -0.629675
  F      -0.075251      1.393207      0.885093
  F       1.881751     -4.210431      3.871621
  F       2.970757     -2.501959      3.043305
  F       2.917515     -5.890786      2.110009
  F       4.483228     -4.623084      2.921274
  F       3.756930     -4.282359      0.898667
  O       4.273806      0.174946      1.798859
  O       3.968901      0.707486     -0.364966
  C       1.185805     -2.094989      0.848771
  C       0.609205     -0.775036      1.464596
  C       1.095157     -3.359540      1.798861
  C       1.001435      0.554221      0.708897
  C       2.337797     -3.652193      2.729188
  C       2.236646      1.285082      1.177174
  C       3.396555     -4.642198      2.137694
  C       3.607784      0.650511      0.840240
  H       2.136403      1.449190      2.252430
  H       2.189648      2.257792      0.674546
80
Coordinates from ORCA-job R4N+FHEA-_r2 E -2666.581376348312
  N       6.873831     -1.728613     -1.636900
  C       1.836699     -5.247219     -4.267506
  C       0.410072     -5.040835     -3.732991
  C       0.239996     -5.345529     -2.235800
  C       2.856850     -4.486842     -3.449486
  C       1.913768     -4.863891     -5.756230
  C       5.652612     -2.353570     -0.948440
  C       4.720804     -3.086253     -1.864496
  C       0.624334     -6.770481     -1.895848
  C       3.940222     -5.146029     -2.864832
  C       2.728918     -3.108938     -3.241869
  C      -1.189529     -5.028439     -1.782874
  C       7.735688     -2.787108     -2.254627
  C       7.656660     -1.002497     -0.581864
  C       6.453476     -0.750590     -2.692102
  C       4.859178     -4.458576     -2.079180
  C       3.643107     -2.419374     -2.456676
  C       3.274523     -5.147848     -6.384926
  C       1.653424     -7.031042     -0.987587
  C      -0.038223     -7.857800     -2.478214
  C       2.015286     -8.338042     -0.664916
  C       0.320459     -9.164851     -2.160701
  C       1.350049     -9.410929     -1.252335
  H       2.082750     -6.316206     -4.184601
  H      -0.275588     -5.671977     -4.314623
  H       0.102717     -4.000810     -3.908803
  H       0.922987     -4.687743     -1.682810
  H       1.667634     -3.797821     -5.861434
  H       1.134983     -5.421593     -6.293312
  H       5.140563     -1.517967     -0.461487
  H       6.066728     -3.020061     -0.186416
  H       4.050596     -6.218412     -3.008053
  H       1.892704     -2.570036     -3.680268
  H      -1.315617     -5.217405     -0.711212
  H      -1.917781     -5.643983     -2.324001
  H      -1.428512     -3.976441     -1.976103
  H       8.034663     -3.494658     -1.478418
  H       8.614992     -2.304647     -2.686196
  H       7.169142     -3.295146     -3.036642
  H       7.961963     -1.719425      0.182964
  H       7.018313     -0.230851     -0.144616
  H       8.533540     -0.549899     -1.048851
  H       5.806835      0.001495     -2.235839
  H       5.923406     -1.281831     -3.483710
  H       7.352319     -0.281161     -3.097451
  H       5.679572     -4.996207     -1.609459
  H       3.512765     -1.354059     -2.281941
  H       3.269206     -4.916057     -7.455442
  H       3.546412     -6.204277     -6.270573
  H       4.064010     -4.548238     -5.917283
  H       2.181909     -6.198946     -0.529325
  H      -0.842512     -7.681838     -3.189016
  H       2.819672     -8.516132      0.044504
  H      -0.205171     -9.996137     -2.623580
  H       1.629890    -10.431358     -1.005191
  F       2.474839     -1.907913      0.477080
  F       0.471992     -2.380590     -0.266702
  F       0.907173     -4.450971      1.011851
  F      -0.004192     -3.226954      2.572908
  F       1.002721     -0.675634      2.754352
  F      -0.742799     -0.899577      1.442471
  F       1.041735      0.269022     -0.630951
  F      -0.070262      1.396556      0.888209
  F       1.867577     -4.212787      3.869322
  F       2.959047     -2.502458      3.048819
  F       2.915337     -5.890189      2.110669
  F       4.475023     -4.620855      2.931980
  F       3.758652     -4.279305      0.906049
  O       4.275142      0.164890      1.796373
  O       3.971394      0.707543     -0.365852
  C       1.186548     -2.095048      0.845157
  C       0.607956     -0.775434      1.458972
  C       1.091036     -3.360456      1.793026
  C       1.004352      0.555265      0.708685
  C       2.328841     -3.653346      2.729914
  C       2.241037      1.282059      1.179911
  C       3.392497     -4.640831      2.142694
  C       3.610774      0.646214      0.839305
  H       2.141480      1.440502      2.256122
  H       2.195041      2.256800      0.681732
80
Coordinates from ORCA-job R4N+FHEA-_r2 E -2666.581394207798
  N       6.873539     -1.728242     -1.638824
  C       1.836359     -5.246584     -4.265360
  C       0.409780     -5.040867     -3.730226
  C       0.240487     -5.346053     -2.233275
  C       2.856113     -4.486178     -3.447335
  C       1.912217     -4.862369     -5.753783
  C       5.653940     -2.354012     -0.948168
  C       4.720680     -3.086180     -1.862887
  C       0.625143     -6.771162     -1.894514
  C       3.938371     -5.145727     -2.861282
  C       2.728715     -3.107833     -3.240804
  C      -1.188699     -5.029372     -1.778867
  C       7.737220     -2.787514     -2.252777
  C       7.655395     -0.996997     -0.586788
  C       6.451912     -0.755135     -2.697911
  C       4.857759     -4.458753     -2.075854
  C       3.643761     -2.418948     -2.456334
  C       3.273353     -5.143057     -6.383071
  C       1.657820     -7.032518     -0.990387
  C      -0.039641     -7.857993     -2.474741
  C       2.020597     -8.339786     -0.669628
  C       0.319886     -9.165366     -2.159102
  C       1.352746     -9.412146     -1.254733
  H       2.082523     -6.315501     -4.182791
  H      -0.276126     -5.671583     -4.311998
  H       0.102174     -4.000774     -3.905504
  H       0.923230     -4.688272     -1.680041
  H       1.663169     -3.797038     -5.858646
  H       1.134227     -5.421580     -6.290598
  H       5.142492     -1.519428     -0.459045
  H       6.069523     -3.021312     -0.187676
  H       4.047317     -6.218379     -3.003214
  H       1.893464     -2.568546     -3.680324
  H      -1.313507     -5.219673     -0.707234
  H      -1.917042     -5.645023     -2.319870
  H      -1.429076     -3.977389     -1.970460
  H       8.037964     -3.490899     -1.473794
  H       8.615225     -2.305545     -2.687142
  H       7.170766     -3.299792     -3.032045
  H       7.959981     -1.709886      0.181954
  H       7.016891     -0.222903     -0.154379
  H       8.532658     -0.546945     -1.055480
  H       5.804679     -0.002196     -2.244188
  H       5.921934     -1.290037     -3.486967
  H       7.350293     -0.287100     -3.105661
  H       5.677690     -4.996668     -1.605538
  H       3.514801     -1.353290     -2.281448
  H       3.267579     -4.911024     -7.453335
  H       3.547894     -6.198604     -6.268771
  H       4.061207     -4.541573     -5.915213
  H       2.189389     -6.200859     -0.534892
  H      -0.846405     -7.681604     -3.182581
  H       2.828174     -8.517833      0.036236
  H      -0.207688     -9.996062     -2.620593
  H       1.633181    -10.432754     -1.008930
  F       2.480314     -1.906399      0.480194
  F       0.482694     -2.377441     -0.277665
  F       0.912197     -4.450725      0.999146
  F      -0.013118     -3.231264      2.555580
  F       0.992344     -0.679117      2.750732
  F      -0.743201     -0.901036      1.425413
  F       1.042966      0.277863     -0.630882
  F      -0.064653      1.400300      0.895794
  F       1.850795     -4.215598      3.864584
  F       2.944805     -2.502099      3.054235
  F       2.913514     -5.888669      2.110944
  F       4.465037     -4.618990      2.947799
  F       3.766229     -4.275224      0.916147
  O       4.279576      0.155356      1.791868
  O       3.972035      0.708633     -0.367736
  C       1.189751     -2.094073      0.839487
  C       0.607508     -0.776305      1.452325
  C       1.088073     -3.361770      1.783588
  C       1.007834      0.556980      0.710420
  C       2.319196     -3.654062      2.729469
  C       2.246448      1.278894      1.184830
  C       3.389581     -4.638888      2.148999
  C       3.614588      0.642247      0.837884
  H       2.149610      1.428192      2.262300
  H       2.200076      2.257439      0.693875
80
Coordinates from ORCA-job R4N+FHEA-_r2 E -2666.581407775250
  N       6.874571     -1.727212     -1.642173
  C       1.836190     -5.246088     -4.263615
  C       0.409673     -5.041166     -3.727596
  C       0.241138     -5.347945     -2.230909
  C       2.856099     -4.485569     -3.446080
  C       1.910632     -4.861745     -5.752112
  C       5.657033     -2.354179     -0.949345
  C       4.721833     -3.085588     -1.862590
  C       0.626542     -6.772959     -1.893347
  C       3.938252     -5.145193     -2.860037
  C       2.728986     -3.106894     -3.239365
  C      -1.188582     -5.032897     -1.776007
  C       7.740125     -2.786816     -2.253506
  C       7.655739     -0.991866     -0.592511
  C       6.451330     -0.757290     -2.703945
  C       4.858190     -4.458307     -2.074862
  C       3.644822     -2.418104     -2.455814
  C       3.271263     -5.140938     -6.382804
  C       1.661907     -7.035054     -0.992277
  C      -0.040029     -7.859341     -2.471991
  C       2.025139     -8.342523     -0.672991
  C       0.320117     -9.166914     -2.157861
  C       1.355334     -9.414427     -1.256476
  H       2.082930     -6.314837     -4.181034
  H      -0.276156     -5.671528     -4.309875
  H       0.101657     -4.001111     -3.902408
  H       0.923365     -4.690127     -1.677180
  H       1.659992     -3.796992     -5.857177
  H       1.132559     -5.421729     -6.287816
  H       5.146351     -1.520646     -0.457561
  H       6.074756     -3.022891     -0.191036
  H       4.046675     -6.217949     -3.001607
  H       1.893567     -2.567562     -3.678559
  H      -1.313170     -5.224747     -0.704560
  H      -1.916815     -5.648417     -2.317325
  H      -1.429860     -3.980757     -1.965993
  H       8.042469     -3.487134     -1.472246
  H       8.617104     -2.304196     -2.689408
  H       7.174563     -3.302666     -3.031035
  H       7.960239     -1.701543      0.179198
  H       7.016846     -0.216252     -0.163626
  H       8.533029     -0.543497     -1.062551
  H       5.803390     -0.004136     -2.251400
  H       5.921413     -1.295162     -3.491043
  H       7.349189     -0.289771     -3.113254
  H       5.677954     -4.996367     -1.604452
  H       3.516394     -1.352280     -2.280857
  H       3.264666     -4.908301     -7.452850
  H       3.546950     -6.196020     -6.269360
  H       4.058798     -4.539126     -5.915467
  H       2.195836     -6.203584     -0.539058
  H      -0.848816     -7.682563     -3.177393
  H       2.834810     -8.520532      0.030449
  H      -0.208953     -9.997112     -2.618381
  H       1.636031    -10.435225     -1.011939
  F       2.482867     -1.904018      0.483416
  F       0.490003     -2.372874     -0.287590
  F       0.914674     -4.448831      0.988309
  F      -0.024166     -3.233046      2.539963
  F       0.979812     -0.681078      2.748272
  F      -0.745713     -0.899442      1.409216
  F       1.044078      0.289565     -0.629781
  F      -0.057157      1.407289      0.905923
  F       1.831554     -4.217803      3.861054
  F       2.929173     -2.500754      3.062370
  F       2.909743     -5.885402      2.112095
  F       4.452799     -4.614696      2.964038
  F       3.769334     -4.269353      0.927101
  O       4.283622      0.142221      1.790375
  O       3.974878      0.707235     -0.366543
  C       1.190298     -2.091400      0.834355
  C       0.604892     -0.774856      1.446710
  C       1.082918     -3.361092      1.776006
  C       1.011496      0.560441      0.713547
  C       2.307633     -3.653176      2.730625
  C       2.253186      1.274386      1.191882
  C       3.383899     -4.635103      2.156235
  C       3.619076      0.635344      0.839342
  H       2.157628      1.414616      2.271132
  H       2.209643      2.256983      0.709477
80
Coordinates from ORCA-job R4N+FHEA-_r2 E -2666.581417663791
  N       6.874221     -1.726212     -1.643363
  C       1.835884     -5.246286     -4.263419
  C       0.409576     -5.041407     -3.726796
  C       0.242023     -5.349270     -2.230305
  C       2.856078     -4.485400     -3.446663
  C       1.909525     -4.863414     -5.752313
  C       5.657558     -2.353699     -0.949986
  C       4.721597     -3.084826     -1.862869
  C       0.627921     -6.774115     -1.893599
  C       3.938252     -5.144807     -2.860381
  C       2.729097     -3.106604     -3.239895
  C      -1.188152     -5.035734     -1.775153
  C       7.741832     -2.785990     -2.251523
  C       7.653632     -0.987284     -0.594783
  C       6.451229     -0.758779     -2.707882
  C       4.857953     -4.457599     -2.074822
  C       3.644569     -2.417372     -2.456439
  C       3.269665     -5.142614     -6.383609
  C       1.664869     -7.037148     -0.994514
  C      -0.040798     -7.859859     -2.470876
  C       2.026907     -8.344902     -0.675335
  C       0.318518     -9.167667     -2.157090
  C       1.354769     -9.416238     -1.257203
  H       2.083068     -6.314801     -4.179903
  H      -0.276159     -5.671651     -4.309314
  H       0.101417     -4.001435     -3.901624
  H       0.923913     -4.691199     -1.676568
  H       1.658424     -3.799069     -5.858747
  H       1.131294     -5.424223     -6.286619
  H       5.147150     -1.520720     -0.456933
  H       6.076198     -3.023327     -0.192907
  H       4.046964     -6.217601     -3.001736
  H       1.893295     -2.567449     -3.678960
  H      -1.312662     -5.227619     -0.703687
  H      -1.916373     -5.651442     -2.316078
  H      -1.429835     -3.983675     -1.965031
  H       8.044333     -3.484105     -1.468448
  H       8.618527     -2.302297     -2.686993
  H       7.178236     -3.304581     -3.028587
  H       7.957224     -1.694415      0.179689
  H       7.013714     -0.210575     -0.169314
  H       8.531547     -0.540144     -1.064874
  H       5.802541     -0.004928     -2.257543
  H       5.922103     -1.299143     -3.493921
  H       7.349377     -0.291941     -3.117078
  H       5.677217     -4.995656     -1.603668
  H       3.515391     -1.351508     -2.282496
  H       3.262208     -4.910965     -7.453938
  H       3.545998     -6.197469     -6.269556
  H       4.057376     -4.540030     -5.917759
  H       2.201258     -6.205922     -0.543598
  H      -0.850798     -7.682369     -3.174764
  H       2.837407     -8.523399      0.027021
  H      -0.212281     -9.997327     -2.616598
  H       1.634402    -10.437356     -1.012917
  F       2.486130     -1.900094      0.487128
  F       0.496708     -2.367266     -0.293931
  F       0.919521     -4.446829      0.979029
  F      -0.029414     -3.235974      2.528368
  F       0.973454     -0.683359      2.748784
  F      -0.745740     -0.898627      1.401747
  F       1.042572      0.299369     -0.626126
  F      -0.053234      1.411867      0.917192
  F       1.820284     -4.219690      3.857588
  F       2.920133     -2.500034      3.067115
  F       2.908659     -5.883336      2.111617
  F       4.445274     -4.613793      2.976815
  F       3.776475     -4.264801      0.935395
  O       4.289604      0.137515      1.787303
  O       3.973947      0.706851     -0.367357
  C       1.192219     -2.088525      0.831398
  C       0.604201     -0.773753      1.445447
  C       1.081658     -3.360558      1.770233
  C       1.013611      0.563671      0.718468
  C       2.302021     -3.652434      2.730505
  C       2.257991      1.272409      1.197870
  C       3.382305     -4.633039      2.161126
  C       3.621987      0.632649      0.839517
  H       2.165637      1.406319      2.277920
  H       2.215028      2.258408      0.721627
80
Coordinates from ORCA-job R4N+FHEA-_r2 E -2666.581423835813
  N       6.874671     -1.726195     -1.643784
  C       1.835371     -5.246235     -4.264233
  C       0.409244     -5.041996     -3.726991
  C       0.242184     -5.350993     -2.230626
  C       2.856022     -4.485188     -3.447872
  C       1.908182     -4.863835     -5.753204
  C       5.658131     -2.353624     -0.950521
  C       4.721597     -3.084190     -1.863697
  C       0.629044     -6.775580     -1.894136
  C       3.938797     -5.144370     -2.862337
  C       2.729052     -3.106519     -3.240329
  C      -1.188647     -5.039061     -1.775821
  C       7.742831     -2.785813     -2.251447
  C       7.653608     -0.986902     -0.594968
  C       6.452119     -0.758556     -2.708614
  C       4.858264     -4.456868     -2.076472
  C       3.644096     -2.416747     -2.456625
  C       3.267988     -5.142830     -6.385313
  C       1.666007     -7.038313     -0.995083
  C      -0.040241     -7.861481     -2.470600
  C       2.027156     -8.345953     -0.674685
  C       0.318444     -9.169125     -2.155719
  C       1.354366     -9.417511     -1.255474
  H       2.083226     -6.314570     -4.180744
  H      -0.276145     -5.672392     -4.309772
  H       0.100633     -4.002156     -3.901472
  H       0.923487     -4.692631     -1.676618
  H       1.657039     -3.799480     -5.859906
  H       1.129736     -5.425077     -6.286872
  H       5.148279     -1.520891     -0.456326
  H       6.077012     -3.024304     -0.194402
  H       4.048355     -6.217088     -3.004241
  H       1.892548     -2.567554     -3.678573
  H      -1.313639     -5.230614     -0.704319
  H      -1.916541     -5.655112     -2.316693
  H      -1.430471     -3.987067     -1.966238
  H       8.045031     -3.484010     -1.468228
  H       8.619652     -2.301272     -2.685944
  H       7.180223     -3.304701     -3.028936
  H       7.956262     -1.693801      0.180195
  H       7.013430     -0.209816     -0.170354
  H       8.532210     -0.540392     -1.064495
  H       5.802897     -0.004716     -2.258941
  H       5.923819     -1.299287     -3.495008
  H       7.350649     -0.291354     -3.116567
  H       5.677524     -4.994939     -1.605401
  H       3.513625     -1.350965     -2.283587
  H       3.259609     -4.910698     -7.455417
  H       3.544321     -6.197789     -6.272319
  H       4.056367     -4.540607     -5.920168
  H       2.203009     -6.206718     -0.545533
  H      -0.850320     -7.684149     -3.174391
  H       2.837217     -8.524364      0.028085
  H      -0.212775     -9.998983     -2.614422
  H       1.633139    -10.438630     -1.010256
  F       2.487694     -1.897040      0.489715
  F       0.500195     -2.364149     -0.296886
  F       0.922451     -4.445084      0.975171
  F      -0.031855     -3.236605      2.523238
  F       0.969118     -0.683659      2.749274
  F      -0.746814     -0.897321      1.397698
  F       1.041892      0.305122     -0.624644
  F      -0.051183      1.415109      0.922573
  F       1.815005     -4.219986      3.856352
  F       2.916708     -2.499051      3.070496
  F       2.909130     -5.881436      2.111766
  F       4.441980     -4.611782      2.983315
  F       3.779194     -4.261527      0.939926
  O       4.292333      0.135162      1.786177
  O       3.973887      0.707617     -0.366918
  C       1.193030     -2.086360      0.830277
  C       0.602772     -0.772304      1.444909
  C       1.081338     -3.359226      1.768210
  C       1.014231      0.566016      0.720744
  C       2.299795     -3.651008      2.731081
  C       2.259985      1.271212      1.201347
  C       3.381614     -4.630967      2.164026
  C       3.623064      0.631367      0.840218
  H       2.168306      1.402308      2.282019
  H       2.218673      2.258983      0.728839
80
Coordinates from ORCA-job R4N+FHEA-_r2 E -2666.581427553999
  N       6.874535     -1.726843     -1.643093
  C       1.834700     -5.245809     -4.265374
  C       0.408743     -5.041974     -3.727659
  C       0.242128     -5.351426     -2.231307
  C       2.855620     -4.484982     -3.448924
  C       1.907239     -4.863169     -5.754318
  C       5.657421     -2.353683     -0.950472
  C       4.720982     -3.084104     -1.864142
  C       0.629966     -6.775832     -1.894877
  C       3.938973     -5.144112     -2.864298
  C       2.728390     -3.106666     -3.240378
  C      -1.188901     -5.040585     -1.776430
  C       7.742960     -2.786457     -2.250104
  C       7.652822     -0.987494     -0.593753
  C       6.452713     -0.759256     -2.708234
  C       4.858178     -4.456581     -2.078167
  C       3.642993     -2.416725     -2.456147
  C       3.266501     -5.143315     -6.387137
  C       1.666480     -7.037824     -0.995259
  C      -0.038873     -7.862157     -2.471331
  C       2.027314     -8.345217     -0.673660
  C       0.319676     -9.169518     -2.155456
  C       1.354847     -9.417224     -1.254148
  H       2.082813     -6.314171     -4.182345
  H      -0.276566     -5.672549     -4.310339
  H       0.099852     -4.002145     -3.901652
  H       0.923116     -4.692741     -1.677276
  H       1.657306     -3.798472     -5.860680
  H       1.128265     -5.423650     -6.287867
  H       5.147807     -1.520822     -0.456228
  H       6.075669     -3.024629     -0.194268
  H       4.049393     -6.216644     -3.007094
  H       1.891429     -2.567727     -3.677875
  H      -1.313948     -5.231543     -0.704855
  H      -1.916372     -5.657283     -2.317085
  H      -1.431152     -3.988837     -1.967616
  H       8.044386     -3.484936     -1.466854
  H       8.620197     -2.301869     -2.683767
  H       7.181015     -3.305285     -3.028119
  H       7.954359     -1.694343      0.181854
  H       7.012501     -0.210171     -0.169842
  H       8.532139     -0.541448     -1.062406
  H       5.803099     -0.005220     -2.259515
  H       5.925266     -1.300151     -3.495087
  H       7.351561     -0.291719     -3.115141
  H       5.677793     -4.994679     -1.607752
  H       3.511537     -1.351084     -2.283498
  H       3.257423     -4.911173     -7.457421
  H       3.541991     -6.198685     -6.274456
  H       4.055798     -4.541700     -5.922624
  H       2.203224     -6.205758     -0.546284
  H      -0.848480     -7.685262     -3.175799
  H       2.836763     -8.523398      0.029837
  H      -0.211124     -9.999818     -2.613973
  H       1.633291    -10.438171     -1.007977
  F       2.488666     -1.895525      0.491389
  F       0.501736     -2.362986     -0.296787
  F       0.924535     -4.444552      0.974429
  F      -0.031869     -3.237194      2.522088
  F       0.969175     -0.683715      2.750096
  F      -0.746587     -0.896811      1.398213
  F       1.041183      0.306007     -0.623910
  F      -0.051206      1.415570      0.923887
  F       1.813914     -4.220411      3.856676
  F       2.916403     -2.499073      3.072590
  F       2.910156     -5.881027      2.112638
  F       4.441421     -4.611504      2.986711
  F       3.781342     -4.260481      0.942509
  O       4.294492      0.136628      1.783688
  O       3.973003      0.708920     -0.368724
  C       1.193901     -2.085694      0.830872
  C       0.602888     -0.771917      1.445703
  C       1.082142     -3.358762      1.768243
  C       1.014200      0.566673      0.721411
  C       2.299876     -3.650609      2.731998
  C       2.260512      1.271318      1.201358
  C       3.382083     -4.630502      2.165997
  C       3.623363      0.632136      0.838789
  H       2.169739      1.402594      2.282030
  H       2.219410      2.259335      0.729290
80
Coordinates from ORCA-job R4N+FHEA-_r2 E -2666.581430700037
  N       6.874369     -1.728317     -1.642038
  C       1.833785     -5.245163     -4.266655
  C       0.408007     -5.042221     -3.728288
  C       0.241912     -5.351892     -2.231917
  C       2.854855     -4.484814     -3.449787
  C       1.905705     -4.860906     -5.755168
  C       5.656533     -2.354506     -0.950082
  C       4.720120     -3.084537     -1.864245
  C       0.631005     -6.776080     -1.895349
  C       3.938781     -5.144070     -2.866220
  C       2.727267     -3.106850     -3.240038
  C      -1.189198     -5.042084     -1.776759
  C       7.742740     -2.787937     -2.248856
  C       7.652372     -0.989384     -0.592123
  C       6.453076     -0.760621     -2.707170
  C       4.857785     -4.456813     -2.079776
  C       3.641587     -2.417118     -2.455115
  C       3.264540     -5.141402     -6.389077
  C       1.667264     -7.036724     -0.995205
  C      -0.036883     -7.863225     -2.471524
  C       2.028603     -8.343678     -0.672388
  C       0.322175     -9.170160     -2.154479
  C       1.356893     -9.416512     -1.252316
  H       2.082187     -6.313589     -4.184986
  H      -0.277264     -5.673071     -4.310705
  H       0.098564     -4.002435     -3.901603
  H       0.922560     -4.692853     -1.677852
  H       1.656708     -3.795722     -5.859980
  H       1.126161     -5.420323     -6.289207
  H       5.147486     -1.521402     -0.455785
  H       6.073956     -3.025659     -0.193686
  H       4.049934     -6.216391     -3.010084
  H       1.890045     -2.567717     -3.676793
  H      -1.314113     -5.232600     -0.705098
  H      -1.916092     -5.659646     -2.317271
  H      -1.432267     -3.990608     -1.968542
  H       8.043541     -3.486871     -1.465758
  H       8.620305     -2.303699     -2.682089
  H       7.180972     -3.306392     -3.027276
  H       7.952632     -1.696411      0.183776
  H       7.012321     -0.211581     -0.168748
  H       8.532425     -0.544036     -1.060015
  H       5.802779     -0.006767     -2.259172
  H       5.926726     -1.301453     -3.494796
  H       7.352052     -0.292295     -3.113017
  H       5.677981     -4.995039     -1.610428
  H       3.509315     -1.351607     -2.282543
  H       3.254794     -4.907864     -7.459027
  H       3.539125     -6.197259     -6.278088
  H       4.054748     -4.541050     -5.924247
  H       2.203327     -6.203811     -0.547000
  H      -0.846108     -7.687245     -3.176593
  H       2.837785     -8.521199      0.031546
  H      -0.207803    -10.001237     -2.612591
  H       1.635569    -10.437137     -1.005007
  F       2.490429     -1.894366      0.493113
  F       0.504422     -2.362878     -0.297259
  F       0.926868     -4.444110      0.974021
  F      -0.031904     -3.237320      2.520718
  F       0.968188     -0.683142      2.749754
  F      -0.746576     -0.896617      1.396338
  F       1.041491      0.306024     -0.624560
  F      -0.051121      1.415808      0.922890
  F       1.812741     -4.220140      3.857202
  F       2.916213     -2.498744      3.074516
  F       2.911114     -5.880718      2.114140
  F       4.441083     -4.610839      2.989902
  F       3.782903     -4.259933      0.945119
  O       4.296204      0.138062      1.780683
  O       3.972308      0.711113     -0.370920
  C       1.195290     -2.085293      0.831195
  C       0.602930     -0.771639      1.445114
  C       1.083080     -3.358193      1.768164
  C       1.014240      0.567003      0.720693
  C       2.299853     -3.650001      2.733104
  C       2.260681      1.271444      1.200656
  C       3.382492     -4.630009      2.168206
  C       3.623561      0.633285      0.836801
  H       2.170381      1.402948      2.281327
  H       2.219720      2.259622      0.728829
80
Coordinates from ORCA-job R4N+FHEA-_r2 E -2666.581433307353
  N       6.873952     -1.730510     -1.641135
  C       1.832702     -5.244345     -4.268093
  C       0.407083     -5.042358     -3.728885
  C       0.241762     -5.352017     -2.232418
  C       2.853821     -4.484720     -3.450636
  C       1.903885     -4.857771     -5.756116
  C       5.655563     -2.356201     -0.949620
  C       4.719024     -3.085687     -1.864017
  C       0.632515     -6.775822     -1.895639
  C       3.938306     -5.144277     -2.868353
  C       2.725637     -3.107168     -3.239130
  C      -1.189422     -5.043526     -1.776730
  C       7.742504     -2.790282     -2.247256
  C       7.651525     -0.991376     -0.591070
  C       6.453029     -0.763380     -2.706709
  C       4.857227     -4.457658     -2.081429
  C       3.639923     -2.418091     -2.453505
  C       3.261925     -5.139059     -6.391553
  C       1.668945     -7.034733     -0.995223
  C      -0.033747     -7.864036     -2.471700
  C       2.031874     -8.341089     -0.671788
  C       0.326866     -9.170412     -2.154087
  C       1.361596     -9.414980     -1.251463
  H       2.081308     -6.312904     -4.188096
  H      -0.278274     -5.673517     -4.310862
  H       0.096972     -4.002652     -3.901652
  H       0.922008     -4.692429     -1.678470
  H       1.656190     -3.792039     -5.858864
  H       1.123371     -5.415354     -6.290670
  H       5.147138     -1.522843     -0.455201
  H       6.072255     -3.027514     -0.192990
  H       4.049981     -6.216343     -3.013591
  H       1.888181     -2.567704     -3.674898
  H      -1.313868     -5.233684     -0.704954
  H      -1.915561     -5.662335     -2.316914
  H      -1.433923     -3.992455     -1.968929
  H       8.042907     -3.489055     -1.463920
  H       8.620289     -2.306577     -2.680533
  H       7.180899     -3.308883     -3.025720
  H       7.950606     -1.698088      0.185500
  H       7.011717     -0.212865     -0.168724
  H       8.532230     -0.546866     -1.058537
  H       5.802093     -0.009613     -2.259566
  H       5.927611     -1.304473     -3.494708
  H       7.351983     -0.294524     -3.112075
  H       5.678101     -4.996132     -1.613443
  H       3.507202     -1.352757     -2.280195
  H       3.251609     -4.903709     -7.461192
  H       3.535119     -6.195535     -6.282538
  H       4.053225     -4.540539     -5.926152
  H       2.203942     -6.200789     -0.547651
  H      -0.842835     -7.689314     -3.177218
  H       2.841260     -8.517517      0.032178
  H      -0.201748    -10.002436     -2.612085
  H       1.641450    -10.435129     -1.003595
  F       2.491687     -1.893394      0.495046
  F       0.506688     -2.362705     -0.297595
  F       0.928360     -4.443592      0.974147
  F      -0.033375     -3.236828      2.519175
  F       0.966841     -0.682086      2.749245
  F      -0.746580     -0.895875      1.393885
  F       1.042337      0.305936     -0.625304
  F      -0.050126      1.416521      0.921657
  F       1.809708     -4.219373      3.858642
  F       2.914150     -2.497879      3.077507
  F       2.911012     -5.879777      2.117113
  F       4.439468     -4.609292      2.994445
  F       3.783496     -4.258876      0.948876
  O       4.298413      0.138953      1.777939
  O       3.972178      0.712053     -0.373249
  C       1.196174     -2.084745      0.831693
  C       0.603081     -0.771067      1.444252
  C       1.082955     -3.357472      1.768342
  C       1.014891      0.567359      0.719796
  C       2.298214     -3.649135      2.735199
  C       2.261667      1.271349      1.199721
  C       3.381753     -4.628888      2.171636
  C       3.624508      0.633714      0.834819
  H       2.171779      1.403004      2.280454
  H       2.221024      2.259545      0.727887
80
Coordinates from ORCA-job R4N+FHEA-_r2 E -2666.581435793963
  N       6.873591     -1.733142     -1.640201
  C       1.831548     -5.243436     -4.269335
  C       0.406091     -5.042594     -3.729161
  C       0.241714     -5.352247     -2.232617
  C       2.852704     -4.484679     -3.451258
  C       1.901744     -4.853938     -5.756686
  C       5.654830     -2.358542     -0.948916
  C       4.717942     -3.087240     -1.863374
  C       0.634263     -6.775586     -1.895720
  C       3.937634     -5.144698     -2.870234
  C       2.723913     -3.107441     -3.237828
  C      -1.189611     -5.045336     -1.776376
  C       7.742277     -2.793150     -2.245769
  C       7.650921     -0.993715     -0.590143
  C       6.452781     -0.766544     -2.706210
  C       4.856566     -4.458954     -2.082663
  C       3.638292     -2.419327     -2.451481
  C       3.259001     -5.135470     -6.393832
  C       1.671293     -7.032788     -0.995402
  C      -0.030379     -7.864872     -2.471498
  C       2.036348     -8.338561     -0.671840
  C       0.332250     -9.170733     -2.153709
  C       1.367518     -9.413528     -1.251207
  H       2.080368     -6.312088     -4.191331
  H      -0.279344     -5.674068     -4.310696
  H       0.095148     -4.003046     -3.901517
  H       0.921452     -4.691976     -1.678836
  H       1.655051     -3.787694     -5.856841
  H       1.120144     -5.409499     -6.291895
  H       5.147309     -1.524841     -0.454346
  H       6.071016     -3.030014     -0.192208
  H       4.049540     -6.216545     -3.016909
  H       1.886241     -2.567527     -3.672547
  H      -1.313479     -5.235557     -0.704548
  H      -1.914907     -5.665415     -2.316310
  H      -1.435897     -3.994667     -1.968530
  H       8.042604     -3.491569     -1.462043
  H       8.620087     -2.309884     -2.679339
  H       7.180709     -3.312036     -3.024129
  H       7.949207     -1.700042      0.187033
  H       7.011407     -0.214548     -0.168704
  H       8.531958     -0.549898     -1.057481
  H       5.800921     -0.013210     -2.259629
  H       5.928315     -1.308011     -3.494632
  H       7.351544     -0.296984     -3.111247
  H       5.677972     -4.997811     -1.615942
  H       3.505233     -1.354219     -2.276905
  H       3.248370     -4.897194     -7.462764
  H       3.530671     -6.192626     -6.287836
  H       4.051409     -4.539425     -5.927080
  H       2.205260     -6.197758     -0.548578
  H      -0.839741     -7.691428     -3.177007
  H       2.846337     -8.513765      0.031783
  H      -0.195034    -10.003688     -2.611520
  H       1.648982    -10.433242     -1.003176
  F       2.492783     -1.892961      0.496717
  F       0.508770     -2.362910     -0.298265
  F       0.929105     -4.442799      0.974626
  F      -0.035116     -3.235626      2.517844
  F       0.964606     -0.680289      2.748095
  F      -0.746768     -0.894722      1.390079
  F       1.043799      0.305792     -0.626750
  F      -0.048786      1.417613      0.919315
  F       1.806379     -4.217481      3.860196
  F       2.911714     -2.496281      3.079883
  F       2.909649     -5.878604      2.120300
  F       4.437363     -4.607812      2.998780
  F       3.783369     -4.258058      0.952553
  O       4.300385      0.139075      1.774865
  O       3.972467      0.713556     -0.375589
  C       1.196754     -2.084120      0.831857
  C       0.603018     -0.770135      1.442622
  C       1.082336     -3.356451      1.768561
  C       1.015802      0.567802      0.718221
  C       2.296148     -3.647755      2.737257
  C       2.262781      1.271333      1.198543
  C       3.380468     -4.627636      2.175034
  C       3.625619      0.634181      0.832663
  H       2.173162      1.402741      2.279332
  H       2.222345      2.259723      0.726937
80
Coordinates from ORCA-job R4N+FHEA-_r2 E -2666.581438282700
  N       6.872952     -1.736430     -1.639436
  C       1.830343     -5.242735     -4.271043
  C       0.405007     -5.042978     -3.729842
  C       0.241698     -5.352312     -2.233114
  C       2.851554     -4.484897     -3.452370
  C       1.899493     -4.850461     -5.757819
  C       5.654091     -2.361838     -0.948160
  C       4.716713     -3.089513     -1.862658
  C       0.636464     -6.774917     -1.895731
  C       3.936898     -5.145458     -2.872768
  C       2.722062     -3.108023     -3.236497
  C      -1.189936     -5.047319     -1.776441
  C       7.742023     -2.796574     -2.244276
  C       7.649934     -0.996397     -0.589629
  C       6.452197     -0.770520     -2.705982
  C       4.855854     -4.460835     -2.084231
  C       3.636572     -2.421109     -2.449336
  C       3.255811     -5.132304     -6.396761
  C       1.674599     -7.029969     -0.995915
  C      -0.026333     -7.865577     -2.470827
  C       2.042611     -8.334944     -0.672519
  C       0.339167     -9.170715     -2.153128
  C       1.375595     -9.411292     -1.251391
  H       2.079400     -6.311464     -4.194860
  H      -0.280419     -5.674972     -4.310837
  H       0.093093     -4.003722     -3.902302
  H       0.920734     -4.690966     -1.679789
  H       1.653732     -3.783772     -5.855521
  H       1.116653     -5.403912     -6.293435
  H       5.147438     -1.527916     -0.453152
  H       6.070137     -3.033644     -0.191661
  H       4.048936     -6.217028     -3.021245
  H       1.884020     -2.567657     -3.669870
  H      -1.313135     -5.237475     -0.704502
  H      -1.914341     -5.668902     -2.315895
  H      -1.438265     -3.997132     -1.968671
  H       8.042625     -3.494224     -1.460057
  H       8.619663     -2.313402     -2.678289
  H       7.180587     -3.316044     -3.022300
  H       7.947651     -1.702188      0.188280
  H       7.010494     -0.216563     -0.169224
  H       8.531280     -0.553200     -1.057080
  H       5.799453     -0.017626     -2.259933
  H       5.928517     -1.312429     -3.494584
  H       7.350790     -0.300517     -3.110848
  H       5.677611     -5.000198     -1.618704
  H       3.503148     -1.356382     -2.272569
  H       3.245002     -4.890876     -7.464991
  H       3.525845     -6.190168     -6.293943
  H       4.049363     -4.538954     -5.928563
  H       2.207356     -6.193715     -0.549895
  H      -0.836448     -7.693826     -3.175871
  H       2.853589     -8.508386      0.030392
  H      -0.186623    -10.004793     -2.610556
  H       1.659469    -10.430391     -1.003601
  F       2.492942     -1.891789      0.498380
  F       0.509751     -2.362012     -0.298642
  F       0.928652     -4.441403      0.975323
  F      -0.037922     -3.233527      2.516668
  F       0.961984     -0.678150      2.747569
  F      -0.747361     -0.892560      1.386896
  F       1.045206      0.306674     -0.627400
  F      -0.046580      1.419855      0.918289
  F       1.802009     -4.214914      3.862132
  F       2.908109     -2.493973      3.082581
  F       2.907641     -5.876410      2.123649
  F       4.434380     -4.605455      3.003437
  F       3.782490     -4.255914      0.956499
  O       4.303048      0.139230      1.773295
  O       3.972955      0.712981     -0.377062
  C       1.196474     -2.082710      0.832173
  C       0.602563     -0.768445      1.441548
  C       1.080725     -3.354874      1.769007
  C       1.017106      0.568848      0.717464
  C       2.293069     -3.645822      2.739640
  C       2.264637      1.271157      1.198273
  C       3.378406     -4.625447      2.178670
  C       3.627276      0.633845      0.831608
  H       2.175146      1.401842      2.279242
  H       2.224807      2.259912      0.727219
80
Coordinates from ORCA-job R4N+FHEA-_r2 E -2666.581440963957
  N       6.872569     -1.739779     -1.638735
  C       1.829265     -5.241931     -4.272417
  C       0.404058     -5.043246     -3.730218
  C       0.241768     -5.352428     -2.233373
  C       2.850675     -4.485071     -3.453238
  C       1.897386     -4.847119     -5.758615
  C       5.653874     -2.365387     -0.947088
  C       4.715827     -3.091922     -1.861572
  C       0.638893     -6.774212     -1.895699
  C       3.936349     -5.146285     -2.875042
  C       2.720600     -3.108543     -3.234760
  C      -1.190299     -5.049784     -1.776489
  C       7.741803     -2.800006     -2.243441
  C       7.649587     -0.999295     -0.589234
  C       6.451444     -0.774103     -2.705472
  C       4.855379     -4.462867     -2.085437
  C       3.635215     -2.422893     -2.446769
  C       3.252826     -5.129004     -6.399207
  C       1.678376     -7.027366     -0.996665
  C      -0.022483     -7.866097     -2.469939
  C       2.049179     -8.331650     -0.673489
  C       0.345802     -9.170593     -2.152437
  C       1.383617     -9.409268     -1.251688
  H       2.078554     -6.310683     -4.197928
  H      -0.281206     -5.675789     -4.310815
  H       0.091154     -4.004326     -3.902939
  H       0.919815     -4.689739     -1.680515
  H       1.652351     -3.780083     -5.854044
  H       1.113353     -5.398631     -6.294504
  H       5.148254     -1.531219     -0.451549
  H       6.070215     -3.037607     -0.191134
  H       4.048362     -6.217622     -3.025390
  H       1.882026     -2.567761     -3.666619
  H      -1.312922     -5.240511     -0.704592
  H      -1.913794     -5.672544     -2.315789
  H      -1.440666     -4.000005     -1.968262
  H       8.043100     -3.496988     -1.458815
  H       8.619028     -2.316556     -2.678051
  H       7.180279     -3.320060     -3.021039
  H       7.947469     -1.704738      0.188924
  H       7.010205     -0.219283     -0.169172
  H       8.530755     -0.556213     -1.056989
  H       5.797423     -0.022195     -2.259484
  H       5.928619     -1.316470     -3.494439
  H       7.349711     -0.303220     -3.109992
  H       5.677252     -5.002837     -1.620863
  H       3.501199     -1.358690     -2.267187
  H       3.242065     -4.883921     -7.466572
  H       3.521161     -6.187628     -6.300021
  H       4.047543     -4.538620     -5.929229
  H       2.210288     -6.190044     -0.551600
  H      -0.833664     -7.695852     -3.174222
  H       2.861233     -8.503415      0.028685
  H      -0.178893    -10.005644     -2.609324
  H       1.669826    -10.427858     -1.004237
  F       2.492140     -1.891224      0.499213
  F       0.509279     -2.361076     -0.298854
  F       0.926743     -4.439746      0.976307
  F      -0.040452     -3.230963      2.516452
  F       0.959229     -0.675626      2.747019
  F      -0.748159     -0.889683      1.384048
  F       1.046487      0.307594     -0.628269
  F      -0.044524      1.422459      0.916810
  F       1.798408     -4.211757      3.863717
  F       2.904988     -2.491439      3.083845
  F       2.904449     -5.874258      2.125735
  F       4.431145     -4.604000      3.006806
  F       3.780969     -4.253966      0.959388
  O       4.304997      0.138678      1.771330
  O       3.973675      0.713437     -0.378469
  C       1.195379     -2.081295      0.832289
  C       0.601754     -0.766390      1.440548
  C       1.078608     -3.353104      1.769617
  C       1.018307      0.570106      0.716470
  C       2.290176     -3.643702      2.741261
  C       2.266315      1.271252      1.197822
  C       3.375933     -4.623515      2.181202
  C       3.628700      0.633785      0.830387
  H       2.176971      1.400946      2.278891
  H       2.226912      2.260468      0.727674
80
Coordinates from ORCA-job R4N+FHEA-_r2 E -2666.581443672354
  N       6.872071     -1.743315     -1.638019
  C       1.828295     -5.241411     -4.274302
  C       0.403199     -5.043617     -3.731209
  C       0.241780     -5.352308     -2.234143
  C       2.850056     -4.485515     -3.454698
  C       1.895513     -4.844799     -5.760072
  C       5.653822     -2.369587     -0.945994
  C       4.715157     -3.094824     -1.860772
  C       0.641386     -6.773135     -1.895675
  C       3.936083     -5.147393     -2.878117
  C       2.719522     -3.109412     -3.233344
  C      -1.190790     -5.051901     -1.777255
  C       7.741818     -2.803100     -2.242791
  C       7.648893     -1.002438     -0.588693
  C       6.450441     -0.777696     -2.704680
  C       4.855164     -4.465243     -2.087326
  C       3.634130     -2.425009     -2.444371
  C       3.250229     -5.126521     -6.402043
  C       1.682370     -7.024077     -0.997681
  C      -0.018907     -7.866467     -2.468334
  C       2.055934     -8.327517     -0.674371
  C       0.352170     -9.170143     -2.150631
  C       1.391655     -9.406620     -1.251260
  H       2.077823     -6.310173     -4.201107
  H      -0.281733     -5.676943     -4.311370
  H       0.089327     -4.005097     -3.904561
  H       0.918742     -4.687929     -1.682045
  H       1.650877     -3.777534     -5.853874
  H       1.110552     -5.394999     -6.295969
  H       5.148886     -1.535651     -0.449404
  H       6.070922     -3.042551     -0.191122
  H       4.048166     -6.218417     -3.030615
  H       1.880240     -2.568282     -3.663468
  H      -1.312859     -5.242888     -0.705326
  H      -1.913589     -5.675725     -2.316226
  H      -1.442816     -4.002484     -1.968959
  H       8.044097     -3.499454     -1.458059
  H       8.618441     -2.318805     -2.677790
  H       7.180397     -3.323717     -3.019994
  H       7.947100     -1.707717      0.189609
  H       7.009174     -0.222489     -0.168774
  H       8.529979     -0.559199     -1.056630
  H       5.795162     -0.026850     -2.258726
  H       5.928459     -1.320409     -3.493964
  H       7.348466     -0.305936     -3.108580
  H       5.677057     -5.005872     -1.623710
  H       3.499128     -1.361567     -2.261137
  H       3.239439     -4.878221     -7.468672
  H       3.517298     -6.185778     -6.306112
  H       4.045912     -4.538556     -5.930641
  H       2.213556     -6.185721     -0.553716
  H      -0.831415     -7.698031     -3.171517
  H       2.869138     -8.497287      0.026924
  H      -0.171729    -10.006289     -2.606397
  H       1.680235    -10.424556     -1.003895
  F       2.490606     -1.889844      0.499490
  F       0.507685     -2.359203     -0.298680
  F       0.924009     -4.437753      0.977302
  F      -0.042759     -3.227911      2.516874
  F       0.956988     -0.673429      2.747203
  F      -0.749380     -0.886510      1.382928
  F       1.046872      0.309371     -0.628241
  F      -0.042773      1.425484      0.916923
  F       1.795549     -4.208645      3.864893
  F       2.902396     -2.488898      3.084474
  F       2.901826     -5.871866      2.126742
  F       4.428299     -4.602395      3.009051
  F       3.779503     -4.251351      0.961349
  O       4.306895      0.139105      1.771125
  O       3.973875      0.711931     -0.378960
  C       1.193754     -2.079405      0.832448
  C       0.600518     -0.764070      1.440431
  C       1.076359     -3.350997      1.770310
  C       1.019112      0.571783      0.716413
  C       2.287713     -3.641442      2.742293
  C       2.267776      1.271424      1.198164
  C       3.373732     -4.621345      2.182803
  C       3.629822      0.633377      0.830255
  H       2.178477      1.399912      2.279407
  H       2.228958      2.261236      0.729125
80
Coordinates from ORCA-job R4N+FHEA-_r2 E -2666.581446106745
  N       6.871944     -1.745824     -1.637419
  C       1.827790     -5.240858     -4.275486
  C       0.402795     -5.043584     -3.731887
  C       0.241794     -5.352024     -2.234715
  C       2.849982     -4.485794     -3.455550
  C       1.894574     -4.843353     -5.760980
  C       5.654390     -2.373000     -0.944780
  C       4.715169     -3.097161     -1.859907
  C       0.643344     -6.772106     -1.895700
  C       3.936363     -5.148264     -2.880415
  C       2.719190     -3.110129     -3.231743
  C      -1.191172     -5.053473     -1.777980
  C       7.741855     -2.804868     -2.243284
  C       7.649053     -1.005067     -0.588135
  C       6.449294     -0.779648     -2.703366
  C       4.855517     -4.467103     -2.088794
  C       3.633740     -2.426630     -2.441944
  C       3.248848     -5.124982     -6.403747
  C       1.685337     -7.021530     -0.998451
  C      -0.016592     -7.866411     -2.467028
  C       2.060242     -8.324435     -0.674422
  C       0.355972     -9.169512     -2.148706
  C       1.396426     -9.404562     -1.249971
  H       2.077404     -6.309643     -4.203069
  H      -0.281763     -5.677502     -4.311850
  H       0.088343     -4.005305     -3.905609
  H       0.917662     -4.686163     -1.683102
  H       1.650244     -3.775971     -5.854018
  H       1.109148     -5.392920     -6.296783
  H       5.149913     -1.539557     -0.446898
  H       6.072541     -3.046823     -0.191256
  H       4.048597     -6.219035     -3.034687
  H       1.879194     -2.568791     -3.660310
  H      -1.312927     -5.245214     -0.706163
  H      -1.913531     -5.677585     -2.317143
  H      -1.444074     -4.004190     -1.969215
  H       8.045306     -3.501241     -1.458963
  H       8.617769     -2.319565     -2.678708
  H       7.180191     -3.325669     -3.020195
  H       7.948195     -1.710622      0.189555
  H       7.009115     -0.225803     -0.167337
  H       8.529652     -0.561116     -1.056261
  H       5.792640     -0.030266     -2.256963
  H       5.928224     -1.322510     -3.493214
  H       7.346926     -0.306407     -3.106361
  H       5.677524     -5.008245     -1.626087
  H       3.497525     -1.363934     -2.255310
  H       3.237980     -4.874507     -7.469920
  H       3.515069     -6.184712     -6.310054
  H       4.045228     -4.538575     -5.931496
  H       2.216446     -6.182553     -0.555607
  H      -0.829993     -7.699178     -3.169581
  H       2.874118     -8.492876      0.026480
  H      -0.167745    -10.006367     -2.603431
  H       1.686183    -10.422074     -1.002135
  F       2.488694     -1.889362      0.498752
  F       0.505218     -2.357876     -0.298327
  F       0.920911     -4.436429      0.978189
  F      -0.043740     -3.225676      2.518171
  F       0.956051     -0.671968      2.747341
  F      -0.750293     -0.884077      1.383156
  F       1.046365      0.310488     -0.628414
  F      -0.042299      1.427504      0.916804
  F       1.794914     -4.206684      3.865128
  F       2.901695     -2.487487      3.083347
  F       2.899739     -5.870601      2.125815
  F       4.426466     -4.602195      3.009085
  F       3.778250     -4.249928      0.961294
  O       4.307004      0.139372      1.770678
  O       3.973871      0.711889     -0.379424
  C       1.192015     -2.078312      0.832398
  C       0.599474     -0.762468      1.440581
  C       1.074605     -3.349558      1.770846
  C       1.019106      0.573030      0.716175
  C       2.286614     -3.640081      2.741970
  C       2.268128      1.271962      1.197905
  C       3.372134     -4.620344      2.182484
  C       3.629926      0.633606      0.829810
  H       2.179004      1.399770      2.279158
  H       2.229428      2.262041      0.729687
80
Coordinates from ORCA-job R4N+FHEA-_r2 E -2666.581448167131
  N       6.871833     -1.747315     -1.636839
  C       1.827648     -5.240652     -4.276601
  C       0.402717     -5.043569     -3.732815
  C       0.241852     -5.351530     -2.235493
  C       2.850258     -4.486256     -3.456412
  C       1.894358     -4.842816     -5.761928
  C       5.655154     -2.375943     -0.943964
  C       4.715651     -3.099220     -1.859655
  C       0.644491     -6.771136     -1.895684
  C       3.937171     -5.149127     -2.882847
  C       2.719231     -3.111031     -3.230520
  C      -1.191255     -5.053718     -1.778789
  C       7.742438     -2.805051     -2.243800
  C       7.648707     -1.006648     -0.587314
  C       6.448001     -0.780734     -2.701997
  C       4.856437     -4.468671     -2.090787
  C       3.633694     -2.428162     -2.440005
  C       3.248552     -5.124278     -6.404997
  C       1.687050     -7.019411     -0.998968
  C      -0.015724     -7.866175     -2.465468
  C       2.062276     -8.321915     -0.673768
  C       0.357226     -9.168832     -2.145989
  C       1.398253     -9.402786     -1.247676
  H       2.077229     -6.309490     -4.204636
  H      -0.281548     -5.678014     -4.312545
  H       0.087971     -4.005423     -3.906783
  H       0.917094     -4.684595     -1.684355
  H       1.650154     -3.775374     -5.854767
  H       1.108941     -5.392393     -6.297740
  H       5.150543     -1.543604     -0.444402
  H       6.074476     -3.050736     -0.191988
  H       4.049770     -6.219630     -3.038639
  H       1.878556     -2.569581     -3.657645
  H      -1.312700     -5.245868     -0.707022
  H      -1.913637     -5.677676     -2.318060
  H      -1.444157     -4.004385     -1.969826
  H       8.046981     -3.501685     -1.460150
  H       8.617665     -2.318560     -2.679277
  H       7.180897     -3.325944     -3.020709
  H       7.948611     -1.712518      0.189861
  H       7.008195     -0.228193     -0.165746
  H       8.528965     -0.561812     -1.055301
  H       5.790122     -0.032657     -2.255306
  H       5.927925     -1.323746     -3.492363
  H       7.345212     -0.305913     -3.104032
  H       5.678877     -5.010126     -1.629271
  H       3.496132     -1.366211     -2.250285
  H       3.237447     -4.872876     -7.470985
  H       3.514577     -6.184193     -6.312380
  H       4.045204     -4.538350     -5.932542
  H       2.218443     -6.180053     -0.557253
  H      -0.829657     -7.699852     -3.167577
  H       2.876560     -8.489454      0.026832
  H      -0.166792    -10.006209     -2.599434
  H       1.688247    -10.419958     -0.998829
  F       2.487311     -1.888840      0.497677
  F       0.503242     -2.356846     -0.298048
  F       0.918599     -4.435593      0.978643
  F      -0.043719     -3.224141      2.519452
  F       0.956436     -0.671518      2.747512
  F      -0.750986     -0.882833      1.384528
  F       1.045006      0.311598     -0.628239
  F      -0.042819      1.428566      0.917635
  F       1.795511     -4.206052      3.864536
  F       2.902258     -2.487154      3.081837
  F       2.898910     -5.870387      2.124136
  F       4.425811     -4.602634      3.007865
  F       3.777763     -4.249583      0.960191
  O       4.306611      0.140485      1.770923
  O       3.973057      0.710876     -0.379752
  C       1.190856     -2.077617      0.832215
  C       0.598759     -0.761636      1.440983
  C       1.073747     -3.348592      1.771020
  C       1.018422      0.573935      0.716375
  C       2.286634     -3.639480      2.740956
  C       2.267746      1.272520      1.197745
  C       3.371494     -4.620230      2.181208
  C       3.629365      0.633813      0.829582
  H       2.178891      1.399997      2.279040
  H       2.229009      2.262779      0.729962
80
Coordinates from ORCA-job R4N+FHEA-_r2 E -2666.581449942631
  N       6.871777     -1.747940     -1.636291
  C       1.827814     -5.240553     -4.277225
  C       0.402906     -5.043371     -3.733566
  C       0.241984     -5.350919     -2.236155
  C       2.850707     -4.486732     -3.456739
  C       1.894820     -4.842508     -5.762436
  C       5.656159     -2.378389     -0.943221
  C       4.716427     -3.100942     -1.859386
  C       0.645022     -6.770280     -1.895680
  C       3.938319     -5.149889     -2.884775
  C       2.719297     -3.111953     -3.228991
  C      -1.191081     -5.053196     -1.779337
  C       7.742970     -2.804143     -2.244927
  C       7.648599     -1.007573     -0.586473
  C       6.446422     -0.780789     -2.700355
  C       4.857757     -4.469949     -2.092590
  C       3.633771     -2.429566     -2.437948
  C       3.249038     -5.124120     -6.405517
  C       1.687710     -7.017889     -0.999095
  C      -0.015662     -7.865699     -2.464364
  C       2.062398     -8.320200     -0.672465
  C       0.356804     -9.168115     -2.143545
  C       1.397777     -9.401447     -1.244981
  H       2.077172     -6.309496     -4.205572
  H      -0.281233     -5.678099     -4.313121
  H       0.088131     -4.005230     -3.907526
  H       0.916886     -4.683431     -1.685206
  H       1.650962     -3.774989     -5.855272
  H       1.109572     -5.392091     -6.298439
  H       5.151273     -1.547384     -0.441699
  H       6.076652     -3.054203     -0.192810
  H       4.051421     -6.220130     -3.041857
  H       1.878013     -2.570421     -3.654799
  H      -1.312285     -5.245942     -0.707656
  H      -1.913670     -5.676599     -2.318961
  H      -1.443526     -4.003677     -1.969909
  H       8.048667     -3.501420     -1.462279
  H       8.617469     -2.316509     -2.680538
  H       7.181376     -3.324867     -3.021953
  H       7.949384     -1.713901      0.189903
  H       7.007692     -0.230071     -0.163815
  H       8.528334     -0.561681     -1.054389
  H       5.787317     -0.034199     -2.253102
  H       5.927439     -1.323829     -3.491392
  H       7.343012     -0.303967     -3.101478
  H       5.680968     -5.011531     -1.632546
  H       3.495008     -1.368188     -2.245796
  H       3.237680     -4.872701     -7.471551
  H       3.514990     -6.184103     -6.313040
  H       4.045799     -4.538156     -5.933256
  H       2.219670     -6.178289     -0.558553
  H      -0.829604     -7.699834     -3.166583
  H       2.876771     -8.487373      0.028133
  H      -0.167637    -10.005774     -2.596024
  H       1.687216    -10.418442     -0.994841
  F       2.486414     -1.888873      0.496606
  F       0.501794     -2.356477     -0.297877
  F       0.916968     -4.435444      0.978912
  F      -0.043154     -3.223474      2.520618
  F       0.957675     -0.671520      2.747378
  F      -0.751133     -0.882566      1.386043
  F       1.043219      0.312110     -0.628386
  F      -0.043870      1.428754      0.918261
  F       1.796909     -4.206534      3.863624
  F       2.903575     -2.487689      3.080081
  F       2.898719     -5.870917      2.122299
  F       4.425889     -4.603403      3.005827
  F       3.777377     -4.250256      0.958261
  O       4.305238      0.141251      1.770806
  O       3.972322      0.710688     -0.380278
  C       1.190162     -2.077537      0.831960
  C       0.598607     -0.761489      1.441184
  C       1.073418     -3.348290      1.770967
  C       1.017407      0.574359      0.716321
  C       2.287207     -3.639646      2.739619
  C       2.266885      1.273193      1.196934
  C       3.371253     -4.620789      2.179325
  C       3.628393      0.634262      0.828961
  H       2.178421      1.401140      2.278156
  H       2.227885      2.263217      0.728895
80
Coordinates from ORCA-job R4N+FHEA-_r2 E -2666.581451627067
  N       6.871597     -1.747821     -1.635782
  C       1.828247     -5.240839     -4.277812
  C       0.403304     -5.043368     -3.734460
  C       0.242310     -5.350241     -2.236915
  C       2.851335     -4.487503     -3.457092
  C       1.895744     -4.842513     -5.762925
  C       5.657319     -2.380832     -0.942863
  C       4.717502     -3.102714     -1.859528
  C       0.644953     -6.769545     -1.895626
  C       3.939991     -5.150755     -2.887160
  C       2.719214     -3.113194     -3.227358
  C      -1.190503     -5.051742     -1.779768
  C       7.744104     -2.802075     -2.245805
  C       7.647697     -1.007330     -0.585554
  C       6.444441     -0.780508     -2.698918
  C       4.859711     -4.471232     -2.095053
  C       3.633783     -2.431290     -2.435921
  C       3.250122     -5.124369     -6.405792
  C       1.687660     -7.016794     -0.999118
  C      -0.016563     -7.865138     -2.463071
  C       2.061380     -8.319004     -0.671026
  C       0.354878     -9.167445     -2.140792
  C       1.395737     -9.400399     -1.242044
  H       2.077270     -6.309904     -4.206440
  H      -0.280844     -5.678346     -4.313710
  H       0.088555     -4.005237     -3.908518
  H       0.917357     -4.682681     -1.686149
  H       1.652303     -3.774884     -5.855692
  H       1.110721     -5.392017     -6.299341
  H       5.151826     -1.551631     -0.438987
  H       6.079123     -3.057715     -0.194164
  H       4.053766     -6.220710     -3.045616
  H       1.877198     -2.571634     -3.651596
  H      -1.311372     -5.244915     -0.708141
  H      -1.913581     -5.674391     -2.319597
  H      -1.442110     -4.001946     -1.969873
  H       8.051065     -3.499832     -1.464053
  H       8.617782     -2.313018     -2.681385
  H       7.182922     -3.322877     -3.023113
  H       7.949272     -1.713850      0.190338
  H       7.005996     -0.230819     -0.162267
  H       8.526896     -0.560184     -1.053241
  H       5.784000     -0.035421     -2.251233
  H       5.926724     -1.323797     -3.490565
  H       7.340207     -0.301506     -3.099352
  H       5.684034     -5.012814     -1.636891
  H       3.493839     -1.370481     -2.241499
  H       3.238624     -4.873501     -7.471948
  H       3.516120     -6.184276     -6.312856
  H       4.046802     -4.538085     -5.933844
  H       2.220409     -6.176997     -0.559910
  H      -0.830404     -7.699479     -3.165387
  H       2.875832     -8.486112      0.029469
  H      -0.170227    -10.005265     -2.592197
  H       1.684199    -10.417308     -0.990533
  F       2.486051     -1.888976      0.495837
  F       0.501041     -2.356282     -0.297816
  F       0.915872     -4.435382      0.978926
  F      -0.042459     -3.223112      2.521496
  F       0.959519     -0.671753      2.747220
  F      -0.750998     -0.882680      1.387806
  F       1.041414      0.312759     -0.628319
  F      -0.044913      1.428641      0.919446
  F       1.798219     -4.207594      3.862511
  F       2.904982     -2.488727      3.078683
  F       2.898370     -5.871997      2.120627
  F       4.426174     -4.604667      3.003475
  F       3.776993     -4.251761      0.956179
  O       4.304175      0.141934      1.770462
  O       3.971196      0.709826     -0.381128
  C       1.189885     -2.077522      0.831757
  C       0.598858     -0.761552      1.441419
  C       1.073404     -3.348193      1.770754
  C       1.016441      0.574666      0.716558
  C       2.287881     -3.640186      2.738341
  C       2.266148      1.273766      1.196260
  C       3.371108     -4.621870      2.177346
  C       3.627450      0.634459      0.828181
  H       2.178222      1.402313      2.277471
  H       2.226938      2.263555      0.727692
80
Coordinates from ORCA-job R4N+FHEA-_r2 E -2666.581453262087
  N       6.871281     -1.747355     -1.635287
  C       1.828856     -5.241472     -4.278259
  C       0.403818     -5.043546     -3.735397
  C       0.242735     -5.349605     -2.237725
  C       2.852015     -4.488563     -3.457283
  C       1.897027     -4.842797     -5.763301
  C       5.658623     -2.383486     -0.942538
  C       4.718670     -3.104665     -1.859596
  C       0.644509     -6.768933     -1.895599
  C       3.941911     -5.151806     -2.889574
  C       2.718897     -3.114725     -3.225380
  C      -1.189764     -5.049913     -1.780204
  C       7.745249     -2.799397     -2.247064
  C       7.646646     -1.006697     -0.584661
  C       6.441998     -0.779785     -2.697283
  C       4.861969     -4.472698     -2.097553
  C       3.633671     -2.433359     -2.433682
  C       3.251534     -5.125099     -6.405821
  C       1.687348     -7.016024     -0.999230
  C      -0.017945     -7.864555     -2.461837
  C       2.060034     -8.318187     -0.669828
  C       0.352387     -9.166836     -2.138258
  C       1.393195     -9.399591     -1.239420
  H       2.077430     -6.310665     -4.207090
  H      -0.280413     -5.678726     -4.314319
  H       0.089107     -4.005461     -3.909806
  H       0.918185     -4.682321     -1.687097
  H       1.654135     -3.775031     -5.855888
  H       1.112094     -5.391915     -6.300221
  H       5.152557     -1.556259     -0.435938
  H       6.081909     -3.061530     -0.195703
  H       4.056445     -6.221433     -3.049585
  H       1.876056     -2.573138     -3.647900
  H      -1.310365     -5.243521     -0.708615
  H      -1.913437     -5.671715     -2.320235
  H      -1.440434     -3.999798     -1.969736
  H       8.053837     -3.497590     -1.466345
  H       8.617845     -2.308575     -2.682754
  H       7.184434     -3.320278     -3.024637
  H       7.949159     -1.713395      0.190661
  H       7.004139     -0.231248     -0.160712
  H       8.525141     -0.558108     -1.052234
  H       5.780113     -0.036461     -2.248860
  H       5.925576     -1.323248     -3.489628
  H       7.336729     -0.298349     -3.097202
  H       5.687528     -5.014220     -1.641436
  H       3.492764     -1.372996     -2.237341
  H       3.240088     -4.875128     -7.472164
  H       3.517504     -6.184897     -6.311962
  H       4.048101     -4.538444     -5.934214
  H       2.221006     -6.175981     -0.561555
  H      -0.831711     -7.698920     -3.164211
  H       2.874638     -8.485381      0.030453
  H      -0.173425    -10.004751     -2.588653
  H       1.680646    -10.416482     -0.986754
  F       2.485913     -1.888908      0.495537
  F       0.500627     -2.355889     -0.297717
  F       0.915006     -4.435259      0.978766
  F      -0.042010     -3.222867      2.522108
  F       0.961198     -0.671777      2.747231
  F      -0.750659     -0.882779      1.389374
  F       1.039352      0.313617     -0.628064
  F      -0.045527      1.428817      0.921203
  F       1.799226     -4.208940      3.861467
  F       2.906045     -2.489830      3.077778
  F       2.897965     -5.872854      2.119258
  F       4.426651     -4.605534      3.000736
  F       3.776076     -4.253121      0.953819
  O       4.303111      0.141886      1.770097
  O       3.970460      0.708910     -0.381851
  C       1.189736     -2.077336      0.831705
  C       0.599309     -0.761476      1.441747
  C       1.073358     -3.348171      1.770517
  C       1.015673      0.575086      0.717032
  C       2.288314     -3.640867      2.737282
  C       2.265780      1.274374      1.195537
  C       3.370856     -4.622767      2.175289
  C       3.626756      0.634399      0.827492
  H       2.178445      1.404034      2.276672
  H       2.226526      2.263696      0.725952
80
Coordinates from ORCA-job R4N+FHEA-_r2 E -2666.581454832105
  N       6.870839     -1.746259     -1.634953
  C       1.829741     -5.242575     -4.278644
  C       0.404542     -5.044002     -3.736405
  C       0.243234     -5.349038     -2.238595
  C       2.852938     -4.489896     -3.457617
  C       1.898671     -4.843876     -5.763731
  C       5.660055     -2.386075     -0.942506
  C       4.720093     -3.106612     -1.859972
  C       0.643541     -6.768511     -1.895636
  C       3.944303     -5.152896     -2.892375
  C       2.718576     -3.116526     -3.223427
  C      -1.188882     -5.047635     -1.780843
  C       7.746922     -2.795849     -2.248086
  C       7.644897     -1.004914     -0.583920
  C       6.439215     -0.778757     -2.695996
  C       4.864751     -4.474114     -2.100477
  C       3.633593     -2.435663     -2.431650
  C       3.253345     -5.126705     -6.405684
  C       1.686727     -7.015781     -0.999644
  C      -0.020258     -7.863951     -2.460481
  C       2.058269     -8.317972     -0.669183
  C       0.348857     -9.166315     -2.135831
  C       1.389892     -9.399194     -1.237306
  H       2.077829     -6.311867     -4.207357
  H      -0.279752     -5.679433     -4.314974
  H       0.089869     -4.006048     -3.911628
  H       0.919391     -4.682384     -1.688107
  H       1.656235     -3.776000     -5.856268
  H       1.113728     -5.392585     -6.301052
  H       5.153233     -1.561080     -0.432984
  H       6.085087     -3.065259     -0.197683
  H       4.059674     -6.222190     -3.054108
  H       1.874704     -2.575024     -3.643951
  H      -1.309368     -5.241444     -0.709288
  H      -1.913294     -5.668521     -2.320923
  H      -1.438412     -3.997188     -1.969925
  H       8.057446     -3.494007     -1.468075
  H       8.618216     -2.302788     -2.683896
  H       7.186853     -3.317291     -3.025842
  H       7.948450     -1.711493      0.191116
  H       7.001134     -0.230626     -0.159724
  H       8.522624     -0.554621     -1.051308
  H       5.775791     -0.037233     -2.246876
  H       5.924031     -1.322603     -3.488873
  H       7.332768     -0.294949     -3.095720
  H       5.691548     -5.015520     -1.646402
  H       3.491789     -1.375757     -2.233562
  H       3.242183     -4.878071     -7.472284
  H       3.519374     -6.186286     -6.310367
  H       4.049674     -4.539496     -5.934505
  H       2.221502     -6.175575     -0.563599
  H      -0.834197     -7.698098     -3.162577
  H       2.873150     -8.485433      0.030703
  H      -0.177953    -10.004189     -2.585093
  H       1.676310    -10.416160     -0.983791
  F       2.485869     -1.888751      0.495791
  F       0.500328     -2.355058     -0.297330
  F       0.914018     -4.434795      0.978523
  F      -0.041715     -3.222579      2.522793
  F       0.963089     -0.671603      2.747825
  F      -0.750152     -0.882391      1.391556
  F       1.037981      0.314721     -0.627215
  F      -0.045601      1.429233      0.923445
  F       1.799902     -4.210187      3.860626
  F       2.906871     -2.491026      3.077236
  F       2.896674     -5.873754      2.117779
  F       4.426904     -4.607104      2.997835
  F       3.774733     -4.254522      0.951553
  O       4.302817      0.141395      1.769377
  O       3.969458      0.707704     -0.382701
  C       1.189631     -2.076864      0.832058
  C       0.599955     -0.761088      1.442668
  C       1.073222     -3.348091      1.770476
  C       1.015428      0.575669      0.718097
  C       2.288546     -3.641654      2.736510
  C       2.265970      1.274936      1.195524
  C       3.370327     -4.623872      2.173304
  C       3.626389      0.634102      0.826913
  H       2.179284      1.405361      2.276664
  H       2.226824      2.263932      0.725084
80
Coordinates from ORCA-job R4N+FHEA-_r2 E -2666.581456186509
  N       6.870421     -1.745301     -1.634579
  C       1.830558     -5.243850     -4.278945
  C       0.405188     -5.044644     -3.737340
  C       0.243538     -5.348654     -2.239415
  C       2.853796     -4.491322     -3.457906
  C       1.900165     -4.845364     -5.764116
  C       5.661387     -2.388588     -0.942350
  C       4.721372     -3.108502     -1.860203
  C       0.642451     -6.768272     -1.895725
  C       3.946369     -5.154084     -2.894665
  C       2.718410     -3.118300     -3.221773
  C      -1.188296     -5.045633     -1.781727
  C       7.748357     -2.792552     -2.249287
  C       7.643422     -1.003523     -0.583097
  C       6.436624     -0.777520     -2.694485
  C       4.867127     -4.475596     -2.102761
  C       3.633643     -2.437853     -2.429993
  C       3.254967     -5.128571     -6.405491
  C       1.686297     -7.015805     -1.000457
  C      -0.022750     -7.863507     -2.459160
  C       2.057044     -8.318033     -0.669386
  C       0.345556     -9.165962     -2.133889
  C       1.387196     -9.399072     -1.236153
  H       2.078210     -6.313197     -4.207352
  H      -0.279058     -5.680375     -4.315650
  H       0.090543     -4.006874     -3.913674
  H       0.920398     -4.682560     -1.689176
  H       1.657955     -3.777440     -5.856685
  H       1.115109     -5.393743     -6.301622
  H       5.153995     -1.565564     -0.430124
  H       6.088155     -3.068854     -0.199487
  H       4.062404     -6.223095     -3.057980
  H       1.873627     -2.576861     -3.640610
  H      -1.308926     -5.239328     -0.710151
  H      -1.913373     -5.665809     -2.321728
  H      -1.436815     -3.994936     -1.970712
  H       8.060978     -3.490587     -1.470022
  H       8.618211     -2.297111     -2.685328
  H       7.188798     -3.314493     -3.027083
  H       7.948108     -1.710140      0.191435
  H       6.998527     -0.230463     -0.158433
  H       8.520351     -0.551512     -1.050289
  H       5.771883     -0.037731     -2.244407
  H       5.922304     -1.321487     -3.487870
  H       7.329115     -0.291675     -3.094103
  H       5.694779     -5.016954     -1.650192
  H       3.491292     -1.378222     -2.230772
  H       3.244161     -4.881233     -7.472332
  H       3.521167     -6.187942     -6.308702
  H       4.051067     -4.540749     -5.934734
  H       2.222113     -6.175475     -0.565890
  H      -0.837189     -7.697408     -3.160612
  H       2.872393     -8.485699      0.029880
  H      -0.182290    -10.003769     -2.582044
  H       1.672982    -10.416128     -0.982273
  F       2.485747     -1.888028      0.496259
  F       0.499956     -2.353811     -0.296650
  F       0.913170     -4.434057      0.978265
  F      -0.041410     -3.222136      2.523547
  F       0.964137     -0.671091      2.748852
  F      -0.749836     -0.881829      1.393522
  F       1.036264      0.315877     -0.626043
  F      -0.045422      1.430139      0.926069
  F       1.800600     -4.211243      3.859964
  F       2.907413     -2.491783      3.077241
  F       2.896005     -5.873897      2.116485
  F       4.427794     -4.607662      2.994510
  F       3.773030     -4.254793      0.949130
  O       4.302551      0.140608      1.769218
  O       3.969004      0.706534     -0.382928
  C       1.189516     -2.076063      0.832642
  C       0.600309     -0.760400      1.443904
  C       1.073150     -3.347829      1.770622
  C       1.015262      0.576462      0.719375
  C       2.288829     -3.642199      2.736005
  C       2.266359      1.275646      1.195512
  C       3.370118     -4.624222      2.171376
  C       3.626236      0.633680      0.826851
  H       2.180148      1.407279      2.276557
  H       2.227490      2.264125      0.723857
80
Coordinates from ORCA-job R4N+FHEA-_r2 E -2666.581457258971
  N       6.870117     -1.744004     -1.634419
  C       1.831425     -5.245101     -4.278945
  C       0.405893     -5.045145     -3.737970
  C       0.243539     -5.348319     -2.239980
  C       2.854751     -4.492458     -3.458154
  C       1.901588     -4.847571     -5.764384
  C       5.662517     -2.390131     -0.942331
  C       4.722628     -3.109686     -1.860578
  C       0.641120     -6.768149     -1.895850
  C       3.948233     -5.154875     -2.896309
  C       2.718691     -3.119663     -3.220811
  C      -1.188128     -5.043823     -1.782882
  C       7.749760     -2.789335     -2.250121
  C       7.642067     -1.001655     -0.582598
  C       6.434555     -0.776098     -2.693485
  C       4.869200     -4.476454     -2.104480
  C       3.634051     -2.439346     -2.429173
  C       3.256512     -5.131146     -6.405125
  C       1.685705     -7.016204     -1.001463
  C      -0.025593     -7.863027     -2.458083
  C       2.055684     -8.318552     -0.670109
  C       0.342026     -9.165635     -2.132572
  C       1.384372     -9.399280     -1.235773
  H       2.078730     -6.314463     -4.206555
  H      -0.278219     -5.681101     -4.316207
  H       0.091467     -4.007508     -3.915459
  H       0.920949     -4.682803     -1.689808
  H       1.659320     -3.779706     -5.857539
  H       1.116478     -5.396086     -6.301660
  H       5.154521     -1.568733     -0.428067
  H       6.090849     -3.071169     -0.201064
  H       4.064775     -6.223684     -3.060748
  H       1.873174     -2.578377     -3.638415
  H      -1.309354     -5.237097     -0.711309
  H      -1.913705     -5.663409     -2.322871
  H      -1.435611     -3.992947     -1.972150
  H       8.064273     -3.486942     -1.471241
  H       8.618321     -2.291788     -2.686487
  H       7.190688     -3.312055     -3.027710
  H       7.947755     -1.708220      0.191646
  H       6.996047     -0.229627     -0.157647
  H       8.518415     -0.548175     -1.049588
  H       5.768822     -0.037660     -2.242648
  H       5.920705     -1.320210     -3.487089
  H       7.326214     -0.288814     -3.093148
  H       5.697357     -5.017717     -1.652804
  H       3.491297     -1.379926     -2.229359
  H       3.245990     -4.885407     -7.472319
  H       3.523115     -6.190227     -6.306596
  H       4.052304     -4.542398     -5.935088
  H       2.222585     -6.175989     -0.567982
  H      -0.840676     -7.696534     -3.158732
  H       2.871512     -8.486527      0.028540
  H      -0.186971    -10.003215     -2.579782
  H       1.669639    -10.416474     -0.981822
  F       2.485635     -1.887600      0.496938
  F       0.499530     -2.352566     -0.295676
  F       0.912258     -4.433376      0.978171
  F      -0.040887     -3.221885      2.524607
  F       0.965471     -0.670674      2.750272
  F      -0.749393     -0.881129      1.396067
  F       1.036095      0.316377     -0.624720
  F      -0.045243      1.430554      0.927678
  F       1.801538     -4.211931      3.859676
  F       2.908241     -2.492605      3.076992
  F       2.894981     -5.874241      2.114740
  F       4.428423     -4.609245      2.991715
  F       3.771682     -4.254954      0.947216
  O       4.302668      0.139981      1.768622
  O       3.968143      0.706348     -0.383214
  C       1.189486     -2.075445      0.833553
  C       0.600751     -0.759807      1.445570
  C       1.073173     -3.347706      1.771037
  C       1.015492      0.576986      0.720695
  C       2.289297     -3.642860      2.735638
  C       2.266698      1.276292      1.196222
  C       3.369943     -4.624905      2.169755
  C       3.626068      0.633645      0.826871
  H       2.180805      1.408225      2.277272
  H       2.227901      2.264548      0.724112
80
Coordinates from ORCA-job R4N+FHEA-_r2 E -2666.581458025789
  N       6.870046     -1.743525     -1.634093
  C       1.831829     -5.245933     -4.278983
  C       0.406228     -5.045536     -3.738362
  C       0.243279     -5.348048     -2.240305
  C       2.855335     -4.493318     -3.458331
  C       1.902198     -4.849078     -5.764551
  C       5.663311     -2.391495     -0.942113
  C       4.723458     -3.110700     -1.860753
  C       0.640311     -6.767958     -1.895832
  C       3.949144     -5.155670     -2.897070
  C       2.719207     -3.120597     -3.220463
  C      -1.188375     -5.042755     -1.783914
  C       7.750656     -2.787481     -2.250822
  C       7.641464     -1.001219     -0.581832
  C       6.433362     -0.775124     -2.692299
  C       4.870206     -4.477337     -2.105239
  C       3.634605     -2.440336     -2.428843
  C       3.257204     -5.132612     -6.405008
  C       1.685653     -7.016264     -1.002385
  C      -0.027513     -7.862690     -2.457065
  C       2.055382     -8.318672     -0.671026
  C       0.339937     -9.165357     -2.131557
  C       1.383087     -9.399288     -1.235787
  H       2.078929     -6.315292     -4.206110
  H      -0.277697     -5.681738     -4.316559
  H       0.091998     -4.007980     -3.916668
  H       0.920930     -4.682575     -1.690393
  H       1.659668     -3.781302     -5.858126
  H       1.117098     -5.397923     -6.301545
  H       5.154940     -1.571163     -0.426492
  H       6.092760     -3.073136     -0.202052
  H       4.065818     -6.224417     -3.062051
  H       1.873395     -2.579318     -3.637560
  H      -1.310223     -5.235308     -0.712280
  H      -1.914145     -5.662215     -2.323768
  H      -1.435273     -3.991870     -1.973895
  H       8.066586     -3.484946     -1.472377
  H       8.618261     -2.288461     -2.687473
  H       7.191712     -3.310612     -3.028211
  H       7.947967     -1.708033      0.191827
  H       6.994765     -0.230166     -0.156242
  H       8.517350     -0.546591     -1.048496
  H       5.767066     -0.037634     -2.240706
  H       5.919646     -1.319075     -3.486133
  H       7.324558     -0.286927     -3.091837
  H       5.698460     -5.018651     -1.653848
  H       3.491772     -1.380955     -2.228896
  H       3.246685     -4.887728     -7.472374
  H       3.524287     -6.191503     -6.305607
  H       4.052809     -4.543138     -5.935507
  H       2.223248     -6.176178     -0.569572
  H      -0.843285     -7.696049     -3.156890
  H       2.871757     -8.486723      0.026952
  H      -0.189930    -10.002815     -2.577998
  H       1.668264    -10.416531     -0.981916
  F       2.485458     -1.886793      0.497178
  F       0.499143     -2.351688     -0.294865
  F       0.911924     -4.432835      0.978131
  F      -0.040149     -3.221645      2.525508
  F       0.965712     -0.670278      2.751287
  F      -0.749417     -0.880931      1.397543
  F       1.035136      0.316532     -0.623804
  F      -0.045544      1.430938      0.928860
  F       1.802636     -4.212542      3.859333
  F       2.908880     -2.492888      3.077179
  F       2.895516     -5.874007      2.113558
  F       4.429817     -4.609175      2.989111
  F       3.770676     -4.254213      0.945501
  O       4.302330      0.139878      1.768868
  O       3.967770      0.706121     -0.382963
  C       1.189504     -2.074923      0.834177
  C       0.600648     -0.759410      1.446712
  C       1.073483     -3.347483      1.771374
  C       1.015201      0.577381      0.721472
  C       2.290013     -3.643119      2.735372
  C       2.266555      1.276951      1.196243
  C       3.370451     -4.624731      2.168472
  C       3.625746      0.633665      0.827175
  H       2.180735      1.409695      2.277189
  H       2.227824      2.264829      0.723339
80
Coordinates from ORCA-job R4N+FHEA-_r2 E -2666.581458583724
  N       6.870122     -1.743059     -1.633904
  C       1.832143     -5.246415     -4.278796
  C       0.406513     -5.045534     -3.738452
  C       0.242851     -5.347655     -2.240350
  C       2.855836     -4.493771     -3.458340
  C       1.902616     -4.850362     -5.764553
  C       5.663926     -2.392183     -0.941973
  C       4.724167     -3.111206     -1.860917
  C       0.639679     -6.767614     -1.895671
  C       3.949754     -5.156102     -2.897298
  C       2.719883     -3.121080     -3.220434
  C      -1.188921     -5.041946     -1.784887
  C       7.751271     -2.786081     -2.251344
  C       7.641249     -1.000827     -0.581369
  C       6.432681     -0.774310     -2.691483
  C       4.870880     -4.477759     -2.105587
  C       3.635296     -2.440755     -2.428840
  C       3.257629     -5.134035     -6.404886
  C       1.685645     -7.016115     -1.003033
  C      -0.029002     -7.862235     -2.456176
  C       2.055181     -8.318595     -0.671686
  C       0.338330     -9.164946     -2.130707
  C       1.382110     -9.399111     -1.235715
  H       2.079064     -6.315793     -4.205399
  H      -0.277318     -5.681799     -4.316700
  H       0.092656     -4.007929     -3.917166
  H       0.920439     -4.682112     -1.690439
  H       1.659920     -3.782685     -5.858765
  H       1.117601     -5.399671     -6.301167
  H       5.155218     -1.572583     -0.425569
  H       6.094144     -3.074165     -0.202689
  H       4.066466     -6.224807     -3.062418
  H       1.874009     -2.579813     -3.637420
  H      -1.311608     -5.233860     -0.713240
  H      -1.914615     -5.661386     -2.324874
  H      -1.435373     -3.991085     -1.975599
  H       8.068202     -3.483470     -1.473270
  H       8.618219     -2.286202     -2.688320
  H       7.192302     -3.309551     -3.028465
  H       7.948271     -1.707877      0.191913
  H       6.994152     -0.230342     -0.155253
  H       8.516925     -0.545519     -1.047856
  H       5.765997     -0.037529     -2.239351
  H       5.919076     -1.318126     -3.485473
  H       7.323569     -0.285394     -3.090795
  H       5.699197     -5.019041     -1.654326
  H       3.492395     -1.381408     -2.228888
  H       3.246911     -4.889948     -7.472478
  H       3.525097     -6.192776     -6.304764
  H       4.053115     -4.543900     -5.936036
  H       2.223905     -6.176247     -0.570655
  H      -0.845305     -7.695500     -3.155379
  H       2.872040     -8.486722      0.025728
  H      -0.192252    -10.002263     -2.576575
  H       1.667194    -10.416379     -0.981831
  F       2.485383     -1.886628      0.497329
  F       0.498896     -2.351341     -0.294311
  F       0.911623     -4.432720      0.978179
  F      -0.039493     -3.221701      2.526242
  F       0.966263     -0.670253      2.751931
  F      -0.749326     -0.881029      1.398802
  F       1.035347      0.316098     -0.623332
  F      -0.046057      1.430616      0.928770
  F       1.803642     -4.213051      3.859110
  F       2.909664     -2.493374      3.076849
  F       2.895738     -5.874239      2.112188
  F       4.430476     -4.609954      2.987591
  F       3.770338     -4.253921      0.944426
  O       4.301945      0.139964      1.768572
  O       3.967070      0.706931     -0.382996
  C       1.189583     -2.074877      0.834637
  C       0.600690     -0.759425      1.447488
  C       1.073735     -3.347538      1.771607
  C       1.015011      0.577349      0.721822
  C       2.290625     -3.643537      2.735027
  C       2.266121      1.277345      1.196560
  C       3.370751     -4.625031      2.167534
  C       3.625255      0.634074      0.827227
  H       2.180323      1.410047      2.277499
  H       2.227180      2.265152      0.723677
80
Coordinates from ORCA-job R4N+FHEA-_r2 E -2666.581459058651
  N       6.870294     -1.743071     -1.633680
  C       1.832211     -5.246705     -4.278781
  C       0.406606     -5.045500     -3.738537
  C       0.242472     -5.347151     -2.240333
  C       2.856135     -4.494210     -3.458425
  C       1.902607     -4.850924     -5.764582
  C       5.664484     -2.393155     -0.941905
  C       4.724749     -3.111930     -1.861135
  C       0.639469     -6.767023     -1.895305
  C       3.950037     -5.156696     -2.897536
  C       2.720491     -3.121535     -3.220535
  C      -1.189465     -5.041334     -1.785682
  C       7.751852     -2.785326     -2.251750
  C       7.641163     -1.001079     -0.580788
  C       6.432293     -0.773961     -2.690708
  C       4.871270     -4.478439     -2.105949
  C       3.635943     -2.441253     -2.428877
  C       3.257600     -5.134574     -6.405054
  C       1.685973     -7.015455     -1.003349
  C      -0.029755     -7.861710     -2.455141
  C       2.055542     -8.317942     -0.671959
  C       0.337622     -9.164394     -2.129631
  C       1.381967     -9.398509     -1.235275
  H       2.078970     -6.316120     -4.205286
  H      -0.277206     -5.681863     -4.316687
  H       0.093039     -4.007838     -3.917426
  H       0.919854     -4.681229     -1.690578
  H       1.659829     -3.783294     -5.859070
  H       1.117686     -5.400557     -6.301011
  H       5.155431     -1.574215     -0.424813
  H       6.095283     -3.075458     -0.203262
  H       4.066638     -6.225412     -3.062615
  H       1.874705     -2.580184     -3.637551
  H      -1.312826     -5.232473     -0.713987
  H      -1.914880     -5.661076     -2.325677
  H      -1.435808     -3.990614     -1.977276
  H       8.069500     -3.482824     -1.474023
  H       8.618375     -2.284918     -2.688957
  H       7.192871     -3.308984     -3.028736
  H       7.948618     -1.708424      0.192022
  H       6.993763     -0.231211     -0.154087
  H       8.516604     -0.545121     -1.047015
  H       5.765289     -0.037773     -2.238106
  H       5.918888     -1.317623     -3.484920
  H       7.322956     -0.284353     -3.089695
  H       5.699669     -5.019756     -1.654848
  H       3.493075     -1.381917     -2.228839
  H       3.246538     -4.890700     -7.472701
  H       3.525315     -6.193249     -6.304871
  H       4.053076     -4.544115     -5.936589
  H       2.224756     -6.175738     -0.571367
  H      -0.846478     -7.695075     -3.153882
  H       2.872886     -8.485998      0.024920
  H      -0.193441    -10.001687     -2.574989
  H       1.667090    -10.415732     -0.981266
  F       2.485277     -1.886322      0.497277
  F       0.498793     -2.351324     -0.294103
  F       0.911694     -4.432730      0.978143
  F      -0.039026     -3.221864      2.526595
  F       0.966241     -0.670378      2.752127
  F      -0.749530     -0.881412      1.399255
  F       1.034952      0.315817     -0.623118
  F      -0.046796      1.430318      0.928764
  F       1.804321     -4.213703      3.858741
  F       2.910010     -2.493639      3.076890
  F       2.896518     -5.874309      2.111371
  F       4.431197     -4.609789      2.986384
  F       3.770093     -4.253522      0.943570
  O       4.301462      0.140381      1.768749
  O       3.966434      0.707173     -0.382860
  C       1.189600     -2.074897      0.834786
  C       0.600456     -0.759594      1.447737
  C       1.073983     -3.347574      1.771630
  C       1.014464      0.577271      0.721939
  C       2.291062     -3.643742      2.734752
  C       2.265475      1.277558      1.196603
  C       3.371154     -4.624950      2.166842
  C       3.624695      0.634321      0.827381
  H       2.179667      1.410384      2.277524
  H       2.226411      2.265315      0.723634
80
Coordinates from ORCA-job R4N+FHEA-_r2 E -2666.581459505838
  N       6.870518     -1.743076     -1.633519
  C       1.832317     -5.247008     -4.278753
  C       0.406730     -5.045352     -3.738653
  C       0.242127     -5.346465     -2.240317
  C       2.856462     -4.494697     -3.458487
  C       1.902709     -4.851374     -5.764612
  C       5.665174     -2.394266     -0.941961
  C       4.725445     -3.112775     -1.861415
  C       0.639300     -6.766204     -1.894775
  C       3.950440     -5.157351     -2.897917
  C       2.721033     -3.122064     -3.220508
  C      -1.190063     -5.040584     -1.786566
  C       7.752436     -2.784480     -2.252367
  C       7.641156     -1.001335     -0.580282
  C       6.431859     -0.773591     -2.689917
  C       4.871864     -4.479215     -2.106511
  C       3.636602     -2.441904     -2.428810
  C       3.257594     -5.135330     -6.405277
  C       1.686403     -7.014465     -1.003534
  C      -0.030434     -7.861032     -2.453794
  C       2.056060     -8.316934     -0.672029
  C       0.336977     -9.163668     -2.128135
  C       1.381948     -9.397603     -1.234455
  H       2.078824     -6.316494     -4.205230
  H      -0.277181     -5.681742     -4.316653
  H       0.093501     -4.007612     -3.917683
  H       0.919205     -4.680129     -1.690647
  H       1.660147     -3.783729     -5.859305
  H       1.117786     -5.401059     -6.300948
  H       5.155758     -1.576056     -0.424115
  H       6.096537     -3.076871     -0.203948
  H       4.066960     -6.226038     -3.063012
  H       1.875309     -2.580623     -3.637475
  H      -1.314200     -5.230978     -0.714830
  H      -1.915061     -5.660724     -2.326677
  H      -1.436403     -3.990013     -1.979036
  H       8.070816     -3.482190     -1.475150
  H       8.618508     -2.283542     -2.689772
  H       7.193423     -3.308200     -3.029302
  H       7.949008     -1.708996      0.192089
  H       6.993487     -0.231988     -0.153004
  H       8.516352     -0.544744     -1.046356
  H       5.764414     -0.038176     -2.236755
  H       5.918862     -1.317099     -3.484481
  H       7.322198     -0.283021     -3.088472
  H       5.700484     -5.020518     -1.655771
  H       3.493779     -1.382596     -2.228562
  H       3.246235     -4.891569     -7.472982
  H       3.525228     -6.194029     -6.305118
  H       4.053196     -4.544849     -5.937094
  H       2.225819     -6.174864     -0.572129
  H      -0.847582     -7.694564     -3.152057
  H       2.873967     -8.484876      0.024223
  H      -0.194554    -10.000989     -2.572864
  H       1.667112    -10.414762     -0.980231
  F       2.485132     -1.886220      0.497231
  F       0.498690     -2.351464     -0.294101
  F       0.911702     -4.432881      0.978006
  F      -0.038860     -3.222148      2.526684
  F       0.966162     -0.670717      2.752173
  F      -0.749784     -0.881904      1.399491
  F       1.034549      0.315743     -0.622914
  F      -0.047532      1.429984      0.928934
  F       1.804706     -4.214532      3.858231
  F       2.910141     -2.494022      3.076801
  F       2.896994     -5.874498      2.110462
  F       4.431499     -4.609788      2.985384
  F       3.769907     -4.253321      0.942731
  O       4.300941      0.140607      1.768833
  O       3.965707      0.707628     -0.382701
  C       1.189495     -2.075014      0.834791
  C       0.600214     -0.759873      1.447805
  C       1.074028     -3.347722      1.771491
  C       1.013863      0.577161      0.722137
  C       2.291222     -3.644032      2.734373
  C       2.264803      1.277574      1.196929
  C       3.371291     -4.624987      2.166063
  C       3.624097      0.634557      0.827564
  H       2.179053      1.410246      2.277869
  H       2.225626      2.265417      0.724182
80
Coordinates from ORCA-job R4N+FHEA-_r2 E -2666.581459923656
  N       6.870724     -1.743181     -1.633492
  C       1.832409     -5.247423     -4.278926
  C       0.406838     -5.045307     -3.738962
  C       0.241919     -5.345672     -2.240454
  C       2.856768     -4.495332     -3.458746
  C       1.902829     -4.851726     -5.764800
  C       5.665897     -2.395605     -0.942240
  C       4.726172     -3.113843     -1.861889
  C       0.639237     -6.765194     -1.894206
  C       3.950927     -5.158141     -2.898695
  C       2.721406     -3.122761     -3.220472
  C      -1.190535     -5.039753     -1.787526
  C       7.753160     -2.783753     -2.252979
  C       7.640973     -1.001603     -0.579880
  C       6.431415     -0.773403     -2.689335
  C       4.872612     -4.480196     -2.107444
  C       3.637162     -2.442828     -2.428778
  C       3.257582     -5.136116     -6.405665
  C       1.686886     -7.013144     -1.003538
  C      -0.030851     -7.860253     -2.452378
  C       2.056685     -8.315537     -0.671766
  C       0.336631     -9.162791     -2.126438
  C       1.382157     -9.396391     -1.233287
  H       2.078628     -6.316983     -4.205492
  H      -0.277209     -5.681808     -4.316671
  H       0.093823     -4.007560     -3.918292
  H       0.918680     -4.678865     -1.690953
  H       1.660669     -3.783994     -5.859471
  H       1.117774     -5.401182     -6.301178
  H       5.156039     -1.578194     -0.423558
  H       6.097794     -3.078505     -0.204807
  H       4.067377     -6.226797     -3.063927
  H       1.875652     -2.581230     -3.637203
  H      -1.315308     -5.229232     -0.715712
  H      -1.915022     -5.660539     -2.327557
  H      -1.437097     -3.989425     -1.981003
  H       8.072167     -3.481663     -1.476153
  H       8.618868     -2.282246     -2.690456
  H       7.194284     -3.307524     -3.029993
  H       7.949268     -1.709526      0.192050
  H       6.992910     -0.232891     -0.152104
  H       8.515828     -0.544225     -1.045775
  H       5.763505     -0.038739     -2.235648
  H       5.918913     -1.316806     -3.484271
  H       7.321406     -0.281859     -3.087520
  H       5.701500     -5.021515     -1.657170
  H       3.494442     -1.383563     -2.228181
  H       3.246077     -4.892192     -7.473328
  H       3.524838     -6.194919     -6.305760
  H       4.053421     -4.545981     -5.937491
  H       2.226901     -6.173578     -0.572824
  H      -0.848358     -7.694032     -3.150288
  H       2.875096     -8.483274      0.023963
  H      -0.195230    -10.000231     -2.570536
  H       1.667414    -10.413455     -0.978781
  F       2.484829     -1.885977      0.497285
  F       0.498489     -2.351511     -0.294154
  F       0.911773     -4.432981      0.977771
  F      -0.039008     -3.222553      2.526579
  F       0.965828     -0.671165      2.752322
  F      -0.750198     -0.882242      1.399673
  F       1.033859      0.316155     -0.622442
  F      -0.048151      1.429889      0.929798
  F       1.804758     -4.215411      3.857708
  F       2.909860     -2.494292      3.076954
  F       2.897350     -5.874547      2.109791
  F       4.431635     -4.609458      2.984515
  F       3.769600     -4.253077      0.942008
  O       4.300694      0.140970      1.769254
  O       3.964849      0.707585     -0.382316
  C       1.189185     -2.075018      0.834786
  C       0.599829     -0.760077      1.447937
  C       1.073900     -3.347861      1.771313
  C       1.013218      0.577184      0.722687
  C       2.291122     -3.644222      2.734095
  C       2.264233      1.277423      1.197646
  C       3.371293     -4.624847      2.165364
  C       3.623566      0.634641      0.828033
  H       2.178594      1.409777      2.278646
  H       2.225073      2.265477      0.725243
80
Coordinates from ORCA-job R4N+FHEA-_r2 E -2666.581460320434
  N       6.870931     -1.743234     -1.633559
  C       1.832606     -5.247921     -4.279188
  C       0.407003     -5.045268     -3.739479
  C       0.241753     -5.344827     -2.240803
  C       2.857131     -4.496013     -3.459082
  C       1.903251     -4.852231     -5.765115
  C       5.666668     -2.396920     -0.942628
  C       4.726964     -3.114919     -1.862432
  C       0.639070     -6.764131     -1.893722
  C       3.951607     -5.158897     -2.899729
  C       2.721648     -3.123530     -3.220298
  C      -1.190993     -5.038813     -1.788679
  C       7.753843     -2.782935     -2.253812
  C       7.640848     -1.001823     -0.579584
  C       6.430922     -0.773091     -2.688756
  C       4.873583     -4.481160     -2.108599
  C       3.637646     -2.443862     -2.428687
  C       3.257795     -5.137508     -6.406053
  C       1.687292     -7.011695     -1.003609
  C      -0.031394     -7.859479     -2.450855
  C       2.057244     -8.313965     -0.671442
  C       0.336151     -9.161891     -2.124474
  C       1.382272     -9.395067     -1.231901
  H       2.078484     -6.317559     -4.205737
  H      -0.277171     -5.681899     -4.316910
  H       0.094144     -4.007567     -3.919330
  H       0.918215     -4.677617     -1.691430
  H       1.661813     -3.784337     -5.859728
  H       1.117852     -5.401104     -6.301561
  H       5.156418     -1.580286     -0.423126
  H       6.099059     -3.080088     -0.205752
  H       4.068080     -6.227483     -3.065325
  H       1.875709     -2.581954     -3.636567
  H      -1.316349     -5.227373     -0.716770
  H      -1.914990     -5.660311     -2.328554
  H      -1.437847     -3.988729     -1.983167
  H       8.073458     -3.481079     -1.477475
  H       8.619144     -2.280697     -2.691221
  H       7.195114     -3.306594     -3.031023
  H       7.949586     -1.710020      0.191929
  H       6.992387     -0.233680     -0.151342
  H       8.515349     -0.543648     -1.045377
  H       5.762506     -0.039260     -2.234470
  H       5.918942     -1.316346     -3.484131
  H       7.320513     -0.280521     -3.086585
  H       5.702757     -5.022493     -1.658861
  H       3.495043     -1.384662     -2.227648
  H       3.246439     -4.893354     -7.473675
  H       3.524223     -6.196538     -6.306359
  H       4.054051     -4.548107     -5.937690
  H       2.227902     -6.172072     -0.573749
  H      -0.849302     -7.693552     -3.148345
  H       2.876139     -8.481422      0.023774
  H      -0.196039     -9.999526     -2.567778
  H       1.667630    -10.412028     -0.977058
  F       2.484353     -1.885762      0.497337
  F       0.498023     -2.351434     -0.294112
  F       0.911708     -4.433056      0.977470
  F      -0.039288     -3.223004      2.526458
  F       0.965387     -0.671740      2.752718
  F      -0.750700     -0.882496      1.400062
  F       1.032865      0.316941     -0.621620
  F      -0.048683      1.429978      0.931410
  F       1.804779     -4.216295      3.857125
  F       2.909505     -2.494553      3.076991
  F       2.897486     -5.874512      2.108951
  F       4.431674     -4.609218      2.983588
  F       3.769350     -4.252769      0.941198
  O       4.300506      0.141143      1.769769
  O       3.964021      0.707724     -0.381712
  C       1.188695     -2.074966      0.834827
  C       0.599365     -0.760232      1.448313
  C       1.073645     -3.348034      1.771143
  C       1.012561      0.577319      0.723655
  C       2.290949     -3.644427      2.733748
  C       2.263740      1.277207      1.198772
  C       3.371224     -4.624708      2.164509
  C       3.623068      0.634732      0.828720
  H       2.178282      1.409098      2.279841
  H       2.224621      2.265531      0.726873
80
Coordinates from ORCA-job R4N+FHEA-_r2 E -2666.581460691714
  N       6.871080     -1.743315     -1.633779
  C       1.832811     -5.248436     -4.279616
  C       0.407155     -5.045312     -3.740204
  C       0.241638     -5.344031     -2.241394
  C       2.857453     -4.496652     -3.459571
  C       1.903790     -4.852842     -5.765591
  C       5.667282     -2.398015     -0.943122
  C       4.727640     -3.115872     -1.863060
  C       0.638876     -6.763113     -1.893482
  C       3.952290     -5.159533     -2.900931
  C       2.721741     -3.124256     -3.220184
  C      -1.191332     -5.037908     -1.789899
  C       7.754484     -2.782349     -2.254550
  C       7.640661     -1.001987     -0.579502
  C       6.430531     -0.772897     -2.688483
  C       4.874515     -4.481995     -2.109850
  C       3.637985     -2.444837     -2.428716
  C       3.258137     -5.139154     -6.406459
  C       1.687469     -7.010222     -1.003634
  C      -0.031769     -7.858777     -2.449750
  C       2.057519     -8.312312     -0.670870
  C       0.335854     -9.161017     -2.122796
  C       1.382310     -9.393715     -1.230457
  H       2.078383     -6.318127     -4.206033
  H      -0.277043     -5.682175     -4.317359
  H       0.094315     -4.007735     -3.920773
  H       0.917863     -4.676504     -1.692154
  H       1.663158     -3.784743     -5.860111
  H       1.117926     -5.401009     -6.302109
  H       5.156658     -1.582010     -0.422969
  H       6.100031     -3.081392     -0.206637
  H       4.068850     -6.228044     -3.067026
  H       1.875516     -2.582660     -3.635867
  H      -1.317005     -5.225423     -0.717843
  H      -1.914932     -5.660227     -2.329348
  H      -1.438563     -3.988116     -1.985476
  H       8.074461     -3.480660     -1.478494
  H       8.619528     -2.279418     -2.691744
  H       7.195995     -3.305877     -3.032021
  H       7.949840     -1.710384      0.191638
  H       6.991771     -0.234418     -0.150898
  H       8.514814     -0.543034     -1.045185
  H       5.761768     -0.039645     -2.233751
  H       5.918880     -1.316022     -3.484157
  H       7.319818     -0.279637     -3.086151
  H       5.703898     -5.023383     -1.660580
  H       3.495529     -1.385707     -2.227213
  H       3.247173     -4.894669     -7.473989
  H       3.523521     -6.198469     -6.307002
  H       4.054889     -4.550705     -5.937725
  H       2.228460     -6.170437     -0.574577
  H      -0.849922     -7.693179     -3.147056
  H       2.876674     -8.479415      0.024133
  H      -0.196476     -9.998911     -2.565442
  H       1.667760    -10.410552     -0.975209
  F       2.483735     -1.885483      0.497442
  F       0.497326     -2.351182     -0.293834
  F       0.911700     -4.433092      0.977226
  F      -0.039551     -3.223577      2.526477
  F       0.964949     -0.672347      2.753457
  F      -0.751225     -0.882581      1.400828
  F       1.031816      0.317887     -0.620483
  F      -0.049133      1.430148      0.933476
  F       1.804894     -4.216987      3.856759
  F       2.909149     -2.494685      3.077089
  F       2.897673     -5.874354      2.108256
  F       4.431797     -4.608910      2.982894
  F       3.769244     -4.252345      0.940636
  O       4.300512      0.141538      1.770511
  O       3.963120      0.707784     -0.380906
  C       1.188108     -2.074863      0.835051
  C       0.598857     -0.760330      1.449048
  C       1.073409     -3.348225      1.771131
  C       1.011965      0.577504      0.724963
  C       2.290849     -3.644571      2.733548
  C       2.263295      1.276990      1.200217
  C       3.371273     -4.624493      2.163859
  C       3.622606      0.634878      0.829639
  H       2.178031      1.408289      2.281376
  H       2.224176      2.265623      0.728879
80
Coordinates from ORCA-job R4N+FHEA-_r2 E -2666.581461047521
  N       6.871224     -1.743288     -1.634043
  C       1.833143     -5.248947     -4.280101
  C       0.407377     -5.045316     -3.741145
  C       0.241450     -5.343220     -2.242238
  C       2.857856     -4.497224     -3.460092
  C       1.904683     -4.853713     -5.766173
  C       5.667873     -2.398881     -0.943610
  C       4.728339     -3.116655     -1.863703
  C       0.638467     -6.762142     -1.893475
  C       3.953125     -5.160022     -2.902208
  C       2.721829     -3.124934     -3.220015
  C      -1.191686     -5.036834     -1.791320
  C       7.755047     -2.781638     -2.255439
  C       7.640582     -1.002084     -0.579490
  C       6.430115     -0.772526     -2.688185
  C       4.875539     -4.482641     -2.111149
  C       3.638296     -2.445699     -2.428722
  C       3.258812     -5.141456     -6.406771
  C       1.687383     -7.008773     -1.003843
  C      -0.032470     -7.858129     -2.448732
  C       2.057413     -8.310656     -0.670292
  C       0.335138     -9.160179     -2.120992
  C       1.381884     -9.392387     -1.228875
  H       2.078396     -6.318682     -4.206153
  H      -0.276733     -5.682450     -4.318132
  H       0.094568     -4.007879     -3.922586
  H       0.917518     -4.675497     -1.693073
  H       1.665065     -3.785372     -5.860747
  H       1.118239     -5.401059     -6.302701
  H       5.156933     -1.583432     -0.422914
  H       6.100940     -3.082458     -0.207513
  H       4.069872     -6.228438     -3.068940
  H       1.875215     -2.583366     -3.634987
  H      -1.317542     -5.223255     -0.719087
  H      -1.915075     -5.659898     -2.330207
  H      -1.439160     -3.987297     -1.988030
  H       8.075336     -3.480159     -1.479740
  H       8.619811     -2.277929     -2.692316
  H       7.196757     -3.304924     -3.033219
  H       7.950220     -1.710708      0.191271
  H       6.991312     -0.235042     -0.150477
  H       8.514419     -0.542405     -1.045082
  H       5.761052     -0.039816     -2.233002
  H       5.918641     -1.315464     -3.484117
  H       7.319109     -0.278680     -3.085756
  H       5.705118     -5.024087     -1.662346
  H       3.495944     -1.386661     -2.226713
  H       3.248479     -4.896740     -7.474255
  H       3.522873     -6.201130     -6.307384
  H       4.056175     -4.554113     -5.937637
  H       2.228679     -6.168733     -0.575675
  H      -0.850868     -7.692885     -3.145825
  H       2.876763     -8.477359      0.024561
  H      -0.197397     -9.998369     -2.562831
  H       1.667317    -10.409097     -0.973069
  F       2.483021     -1.885284      0.497400
  F       0.496357     -2.350879     -0.293284
  F       0.911700     -4.433167      0.976980
  F      -0.039537     -3.224281      2.526723
  F       0.964607     -0.673096      2.754520
  F      -0.751754     -0.882818      1.402072
  F       1.030486      0.318810     -0.619022
  F      -0.049747      1.430215      0.936023
  F       1.805429     -4.217671      3.856388
  F       2.909121     -2.494880      3.076969
  F       2.898049     -5.874217      2.107229
  F       4.432176     -4.608838      2.982102
  F       3.769474     -4.251807      0.940005
  O       4.300368      0.141866      1.771260
  O       3.962160      0.708266     -0.379968
  C       1.187516     -2.074828      0.835421
  C       0.598330     -0.760528      1.450153
  C       1.073325     -3.348506      1.771203
  C       1.011270      0.577639      0.726589
  C       2.291050     -3.644821      2.733249
  C       2.262710      1.276852      1.201855
  C       3.371586     -4.624380      2.163091
  C       3.622018      0.635166      0.830661
  H       2.177694      1.407553      2.283094
  H       2.223429      2.265745      0.731088
80
Coordinates from ORCA-job R4N+FHEA-_r2 E -2666.581461351089
  N       6.871322     -1.743245     -1.634329
  C       1.833450     -5.249334     -4.280576
  C       0.407572     -5.045300     -3.742082
  C       0.241222     -5.342517     -2.243127
  C       2.858194     -4.497632     -3.460565
  C       1.905560     -4.854559     -5.766731
  C       5.668283     -2.399430     -0.944014
  C       4.728867     -3.117190     -1.864262
  C       0.638019     -6.761335     -1.893677
  C       3.953822     -5.160341     -2.903274
  C       2.721912     -3.125436     -3.219926
  C      -1.191952     -5.035796     -1.792590
  C       7.755498     -2.781092     -2.256157
  C       7.640523     -1.002127     -0.579587
  C       6.429797     -0.772247     -2.688074
  C       4.876326     -4.483053     -2.112220
  C       3.638524     -2.446287     -2.428768
  C       3.259549     -5.143572     -6.406982
  C       1.687041     -7.007533     -1.004031
  C      -0.033096     -7.857577     -2.448221
  C       2.056928     -8.309216     -0.669626
  C       0.334444     -9.159442     -2.119687
  C       1.381208     -9.391233     -1.227475
  H       2.078453     -6.319094     -4.206187
  H      -0.276352     -5.682721     -4.318978
  H       0.094799     -4.007986     -3.924294
  H       0.917231     -4.674713     -1.694003
  H       1.666797     -3.786016     -5.861466
  H       1.118649     -5.401312     -6.303232
  H       5.157072     -1.584370     -0.422974
  H       6.101571     -3.083182     -0.208199
  H       4.070770     -6.228674     -3.070557
  H       1.874965     -2.583892     -3.634305
  H      -1.317756     -5.221142     -0.720159
  H      -1.915340     -5.659452     -2.330798
  H      -1.439506     -3.986477     -1.990363
  H       8.075928     -3.479796     -1.480681
  H       8.620105     -2.276800     -2.692731
  H       7.197384     -3.304190     -3.034180
  H       7.950575     -1.710923      0.190845
  H       6.990954     -0.235550     -0.150206
  H       8.514118     -0.541880     -1.045081
  H       5.760618     -0.039807     -2.232614
  H       5.918255     -1.315031     -3.484072
  H       7.318616     -0.278147     -3.085704
  H       5.706063     -5.024557     -1.663800
  H       3.496236     -1.387331     -2.226327
  H       3.249818     -4.898718     -7.474429
  H       3.522490     -6.203547     -6.307604
  H       4.057434     -4.557119     -5.937540
  H       2.228420     -6.167191     -0.576582
  H      -0.851554     -7.692656     -3.145345
  H       2.876293     -8.475553      0.025305
  H      -0.198189     -9.997891     -2.560948
  H       1.666526    -10.407818     -0.971061
  F       2.482382     -1.885204      0.497287
  F       0.495370     -2.350665     -0.292535
  F       0.911865     -4.433343      0.976901
  F      -0.039254     -3.225081      2.527201
  F       0.964504     -0.673785      2.755635
  F      -0.752138     -0.883189      1.403533
  F       1.029378      0.319282     -0.617683
  F      -0.050441      1.430013      0.938132
  F       1.806244     -4.218155      3.856298
  F       2.909368     -2.495043      3.076835
  F       2.898741     -5.874150      2.106404
  F       4.432780     -4.608830      2.981631
  F       3.769963     -4.251292      0.939686
  O       4.300101      0.142283      1.771914
  O       3.961196      0.708854     -0.379139
  C       1.187071     -2.074929      0.835919
  C       0.597921     -0.760840      1.451344
  C       1.073453     -3.348860      1.771422
  C       1.010617      0.577583      0.728035
  C       2.291501     -3.645098      2.733102
  C       2.262023      1.276793      1.203233
  C       3.372154     -4.624335      2.162651
  C       3.621361      0.635521      0.831549
  H       2.177211      1.407033      2.284538
  H       2.222403      2.265847      0.732864
80
Coordinates from ORCA-job R4N+FHEA-_r2 E -2666.581461583748
  N       6.871404     -1.743056     -1.634560
  C       1.833802     -5.249620     -4.280905
  C       0.407803     -5.045211     -3.742890
  C       0.240976     -5.341904     -2.243908
  C       2.858540     -4.497895     -3.460874
  C       1.906479     -4.855386     -5.767156
  C       5.668614     -2.399689     -0.944300
  C       4.729307     -3.117460     -1.864684
  C       0.637491     -6.760706     -1.893919
  C       3.954444     -5.160519     -2.903989
  C       2.722083     -3.125777     -3.219887
  C      -1.192144     -5.034692     -1.793641
  C       7.755818     -2.780460     -2.256811
  C       7.640539     -1.002029     -0.579692
  C       6.429501     -0.771870     -2.687975
  C       4.876963     -4.483228     -2.112983
  C       3.638736     -2.446603     -2.428792
  C       3.260400     -5.145489     -6.407023
  C       1.686578     -7.006626     -1.004288
  C      -0.033948     -7.857089     -2.447800
  C       2.056201     -8.308177     -0.669139
  C       0.333379     -9.158839     -2.118533
  C       1.380152     -9.390368     -1.226296
  H       2.078593     -6.319399     -4.206036
  H      -0.275932     -5.682837     -4.319789
  H       0.095180     -4.007945     -3.925653
  H       0.917032     -4.674127     -1.694792
  H       1.668403     -3.786706     -5.862224
  H       1.119289     -5.401810     -6.303608
  H       5.157192     -1.584916     -0.423057
  H       6.102103     -3.083581     -0.208744
  H       4.071576     -6.228793     -3.071618
  H       1.874905     -2.584276     -3.633876
  H      -1.317826     -5.219173     -0.721039
  H      -1.915746     -5.658605     -2.331285
  H      -1.439473     -3.985467     -1.992232
  H       8.076383     -3.479363     -1.481587
  H       8.620278     -2.275753     -2.693183
  H       7.197782     -3.303415     -3.034989
  H       7.950941     -1.710976      0.190466
  H       6.990793     -0.235801     -0.149950
  H       8.513965     -0.541392     -1.045118
  H       5.760257     -0.039624     -2.232299
  H       5.917803     -1.314534     -3.483960
  H       7.318179     -0.277602     -3.085680
  H       5.706875     -5.024730     -1.664882
  H       3.496425     -1.387716     -2.226043
  H       3.251145     -4.900705     -7.474502
  H       3.522505     -6.205680     -6.307501
  H       4.058663     -4.559600     -5.937462
  H       2.228024     -6.166012     -0.577466
  H      -0.852454     -7.692397     -3.144907
  H       2.875591     -8.474278      0.025810
  H      -0.199483     -9.997446     -2.559236
  H       1.665220    -10.406870     -0.969279
  F       2.481908     -1.885310      0.497021
  F       0.494526     -2.350677     -0.291809
  F       0.912173     -4.433633      0.976820
  F      -0.038755     -3.225941      2.527680
  F       0.964537     -0.674494      2.756587
  F      -0.752401     -0.883862      1.404899
  F       1.028380      0.319341     -0.616560
  F      -0.051230      1.429545      0.939809
  F       1.807209     -4.218604      3.856223
  F       2.909844     -2.495286      3.076595
  F       2.899614     -5.874236      2.105555
  F       4.433481     -4.609022      2.981292
  F       3.770680     -4.250863      0.939458
  O       4.299648      0.142410      1.772298
  O       3.960319      0.709554     -0.378528
  C       1.186823     -2.075193      0.836366
  C       0.597632     -0.761325      1.452379
  C       1.073765     -3.349299      1.771589
  C       1.009961      0.577322      0.729208
  C       2.292116     -3.645466      2.732928
  C       2.261282      1.276734      1.204252
  C       3.372868     -4.624429      2.162307
  C       3.620667      0.635788      0.832184
  H       2.176654      1.406710      2.285594
  H       2.221228      2.265836      0.734125
80
Coordinates from ORCA-job R4N+FHEA-_r2 E -2666.581461741452
  N       6.871457     -1.742916     -1.634714
  C       1.834025     -5.249762     -4.281087
  C       0.407956     -5.045112     -3.743376
  C       0.240824     -5.341465     -2.244371
  C       2.858749     -4.498030     -3.461023
  C       1.907033     -4.855845     -5.767383
  C       5.668812     -2.399828     -0.944461
  C       4.729546     -3.117598     -1.864919
  C       0.637150     -6.760266     -1.894055
  C       3.954773     -5.160640     -2.904313
  C       2.722246     -3.125958     -3.219926
  C      -1.192196     -5.033826     -1.794210
  C       7.756012     -2.780052     -2.257205
  C       7.640548     -1.001937     -0.579791
  C       6.429318     -0.771663     -2.687976
  C       4.877278     -4.483319     -2.113362
  C       3.638873     -2.446733     -2.428806
  C       3.260977     -5.146426     -6.407013
  C       1.686225     -7.006049     -1.004387
  C      -0.034502     -7.856690     -2.447608
  C       2.055618     -8.307536     -0.668772
  C       0.332634     -9.158387     -2.117897
  C       1.379345     -9.389791     -1.225561
  H       2.078686     -6.319554     -4.205952
  H      -0.275670     -5.682846     -4.320272
  H       0.095495     -4.007839     -3.926373
  H       0.916963     -4.673726     -1.695283
  H       1.669254     -3.787121     -5.862724
  H       1.119818     -5.402254     -6.303829
  H       5.157243     -1.585214     -0.423123
  H       6.102449     -3.083807     -0.209066
  H       4.071988     -6.228888     -3.072031
  H       1.875005     -2.584467     -3.633797
  H      -1.317722     -5.217744     -0.721489
  H      -1.916053     -5.657766     -2.331478
  H      -1.439211     -3.984623     -1.993280
  H       8.076680     -3.479099     -1.482140
  H       8.620397     -2.275187     -2.693527
  H       7.197999     -3.302971     -3.035424
  H       7.951165     -1.710968      0.190202
  H       6.990719     -0.235918     -0.149808
  H       8.513881     -0.541101     -1.045179
  H       5.760076     -0.039485     -2.232191
  H       5.917470     -1.314287     -3.483886
  H       7.317928     -0.277339     -3.085761
  H       5.707336     -5.024789     -1.665466
  H       3.496509     -1.387879     -2.225899
  H       3.251904     -4.901728     -7.474513
  H       3.522769     -6.206693     -6.307416
  H       4.059377     -4.560699     -5.937459
  H       2.227675     -6.165246     -0.577949
  H      -0.852972     -7.692123     -3.144792
  H       2.875007     -8.473537      0.026213
  H      -0.200385     -9.997047     -2.558325
  H       1.664195    -10.406244     -0.968142
  F       2.481627     -1.885567      0.496777
  F       0.493966     -2.350931     -0.291277
  F       0.912547     -4.434003      0.976886
  F      -0.038382     -3.226668      2.528042
  F       0.964634     -0.674976      2.757100
  F      -0.752520     -0.884527      1.405752
  F       1.027855      0.318959     -0.616032
  F      -0.051832      1.428968      0.940457
  F       1.807877     -4.218827      3.856363
  F       2.910186     -2.495431      3.076496
  F       2.900407     -5.874377      2.105280
  F       4.434006     -4.609102      2.981363
  F       3.771251     -4.250649      0.939556
  O       4.299194      0.142311      1.772380
  O       3.959705      0.709947     -0.378286
  C       1.186711     -2.075546      0.836677
  C       0.597491     -0.761808      1.452943
  C       1.074051     -3.349718      1.771751
  C       1.009496      0.576918      0.729735
  C       2.292563     -3.645741      2.732959
  C       2.260703      1.276608      1.204641
  C       3.373442     -4.624517      2.162358
  C       3.620126      0.635836      0.832423
  H       2.176162      1.406545      2.285999
  H       2.220290      2.265690      0.734544
80
Coordinates from ORCA-job R4N+FHEA-_r2 E -2666.581461869457
  N       6.871487     -1.742701     -1.634856
  C       1.834268     -5.249907     -4.281187
  C       0.408140     -5.045013     -3.743731
  C       0.240778     -5.341051     -2.244679
  C       2.858964     -4.498145     -3.461109
  C       1.907532     -4.856251     -5.767535
  C       5.668976     -2.399883     -0.944601
  C       4.729731     -3.117656     -1.865087
  C       0.636858     -6.759868     -1.894070
  C       3.955034     -5.160748     -2.904440
  C       2.722447     -3.126096     -3.220050
  C      -1.192133     -5.032921     -1.794588
  C       7.756124     -2.779623     -2.257556
  C       7.640545     -1.001754     -0.579902
  C       6.429139     -0.771413     -2.688006
  C       4.877521     -4.483357     -2.113564
  C       3.638997     -2.446801     -2.428865
  C       3.261547     -5.147053     -6.406962
  C       1.685986     -7.005637     -1.004476
  C      -0.035125     -7.856268     -2.447262
  C       2.055133     -8.307119     -0.668566
  C       0.331753     -9.157968     -2.117235
  C       1.378517     -9.389354     -1.224974
  H       2.078812     -6.319716     -4.205855
  H      -0.275461     -5.682790     -4.320595
  H       0.095875     -4.007706     -3.926855
  H       0.917037     -4.673352     -1.695666
  H       1.669876     -3.787537     -5.863177
  H       1.120433     -5.402786     -6.304006
  H       5.157284     -1.585391     -0.423212
  H       6.102767     -3.083891     -0.209330
  H       4.072284     -6.228994     -3.072077
  H       1.875218     -2.584635     -3.633958
  H      -1.317559     -5.216474     -0.721790
  H      -1.916278     -5.656708     -2.331644
  H      -1.438721     -3.983669     -1.993918
  H       8.076949     -3.478784     -1.482645
  H       8.620424     -2.274686     -2.693931
  H       7.198090     -3.302558     -3.035760
  H       7.951333     -1.710848      0.189968
  H       6.990671     -0.235886     -0.149723
  H       8.513793     -0.540775     -1.045289
  H       5.759872     -0.039331     -2.232108
  H       5.917228     -1.314036     -3.483871
  H       7.317677     -0.276982     -3.085818
  H       5.707712     -5.024747     -1.665785
  H       3.496536     -1.387963     -2.225915
  H       3.252543     -4.902511     -7.474509
  H       3.523266     -6.207324     -6.307241
  H       4.059943     -4.561285     -5.937470
  H       2.227555     -6.164728     -0.578387
  H      -0.853630     -7.691738     -3.144396
  H       2.874597     -8.473129      0.026327
  H      -0.201541     -9.996607     -2.557365
  H       1.663133    -10.405797     -0.967263
  F       2.481414     -1.885894      0.496523
  F       0.493549     -2.351343     -0.290916
  F       0.912987     -4.434423      0.976887
  F      -0.038136     -3.227419      2.528188
  F       0.964628     -0.675491      2.757414
  F      -0.752643     -0.885255      1.406290
  F       1.027403      0.318513     -0.615656
  F      -0.052336      1.428380      0.940927
  F       1.808338     -4.219013      3.856477
  F       2.910400     -2.495563      3.076406
  F       2.901087     -5.874547      2.105136
  F       4.434375     -4.609180      2.981553
  F       3.771778     -4.250513      0.939714
  O       4.298818      0.141915      1.772303
  O       3.959173      0.710093     -0.378197
  C       1.186623     -2.075944      0.836862
  C       0.597356     -0.762329      1.453277
  C       1.074296     -3.350170      1.771809
  C       1.009080      0.576462      0.730106
  C       2.292878     -3.645997      2.733000
  C       2.260252      1.276334      1.204896
  C       3.373909     -4.624604      2.162467
  C       3.619681      0.635649      0.832526
  H       2.175791      1.406276      2.286262
  H       2.219596      2.265396      0.734818
80
Coordinates from ORCA-job R4N+FHEA-_r2 E -2666.581461991859
  N       6.871508     -1.742512     -1.635009
  C       1.834500     -5.250065     -4.281307
  C       0.408335     -5.044932     -3.744046
  C       0.240842     -5.340593     -2.244919
  C       2.859172     -4.498288     -3.461220
  C       1.907946     -4.856573     -5.767691
  C       5.669139     -2.399995     -0.944753
  C       4.729890     -3.117759     -1.865234
  C       0.636643     -6.759401     -1.893983
  C       3.955243     -5.160901     -2.904540
  C       2.722654     -3.126251     -3.220232
  C      -1.191966     -5.031947     -1.794875
  C       7.756217     -2.779234     -2.257915
  C       7.640522     -1.001602     -0.580016
  C       6.428959     -0.771179     -2.688044
  C       4.877722     -4.483460     -2.113714
  C       3.639121     -2.446915     -2.428965
  C       3.262074     -5.147339     -6.406951
  C       1.685852     -7.005194     -1.004487
  C      -0.035676     -7.855760     -2.446832
  C       2.054756     -8.306686     -0.668341
  C       0.330938     -9.157478     -2.116561
  C       1.377787     -9.388875     -1.224397
  H       2.078932     -6.319892     -4.205867
  H      -0.275301     -5.682750     -4.320809
  H       0.096232     -4.007605     -3.927306
  H       0.917235     -4.672893     -1.696057
  H       1.670257     -3.787899     -5.863572
  H       1.121038     -5.403302     -6.304227
  H       5.157326     -1.585622     -0.423295
  H       6.103105     -3.084001     -0.209584
  H       4.072488     -6.229152     -3.072049
  H       1.875469     -2.584816     -3.634237
  H      -1.317328     -5.215199     -0.722017
  H      -1.916375     -5.655538     -2.331781
  H      -1.438118     -3.982634     -1.994383
  H       8.077256     -3.478482     -1.483152
  H       8.620413     -2.274223     -2.694389
  H       7.198152     -3.302195     -3.036086
  H       7.951465     -1.710760      0.189736
  H       6.990587     -0.235877     -0.149666
  H       8.513672     -0.540462     -1.045420
  H       5.759646     -0.039236     -2.231993
  H       5.917066     -1.313809     -3.483908
  H       7.317419     -0.276585     -3.085840
  H       5.708015     -5.024765     -1.665994
  H       3.496547     -1.388086     -2.226008
  H       3.253072     -4.902913     -7.474524
  H       3.523890     -6.207569     -6.307148
  H       4.060368     -4.561428     -5.937491
  H       2.227611     -6.164229     -0.578744
  H      -0.854229     -7.691229     -3.143912
  H       2.874309     -8.472746      0.026439
  H      -0.202638     -9.996070     -2.556427
  H       1.662198    -10.405319     -0.966472
  F       2.481133     -1.886342      0.496283
  F       0.493062     -2.351921     -0.290563
  F       0.913450     -4.434957      0.977010
  F      -0.038051     -3.228227      2.528309
  F       0.964584     -0.676010      2.757625
  F      -0.752794     -0.885962      1.406710
  F       1.027005      0.317915     -0.615439
  F      -0.052765      1.427748      0.941153
  F       1.808657     -4.219095      3.856743
  F       2.910483     -2.495626      3.076378
  F       2.901696     -5.874722      2.105347
  F       4.434657     -4.609142      2.981918
  F       3.772179     -4.250500      0.940013
  O       4.298478      0.141342      1.772088
  O       3.958668      0.709990     -0.378256
  C       1.186444     -2.076428      0.837021
  C       0.597197     -0.762882      1.453499
  C       1.074451     -3.350688      1.771928
  C       1.008692      0.575922      0.730320
  C       2.293076     -3.646206      2.733177
  C       2.259868      1.275914      1.204984
  C       3.374289     -4.624665      2.162751
  C       3.619274      0.635273      0.832484
  H       2.175479      1.405907      2.286358
  H       2.219061      2.264968      0.734883
80
Coordinates from ORCA-job R4N+FHEA-_r2 E -2666.581462137995
  N       6.871484     -1.742249     -1.635230
  C       1.834834     -5.250305     -4.281502
  C       0.408628     -5.044887     -3.744444
  C       0.241057     -5.340024     -2.245205
  C       2.859456     -4.498463     -3.461428
  C       1.908479     -4.857034     -5.767946
  C       5.669250     -2.400001     -0.944961
  C       4.730020     -3.117806     -1.865407
  C       0.636433     -6.758820     -1.893832
  C       3.955475     -5.161046     -2.904611
  C       2.722913     -3.126417     -3.220594
  C      -1.191635     -5.030708     -1.795205
  C       7.756215     -2.778822     -2.258339
  C       7.640483     -1.001388     -0.580206
  C       6.428757     -0.770846     -2.688138
  C       4.877921     -4.483522     -2.113807
  C       3.639255     -2.447022     -2.429233
  C       3.262755     -5.147671     -6.406978
  C       1.685799     -7.004700     -1.004534
  C      -0.036392     -7.855114     -2.446168
  C       2.054375     -8.306224     -0.668138
  C       0.329852     -9.156871     -2.115623
  C       1.376888     -9.388335     -1.223694
  H       2.079148     -6.320148     -4.205913
  H      -0.275080     -5.682782     -4.321031
  H       0.096661     -4.007570     -3.927968
  H       0.917647     -4.672302     -1.696613
  H       1.670668     -3.788428     -5.864113
  H       1.121811     -5.404004     -6.304551
  H       5.157311     -1.585714     -0.423484
  H       6.103384     -3.083934     -0.209830
  H       4.072713     -6.229316     -3.071923
  H       1.875790     -2.585043     -3.634781
  H      -1.316979     -5.213677     -0.722296
  H      -1.916347     -5.654031     -2.331993
  H      -1.437262     -3.981304     -1.994854
  H       8.077504     -3.478118     -1.483706
  H       8.620295     -2.273735     -2.694958
  H       7.198088     -3.301809     -3.036456
  H       7.951584     -1.710617      0.189416
  H       6.990490     -0.235805     -0.149689
  H       8.513513     -0.540063     -1.045651
  H       5.759388     -0.039070     -2.231898
  H       5.916945     -1.313476     -3.484047
  H       7.317138     -0.276056     -3.085879
  H       5.708254     -5.024713     -1.666015
  H       3.496530     -1.388192     -2.226369
  H       3.253789     -4.903434     -7.474601
  H       3.524756     -6.207828     -6.306983
  H       4.060862     -4.561527     -5.937530
  H       2.227931     -6.163749     -0.579223
  H      -0.855076     -7.690527     -3.143077
  H       2.874069     -8.472387      0.026446
  H      -0.204149     -9.995391     -2.555094
  H       1.661045    -10.404800     -0.965558
  F       2.480740     -1.886875      0.496022
  F       0.492453     -2.352648     -0.290190
  F       0.914062     -4.435621      0.977097
  F      -0.038071     -3.229276      2.528312
  F       0.964383     -0.676746      2.757908
  F      -0.753058     -0.886761      1.407137
  F       1.026419      0.317348     -0.615070
  F      -0.053179      1.427078      0.941704
  F       1.808932     -4.219129      3.857068
  F       2.910491     -2.495662      3.076316
  F       2.902315     -5.874895      2.105669
  F       4.434890     -4.609068      2.982438
  F       3.772657     -4.250495      0.940418
  O       4.298260      0.140532      1.771785
  O       3.958035      0.709634     -0.378368
  C       1.186155     -2.077013      0.837175
  C       0.596931     -0.763547      1.453782
  C       1.074580     -3.351338      1.772042
  C       1.008249      0.575308      0.730710
  C       2.293231     -3.646414      2.733397
  C       2.259534      1.275262      1.205233
  C       3.374674     -4.624711      2.163108
  C       3.618871      0.634660      0.832434
  H       2.175285      1.405222      2.286627
  H       2.218674      2.264359      0.735201
80
Coordinates from ORCA-job R4N+FHEA-_r2 E -2666.581462303532
  N       6.871425     -1.741983     -1.635482
  C       1.835224     -5.250567     -4.281810
  C       0.408982     -5.044879     -3.744934
  C       0.241398     -5.339361     -2.245554
  C       2.859786     -4.498642     -3.461754
  C       1.909054     -4.857533     -5.768317
  C       5.669306     -2.399937     -0.945186
  C       4.730115     -3.117820     -1.865585
  C       0.636252     -6.758133     -1.893655
  C       3.955703     -5.161166     -2.904702
  C       2.723201     -3.126568     -3.221086
  C      -1.191170     -5.029293     -1.795589
  C       7.756136     -2.778437     -2.258815
  C       7.640454     -1.001215     -0.580415
  C       6.428543     -0.770448     -2.688211
  C       4.878078     -4.483569     -2.113847
  C       3.639405     -2.447124     -2.429633
  C       3.263513     -5.147917     -6.407075
  C       1.685798     -7.004126     -1.004576
  C      -0.037154     -7.854361     -2.445400
  C       2.053965     -8.305682     -0.667863
  C       0.328660     -9.156154     -2.114535
  C       1.375894     -9.387712     -1.222850
  H       2.079435     -6.320419     -4.206051
  H      -0.274794     -5.682927     -4.321272
  H       0.097069     -4.007625     -3.928883
  H       0.918246     -4.671587     -1.697355
  H       1.671010     -3.789008     -5.864732
  H       1.122624     -5.404766     -6.304986
  H       5.157258     -1.585710     -0.423707
  H       6.103586     -3.083762     -0.210047
  H       4.072937     -6.229460     -3.071831
  H       1.876136     -2.585268     -3.635476
  H      -1.316542     -5.211978     -0.722635
  H      -1.916173     -5.652358     -2.332257
  H      -1.436281     -3.979807     -1.995398
  H       8.077686     -3.477751     -1.484300
  H       8.620084     -2.273230     -2.695570
  H       7.197922     -3.301404     -3.036882
  H       7.951702     -1.710540      0.189066
  H       6.990403     -0.235762     -0.149730
  H       8.513360     -0.539691     -1.045908
  H       5.759118     -0.038868     -2.231737
  H       5.916846     -1.313031     -3.484224
  H       7.316846     -0.275439     -3.085865
  H       5.708360     -5.024664     -1.665860
  H       3.496515     -1.388288     -2.226918
  H       3.254635     -4.903883     -7.474739
  H       3.525782     -6.207975     -6.306829
  H       4.061364     -4.561479     -5.937587
  H       2.228441     -6.163258     -0.579748
  H      -0.855987     -7.689679     -3.142120
  H       2.873797     -8.471961      0.026530
  H      -0.205813     -9.994600     -2.553562
  H       1.659767    -10.404202     -0.964491
  F       2.480204     -1.887566      0.495748
  F       0.491631     -2.353543     -0.289685
  F       0.914734     -4.436454      0.977349
  F      -0.038139     -3.230482      2.528414
  F       0.964194     -0.677598      2.758256
  F      -0.753374     -0.887573      1.407691
  F       1.025714      0.316644     -0.614690
  F      -0.053583      1.426311      0.942301
  F       1.809277     -4.219041      3.857596
  F       2.910547     -2.495666      3.076210
  F       2.902925     -5.875119      2.106299
  F       4.435153     -4.608960      2.983101
  F       3.773114     -4.250669      0.940951
  O       4.298108      0.139631      1.771301
  O       3.957324      0.709132     -0.378646
  C       1.185743     -2.077744      0.837389
  C       0.596615     -0.764310      1.454156
  C       1.074676     -3.352108      1.772300
  C       1.007787      0.574583      0.731120
  C       2.293412     -3.646615      2.733736
  C       2.259216      1.274453      1.205427
  C       3.375065     -4.624813      2.163618
  C       3.618461      0.633918      0.832231
  H       2.175177      1.404361      2.286849
  H       2.218347      2.263616      0.735467
80
Coordinates from ORCA-job R4N+FHEA-_r2 E -2666.581462461275
  N       6.871275     -1.741670     -1.635724
  C       1.835678     -5.250851     -4.282203
  C       0.409391     -5.044951     -3.745497
  C       0.241817     -5.338734     -2.245973
  C       2.860142     -4.498764     -3.462179
  C       1.909691     -4.858162     -5.768795
  C       5.669175     -2.399608     -0.945387
  C       4.730091     -3.117650     -1.865754
  C       0.636093     -6.757503     -1.893537
  C       3.955907     -5.161159     -2.904734
  C       2.723483     -3.126637     -3.221753
  C      -1.190620     -5.027896     -1.796044
  C       7.755883     -2.778135     -2.259206
  C       7.640411     -1.001025     -0.580635
  C       6.428358     -0.769982     -2.688297
  C       4.878122     -4.483442     -2.113761
  C       3.639514     -2.447089     -2.430223
  C       3.264319     -5.148360     -6.407226
  C       1.685827     -7.003641     -1.004706
  C      -0.037974     -7.853659     -2.444621
  C       2.053507     -8.305238     -0.667622
  C       0.327349     -9.155486     -2.113389
  C       1.374784     -9.387185     -1.221971
  H       2.079841     -6.320694     -4.206161
  H      -0.274397     -5.683232     -4.321574
  H       0.097449     -4.007801     -3.930004
  H       0.918984     -4.670920     -1.698237
  H       1.671396     -3.789718     -5.865477
  H       1.123432     -5.405636     -6.305455
  H       5.157060     -1.585356     -0.424001
  H       6.103485     -3.083292     -0.210141
  H       4.073176     -6.229485     -3.071674
  H       1.876479     -2.585434     -3.636404
  H      -1.316080     -5.210319     -0.723056
  H      -1.915886     -5.650748     -2.332592
  H      -1.435270     -3.978342     -1.996044
  H       8.077570     -3.477425     -1.484727
  H       8.619761     -2.272857     -2.696060
  H       7.197558     -3.301046     -3.037227
  H       7.951755     -1.710445      0.188713
  H       6.990360     -0.235653     -0.149809
  H       8.513232     -0.539370     -1.046174
  H       5.758922     -0.038520     -2.231645
  H       5.916741     -1.312465     -3.484428
  H       7.316635     -0.274850     -3.085868
  H       5.708251     -5.024451     -1.665420
  H       3.496471     -1.388232     -2.227775
  H       3.255608     -4.904665     -7.474971
  H       3.526858     -6.208308     -6.306540
  H       4.061903     -4.561567     -5.937734
  H       2.229107     -6.162939     -0.580364
  H      -0.856975     -7.688840     -3.141113
  H       2.873473     -8.471637      0.026575
  H      -0.207641     -9.993863     -2.551914
  H       1.658316    -10.403708     -0.963358
  F       2.479690     -1.888177      0.495519
  F       0.490843     -2.354336     -0.289160
  F       0.915458     -4.437237      0.977535
  F      -0.038134     -3.231699      2.528502
  F       0.964022     -0.678530      2.758737
  F      -0.753690     -0.888312      1.408359
  F       1.024875      0.316154     -0.614112
  F      -0.053909      1.425648      0.943322
  F       1.809729     -4.218918      3.858102
  F       2.910752     -2.495705      3.075995
  F       2.903466     -5.875361      2.106824
  F       4.435435     -4.608961      2.983708
  F       3.773634     -4.250891      0.941444
  O       4.298182      0.138879      1.770782
  O       3.956535      0.708563     -0.378977
  C       1.185362     -2.078434      0.837635
  C       0.596306     -0.765053      1.454679
  C       1.074822     -3.352843      1.772560
  C       1.007369      0.573943      0.731748
  C       2.293680     -3.646816      2.734015
  C       2.258992      1.273635      1.205805
  C       3.375461     -4.624989      2.164056
  C       3.618131      0.633201      0.832021
  H       2.175278      1.403357      2.287275
  H       2.218145      2.262903      0.736029
80
Coordinates from ORCA-job R4N+FHEA-_r2 E -2666.581462588594
  N       6.871122     -1.741463     -1.635823
  C       1.835996     -5.250970     -4.282554
  C       0.409679     -5.045027     -3.745924
  C       0.242139     -5.338322     -2.246303
  C       2.860371     -4.498739     -3.462542
  C       1.910086     -4.858530     -5.769197
  C       5.668931     -2.399174     -0.945468
  C       4.729957     -3.117368     -1.865836
  C       0.636027     -6.757102     -1.893507
  C       3.955969     -5.161020     -2.904692
  C       2.723670     -3.126553     -3.222337
  C      -1.190198     -5.026990     -1.796386
  C       7.755587     -2.778031     -2.259358
  C       7.640404     -1.000958     -0.580720
  C       6.428300     -0.769633     -2.688301
  C       4.877989     -4.483206     -2.113562
  C       3.639559     -2.446904     -2.430749
  C       3.264822     -5.148601     -6.407400
  C       1.685847     -7.003343     -1.004805
  C      -0.038487     -7.853211     -2.444161
  C       2.053135     -8.304965     -0.667401
  C       0.326473     -9.155053     -2.112632
  C       1.373976     -9.386866     -1.221321
  H       2.080190     -6.320790     -4.206281
  H      -0.274051     -5.683547     -4.321818
  H       0.097635     -4.007983     -3.930881
  H       0.919591     -4.670489     -1.698954
  H       1.671586     -3.790133     -5.866004
  H       1.123882     -5.406152     -6.305805
  H       5.156834     -1.584824     -0.424216
  H       6.103134     -3.082770     -0.210080
  H       4.073270     -6.229376     -3.071503
  H       1.876731     -2.585409     -3.637214
  H      -1.315759     -5.209241     -0.723380
  H      -1.915602     -5.649776     -2.332830
  H      -1.434631     -3.977423     -1.996576
  H       8.077222     -3.477308     -1.484864
  H       8.619481     -2.272759     -2.696198
  H       7.197170     -3.300828     -3.037381
  H       7.951720     -1.710454      0.188576
  H       6.990423     -0.235548     -0.149836
  H       8.513241     -0.539331     -1.046268
  H       5.758910     -0.038175     -2.231574
  H       5.916674     -1.311982     -3.484525
  H       7.316609     -0.274519     -3.085823
  H       5.707921     -5.024196     -1.664859
  H       3.496449     -1.388016     -2.228558
  H       3.256262     -4.905196     -7.475205
  H       3.527577     -6.208460     -6.306328
  H       4.062219     -4.561514     -5.937934
  H       2.229628     -6.162811     -0.580781
  H      -0.857564     -7.688284     -3.140545
  H       2.873159     -8.471429      0.026714
  H      -0.208846     -9.993394     -2.550834
  H       1.657230    -10.403410     -0.962486
  F       2.479351     -1.888719      0.495363
  F       0.490264     -2.354966     -0.288682
  F       0.915967     -4.437860      0.977844
  F      -0.037997     -3.232527      2.528769
  F       0.964097     -0.679163      2.759090
  F      -0.753827     -0.888822      1.408965
  F       1.024268      0.315660     -0.613787
  F      -0.054113      1.425095      0.943945
  F       1.810242     -4.218720      3.858624
  F       2.911152     -2.495776      3.075750
  F       2.903796     -5.875657      2.107411
  F       4.435733     -4.609072      2.984151
  F       3.773965     -4.251342      0.941829
  O       4.298298      0.138496      1.770183
  O       3.955992      0.708239     -0.379459
  C       1.185141     -2.079011      0.837875
  C       0.596181     -0.765621      1.455105
  C       1.074989     -3.353378      1.772887
  C       1.007131      0.573423      0.732093
  C       2.294011     -3.646980      2.734269
  C       2.258853      1.273077      1.205870
  C       3.375754     -4.625288      2.164456
  C       3.617937      0.632777      0.831618
  H       2.175458      1.402671      2.287378
  H       2.217944      2.262401      0.736194
80
Coordinates from ORCA-job R4N+FHEA-_r2 E -2666.581462686100
  N       6.870938     -1.741262     -1.635812
  C       1.836230     -5.251037     -4.282808
  C       0.409880     -5.045125     -3.746236
  C       0.242333     -5.338115     -2.246558
  C       2.860505     -4.498629     -3.462819
  C       1.910357     -4.858849     -5.769505
  C       5.668570     -2.398627     -0.945479
  C       4.729729     -3.116967     -1.865888
  C       0.635988     -6.756925     -1.893547
  C       3.955959     -5.160791     -2.904568
  C       2.723772     -3.126387     -3.222877
  C      -1.189927     -5.026482     -1.796669
  C       7.755259     -2.778019     -2.259265
  C       7.640348     -1.000861     -0.580716
  C       6.428333     -0.769365     -2.688314
  C       4.877760     -4.482845     -2.113308
  C       3.639514     -2.446592     -2.431241
  C       3.265136     -5.148966     -6.407550
  C       1.685852     -7.003239     -1.004935
  C      -0.038851     -7.852998     -2.443905
  C       2.052841     -8.304882     -0.667286
  C       0.325841     -9.154848     -2.112143
  C       1.373365     -9.386752     -1.220890
  H       2.080503     -6.320825     -4.206292
  H      -0.273748     -5.683847     -4.322034
  H       0.097754     -4.008151     -3.931492
  H       0.920017     -4.670303     -1.699473
  H       1.671770     -3.790473     -5.866438
  H       1.124138     -5.406564     -6.306014
  H       5.156527     -1.584128     -0.424408
  H       6.102558     -3.082182     -0.209920
  H       4.073304     -6.229176     -3.071225
  H       1.876912     -2.585292     -3.637996
  H      -1.315596     -5.208599     -0.723653
  H      -1.915398     -5.649286     -2.333023
  H      -1.434273     -3.976929     -1.997056
  H       8.076664     -3.477302     -1.484690
  H       8.619276     -2.272876     -2.696020
  H       7.196796     -3.300713     -3.037318
  H       7.951554     -1.710388      0.188587
  H       6.990489     -0.235351     -0.149844
  H       8.513272     -0.539381     -1.046243
  H       5.759034     -0.037780     -2.231656
  H       5.916623     -1.311599     -3.484565
  H       7.316736     -0.274419     -3.085834
  H       5.707525     -5.023815     -1.664286
  H       3.496399     -1.387659     -2.229320
  H       3.256687     -4.905904     -7.475434
  H       3.528014     -6.208759     -6.306073
  H       4.062437     -4.561629     -5.938210
  H       2.230015     -6.162845     -0.581137
  H      -0.857960     -7.687996     -3.140226
  H       2.872912     -8.471373      0.026766
  H      -0.209706     -9.993169     -2.550117
  H       1.656382    -10.403308     -0.961860
  F       2.479267     -1.888993      0.495298
  F       0.490047     -2.355263     -0.288367
  F       0.916338     -4.438184      0.977965
  F      -0.037731     -3.233027      2.528974
  F       0.964291     -0.679592      2.759398
  F      -0.753818     -0.889168      1.409479
  F       1.023806      0.315476     -0.613451
  F      -0.054185      1.424787      0.944652
  F       1.810737     -4.218626      3.858901
  F       2.911652     -2.495934      3.075485
  F       2.903954     -5.875945      2.107609
  F       4.435992     -4.609368      2.984290
  F       3.774227     -4.251741      0.941972
  O       4.298553      0.138450      1.769705
  O       3.955563      0.708055     -0.379883
  C       1.185141     -2.079337      0.838067
  C       0.596206     -0.765982      1.455477
  C       1.075217     -3.353676      1.773069
  C       1.007034      0.573132      0.732447
  C       2.294368     -3.647150      2.734342
  C       2.258829      1.272767      1.205993
  C       3.375969     -4.625637      2.164601
  C       3.617877      0.632598      0.831286
  H       2.175756      1.402172      2.287546
  H       2.217794      2.262149      0.736477
80
Coordinates from ORCA-job R4N+FHEA-_r2 E -2666.581462760050
  N       6.870823     -1.741130     -1.635694
  C       1.836332     -5.250989     -4.282957
  C       0.409960     -5.045154     -3.746404
  C       0.242390     -5.338007     -2.246699
  C       2.860537     -4.498456     -3.462979
  C       1.910435     -4.858924     -5.769677
  C       5.668259     -2.398184     -0.945442
  C       4.729514     -3.116595     -1.865916
  C       0.635982     -6.756839     -1.893584
  C       3.955880     -5.160557     -2.904438
  C       2.723816     -3.126171     -3.223265
  C      -1.189831     -5.026274     -1.796852
  C       7.755046     -2.778050     -2.259019
  C       7.640291     -1.000809     -0.580579
  C       6.428464     -0.769207     -2.688275
  C       4.877513     -4.482509     -2.113092
  C       3.639444     -2.446257     -2.431576
  C       3.265216     -5.149124     -6.407679
  C       1.685842     -7.003165     -1.004990
  C      -0.039005     -7.852902     -2.443802
  C       2.052669     -8.304815     -0.667172
  C       0.325548     -9.154748     -2.111880
  C       1.373039     -9.386680     -1.220606
  H       2.080692     -6.320749     -4.206308
  H      -0.273574     -5.684004     -4.322171
  H       0.097792     -4.008209     -3.931771
  H       0.920222     -4.670221     -1.699758
  H       1.671845     -3.790546     -5.866656
  H       1.124177     -5.406675     -6.306116
  H       5.156296     -1.583544     -0.424520
  H       6.102007     -3.081761     -0.209755
  H       4.073233     -6.228968     -3.070945
  H       1.877044     -2.585089     -3.638582
  H      -1.315591     -5.208284     -0.723826
  H      -1.915294     -5.649171     -2.333131
  H      -1.434214     -3.976762     -1.997422
  H       8.076148     -3.477395     -1.484385
  H       8.619229     -2.273073     -2.695610
  H       7.196600     -3.300629     -3.037161
  H       7.951321     -1.710346      0.188795
  H       6.990550     -0.235153     -0.149781
  H       8.513351     -0.539543     -1.046047
  H       5.759264     -0.037457     -2.231735
  H       5.916643     -1.311356     -3.484521
  H       7.316974     -0.274473     -3.085809
  H       5.707169     -5.023480     -1.663863
  H       3.496382     -1.387283     -2.229845
  H       3.256792     -4.906293     -7.475610
  H       3.528150     -6.208878     -6.305968
  H       4.062501     -4.561641     -5.938481
  H       2.230214     -6.162834     -0.581345
  H      -0.858098     -7.687888     -3.140134
  H       2.872761     -8.471284      0.026864
  H      -0.210095     -9.993070     -2.549746
  H       1.655906    -10.403234     -0.961421
  F       2.479296     -1.889281      0.495238
  F       0.489959     -2.355533     -0.288106
  F       0.916501     -4.438432      0.978189
  F      -0.037405     -3.233267      2.529314
  F       0.964664     -0.679789      2.759532
  F      -0.753676     -0.889455      1.409900
  F       1.023547      0.315152     -0.613396
  F      -0.054231      1.424473      0.944875
  F       1.811226     -4.218557      3.859161
  F       2.912207     -2.496138      3.075250
  F       2.903971     -5.876292      2.107853
  F       4.436263     -4.609739      2.984231
  F       3.774264     -4.252305      0.941969
  O       4.298695      0.138508      1.769171
  O       3.955337      0.708052     -0.380390
  C       1.185233     -2.079617      0.838227
  C       0.596364     -0.766256      1.455679
  C       1.075435     -3.353884      1.773272
  C       1.007015      0.572848      0.732486
  C       2.294722     -3.647335      2.734404
  C       2.258806      1.272611      1.205790
  C       3.376098     -4.626057      2.164684
  C       3.617857      0.632572      0.830821
  H       2.175984      1.401943      2.287371
  H       2.217543      2.261997      0.736322
