
                                 *****************
                                 * O   R   C   A *
                                 *****************

                                            #,                                       
                                            ###                                      
                                            ####                                     
                                            #####                                    
                                            ######                                   
                                           ########,                                 
                                     ,,################,,,,,                         
                               ,,#################################,,                 
                          ,,##########################################,,             
                       ,#########################################, ''#####,          
                    ,#############################################,,   '####,        
                  ,##################################################,,,,####,       
                ,###########''''           ''''###############################       
              ,#####''   ,,,,##########,,,,          '''####'''          '####       
            ,##' ,,,,###########################,,,                        '##       
           ' ,,###''''                  '''############,,,                           
         ,,##''                                '''############,,,,        ,,,,,,###''
      ,#''                                            '''#######################'''  
     '                                                          ''''####''''         
             ,#######,   #######,   ,#######,      ##                                
            ,#'     '#,  ##    ##  ,#'     '#,    #''#        ,####,    ,#,          
            ##       ##  ##   ,#'  ##            #'  '#       #'       ,# #          
            ##       ##  #######   ##           ,######,      #####,      #          
            '#,     ,#'  ##    ##  '#,     ,#' ,#      #,     #,   #      #          
             '#######'   ##     ##  '#######'  #'      '#     '####' #    #          



                #########################################################
                #                        -***-                          #
                #          Department of theory and spectroscopy        #
                #                                                       #
                #                      Frank Neese                      #
                #                                                       #
                #     Directorship, Architecture, Infrastructure        #
                #                    SHARK, DRIVERS                     #
                #        Core code/Algorithms in most modules           #
                #                                                       #
                #        Max Planck Institute fuer Kohlenforschung      #
                #                Kaiser Wilhelm Platz 1                 #
                #                 D-45470 Muelheim/Ruhr                 #
                #                      Germany                          #
                #                                                       #
                #                  All rights reserved                  #
                #                        -***-                          #
                #########################################################


                         Program Version 6.1.0  -  RELEASE   -
                                (GIT: $679e74b$)
                          ($2025-06-10 18:02:51 +0200$)


 With contributions from (in alphabetic order):
[Max-Planck-Institut fuer Kohlenforschung]                               
  Daniel Aravena         : Magnetic Suceptibility                        
  Michael Atanasov       : Ab Initio Ligand Field Theory (pilot matlab implementation)
  Alexander A. Auer      : GIAO ZORA, VPT2 properties, NMR spectrum      
  Ute Becker             : All parallelization in ORCA, NUMFREQ, NUMCALC 
  Giovanni Bistoni       : ED, misc. LED, open-shell LED, HFLD           
  Dmytro Bykov           : pre 5.0 version of the SCF Hessian            
  Marcos Casanova-Páez   : Triplet and SCS-CIS(D). UHF-(DLPNO)-IP/EA/STEOM-CCSD. UHF-CVS-IP/STEOM-CCSD   
  Vijay G. Chilkuri      : MRCI spin determinant printing, contributions to CSF-ICE 
  Pauline Colinet        : FMM embedding                                 
  Dipayan Datta          : RHF DLPNO-CCSD density                        
  Achintya Kumar Dutta   : EOM-CC, STEOM-CC                              
  Nicolas Foglia         : Exact transition moments, OPA infrastructure, MCD improvements    
  Dmitry Ganyushin       : Spin-Orbit,Spin-Spin,Magnetic field MRCI      
  Miquel Garcia-Rates    : C-PCM and meta-GGA Hessian, CCSD/C-PCM, Gaussian charge scheme 
  Tiago L. C. Gouveia    : GS-ROHF, GS-ROCIS                             
  Yang Guo               : DLPNO-NEVPT2, F12-NEVPT2, CIM, IAO-localization        
  Andreas Hansen         : Spin unrestricted coupled pair/coupled cluster methods 
  Ingolf Harden          : AUTO-CI MPn and infrastructure                
  Benjamin Helmich-Paris : MC-RPA, TRAH-(SCF,CASSCF), AVAS, COSX integrals, SCF dyn. polar., MC-PDFT, srDFT 
  Lee Huntington         : MR-EOM, pCC                                   
  Robert Izsak           : Overlap fitted RIJCOSX, COSX-SCS-MP3, EOM     
  Riya Kayal             : Wick's Theorem for AUTO-CI, AUTO-CI UHF-CCSDT 
  Emily Kempfer          : AUTO-CI RHF CISDT and CCSDT, approximate NEVPT4
  Christian Kollmar      : KDIIS, OOCD, Brueckner-CCSD(T), CCSD density, CASPT2, CASPT2-K, improved NEVPT2 
  Axel Koslowski         : Symmetry handling                             
  Simone Kossmann        : meta-GGA functionals, TD-DFT gradient, OOMP2, (MP2 Hessian; deprecated post 5.0) 
  Lucas Lang             : DCDCAS, Hyperfine gauge corrections, ICE-SOC+SSC
  Marvin Lechner         : AUTO-CI (C++ implementation), FIC-MRCC        
  Spencer Leger          : CASSCF response                               
  Dagmar Lenk            : GEPOL surface, SMD, ORCA-2-JSON               
  Dimitrios Liakos       : Extrapolation schemes; Compound Job, Property file
  Dimitrios Manganas     : Further ROCIS development; embedding schemes. LFT, Crystal Embedding 
  Dimitrios Pantazis     : SARC Basis sets                               
  Anastasios Papadopoulos: AUTO-CI, single reference methods and gradients 
  Taras Petrenko         : pre 6.0 DFT Hessian and TD-DFT gradient,  ECA, NRVS 
  Petra Pikulova         : Analytic Raman intensities                    
  Peter Pinski           : DLPNO-MP2, DLPNO-MP2 Gradient                 
  Shashank Vittal Rao    : ES-AILFT, MagRelax                            
  Christoph Reimann      : Effective Core Potentials                     
  Marius Retegan         : Local ZFS, SOC                                
  Christoph Riplinger    : Optimizer, TS searches, QM/MM, DLPNO-CCSD(T), (RO)-DLPNO pert. Triples 
  Michael Roemelt        : Original ROCIS implementation, recursive CI coupling coefficients
  Masaaki Saitow         : Open-shell DLPNO-CCSD energy and density      
  Barbara Sandhoefer     : DKH picture change effects                    
  Yorick L. A. Schmerwitz: GMF and freeze-and-release deltaSCF, NEB S-IDPP initial path                    
  Kantharuban Sivalingam : CASSCF convergence/infrastructure, NEVPT2, NEVPT3, NEVPT4(SD), FIC-MRCI and CEPA variants
  Bernardo de Souza      : ESD, SOC TD-DFT                               
  Georgi L. Stoychev     : AutoAux, RI-MP2 NMR, DLPNO-MP2 response, X2C  
  Van Anh Tran           : RI-MP2 g-tensors                              
  Willem Van den Heuvel  : Paramagnetic NMR                              
  Zikuan Wang            : NOTCH, Electric field optimization            
  Frank Wennmohs         : Technical directorship and infrastructure     
  Hang Xu                : AUTO-CI-Response properties                   
                                                                         
[FACCTs GmbH]                                                            
  Markus Bursch, Nicolas Foglia, Miquel Garcia-Rates, Ingolf Harden, Hagen Neugebauer, Anastasios Papadopoulos, 
  Christoph Riplinger, Bernardo de Souza, Georgi L. Stoychev                                                    
                                                                 
  APM, various basis sets, CI-OPT, improved COSX, DLPNO-Multilevel,           
  DOCKER, DRACO, updates on ESD, Fragmentator, GOAT, IRC, LR-CPCM, L-BFGS, MBIS, meta-GGA TD-DFT gradient, ML-optimized integration grids, 
  MM, NACMEs, nearIR, NEB, NEB-TS, NL-DFT gradient (VV10), 2- and 3-layer-ONIOM, interface openCOSMO-RS, QMMM,   
  Crystal-QMMM, RESP, rigid body optimization, SF, symmetry and pop. for TD-DFT, various functionals, SOLVATOR                                   
                                                                         
[Other institutions]                                                     
  V. Asgeirsson          : NEB                                           
  Christoph Bannwarth    : sTDA-DFT, sTD-DFT, PBEh-3c, B97-3c, D3        
  Giovanni Bistoni       : ETS/NOCV, ADLD/ADEX, COVALED                  
  Martin Brehm           : Molecular dynamics                            
  Ronald Cardenas        : ETS/NOCV                                      
  Martina Colucci        : COVALED                                       
  Sebastian Ehlert       : rSCAN, r2SCAN, r2SCAN-3c, D4, dhf basis sets  
  Marvin Friede          : D4 for Fr, Ra, Ac-Lr                          
  Lars Goerigk           : TD-DFT with DH, B97 family of functionals     
  Stefan Grimme          : VdW corrections, initial TS optimization, DFT functionals, gCP, sTDA/sTD-DF 
  Waldemar Hujo          : DFT-NL                                        
  H. Jonsson             : NEB                                           
  Holger Kruse           : gCP                                           
  Marcel Mueller         : wB97X-3c, vDZP basis set                      
  Hagen Neugebauer       : wr2SCAN, Native XTB                           
  Gianluca Regni         : ADLD/ADEX                                     
  Tobias Risthaus        : pre 6.0 range-separated hybrid DFT and stability analysis
  Lukas Wittmann         : regularized MP2, r2SCAN double-hybrids, wr2SCAN        
                                                                         
We gratefully acknowledge several colleagues who have allowed us to      
interface, adapt or use parts of their codes:                            
  Ed Valeev, F. Pavosevic, A. Kumar             : LibInt (2-el integral package), F12 methods 
  Garnet Chan, S. Sharma, J. Yang, R. Olivares  : DMRG                   
  Ulf Ekstrom                                   : XCFun DFT Library      
  Mihaly Kallay                                 : mrcc  (arbitrary order and MRCC methods)
  Frank Weinhold                                : gennbo (NPA and NBO analysis)           
  Simon Mueller                                 : openCOSMO-RS                            
  Christopher J. Cramer and Donald G. Truhlar   : smd solvation model                     
  S Lehtola, MJT Oliveira, MAL Marques          : LibXC Library                           
  Liviu Ungur et al                             : ANISO software                          


 Your calculation uses the libint2 library for the computation of 2-el integrals
 For citations please refer to: http://libint.valeyev.net

 Your ORCA version has been built with support for libXC version: 7.0.0
 For citations please refer to: https://libxc.gitlab.io

 This ORCA versions uses:
   CBLAS   interface :  Fast vector & matrix operations
   LAPACKE interface :  Fast linear algebra routines
   SCALAPACK package :  Parallel linear algebra routines
   Shared memory     :  Shared parallel matrices
   BLAS/LAPACK       :  OpenBLAS 0.3.29  USE64BITINT DYNAMIC_ARCH NO_AFFINITY SkylakeX SINGLE_THREADED
        Core in use  :  SkylakeX
   Copyright (c) 2011-2014, The OpenBLAS Project


  ***********************************
  * Starting time: Wed Apr 22 03:05:10 2026
  * Host name:     node1937.oscar.ccv.brown.edu
  * Process ID:    270160
  * Working dir.:  /sss/jobtmp/rzwa/orca_jobtmp/R4N+FHEA-_EDA_20260422_024023
  ***********************************

NOTE: MaxCore=4000 MB was set to SCF,MP2,MDCI,CIPSI,MRCI,RASCI and CIS
      => If you want to overwrite this, your respective input block should be placed after the MaxCore statement
Your calculation utilizes the atom-pairwise dispersion correction
with the zero-damping scheme (D30)


Your calculation utilizes the SMD solvation module
Please cite in your paper:
Marenich, A. V.; Cramer, C. J.; Truhlar, D. G. J. Phys. Chem. B 2009, 113, 6378 

XCFun DFT library Copyright 2009-2010 Ulf Ekstrom and contributors.
See http://admol.org/xcfun for more information.
This is free software; see the source code for copying conditions.
There is ABSOLUTELY NO WARRANTY; not even for MERCHANTABILITY or FITNESS FOR A PARTICULAR PURPOSE.
For details see the documentation.
Scientific users of this library should cite U. Ekstrom, L. Visscher, R. Bast, A. J. Thorvaldsen and K. Ruud;
J.Chem.Theor.Comp. 2010, DOI: 10.1021/ct100117s
XCFun Version 0.99 

Warning: RI is on but no J-basis has been assigned. Assigning Def2/J (nothing to worry about!)
================================================================================

----- Orbital basis set information -----
Your calculation utilizes the basis: def2-TZVPD
   F. Weigend and R. Ahlrichs, Phys. Chem. Chem. Phys. 7, 3297 (2005).
   D. Rappoport and F. Furche, J. Chem. Phys. 133, 134105 (2010)
   D. Rappoport, J. Chem. Phys. 155, 124102 (2021).

----- AuxJ basis set information -----
Your calculation utilizes the auxiliary basis: def2/J
   H-Rn: F. Weigend, Phys. Chem. Chem. Phys. 8, 1057 (2006).
   Fr-Lr: K. Eichkorn, F. Weigend, O. Treutler, R. Ahlrichs; Theor. Chem. Acc. 97, 119 (1997).

================================================================================
                                        WARNINGS
                       Please study these warnings very carefully!
================================================================================


================================================================================
                                       INPUT FILE
================================================================================
NAME = R4N+FHEA-_EDA_frag2.inp
|  1> #EDA Fragment 2 automatic file
|  2> !wb97x-d3 def2-TZVPD
|  3> 
|  4> %cpcm
|  5>    smd true
|  6>    SMDSolvent "Water"
|  7>    epsilon 72.5
|  8> end%pal nprocs 32 end
|  9> %maxcore 4000
| 10>     *xyz -1 1
| 11>      N :(1)  6.8741432 -1.7547329 -1.6258440
| 12>      C :(1)  1.8223890 -5.2257967 -4.2825961
| 13>      C :(1)  0.4038836 -5.0346620 -3.7326469
| 14>      C :(1)  0.2323036 -5.3448049 -2.2414186
| 15>      C :(1)  2.8537614 -4.4779747 -3.4662758
| 16>      C :(1)  1.8777494 -4.8303521 -5.7635586
| 17>      C :(1)  5.6789790 -2.4051946 -0.9570053
| 18>      C :(1)  4.7315018 -3.1156199 -1.8774095
| 19>      C :(1)  0.6460839 -6.7590070 -1.8929836
| 20>      C :(1)  3.9450690 -5.1433152 -2.9183254
| 21>      C :(1)  2.7247427 -3.1122685 -3.2178162
| 22>      C :(1) -1.2004624 -5.0547221 -1.7961954
| 23>      C :(1)  7.7595957 -2.7780349 -2.2420775
| 24>      C :(1)  7.6284776 -1.0297271 -0.5663823
| 25>      C :(1)  6.4521603 -0.7802050 -2.6679254
| 26>      C :(1)  4.8708607 -4.4747028 -2.1313972
| 27>      C :(1)  3.6444425 -2.4425119 -2.4305740
| 28>      C :(1)  3.2149177 -5.1223980 -6.4281570
| 29>      C :(1)  1.6895556 -6.9899873 -1.0016129
| 30>      C :(1) -0.0007280 -7.8612054 -2.4508312
| 31>      C :(1)  2.0784009 -8.2813576 -0.6696496
| 32>      C :(1)  0.3845397 -9.1533029 -2.1253183
| 33>      C :(1)  1.4267717 -9.3691123 -1.2318305
| 34>      H :(1)  2.0729744 -6.2903431 -4.2154529
| 35>      H :(1) -0.2773078 -5.6644303 -4.3144521
| 36>      H :(1)  0.0863030 -4.0006819 -3.9038029
| 37>      H :(1)  0.8933120 -4.6769319 -1.6826217
| 38>      H :(1)  1.6419862 -3.7647223 -5.8563909
| 39>      H :(1)  1.0836788 -5.3696567 -6.2887867
| 40>      H :(1)  5.1692171 -1.6001928 -0.4294623
| 41>      H :(1)  6.1004239 -3.0932556 -0.2251173
| 42>      H :(1)  4.0583809 -6.2082679 -3.0896848
| 43>      H :(1)  1.8790857 -2.5664824 -3.6218579
| 44>      H :(1) -1.3257005 -5.2350750 -0.7263372
| 45>      H :(1) -1.9159832 -5.6857867 -2.3298455
| 46>      H :(1) -1.4602528 -4.0125481 -1.9962153
| 47>      H :(1)  8.0681765 -3.4838261 -1.4739866
| 48>      H :(1)  8.6282314 -2.2725271 -2.6583670
| 49>      H :(1)  7.2179822 -3.2907053 -3.0328202
| 50>      H :(1)  7.9325484 -1.7428559  0.1966044
| 51>      H :(1)  6.9789896 -0.2708860 -0.1341526
| 52>      H :(1)  8.5025762 -0.5658336 -1.0172737
| 53>      H :(1)  5.7787827 -0.0537907 -2.2188884
| 54>      H :(1)  5.9559092 -1.3100651 -3.4765246
| 55>      H :(1)  7.3428456 -0.2832272 -3.0458161
| 56>      H :(1)  5.6981385 -5.0213222 -1.6919452
| 57>      H :(1)  3.5040583 -1.3874562 -2.2221245
| 58>      H :(1)  3.1877197 -4.8717930 -7.4905391
| 59>      H :(1)  3.4739117 -6.1811920 -6.3420652
| 60>      H :(1)  4.0241706 -4.5456342 -5.9737143
| 61>      H :(1)  2.2112513 -6.1440033 -0.5679605
| 62>      H :(1) -0.8153545 -7.7088473 -3.1511706
| 63>      H :(1)  2.8939799 -8.4346440  0.0280282
| 64>      H :(1) -0.1304498 -9.9967283 -2.5709169
| 65>      H :(1)  1.7271304 -10.3787576 -0.9773865
| 66>      F (2)  2.4826869 -1.9204139  0.5210570
| 67>      F (2)  0.5195045 -2.3820268 -0.2765096
| 68>      F (2)  0.8999221 -4.4360735  1.0237889
| 69>      F (2) -0.0456018 -3.2123971  2.5375444
| 70>      F (2)  0.9463845 -0.6688081  2.7319414
| 71>      F (2) -0.7353683 -0.8923410  1.3706449
| 72>      F (2)  1.0249902  0.2819377 -0.6357085
| 73>      F (2) -0.0186967  1.4022073  0.9091082
| 74>      F (2)  1.7770337 -4.1827757  3.8878508
| 75>      F (2)  2.8789653 -2.4872358  3.1009981
| 76>      F (2)  2.8768614 -5.8574486  2.1800565
| 77>      F (2)  4.3949095 -4.5943958  3.0414002
| 78>      F (2)  3.7543883 -4.2698333  1.0070441
| 79>      O (2)  4.3325742  0.1484247  1.6945829
| 80>      O (2)  3.9589318  0.6924112 -0.4375063
| 81>      C (2)  1.1935550 -2.0969352  0.8459842
| 82>      C (2)  0.6033198 -0.7754246  1.4347781
| 83>      C (2)  1.0621858 -3.3508986  1.7966162
| 84>      C (2)  1.0217954  0.5469092  0.6958696
| 85>      C (2)  2.2684917 -3.6321452  2.7695575
| 86>      C (2)  2.2807171  1.2450979  1.1554833
| 87>      C (2)  3.3494399 -4.6185495  2.2215153
| 88>      C (2)  3.6353267  0.6231775  0.7693987
| 89>      H (2)  2.2113360  1.3705752  2.2339558
| 90>      H (2)  2.2307287  2.2318068  0.6919351
| 91>     *
| 92> 
| 93>                          ****END OF INPUT****
================================================================================

                       ****************************
                       * Single Point Calculation *
                       ****************************

---------------------------------
CARTESIAN COORDINATES (ANGSTROEM)
---------------------------------
  N      6.874143   -1.754733   -1.625844
  C      1.822389   -5.225797   -4.282596
  C      0.403884   -5.034662   -3.732647
  C      0.232304   -5.344805   -2.241419
  C      2.853761   -4.477975   -3.466276
  C      1.877749   -4.830352   -5.763559
  C      5.678979   -2.405195   -0.957005
  C      4.731502   -3.115620   -1.877409
  C      0.646084   -6.759007   -1.892984
  C      3.945069   -5.143315   -2.918325
  C      2.724743   -3.112268   -3.217816
  C     -1.200462   -5.054722   -1.796195
  C      7.759596   -2.778035   -2.242078
  C      7.628478   -1.029727   -0.566382
  C      6.452160   -0.780205   -2.667925
  C      4.870861   -4.474703   -2.131397
  C      3.644442   -2.442512   -2.430574
  C      3.214918   -5.122398   -6.428157
  C      1.689556   -6.989987   -1.001613
  C     -0.000728   -7.861205   -2.450831
  C      2.078401   -8.281358   -0.669650
  C      0.384540   -9.153303   -2.125318
  C      1.426772   -9.369112   -1.231831
  H      2.072974   -6.290343   -4.215453
  H     -0.277308   -5.664430   -4.314452
  H      0.086303   -4.000682   -3.903803
  H      0.893312   -4.676932   -1.682622
  H      1.641986   -3.764722   -5.856391
  H      1.083679   -5.369657   -6.288787
  H      5.169217   -1.600193   -0.429462
  H      6.100424   -3.093256   -0.225117
  H      4.058381   -6.208268   -3.089685
  H      1.879086   -2.566482   -3.621858
  H     -1.325700   -5.235075   -0.726337
  H     -1.915983   -5.685787   -2.329845
  H     -1.460253   -4.012548   -1.996215
  H      8.068176   -3.483826   -1.473987
  H      8.628231   -2.272527   -2.658367
  H      7.217982   -3.290705   -3.032820
  H      7.932548   -1.742856    0.196604
  H      6.978990   -0.270886   -0.134153
  H      8.502576   -0.565834   -1.017274
  H      5.778783   -0.053791   -2.218888
  H      5.955909   -1.310065   -3.476525
  H      7.342846   -0.283227   -3.045816
  H      5.698138   -5.021322   -1.691945
  H      3.504058   -1.387456   -2.222125
  H      3.187720   -4.871793   -7.490539
  H      3.473912   -6.181192   -6.342065
  H      4.024171   -4.545634   -5.973714
  H      2.211251   -6.144003   -0.567960
  H     -0.815354   -7.708847   -3.151171
  H      2.893980   -8.434644    0.028028
  H     -0.130450   -9.996728   -2.570917
  H      1.727130  -10.378758   -0.977387
  F      2.482687   -1.920414    0.521057
  F      0.519505   -2.382027   -0.276510
  F      0.899922   -4.436074    1.023789
  F     -0.045602   -3.212397    2.537544
  F      0.946384   -0.668808    2.731941
  F     -0.735368   -0.892341    1.370645
  F      1.024990    0.281938   -0.635708
  F     -0.018697    1.402207    0.909108
  F      1.777034   -4.182776    3.887851
  F      2.878965   -2.487236    3.100998
  F      2.876861   -5.857449    2.180057
  F      4.394909   -4.594396    3.041400
  F      3.754388   -4.269833    1.007044
  O      4.332574    0.148425    1.694583
  O      3.958932    0.692411   -0.437506
  C      1.193555   -2.096935    0.845984
  C      0.603320   -0.775425    1.434778
  C      1.062186   -3.350899    1.796616
  C      1.021795    0.546909    0.695870
  C      2.268492   -3.632145    2.769557
  C      2.280717    1.245098    1.155483
  C      3.349440   -4.618550    2.221515
  C      3.635327    0.623178    0.769399
  H      2.211336    1.370575    2.233956
  H      2.230729    2.231807    0.691935

----------------------------
CARTESIAN COORDINATES (A.U.)
----------------------------
  NO LB      ZA    FRAG     MASS         X           Y           Z
   0 N     0.0000    1     0.000   12.990248   -3.315965   -3.072400
   1 C     0.0000    1     0.000    3.443816   -9.875325   -8.092934
   2 C     0.0000    1     0.000    0.763229   -9.514132   -7.053680
   3 C     0.0000    1     0.000    0.438990  -10.100218   -4.235667
   4 C     0.0000    1     0.000    5.392827   -8.462146   -6.550312
   5 C     0.0000    1     0.000    3.548432   -9.128043  -10.891547
   6 C     0.0000    1     0.000   10.731715   -4.545159   -1.808478
   7 C     0.0000    1     0.000    8.941243   -5.887668   -3.547790
   8 C     0.0000    1     0.000    1.220922  -12.772672   -3.577221
   9 C     0.0000    1     0.000    7.455100   -9.719457   -5.514836
  10 C     0.0000    1     0.000    5.149017   -5.881335   -6.080791
  11 C     0.0000    1     0.000   -2.268545   -9.552040   -3.394317
  12 C     0.0000    1     0.000   14.663511   -5.249725   -4.236912
  13 C     0.0000    1     0.000   14.415733   -1.945902   -1.070307
  14 C     0.0000    1     0.000   12.192816   -1.474374   -5.041648
  15 C     0.0000    1     0.000    9.204593   -8.455963   -4.027757
  16 C     0.0000    1     0.000    6.886998   -4.615679   -4.593119
  17 C     0.0000    1     0.000    6.075314   -9.679929  -12.147456
  18 C     0.0000    1     0.000    3.192797  -13.209162   -1.892774
  19 C     0.0000    1     0.000   -0.001376  -14.855525   -4.631400
  20 C     0.0000    1     0.000    3.927608  -15.649498   -1.265454
  21 C     0.0000    1     0.000    0.726675  -17.297236   -4.016270
  22 C     0.0000    1     0.000    2.696208  -17.705056   -2.327822
  23 H     0.0000    1     0.000    3.917354  -11.887026   -7.966052
  24 H     0.0000    1     0.000   -0.524036  -10.704222   -8.153133
  25 H     0.0000    1     0.000    0.163089   -7.560193   -7.377118
  26 H     0.0000    1     0.000    1.688115   -8.838120   -3.179694
  27 H     0.0000    1     0.000    3.102904   -7.114294  -11.066975
  28 H     0.0000    1     0.000    2.047856  -10.147181  -11.884085
  29 H     0.0000    1     0.000    9.768405   -3.023926   -0.811566
  30 H     0.0000    1     0.000   11.528130   -5.845406   -0.425410
  31 H     0.0000    1     0.000    7.669228  -11.731926   -5.838658
  32 H     0.0000    1     0.000    3.550957   -4.849949   -6.844320
  33 H     0.0000    1     0.000   -2.505211   -9.892858   -1.372578
  34 H     0.0000    1     0.000   -3.620684  -10.744580   -4.402770
  35 H     0.0000    1     0.000   -2.759478   -7.582617   -3.772300
  36 H     0.0000    1     0.000   15.246644   -6.583477   -2.785431
  37 H     0.0000    1     0.000   16.304994   -4.294454   -5.023586
  38 H     0.0000    1     0.000   13.640010   -6.218532   -5.731200
  39 H     0.0000    1     0.000   14.990344   -3.293520    0.371528
  40 H     0.0000    1     0.000   13.188379   -0.511900   -0.253512
  41 H     0.0000    1     0.000   16.067540   -1.069271   -1.922369
  42 H     0.0000    1     0.000   10.920317   -0.101650   -4.193091
  43 H     0.0000    1     0.000   11.255037   -2.475664   -6.569679
  44 H     0.0000    1     0.000   13.875967   -0.535222   -5.755758
  45 H     0.0000    1     0.000   10.767921   -9.488924   -3.197313
  46 H     0.0000    1     0.000    6.621711   -2.621912   -4.199207
  47 H     0.0000    1     0.000    6.023917   -9.206355  -14.155067
  48 H     0.0000    1     0.000    6.564742  -11.680760  -11.984766
  49 H     0.0000    1     0.000    7.604580   -8.590004  -11.288684
  50 H     0.0000    1     0.000    4.178659  -11.610484   -1.073290
  51 H     0.0000    1     0.000   -1.540797  -14.567610   -5.954849
  52 H     0.0000    1     0.000    5.468829  -15.939167    0.052966
  53 H     0.0000    1     0.000   -0.246514  -18.891079   -4.858329
  54 H     0.0000    1     0.000    3.263803  -19.613009   -1.846993
  55 F     9.0000    2    18.998    4.691598   -3.629056    0.984655
  56 F     9.0000    2    18.998    0.981721   -4.501378   -0.522527
  57 F     9.0000    2    18.998    1.700606   -8.382964    1.934681
  58 F     9.0000    2    18.998   -0.086175   -6.070551    4.795264
  59 F     9.0000    2    18.998    1.788408   -1.263864    5.162621
  60 F     9.0000    2    18.998   -1.389645   -1.686280    2.590143
  61 F     9.0000    2    18.998    1.936951    0.532785   -1.201315
  62 F     9.0000    2    18.998   -0.035332    2.649788    1.717966
  63 F     9.0000    2    18.998    3.358107   -7.904301    7.346973
  64 F     9.0000    2    18.998    5.440456   -4.700194    5.860037
  65 F     9.0000    2    18.998    5.436480  -11.068974    4.119710
  66 F     9.0000    2    18.998    8.305175   -8.682150    5.747413
  67 F     9.0000    2    18.998    7.094766   -8.068816    1.903038
  68 O     8.0000    2    15.999    8.187379    0.280482    3.202298
  69 O     8.0000    2    15.999    7.481297    1.308468   -0.826767
  70 C     6.0000    2    12.011    2.255492   -3.962633    1.598678
  71 C     6.0000    2    12.011    1.140109   -1.465340    2.711338
  72 C     6.0000    2    12.011    2.007240   -6.332281    3.395113
  73 C     6.0000    2    12.011    1.930913    1.033509    1.315003
  74 C     6.0000    2    12.011    4.286828   -6.863760    5.233705
  75 C     6.0000    2    12.011    4.309931    2.352894    2.183547
  76 C     6.0000    2    12.011    6.329524   -8.727794    4.198056
  77 C     6.0000    2    12.011    6.869772    1.177635    1.453953
  78 H     1.0000    2     1.008    4.178819    2.590012    4.221565
  79 H     1.0000    2     1.008    4.215466    4.217504    1.307568

----------------------------------------------
CARTESIAN COORDINATES OF FRAGMENTS (ANGSTROEM)
----------------------------------------------

 FRAGMENT 1 
  N     6.874143   -1.754733   -1.625844
  C     1.822389   -5.225797   -4.282596
  C     0.403884   -5.034662   -3.732647
  C     0.232304   -5.344805   -2.241419
  C     2.853761   -4.477975   -3.466276
  C     1.877749   -4.830352   -5.763559
  C     5.678979   -2.405195   -0.957005
  C     4.731502   -3.115620   -1.877409
  C     0.646084   -6.759007   -1.892984
  C     3.945069   -5.143315   -2.918325
  C     2.724743   -3.112268   -3.217816
  C    -1.200462   -5.054722   -1.796195
  C     7.759596   -2.778035   -2.242078
  C     7.628478   -1.029727   -0.566382
  C     6.452160   -0.780205   -2.667925
  C     4.870861   -4.474703   -2.131397
  C     3.644442   -2.442512   -2.430574
  C     3.214918   -5.122398   -6.428157
  C     1.689556   -6.989987   -1.001613
  C    -0.000728   -7.861205   -2.450831
  C     2.078401   -8.281358   -0.669650
  C     0.384540   -9.153303   -2.125318
  C     1.426772   -9.369112   -1.231831
  H     2.072974   -6.290343   -4.215453
  H    -0.277308   -5.664430   -4.314452
  H     0.086303   -4.000682   -3.903803
  H     0.893312   -4.676932   -1.682622
  H     1.641986   -3.764722   -5.856391
  H     1.083679   -5.369657   -6.288787
  H     5.169217   -1.600193   -0.429462
  H     6.100424   -3.093256   -0.225117
  H     4.058381   -6.208268   -3.089685
  H     1.879086   -2.566482   -3.621858
  H    -1.325700   -5.235075   -0.726337
  H    -1.915983   -5.685787   -2.329845
  H    -1.460253   -4.012548   -1.996215
  H     8.068176   -3.483826   -1.473987
  H     8.628231   -2.272527   -2.658367
  H     7.217982   -3.290705   -3.032820
  H     7.932548   -1.742856    0.196604
  H     6.978990   -0.270886   -0.134153
  H     8.502576   -0.565834   -1.017274
  H     5.778783   -0.053791   -2.218888
  H     5.955909   -1.310065   -3.476525
  H     7.342846   -0.283227   -3.045816
  H     5.698138   -5.021322   -1.691945
  H     3.504058   -1.387456   -2.222125
  H     3.187720   -4.871793   -7.490539
  H     3.473912   -6.181192   -6.342065
  H     4.024171   -4.545634   -5.973714
  H     2.211251   -6.144003   -0.567960
  H    -0.815354   -7.708847   -3.151171
  H     2.893980   -8.434644    0.028028
  H    -0.130450   -9.996728   -2.570917
  H     1.727130  -10.378758   -0.977387

 FRAGMENT 2 
  F     2.482687   -1.920414    0.521057
  F     0.519505   -2.382027   -0.276510
  F     0.899922   -4.436074    1.023789
  F    -0.045602   -3.212397    2.537544
  F     0.946384   -0.668808    2.731941
  F    -0.735368   -0.892341    1.370645
  F     1.024990    0.281938   -0.635708
  F    -0.018697    1.402207    0.909108
  F     1.777034   -4.182776    3.887851
  F     2.878965   -2.487236    3.100998
  F     2.876861   -5.857449    2.180057
  F     4.394909   -4.594396    3.041400
  F     3.754388   -4.269833    1.007044
  O     4.332574    0.148425    1.694583
  O     3.958932    0.692411   -0.437506
  C     1.193555   -2.096935    0.845984
  C     0.603320   -0.775425    1.434778
  C     1.062186   -3.350899    1.796616
  C     1.021795    0.546909    0.695870
  C     2.268492   -3.632145    2.769557
  C     2.280717    1.245098    1.155483
  C     3.349440   -4.618550    2.221515
  C     3.635327    0.623178    0.769399
  H     2.211336    1.370575    2.233956
  H     2.230729    2.231807    0.691935

--------------------------------
INTERNAL COORDINATES (ANGSTROEM)
--------------------------------
 N      0   0   0     0.000000000000     0.00000000     0.00000000
 C      1   0   0     6.680332036788     0.00000000     0.00000000
 C      2   1   0     1.533340851198   119.48339063     0.00000000
 C      3   2   1     1.532772050091   115.29474062   301.17601595
 C      2   1   3     1.513058360857     9.30473221   321.53982893
 C      2   1   5     1.533848470992   102.86966292   161.05637857
 C      1   2   3     1.516200215917    49.94152814    39.07755600
 C      7   1   2     1.499853673789   115.49657539     0.13818110
 C      4   3   2     1.514129672630   112.47506416   302.59396280
 C      5   2   3     1.390640104275   120.73319218   124.60258029
 C      5   2   3     1.394105958132   121.14774709   305.96680902
 C      4   3   2     1.528132893249   110.48727645   177.28722211
 C      1   2   3     1.486915209244    85.86618374   160.97461628
 C      1   2   3     1.488997276970   156.79042053    29.16516839
 C      1   2   3     1.487853433641    81.21705129   271.17691049
 C     10   5   2     1.386862936695   121.11616898   182.19512190
 C     11   5   2     1.383536015731   120.93857138   177.64007971
 C      6   2   1     1.521512702383   113.82687903    57.35030683
 C      9   4   3     1.391663325847   120.48553860   118.40955271
 C      9   4   3     1.394417760849   121.29503656   298.43077659
 C     19   9   4     1.388897962991   121.15320395   179.83944166
 C     20   9   4     1.387049313556   120.90386276   180.03619868
 C     21  19   9     1.387039388766   120.05014061     0.19337532
 H      2   1  13     1.095700821279   107.90895295    37.07004037
 H      3   2   1     1.095046631823   108.25405299   178.40650767
 H      3   2   1     1.095110341942   109.26384584    63.12210969
 H      4   3   2     1.093270517507   107.81715506    59.98281774
 H      6   2   1     1.095339670169   108.95833094   294.43462569
 H      6   2   1     1.094194738790   108.07129564   179.19361340
 H      7   1   2     1.089121990203   105.39811139   237.76290727
 H      7   1   2     1.089359347507   105.21157747   122.83128506
 H     10   5   2     1.084586503644   119.30859169     0.62101890
 H     11   5   2     1.084558861446   119.91715977   359.33210794
 H     12   4   3     1.092157643537   111.19659899   182.19634419
 H     12   4   3     1.093158256537   111.21577799    61.88479401
 H     12   4   3     1.092531765490   110.52927965   302.18322210
 H     13   1   2     1.087808328148   108.83330382   258.91646406
 H     13   1   2     1.087824922947   108.31851282   139.10713258
 H     13   1   2     1.086945325222   109.23052035    19.54794290
 H     14   1   2     1.087731787335   108.75339366    67.00701512
 H     14   1   2     1.088345988533   108.64761477   307.03912830
 H     14   1   2     1.087450502992   108.65689254   187.01352237
 H     15   1   2     1.087542805960   108.89998363    95.67743840
 H     15   1   2     1.086669014035   109.34863723   334.84692481
 H     15   1   2     1.087707965621   108.08042506   215.39274012
 H     16  10   5     1.084573366413   119.74303495   178.25885594
 H     17  11   5     1.084574316385   119.61915478   182.17342737
 H     18   6   2     1.091878346534   111.04218920   177.08076086
 H     18   6   2     1.093404968207   111.07848784    57.19751406
 H     18   6   2     1.092732769131   111.58508428   297.08871254
 H     19   9   4     1.084393718020   119.16867811   359.27997952
 H     20   9   4     1.085036681560   119.70164416     0.17962016
 H     21  19   9     1.084167947450   119.72742520   180.04518836
 H     22  20   9     1.084038146376   119.75933473   180.07216606
 H     23  21  19     1.083670028013   120.34983188   179.90917333
 F     30   7   1     2.867659848739   121.09783332   164.48143206
 F     56  30   7     2.168705624688   138.58386000   301.87234647
 F     57  56  30     2.460610002677    80.98975919   111.64396415
 F     58  57  56     2.163990547846    80.21607752    89.48761398
 F     59  58  57     2.737091889929   114.63409642   313.03923718
 F     60  59  58     2.175175302959    65.15535339    91.18490771
 F     57  56  30     2.735186739498    70.95518880   277.41659258
 F     62  57  56     2.175027576495   108.64441525   259.19803553
 F     59  58  57     2.467176963065    80.65707813   223.59959747
 F     64  59  58     2.169849297778    82.49320972    86.78272110
 F     64  59  58     2.632624481918   101.75831074   355.42190585
 F     66  64  59     2.154457096122    70.25016190   128.82022959
 F     67  66  64     2.157362502145    60.13215077   254.09251735
 O     30   7   1     2.875622109226   160.63152585   262.12562258
 O     69  30   7     2.231890300175    59.42323741   164.92029861
 C     57  56  30     1.340005085057    36.03070452   179.79790687
 C     61  60  59     1.345313473140    36.08781665   258.64375903
 C     59  58  57     1.339906948176    36.24393077   291.67197997
 C     62  57  56     1.357689338162    93.48844596   293.76646929
 C     65  64  59     1.339159595356    35.92197138   294.56003443
 C     74  62  57     1.511157192606   112.73733413   125.95316133
 C     66  64  59     1.326619859169    62.25659957    90.51740134
 C     70  69  30     1.251452454145    26.94100579   140.37609996
 H     76  74  62     1.087961958484   107.55691571   182.79114724
 H     76  74  62     1.091315823764   104.50036950    67.83973218

---------------------------
INTERNAL COORDINATES (A.U.)
---------------------------
 N      0   0   0     0.000000000000     0.00000000     0.00000000
 C      1   0   0    12.623998033191     0.00000000     0.00000000
 C      2   1   0     2.897594278719   119.48339063     0.00000000
 C      3   2   1     2.896519400402   115.29474062   301.17601595
 C      2   1   3     2.859265926659     9.30473221   321.53982893
 C      2   1   5     2.898553541108   102.86966292   161.05637857
 C      1   2   3     2.865203172275    49.94152814    39.07755600
 C      7   1   2     2.834312684416   115.49657539     0.13818110
 C      4   3   2     2.861290412514   112.47506416   302.59396280
 C      5   2   3     2.627928947928   120.73319218   124.60258029
 C      5   2   3     2.634478462538   121.14774709   305.96680902
 C      4   3   2     2.887752664478   110.48727645   177.28722211
 C      1   2   3     2.809862529834    85.86618374   160.97461628
 C      1   2   3     2.813797067628   156.79042053    29.16516839
 C      1   2   3     2.811635516996    81.21705129   271.17691049
 C     10   5   2     2.620791135639   121.11616898   182.19512190
 C     11   5   2     2.614504166148   120.93857138   177.64007971
 C      6   2   1     2.875242316787   113.82687903    57.35030683
 C      9   4   3     2.629862556473   120.48553860   118.40955271
 C      9   4   3     2.635067684279   121.29503656   298.43077659
 C     19   9   4     2.624636778014   121.15320395   179.83944166
 C     20   9   4     2.621143336864   120.90386276   180.03619868
 C     21  19   9     2.621124581730   120.05014061     0.19337532
 H      2   1  13     2.070574476931   107.90895295    37.07004037
 H      3   2   1     2.069338238017   108.25405299   178.40650767
 H      3   2   1     2.069458632695   109.26384584    63.12210969
 H      4   3   2     2.065981868378   107.81715506    59.98281774
 H      6   2   1     2.069892000239   108.95833094   294.43462569
 H      6   2   1     2.067728393490   108.07129564   179.19361340
 H      7   1   2     2.058142287915   105.39811139   237.76290727
 H      7   1   2     2.058590828215   105.21157747   122.83128506
 H     10   5   2     2.049571460435   119.30859169     0.62101890
 H     11   5   2     2.049519224250   119.91715977   359.33210794
 H     12   4   3     2.063878841355   111.19659899   182.19634419
 H     12   4   3     2.065769725890   111.21577799    61.88479401
 H     12   4   3     2.064585829385   110.52927965   302.18322210
 H     13   1   2     2.055659826399   108.83330382   258.91646406
 H     13   1   2     2.055691186025   108.31851282   139.10713258
 H     13   1   2     2.054028987215   109.23052035    19.54794290
 H     14   1   2     2.055515185224   108.75339366    67.00701512
 H     14   1   2     2.056675857279   108.64761477   307.03912830
 H     14   1   2     2.054983634850   108.65689254   187.01352237
 H     15   1   2     2.055158062181   108.89998363    95.67743840
 H     15   1   2     2.053506834744   109.34863723   334.84692481
 H     15   1   2     2.055470168708   108.08042506   215.39274012
 H     16  10   5     2.049546634666   119.74303495   178.25885594
 H     17  11   5     2.049548429853   119.61915478   182.17342737
 H     18   6   2     2.063351046508   111.04218920   177.08076086
 H     18   6   2     2.066235943380   111.07848784    57.19751406
 H     18   6   2     2.064965671218   111.58508428   297.08871254
 H     19   9   4     2.049207148402   119.16867811   359.27997952
 H     20   9   4     2.050422173407   119.70164416     0.17962016
 H     21  19   9     2.048780503857   119.72742520   180.04518836
 H     22  20   9     2.048535215373   119.75933473   180.07216606
 H     23  21  19     2.047839572483   120.34983188   179.90917333
 F     30   7   1     5.419091759359   121.09783332   164.48143206
 F     56  30   7     4.098259695754   138.58386000   301.87234647
 F     57  56  30     4.649879027446    80.98975919   111.64396415
 F     58  57  56     4.089349491824    80.21607752    89.48761398
 F     59  58  57     5.172354075344   114.63409642   313.03923718
 F     60  59  58     4.110485615862    65.15535339    91.18490771
 F     57  56  30     5.168753862784    70.95518880   277.41659258
 F     62  57  56     4.110206453302   108.64441525   259.19803553
 F     59  58  57     4.662288784113    80.65707813   223.59959747
 F     64  59  58     4.100420924682    82.49320972    86.78272110
 F     64  59  58     4.974939284281   101.75831074   355.42190585
 F     66  64  59     4.071333878954    70.25016190   128.82022959
 F     67  66  64     4.076824300646    60.13215077   254.09251735
 O     30   7   1     5.434138251086   160.63152585   262.12562258
 O     69  30   7     4.217661428287    59.42323741   164.92029861
 C     57  56  30     2.532242628820    36.03070452   179.79790687
 C     61  60  59     2.542274028510    36.08781665   258.64375903
 C     59  58  57     2.532057176992    36.24393077   291.67197997
 C     62  57  56     2.565661024071    93.48844596   293.76646929
 C     65  64  59     2.530644884835    35.92197138   294.56003443
 C     74  62  57     2.855673239332   112.73733413   125.95316133
 C     66  64  59     2.506948217650    62.25659957    90.51740134
 C     70  69  30     2.364902407959    26.94100579   140.37609996
 H     76  74  62     2.055950145660   107.55691571   182.79114724
 H     76  74  62     2.062288032528   104.50036950    67.83973218

---------------------
BASIS SET INFORMATION
---------------------
There are 5 groups of distinct atoms

 Group   1 Type N   : 12s6p3d1f contracted to 6s3p3d1f pattern {621111/411/111/1}
 Group   2 Type C   : 12s6p3d1f contracted to 6s3p3d1f pattern {621111/411/111/1}
 Group   3 Type H   : 5s2p contracted to 3s2p pattern {311/11}
 Group   4 Type F   : 12s7p3d1f contracted to 6s4p3d1f pattern {621111/4111/111/1}
 Group   5 Type O   : 12s7p3d1f contracted to 6s4p3d1f pattern {621111/4111/111/1}

Atom   0N    basis set group =>   1
Atom   1C    basis set group =>   2
Atom   2C    basis set group =>   2
Atom   3C    basis set group =>   2
Atom   4C    basis set group =>   2
Atom   5C    basis set group =>   2
Atom   6C    basis set group =>   2
Atom   7C    basis set group =>   2
Atom   8C    basis set group =>   2
Atom   9C    basis set group =>   2
Atom  10C    basis set group =>   2
Atom  11C    basis set group =>   2
Atom  12C    basis set group =>   2
Atom  13C    basis set group =>   2
Atom  14C    basis set group =>   2
Atom  15C    basis set group =>   2
Atom  16C    basis set group =>   2
Atom  17C    basis set group =>   2
Atom  18C    basis set group =>   2
Atom  19C    basis set group =>   2
Atom  20C    basis set group =>   2
Atom  21C    basis set group =>   2
Atom  22C    basis set group =>   2
Atom  23H    basis set group =>   3
Atom  24H    basis set group =>   3
Atom  25H    basis set group =>   3
Atom  26H    basis set group =>   3
Atom  27H    basis set group =>   3
Atom  28H    basis set group =>   3
Atom  29H    basis set group =>   3
Atom  30H    basis set group =>   3
Atom  31H    basis set group =>   3
Atom  32H    basis set group =>   3
Atom  33H    basis set group =>   3
Atom  34H    basis set group =>   3
Atom  35H    basis set group =>   3
Atom  36H    basis set group =>   3
Atom  37H    basis set group =>   3
Atom  38H    basis set group =>   3
Atom  39H    basis set group =>   3
Atom  40H    basis set group =>   3
Atom  41H    basis set group =>   3
Atom  42H    basis set group =>   3
Atom  43H    basis set group =>   3
Atom  44H    basis set group =>   3
Atom  45H    basis set group =>   3
Atom  46H    basis set group =>   3
Atom  47H    basis set group =>   3
Atom  48H    basis set group =>   3
Atom  49H    basis set group =>   3
Atom  50H    basis set group =>   3
Atom  51H    basis set group =>   3
Atom  52H    basis set group =>   3
Atom  53H    basis set group =>   3
Atom  54H    basis set group =>   3
Atom  55F    basis set group =>   4
Atom  56F    basis set group =>   4
Atom  57F    basis set group =>   4
Atom  58F    basis set group =>   4
Atom  59F    basis set group =>   4
Atom  60F    basis set group =>   4
Atom  61F    basis set group =>   4
Atom  62F    basis set group =>   4
Atom  63F    basis set group =>   4
Atom  64F    basis set group =>   4
Atom  65F    basis set group =>   4
Atom  66F    basis set group =>   4
Atom  67F    basis set group =>   4
Atom  68O    basis set group =>   5
Atom  69O    basis set group =>   5
Atom  70C    basis set group =>   2
Atom  71C    basis set group =>   2
Atom  72C    basis set group =>   2
Atom  73C    basis set group =>   2
Atom  74C    basis set group =>   2
Atom  75C    basis set group =>   2
Atom  76C    basis set group =>   2
Atom  77C    basis set group =>   2
Atom  78H    basis set group =>   3
Atom  79H    basis set group =>   3
---------------------------------
AUXILIARY/J BASIS SET INFORMATION
---------------------------------
There are 5 groups of distinct atoms

 Group   1 Type N   : 12s5p4d2f1g contracted to 6s4p3d1f1g pattern {711111/2111/211/2/1}
 Group   2 Type C   : 12s5p4d2f1g contracted to 6s4p3d1f1g pattern {711111/2111/211/2/1}
 Group   3 Type H   : 5s2p1d contracted to 3s1p1d pattern {311/2/1}
 Group   4 Type F   : 12s5p4d2f1g contracted to 6s4p3d1f1g pattern {711111/2111/211/2/1}
 Group   5 Type O   : 12s5p4d2f1g contracted to 6s4p3d1f1g pattern {711111/2111/211/2/1}

Atom   0N    basis set group =>   1
Atom   1C    basis set group =>   2
Atom   2C    basis set group =>   2
Atom   3C    basis set group =>   2
Atom   4C    basis set group =>   2
Atom   5C    basis set group =>   2
Atom   6C    basis set group =>   2
Atom   7C    basis set group =>   2
Atom   8C    basis set group =>   2
Atom   9C    basis set group =>   2
Atom  10C    basis set group =>   2
Atom  11C    basis set group =>   2
Atom  12C    basis set group =>   2
Atom  13C    basis set group =>   2
Atom  14C    basis set group =>   2
Atom  15C    basis set group =>   2
Atom  16C    basis set group =>   2
Atom  17C    basis set group =>   2
Atom  18C    basis set group =>   2
Atom  19C    basis set group =>   2
Atom  20C    basis set group =>   2
Atom  21C    basis set group =>   2
Atom  22C    basis set group =>   2
Atom  23H    basis set group =>   3
Atom  24H    basis set group =>   3
Atom  25H    basis set group =>   3
Atom  26H    basis set group =>   3
Atom  27H    basis set group =>   3
Atom  28H    basis set group =>   3
Atom  29H    basis set group =>   3
Atom  30H    basis set group =>   3
Atom  31H    basis set group =>   3
Atom  32H    basis set group =>   3
Atom  33H    basis set group =>   3
Atom  34H    basis set group =>   3
Atom  35H    basis set group =>   3
Atom  36H    basis set group =>   3
Atom  37H    basis set group =>   3
Atom  38H    basis set group =>   3
Atom  39H    basis set group =>   3
Atom  40H    basis set group =>   3
Atom  41H    basis set group =>   3
Atom  42H    basis set group =>   3
Atom  43H    basis set group =>   3
Atom  44H    basis set group =>   3
Atom  45H    basis set group =>   3
Atom  46H    basis set group =>   3
Atom  47H    basis set group =>   3
Atom  48H    basis set group =>   3
Atom  49H    basis set group =>   3
Atom  50H    basis set group =>   3
Atom  51H    basis set group =>   3
Atom  52H    basis set group =>   3
Atom  53H    basis set group =>   3
Atom  54H    basis set group =>   3
Atom  55F    basis set group =>   4
Atom  56F    basis set group =>   4
Atom  57F    basis set group =>   4
Atom  58F    basis set group =>   4
Atom  59F    basis set group =>   4
Atom  60F    basis set group =>   4
Atom  61F    basis set group =>   4
Atom  62F    basis set group =>   4
Atom  63F    basis set group =>   4
Atom  64F    basis set group =>   4
Atom  65F    basis set group =>   4
Atom  66F    basis set group =>   4
Atom  67F    basis set group =>   4
Atom  68O    basis set group =>   5
Atom  69O    basis set group =>   5
Atom  70C    basis set group =>   2
Atom  71C    basis set group =>   2
Atom  72C    basis set group =>   2
Atom  73C    basis set group =>   2
Atom  74C    basis set group =>   2
Atom  75C    basis set group =>   2
Atom  76C    basis set group =>   2
Atom  77C    basis set group =>   2
Atom  78H    basis set group =>   3
Atom  79H    basis set group =>   3


           ************************************************************
           *        Program running with 32 parallel MPI-processes    *
           *              working on a common directory               *
           ************************************************************
------------------------------------------------------------------------------
                             ORCA STARTUP CALCULATIONS
                           -- RI-GTO INTEGRALS CHOSEN --
------------------------------------------------------------------------------
------------------------------------------------------------------------------
                   ___                                                        
                  /   \      - P O W E R E D   B Y -                         
                 /     \                                                     
                 |  |  |   _    _      __       _____    __    __             
                 |  |  |  | |  | |    /  \     |  _  \  |  |  /  |          
                  \  \/   | |  | |   /    \    | | | |  |  | /  /          
                 / \  \   | |__| |  /  /\  \   | |_| |  |  |/  /          
                |  |  |   |  __  | /  /__\  \  |    /   |      \           
                |  |  |   | |  | | |   __   |  |    \   |  |\   \          
                \     /   | |  | | |  |  |  |  | |\  \  |  | \   \       
                 \___/    |_|  |_| |__|  |__|  |_| \__\ |__|  \__/        
                                                                              
                      - O R C A' S   B I G   F R I E N D -                    
                                      &                                       
                       - I N T E G R A L  F E E D E R -                       
                                                                              
 v1 FN, 2020, v2 2021, v3 2022-2024                                           
------------------------------------------------------------------------------


----------------------
SHARK INTEGRAL PACKAGE
----------------------

Number of atoms                             ...     80
Number of basis functions                   ...   2053
Number of shells                            ...    783
Maximum angular momentum                    ...      3
Integral batch strategy                     ... SHARK/LIBINT Hybrid
RI-J (if used) integral strategy            ... SPLIT-RIJ (Revised 2003 algorithm where possible)
Printlevel                                  ...      1
Contraction scheme used                     ... SEGMENTED contraction
Prescreening option                         ... SCHWARTZ
   Thresh                                   ... 1.000e-10
   Tcut                                     ... 1.000e-11
   Tpresel                                  ... 1.000e-11 
Coulomb Range Separation                    ... NOT USED
Exchange Range Separation                   ... Long Range
   Mu parameter                             ... 2.500e-01
   Scaling (regular/separated)              ... 1.957e-01 8.043e-01
Robust (split-)RI terms used:
  metric    (central integrals)             ... YES
  density   (r.h.s.  integrals)             ... YES
  potential (l.h.s.  integrals)             ... YES
Multipole approximations                    ... NOT USED
Finite Nucleus Model                        ... NOT USED
CABS basis                                  ... NOT available
Auxiliary Coulomb fitting basis             ... AVAILABLE
   # of basis functions in Aux-J            ...   2628
   # of shells in Aux-J                     ...    860
   Maximum angular momentum in Aux-J        ...      4
Auxiliary J/K fitting basis                 ... NOT available
Auxiliary Correlation fitting basis         ... NOT available
Auxiliary 'external' fitting basis          ... NOT available

Checking pre-screening integrals            ... done (  0.0 sec) Dimension = 783
   => SHARK Basis and OBASIS are compatible. Storing Pre-screening
Shell pair information
Shell pair cut-off parameter TPreSel        ...   1.0e-11
Total number of shell pairs                 ...    306936
Shell pairs after pre-screening             ...    204037
Total number of primitive shell pairs       ...    801859
Primitive shell pairs kept                  ...    356778
          la=0 lb=0:  44627 shell pairs
          la=1 lb=0:  57740 shell pairs
          la=1 lb=1:  18554 shell pairs
          la=2 lb=0:  34808 shell pairs
          la=2 lb=1:  22505 shell pairs
          la=2 lb=2:   6988 shell pairs
          la=3 lb=0:   8724 shell pairs
          la=3 lb=1:   6125 shell pairs
          la=3 lb=2:   3596 shell pairs
          la=3 lb=3:    370 shell pairs

Checking whether 4 symmetric matrices of dimension 2053 fit in memory
:Max Core in MB      =   4000.00
 MB in use           =    238.59
 MB left             =   3761.41
 MB needed           =     64.34
 Data fit in memory  = YES
Calculating RI/J V-Matrix + Cholesky decomp.... done (  0.3 sec)
Calculating Nuclear repulsion               ... done (  0.0 sec) ENN=   2587.557475128497 Eh

Diagonalization of the overlap matrix:
Smallest eigenvalue                        ... 6.755e-08
Time for diagonalization                   ...    0.427 sec
Threshold for overlap eigenvalues          ... 1.000e-07
Number of eigenvalues below threshold      ... 1
Smallest eigenvalue above threshold        ... 1.091e-07

IMPORTANT:
Smallest eigenvalue of S below the DiffSThresh (1.000e-06) while
Thresh>1e-12 and/or TCut>1e-13! In order to avoid SCF convergence issues,
Thresh will be set to at least 1e-12 and TCut to at least 1e-13.
This can be turned off by adding %SCF DiffSThresh -1 END to the input.

Time for construction of square roots      ...    0.323 sec
Total time needed                          ...    0.784 sec

-------------------
DFT GRID GENERATION
-------------------

General Integration Accuracy     IntAcc      ... 4.388
Radial Grid Type                 RadialGrid  ... OptM3 with GC (2021)
Angular Grid (max. ang.)         AngularGrid ... 4 (Lebedev-302)
Angular grid pruning method      GridPruning ... 4 (adaptive)
Weight generation scheme         WeightScheme... mBecke (2022)
Basis function cutoff            BFCut       ... 1.0000e-10
Integration weight cutoff        WCut        ... 1.0000e-14
Partially contracted basis set               ... off
Rotationally invariant grid construction     ... off
Angular grids for H and He will be reduced by one unit
Diffuse basis detected: some atoms will have their outermost
                        angular grid increased by 1.

Total number of grid points                  ...   396192
Total number of batches                      ...     6229
Average number of points per batch           ...       63
Average number of grid points per atom       ...     4952

--------------------
COSX GRID GENERATION
--------------------

GRIDX 1
-------
General Integration Accuracy     IntAcc      ... 3.816
Radial Grid Type                 RadialGrid  ... OptM3 with GC (2021)
Angular Grid (max. ang.)         AngularGrid ... 1 (Lebedev-50)
Angular grid pruning method      GridPruning ... 4 (adaptive)
Weight generation scheme         WeightScheme... mBecke (2022)
Basis function cutoff            BFCut       ... 1.0000e-10
Integration weight cutoff        WCut        ... 1.0000e-14
Partially contracted basis set               ... on
Rotationally invariant grid construction     ... off
Angular grids for H and He will be reduced by one unit
Diffuse basis detected: some atoms will have their outermost
                        angular grid increased by 1.

Total number of grid points                  ...    49430
Total number of batches                      ...      425
Average number of points per batch           ...      116
Average number of grid points per atom       ...      618
UseSFitting                                  ... on

GRIDX 2
-------
General Integration Accuracy     IntAcc      ... 4.020
Radial Grid Type                 RadialGrid  ... OptM3 with GC (2021)
Angular Grid (max. ang.)         AngularGrid ... 2 (Lebedev-110)
Angular grid pruning method      GridPruning ... 4 (adaptive)
Weight generation scheme         WeightScheme... mBecke (2022)
Basis function cutoff            BFCut       ... 1.0000e-10
Integration weight cutoff        WCut        ... 1.0000e-14
Partially contracted basis set               ... on
Rotationally invariant grid construction     ... off
Angular grids for H and He will be reduced by one unit
Diffuse basis detected: some atoms will have their outermost
                        angular grid increased by 1.

Total number of grid points                  ...   115447
Total number of batches                      ...      943
Average number of points per batch           ...      122
Average number of grid points per atom       ...     1443
UseSFitting                                  ... on

GRIDX 3
-------
General Integration Accuracy     IntAcc      ... 4.338
Radial Grid Type                 RadialGrid  ... OptM3 with GC (2021)
Angular Grid (max. ang.)         AngularGrid ... 3 (Lebedev-194)
Angular grid pruning method      GridPruning ... 4 (adaptive)
Weight generation scheme         WeightScheme... mBecke (2022)
Basis function cutoff            BFCut       ... 1.0000e-10
Integration weight cutoff        WCut        ... 1.0000e-14
Partially contracted basis set               ... on
Rotationally invariant grid construction     ... off
Angular grids for H and He will be reduced by one unit
Diffuse basis detected: some atoms will have their outermost
                        angular grid increased by 1.

Total number of grid points                  ...   253288
Total number of batches                      ...     2019
Average number of points per batch           ...      125
Average number of grid points per atom       ...     3166
UseSFitting                                  ... on
Grids setup in   7.3 sec
Initializing property integral containers    ... done (  0.0 sec)

SHARK setup successfully completed in  10.7 seconds

Maximum memory used throughout the entire STARTUP-calculation: 346.0 MB


           ************************************************************
           *        Program running with 32 parallel MPI-processes    *
           *              working on a common directory               *
           ************************************************************
-------------------------------------------------------------------------------
                                 ORCA GUESS
                   Start orbitals & Density for SCF / CASSCF
-------------------------------------------------------------------------------

------------
SCF SETTINGS
------------
Hamiltonian:
 Density Functional     Method          .... DFT(GTOs)
 Exchange Functional    Exchange        .... WB97X-D3
 Correlation Functional Correlation     .... WB97X-D3
 Gradients option       PostSCFGGA      .... off
 Hybrid DFT is turned on
   Fraction HF Exchange ScalHFX         ....  0.195728
   Scaling of DF-GGA-X  ScalDFX         ....  0.000000
   Scaling of DF-GGA-C  ScalDFC         ....  1.000000
   Scaling of DF-LDA-C  ScalLDAC        ....  1.000000
   Perturbative correction              ....  0.000000
 Long-range corrected/Screened/Range-Separated Hybrid DFT is turned on
   Amount of maximum screened exact exchange              ....  0.804272
   Range separation parameter mu (erf(mu*r12)/r12)        ....  0.250000
 RI-approximation to the Coulomb term is turned on
   Number of AuxJ basis functions       .... 2628
   RIJ-COSX (HFX calculated with COS-X)).... on


General Settings:
 Integral files         IntName         .... R4N+FHEA-_EDA_frag2
 Hartree-Fock type      HFTyp           .... RHF
 Total Charge           Charge          ....   -1
 Multiplicity           Mult            ....    1
 Number of Electrons    NEL             ....  184
 Basis Dimension        Dim             .... 2053
 Nuclear Repulsion      ENuc            ....   2587.5574751285 Eh

Convergence Acceleration:
 AO-DIIS                CNVDIIS         .... on
   Start iteration      DIISMaxIt       ....    12
   Startup error        DIISStart       ....  0.200000
   # of expansion vecs  DIISMaxEq       ....     5
   Bias factor          DIISBfac        ....   1.050
   Max. coefficient     DIISMaxC        ....  10.000
 MO-DIIS                CNVKDIIS        .... off
 Trust-Rad. Augm. Hess. CNVTRAH         .... auto
   Auto Start mean grad. ratio tolernc. ....  1.125000
   Auto Start start iteration           ....    50
   Auto Start num. interpolation iter.  ....    10
   Max. Number of Micro iterations      ....    24
   Max. Number of Macro iterations      .... Maxiter - #DIIS iter
   Number of Davidson start vectors     ....     2
   Converg. threshold    (grad. norm)   ....   5.000e-05
   Grad. Scal. Fac. for Micro threshold ....   0.100
   Minimum threshold for Micro iter.    ....   1.000e-02
   NR start threshold (gradient norm)   ....   1.000e-04
   Initial trust radius                 ....   0.400
   Minimum AH scaling param. (alpha)    ....   1.000
   Maximum AH scaling param. (alpha)    .... 1000.000
   Quad. conv. algorithm                .... NR
   White noise on init. David. guess    .... on
   Maximum white noise                  ....   0.010
   Pseudo random numbers                .... off
   Inactive MOs                         .... canonical
   Orbital update algorithm             .... Taylor
   Preconditioner                       .... Diag
   Full preconditioner red. dimension   ....   250
 SOSCF                 CNVSOSCF           .... on
   Start iteration     SOSCFMaxIt         ....   150
   Startup grad/error  SOSCFStart         ....  0.003300
   Hessian update      SOSCFHessUp        .... L-BFGS
   Autom. constraints  SOSCFAutoConstrain .... off
 Level Shifting         CNVShift        .... on
   Level shift para.    LevelShift      ....    0.2500
   Turn off err/grad.   ShiftErr        ....    0.0010
 Zerner damping         CNVZerner       .... off
 Static damping         CNVDamp         .... on
   Fraction old density DampFac         ....    0.7000
   Max. Damping (<1)    DampMax         ....    0.9800
   Min. Damping (>=0)   DampMin         ....    0.0000
   Turn off err/grad.   DampErr         ....    0.1000

SCF Procedure:
 Maximum # iterations   MaxIter         ....   125
 SCF integral mode      SCFMode         .... Direct
   Integral package                     .... SHARK and LIBINT hybrid scheme
 Reset frequency        DirectResetFreq ....    20
 Integral Threshold     Thresh          ....  1.000e-12 Eh
 Primitive CutOff       TCut            ....  1.000e-13 Eh

Convergence Tolerance:
 Convergence Check Mode ConvCheckMode   .... Total+1el-Energy
 Convergence forced     ConvForced      .... 0
 Energy Change          TolE            ....  1.000e-06 Eh
 1-El. energy change                    ....  1.000e-03 Eh
 Orbital Gradient       TolG            ....  5.000e-05
 Orbital Rotation angle TolX            ....  5.000e-05
 DIIS Error             TolErr          ....  1.000e-06

------------------------------
INITIAL GUESS: MODEL POTENTIAL
------------------------------
Loading Hartree-Fock densities                     ... done
Calculating cut-offs                               ... done
Initializing the effective Hamiltonian             ... done
Setting up the integral package (SHARK)            ... done
Starting the Coulomb interaction                   ... done (   0.8 sec)
Making the grid                                    ... done (   0.7 sec)
Mapping shells                                     ... done
Starting the XC term evaluation                    ... done (   0.8 sec)
  promolecular density results
     # of electrons  =    182.998925019
     EX              =   -187.849319255
     EC              =     -6.423140165
     EX+EC           =   -194.272459419
Transforming the Hamiltonian                       ... done (   0.3 sec)
Diagonalizing the Hamiltonian                      ... done (   0.5 sec)
Back transforming the eigenvectors                 ... done (   0.2 sec)
Now organizing SCF variables                       ... done
                      ------------------
                      INITIAL GUESS DONE (   3.6 sec)
                      ------------------
             **** ENERGY FILE WAS UPDATED (R4N+FHEA-_EDA_frag2.en.tmp) ****
Finished Guess after   5.9 sec
Maximum memory used throughout the entire GUESS-calculation: 352.5 MB


           ************************************************************
           *        Program running with 32 parallel MPI-processes    *
           *              working on a common directory               *
           ************************************************************

-------------------------------------------------------------------------------------------
                                      ORCA LEAN-SCF
                              memory conserving SCF solver
-------------------------------------------------------------------------------------------

--------------------
CPCM SOLVATION MODEL
--------------------
CPCM parameters:
  Epsilon                                         ...      72.5000
  Refrac                                          ...       1.3328
  Rsolv                                           ...       1.3000
  Surface type                                    ... GAUSSIAN VDW
  Discretization scheme                           ... Constant charge density
    Threshold for H atoms                         ...       5.0000 (charges/Ang^2)
    Threshold for non-H atoms                     ...       5.0000 (charges/Ang^2)
  Epsilon function type                           ...         CPCM
Solvent:                                          ... CUSTOM
SMD-CDS solvent descriptors:
  Soln                                            ...       1.3328
  Soln25                                          ...       1.3323
  Sola                                            ...       0.0000
  Solb                                            ...       0.0000
  Solg                                            ...       0.0000
  Solc                                            ...       0.0000
  Solh                                            ...       0.0000
Radii:
  Scheme                                          ... Element-dependent radii
  Radius for N  used is    3.5716 Bohr (=   1.8900 Ang.)
  Radius for C  used is    3.4960 Bohr (=   1.8500 Ang.)
  Radius for H  used is    2.2677 Bohr (=   1.2000 Ang.)
  Radius for F  used is    3.2692 Bohr (=   1.7300 Ang.)
  Radius for O  used is    2.8724 Bohr (=   1.5200 Ang.)
Calculating surface                               ...        done! (  0.0s)
Cavity surface points                             ...         5954
Cavity Volume                                     ...    4232.2768
Cavity Surface-area                               ...    2290.2375
Calculating surface distance matrix               ...        done! (  0.2s)
Performing Cholesky decomposition & store         ...        done! (  0.7s)
Overall time for CPCM initialization              ...                 1.0s

----------------------------------------D-I-I-S--------------------------------------------
Iteration    Energy (Eh)           Delta-E    RMSDP     MaxDP     DIISErr   Damp  Time(sec)
-------------------------------------------------------------------------------------------
               ***  Starting incremental Fock matrix formation  ***
    1    -1754.4973063952052144     0.00e+00  6.99e-02  3.43e+00  3.10e-01  0.700  66.0
    2    -1754.6951250030010669    -1.98e-01  6.84e-02  3.55e+00  1.58e-01  0.700  34.4
                               ***Turning on AO-DIIS***
    3    -1754.7785286469702442    -8.34e-02  7.46e-02  3.72e+00  6.39e-02  0.700  32.8
    4    -1754.8295432761710799    -5.10e-02  2.39e-01  1.06e+01  3.75e-02  0.000  32.1
    5    -1754.9429236166984083    -1.13e-01  5.29e-02  2.03e+00  6.61e-03  0.000  33.7
                              *** Initializing SOSCF ***
---------------------------------------S-O-S-C-F--------------------------------------
Iteration    Energy (Eh)           Delta-E    RMSDP     MaxDP     MaxGrad    Time(sec)
--------------------------------------------------------------------------------------
    6    -1754.9431472283854418    -2.24e-04  1.74e-02  6.54e-01  1.21e-03    31.1
               *** Restarting incremental Fock matrix formation ***
    7    -1754.9431154247827180     3.18e-05  3.02e-01  9.63e+00  4.42e-04    66.7
    8    -1754.9431987627453964    -8.33e-05  1.09e-02  3.65e-01  5.92e-05    59.1
    9    -1754.9431999737148544    -1.21e-06  1.72e-03  8.57e-02  5.29e-05    49.8
   10    -1754.9432005843550542    -6.11e-07  2.07e-03  6.51e-02  6.64e-06    43.8
                 **** Energy Check signals convergence ****

               *****************************************************
               *                     SUCCESS                       *
               *           SCF CONVERGED AFTER  10 CYCLES          *
               *****************************************************

Recomputing exchange energy using gridx3       ... done (  115.831 sec)
Old exchange energy                            :    -57.251648578 Eh
New exchange energy                            :    -57.251439827 Eh
Exchange energy change after final integration :      0.000208751 Eh
Total energy after final integration           :  -1754.942991867 Eh

SMD CDS free energy correction energy :                10.78959     Kcal/mol
Total Energy after SMD CDS correction =             -1754.925797562 Eh
             **** ENERGY FILE WAS UPDATED (R4N+FHEA-_EDA_frag2.en.tmp) ****

----------------
TOTAL SCF ENERGY
----------------

Total Energy       :      -1754.92579756200803 Eh          -47753.95872 eV

Components:
Nuclear Repulsion  :       2587.55747512849712 Eh           70411.01853 eV
Electronic Energy  :      -4342.38163560903467 Eh         -118162.21156 eV
One Electron Energy:      -7613.58627345889818 Eh         -207176.21514 eV
Two Electron Energy:       3271.20463784986350 Eh           89014.00358 eV
CPCM Dielectric    :         -0.11904013782508 Eh              -3.23925 eV
SMD CDS (Gcds)     :          0.01719430526137 Eh               0.46788 eV

Virial components:
Potential Energy   :      -3504.04913715215480 Eh          -95350.02452 eV
Kinetic Energy     :       1749.12333959014677 Eh           47596.06581 eV
Virial Ratio       :          2.00331735209320

DFT components:
N(Alpha)           :       91.999905871642 electrons
N(Beta)            :       91.999905871642 electrons
N(Total)           :      183.999811743283 electrons
E(XC)              :     -140.235936160038 Eh       

CPCM Solvation Model Properties:
Surface-charge          :          0.98347796783359
Corrected charge        :          1.00000000000000
Outlying charge corr.   :          0.00001193302103 Eh               0.00032 eV
Free-energy (cav+disp)  :          0.01719430526137 Eh               0.46788 eV

---------------
SCF CONVERGENCE
---------------

  Last Energy change         ...    6.1064e-07  Tolerance :   1.0000e-06
  Last MAX-Density change    ...    6.5120e-02  Tolerance :   1.0000e-05
  Last RMS-Density change    ...    2.0709e-03  Tolerance :   1.0000e-06
  Last DIIS Error            ...    1.2096e-03  Tolerance :   1.0000e-06
  Last Orbital Gradient      ...    6.6351e-06  Tolerance :   5.0000e-05
  Last Orbital Rotation      ...    1.3567e-05  Tolerance :   5.0000e-05


----------------
ORBITAL ENERGIES
----------------

  NO   OCC          E(Eh)            E(eV) 
   0   2.0000     -24.848490      -676.1618 
   1   2.0000     -24.846776      -676.1152 
   2   2.0000     -24.846226      -676.1002 
   3   2.0000     -24.846021      -676.0946 
   4   2.0000     -24.845973      -676.0933 
   5   2.0000     -24.845564      -676.0822 
   6   2.0000     -24.845461      -676.0794 
   7   2.0000     -24.845374      -676.0770 
   8   2.0000     -24.841449      -675.9702 
   9   2.0000     -24.837956      -675.8751 
  10   2.0000     -24.833799      -675.7620 
  11   2.0000     -24.817758      -675.3255 
  12   2.0000     -24.813741      -675.2162 
  13   2.0000     -19.183776      -522.0171 
  14   2.0000     -19.183032      -521.9968 
  15   2.0000     -10.565829      -287.5108 
  16   2.0000     -10.514514      -286.1145 
  17   2.0000     -10.512846      -286.0691 
  18   2.0000     -10.510261      -285.9987 
  19   2.0000     -10.497941      -285.6635 
  20   2.0000     -10.480057      -285.1768 
  21   2.0000     -10.379448      -282.4391 
  22   2.0000     -10.288916      -279.9756 
  23   2.0000      -1.474920       -40.1346 
  24   2.0000      -1.450768       -39.4774 
  25   2.0000      -1.434877       -39.0450 
  26   2.0000      -1.425760       -38.7969 
  27   2.0000      -1.420823       -38.6626 
  28   2.0000      -1.396427       -37.9987 
  29   2.0000      -1.381611       -37.5955 
  30   2.0000      -1.377116       -37.4732 
  31   2.0000      -1.372640       -37.3514 
  32   2.0000      -1.371319       -37.3155 
  33   2.0000      -1.366269       -37.1781 
  34   2.0000      -1.357640       -36.9433 
  35   2.0000      -1.336529       -36.3688 
  36   2.0000      -1.159500       -31.5516 
  37   2.0000      -1.065902       -29.0047 
  38   2.0000      -0.961644       -26.1677 
  39   2.0000      -0.938468       -25.5370 
  40   2.0000      -0.910435       -24.7742 
  41   2.0000      -0.871103       -23.7039 
  42   2.0000      -0.833451       -22.6794 
  43   2.0000      -0.799498       -21.7554 
  44   2.0000      -0.775856       -21.1121 
  45   2.0000      -0.763059       -20.7639 
  46   2.0000      -0.750403       -20.4195 
  47   2.0000      -0.747996       -20.3540 
  48   2.0000      -0.736666       -20.0457 
  49   2.0000      -0.735087       -20.0027 
  50   2.0000      -0.724380       -19.7114 
  51   2.0000      -0.711255       -19.3542 
  52   2.0000      -0.705256       -19.1910 
  53   2.0000      -0.697402       -18.9773 
  54   2.0000      -0.690433       -18.7876 
  55   2.0000      -0.686359       -18.6768 
  56   2.0000      -0.677857       -18.4454 
  57   2.0000      -0.651922       -17.7397 
  58   2.0000      -0.630411       -17.1543 
  59   2.0000      -0.617517       -16.8035 
  60   2.0000      -0.611678       -16.6446 
  61   2.0000      -0.607709       -16.5366 
  62   2.0000      -0.603926       -16.4337 
  63   2.0000      -0.599849       -16.3227 
  64   2.0000      -0.595313       -16.1993 
  65   2.0000      -0.594309       -16.1720 
  66   2.0000      -0.590561       -16.0700 
  67   2.0000      -0.584210       -15.8972 
  68   2.0000      -0.576010       -15.6740 
  69   2.0000      -0.568002       -15.4561 
  70   2.0000      -0.567115       -15.4320 
  71   2.0000      -0.563719       -15.3396 
  72   2.0000      -0.555661       -15.1203 
  73   2.0000      -0.554036       -15.0761 
  74   2.0000      -0.551226       -14.9996 
  75   2.0000      -0.549559       -14.9543 
  76   2.0000      -0.544805       -14.8249 
  77   2.0000      -0.542472       -14.7614 
  78   2.0000      -0.542167       -14.7531 
  79   2.0000      -0.540053       -14.6956 
  80   2.0000      -0.534848       -14.5540 
  81   2.0000      -0.532450       -14.4887 
  82   2.0000      -0.524676       -14.2772 
  83   2.0000      -0.521191       -14.1823 
  84   2.0000      -0.513024       -13.9601 
  85   2.0000      -0.486089       -13.2272 
  86   2.0000      -0.483476       -13.1561 
  87   2.0000      -0.466475       -12.6934 
  88   2.0000      -0.438126       -11.9220 
  89   2.0000      -0.366061        -9.9610 
  90   2.0000      -0.357047        -9.7157 
  91   2.0000      -0.348775        -9.4907 
  92   0.0000       0.027891         0.7590 
  93   0.0000       0.039038         1.0623 
  94   0.0000       0.047543         1.2937 
  95   0.0000       0.053135         1.4459 
  96   0.0000       0.063039         1.7154 
  97   0.0000       0.065925         1.7939 
  98   0.0000       0.067323         1.8319 
  99   0.0000       0.070745         1.9251 
 100   0.0000       0.076625         2.0851 
 101   0.0000       0.079869         2.1734 
 102   0.0000       0.082176         2.2361 
*Only the first 10 virtual orbitals were printed.

                    ********************************
                    * MULLIKEN POPULATION ANALYSIS *
                    ********************************

-------------------------
MULLIKEN FRAGMENT CHARGES
-------------------------
 Fragment   0 :   0.060645
 Fragment   1 :  -1.060645
Sum of fragment charges:   -1.0000000

---------------------------------
MULLIKEN FRAGMENT OVERLAP CHARGES
---------------------------------
                  0          1    
      0     -276.962959  -1.444798
      1      -1.444798 102.842391

-----------------------
MULLIKEN ATOMIC CHARGES
-----------------------
   0 N :   -0.016412
   1 C :   -0.001540
   2 C :    0.014394
   3 C :   -0.025923
   4 C :    0.006985
   5 C :   -0.000134
   6 C :    0.057856
   7 C :    0.079885
   8 C :    0.022604
   9 C :   -0.014745
  10 C :    0.000202
  11 C :   -0.009009
  12 C :   -0.002508
  13 C :    0.003348
  14 C :   -0.014158
  15 C :   -0.030061
  16 C :   -0.055332
  17 C :   -0.000010
  18 C :   -0.015724
  19 C :   -0.003042
  20 C :    0.024312
  21 C :   -0.000245
  22 C :    0.001061
  23 H :    0.000023
  24 H :    0.000032
  25 H :    0.001699
  26 H :   -0.004633
  27 H :   -0.000002
  28 H :    0.000002
  29 H :   -0.076532
  30 H :    0.033092
  31 H :   -0.001832
  32 H :   -0.001516
  33 H :   -0.003370
  34 H :    0.001543
  35 H :   -0.008213
  36 H :    0.000316
  37 H :   -0.000186
  38 H :    0.000340
  39 H :   -0.001577
  40 H :   -0.013447
  41 H :   -0.000135
  42 H :    0.013441
  43 H :    0.007548
  44 H :   -0.000710
  45 H :    0.023830
  46 H :    0.081916
  47 H :    0.000001
  48 H :   -0.000000
  49 H :   -0.000004
  50 H :   -0.013328
  51 H :   -0.000015
  52 H :    0.000564
  53 H :    0.000003
  54 H :   -0.000008
  55 F :   -0.314113
  56 F :   -0.450410
  57 F :   -0.175335
  58 F :   -0.422621
  59 F :   -0.355134
  60 F :   -0.414214
  61 F :   -0.302360
  62 F :   -0.426721
  63 F :   -0.384494
  64 F :   -0.305796
  65 F :   -0.333069
  66 F :   -0.365613
  67 F :   -0.133725
  68 O :   -0.922975
  69 O :   -0.883674
  70 C :    0.725615
  71 C :    0.971578
  72 C :    0.595475
  73 C :    0.842211
  74 C :    0.826155
  75 C :   -0.952859
  76 C :    0.606589
  77 C :    0.711188
  78 H :    0.356019
  79 H :    0.447638
Sum of atomic charges:   -1.0000000

--------------------------------
MULLIKEN REDUCED ORBITAL CHARGES
--------------------------------
  0 N s       :     0.014138  s :     0.014138
      pz      :     0.000866  p :     0.001933
      px      :     0.000925
      py      :     0.000142
      dz2     :    -0.000256  d :     0.000341
      dxz     :     0.000594
      dyz     :     0.000849
      dx2y2   :    -0.000038
      dxy     :    -0.000808
      f0      :    -0.000000  f :    -0.000000
      f+1     :     0.000000
      f-1     :    -0.000000
      f+2     :     0.000000
      f-2     :    -0.000000
      f+3     :    -0.000000
      f-3     :    -0.000000

  1 C s       :     0.000739  s :     0.000739
      pz      :     0.000975  p :     0.001254
      px      :     0.000019
      py      :     0.000260
      dz2     :    -0.000543  d :    -0.000454
      dxz     :     0.000207
      dyz     :     0.000379
      dx2y2   :    -0.000358
      dxy     :    -0.000139
      f0      :    -0.000000  f :    -0.000000
      f+1     :    -0.000000
      f-1     :    -0.000000
      f+2     :    -0.000000
      f-2     :    -0.000000
      f+3     :    -0.000000
      f-3     :    -0.000000

  2 C s       :    -0.007390  s :    -0.007390
      pz      :    -0.002390  p :    -0.002465
      px      :    -0.000201
      py      :     0.000126
      dz2     :    -0.002059  d :    -0.004540
      dxz     :    -0.001353
      dyz     :    -0.002159
      dx2y2   :     0.001066
      dxy     :    -0.000035
      f0      :    -0.000000  f :    -0.000000
      f+1     :    -0.000000
      f-1     :    -0.000000
      f+2     :    -0.000000
      f-2     :    -0.000000
      f+3     :    -0.000000
      f-3     :    -0.000000

  3 C s       :     0.028375  s :     0.028375
      pz      :     0.009974  p :     0.018811
      px      :     0.002848
      py      :     0.005990
      dz2     :    -0.005378  d :    -0.021264
      dxz     :    -0.006470
      dyz     :    -0.013665
      dx2y2   :     0.003950
      dxy     :     0.000300
      f0      :     0.000000  f :    -0.000000
      f+1     :    -0.000000
      f-1     :    -0.000000
      f+2     :    -0.000000
      f-2     :     0.000000
      f+3     :    -0.000000
      f-3     :    -0.000000

  4 C s       :    -0.003711  s :    -0.003711
      pz      :    -0.007065  p :    -0.005566
      px      :    -0.000931
      py      :     0.002430
      dz2     :    -0.000433  d :     0.002292
      dxz     :     0.001732
      dyz     :    -0.002385
      dx2y2   :    -0.000549
      dxy     :     0.003926
      f0      :     0.000000  f :    -0.000000
      f+1     :    -0.000000
      f-1     :    -0.000000
      f+2     :    -0.000000
      f-2     :    -0.000000
      f+3     :    -0.000000
      f-3     :    -0.000000

  5 C s       :     0.000072  s :     0.000072
      pz      :     0.000067  p :     0.000041
      px      :    -0.000019
      py      :    -0.000006
      dz2     :     0.000001  d :     0.000021
      dxz     :     0.000010
      dyz     :    -0.000013
      dx2y2   :     0.000009
      dxy     :     0.000014
      f0      :    -0.000000  f :    -0.000000
      f+1     :    -0.000000
      f-1     :    -0.000000
      f+2     :    -0.000000
      f-2     :    -0.000000
      f+3     :    -0.000000
      f-3     :    -0.000000

  6 C s       :    -0.053751  s :    -0.053751
      pz      :     0.028163  p :    -0.010524
      px      :    -0.004987
      py      :    -0.033700
      dz2     :     0.013029  d :     0.006419
      dxz     :    -0.003138
      dyz     :     0.006687
      dx2y2   :    -0.004540
      dxy     :    -0.005619
      f0      :    -0.000000  f :     0.000000
      f+1     :     0.000000
      f-1     :     0.000000
      f+2     :    -0.000000
      f-2     :    -0.000000
      f+3     :    -0.000000
      f-3     :    -0.000000

  7 C s       :    -0.096892  s :    -0.096892
      pz      :     0.036910  p :     0.064303
      px      :    -0.012253
      py      :     0.039646
      dz2     :    -0.001448  d :    -0.047297
      dxz     :     0.008645
      dyz     :    -0.029691
      dx2y2   :    -0.021744
      dxy     :    -0.003059
      f0      :     0.000000  f :     0.000001
      f+1     :     0.000000
      f-1     :     0.000001
      f+2     :    -0.000000
      f-2     :    -0.000000
      f+3     :     0.000000
      f-3     :     0.000000

  8 C s       :    -0.005115  s :    -0.005115
      pz      :     0.010501  p :     0.006830
      px      :     0.000757
      py      :    -0.004428
      dz2     :    -0.003103  d :    -0.024319
      dxz     :    -0.002603
      dyz     :    -0.012159
      dx2y2   :    -0.008445
      dxy     :     0.001991
      f0      :    -0.000000  f :    -0.000000
      f+1     :     0.000000
      f-1     :    -0.000000
      f+2     :    -0.000000
      f-2     :    -0.000000
      f+3     :    -0.000000
      f-3     :     0.000000

  9 C s       :     0.015318  s :     0.015318
      pz      :    -0.001813  p :     0.000812
      px      :     0.000781
      py      :     0.001844
      dz2     :     0.000163  d :    -0.001385
      dxz     :    -0.000365
      dyz     :    -0.002666
      dx2y2   :     0.000283
      dxy     :     0.001200
      f0      :    -0.000000  f :    -0.000000
      f+1     :    -0.000000
      f-1     :    -0.000000
      f+2     :    -0.000000
      f-2     :    -0.000000
      f+3     :     0.000000
      f-3     :    -0.000000

 10 C s       :     0.005871  s :     0.005871
      pz      :     0.008966  p :    -0.000091
      px      :    -0.015622
      py      :     0.006565
      dz2     :    -0.002183  d :    -0.005982
      dxz     :    -0.007565
      dyz     :    -0.005561
      dx2y2   :     0.009697
      dxy     :    -0.000370
      f0      :    -0.000000  f :    -0.000000
      f+1     :    -0.000000
      f-1     :    -0.000000
      f+2     :    -0.000000
      f-2     :    -0.000000
      f+3     :    -0.000000
      f-3     :    -0.000000

 11 C s       :     0.001966  s :     0.001966
      pz      :    -0.001475  p :    -0.005867
      px      :    -0.000966
      py      :    -0.003426
      dz2     :     0.001663  d :     0.012911
      dxz     :     0.000714
      dyz     :     0.008169
      dx2y2   :    -0.000446
      dxy     :     0.002811
      f0      :    -0.000000  f :    -0.000000
      f+1     :    -0.000000
      f-1     :    -0.000000
      f+2     :     0.000000
      f-2     :    -0.000000
      f+3     :     0.000000
      f-3     :    -0.000000

 12 C s       :     0.001984  s :     0.001984
      pz      :     0.000053  p :     0.000455
      px      :     0.000832
      py      :    -0.000430
      dz2     :     0.000011  d :     0.000069
      dxz     :    -0.000199
      dyz     :    -0.000029
      dx2y2   :     0.000016
      dxy     :     0.000270
      f0      :    -0.000000  f :    -0.000000
      f+1     :    -0.000000
      f-1     :    -0.000000
      f+2     :    -0.000000
      f-2     :    -0.000000
      f+3     :    -0.000000
      f-3     :    -0.000000

 13 C s       :    -0.004680  s :    -0.004680
      pz      :    -0.000548  p :    -0.000344
      px      :    -0.002552
      py      :     0.002755
      dz2     :     0.000772  d :     0.001677
      dxz     :     0.000538
      dyz     :    -0.000469
      dx2y2   :    -0.000090
      dxy     :     0.000927
      f0      :     0.000000  f :    -0.000000
      f+1     :    -0.000000
      f-1     :    -0.000000
      f+2     :    -0.000000
      f-2     :     0.000000
      f+3     :    -0.000000
      f-3     :    -0.000000

 14 C s       :     0.017226  s :     0.017226
      pz      :     0.001550  p :    -0.001720
      px      :     0.001837
      py      :    -0.005107
      dz2     :     0.002371  d :    -0.001347
      dxz     :    -0.001852
      dyz     :    -0.000431
      dx2y2   :    -0.000252
      dxy     :    -0.001183
      f0      :     0.000000  f :     0.000000
      f+1     :     0.000000
      f-1     :     0.000000
      f+2     :     0.000000
      f-2     :    -0.000000
      f+3     :    -0.000000
      f-3     :     0.000000

 15 C s       :     0.008255  s :     0.008255
      pz      :     0.005859  p :     0.003583
      px      :    -0.003401
      py      :     0.001125
      dz2     :     0.020034  d :     0.018223
      dxz     :    -0.005914
      dyz     :     0.005947
      dx2y2   :     0.001273
      dxy     :    -0.003116
      f0      :     0.000000  f :     0.000000
      f+1     :     0.000000
      f-1     :    -0.000000
      f+2     :    -0.000000
      f-2     :     0.000000
      f+3     :    -0.000000
      f-3     :    -0.000000

 16 C s       :     0.006872  s :     0.006872
      pz      :     0.019716  p :    -0.010577
      px      :    -0.021319
      py      :    -0.008974
      dz2     :    -0.024562  d :     0.059037
      dxz     :     0.019251
      dyz     :     0.040396
      dx2y2   :     0.017576
      dxy     :     0.006375
      f0      :     0.000000  f :     0.000001
      f+1     :     0.000001
      f-1     :    -0.000000
      f+2     :     0.000000
      f-2     :    -0.000000
      f+3     :    -0.000000
      f-3     :     0.000000

 17 C s       :     0.000015  s :     0.000015
      pz      :    -0.000003  p :    -0.000003
      px      :    -0.000002
      py      :     0.000001
      dz2     :     0.000002  d :    -0.000002
      dxz     :     0.000000
      dyz     :    -0.000004
      dx2y2   :    -0.000001
      dxy     :     0.000002
      f0      :    -0.000000  f :    -0.000000
      f+1     :    -0.000000
      f-1     :    -0.000000
      f+2     :    -0.000000
      f-2     :    -0.000000
      f+3     :    -0.000000
      f-3     :    -0.000000

 18 C s       :     0.016875  s :     0.016875
      pz      :     0.020487  p :     0.025357
      px      :    -0.001355
      py      :     0.006225
      dz2     :     0.000997  d :    -0.026509
      dxz     :    -0.012666
      dyz     :    -0.020593
      dx2y2   :    -0.002291
      dxy     :     0.008045
      f0      :     0.000000  f :    -0.000000
      f+1     :    -0.000000
      f-1     :    -0.000000
      f+2     :     0.000000
      f-2     :    -0.000000
      f+3     :    -0.000000
      f-3     :    -0.000000

 19 C s       :     0.000943  s :     0.000943
      pz      :     0.000151  p :     0.001521
      px      :    -0.000002
      py      :     0.001372
      dz2     :    -0.000154  d :     0.000579
      dxz     :    -0.000255
      dyz     :     0.000655
      dx2y2   :     0.000040
      dxy     :     0.000292
      f0      :    -0.000000  f :    -0.000000
      f+1     :    -0.000000
      f-1     :     0.000000
      f+2     :    -0.000000
      f-2     :    -0.000000
      f+3     :    -0.000000
      f-3     :     0.000000

 20 C s       :    -0.012311  s :    -0.012311
      pz      :    -0.001522  p :    -0.012319
      px      :     0.001169
      py      :    -0.011967
      dz2     :    -0.000283  d :     0.000318
      dxz     :     0.000838
      dyz     :     0.001822
      dx2y2   :    -0.001975
      dxy     :    -0.000082
      f0      :    -0.000000  f :    -0.000000
      f+1     :    -0.000000
      f-1     :    -0.000000
      f+2     :    -0.000000
      f-2     :    -0.000000
      f+3     :    -0.000000
      f-3     :    -0.000000

 21 C s       :     0.000106  s :     0.000106
      pz      :    -0.000107  p :     0.000027
      px      :    -0.000053
      py      :     0.000187
      dz2     :     0.000000  d :     0.000112
      dxz     :    -0.000037
      dyz     :    -0.000008
      dx2y2   :     0.000158
      dxy     :    -0.000002
      f0      :    -0.000000  f :    -0.000000
      f+1     :    -0.000000
      f-1     :    -0.000000
      f+2     :    -0.000000
      f-2     :    -0.000000
      f+3     :    -0.000000
      f-3     :    -0.000000

 22 C s       :     0.000111  s :     0.000111
      pz      :    -0.000320  p :    -0.000590
      px      :    -0.000106
      py      :    -0.000164
      dz2     :    -0.000027  d :    -0.000582
      dxz     :     0.000105
      dyz     :    -0.000253
      dx2y2   :    -0.000284
      dxy     :    -0.000122
      f0      :    -0.000000  f :    -0.000000
      f+1     :    -0.000000
      f-1     :    -0.000000
      f+2     :    -0.000000
      f-2     :    -0.000000
      f+3     :    -0.000000
      f-3     :    -0.000000

 23 H s       :    -0.000048  s :    -0.000048
      pz      :     0.000004  p :     0.000025
      px      :     0.000016
      py      :     0.000005

 24 H s       :     0.000026  s :     0.000026
      pz      :    -0.000170  p :    -0.000059
      px      :     0.000008
      py      :     0.000103

 25 H s       :    -0.001401  s :    -0.001401
      pz      :    -0.000070  p :    -0.000298
      px      :    -0.000073
      py      :    -0.000156

 26 H s       :    -0.022750  s :    -0.022750
      pz      :     0.012127  p :     0.027383
      px      :     0.009953
      py      :     0.005303

 27 H s       :    -0.000002  s :    -0.000002
      pz      :     0.000011  p :     0.000004
      px      :    -0.000004
      py      :    -0.000002

 28 H s       :    -0.000006  s :    -0.000006
      pz      :     0.000001  p :     0.000004
      px      :     0.000001
      py      :     0.000002

 29 H s       :     0.146692  s :     0.146692
      pz      :    -0.022687  p :    -0.070160
      px      :    -0.015420
      py      :    -0.032053

 30 H s       :    -0.044142  s :    -0.044142
      pz      :     0.003542  p :     0.011049
      px      :     0.009192
      py      :    -0.001685

 31 H s       :     0.001577  s :     0.001577
      pz      :     0.000133  p :     0.000255
      px      :    -0.000086
      py      :     0.000208

 32 H s       :     0.003505  s :     0.003505
      pz      :     0.001343  p :    -0.001989
      px      :    -0.001785
      py      :    -0.001546

 33 H s       :     0.000065  s :     0.000065
      pz      :     0.002667  p :     0.003305
      px      :     0.004132
      py      :    -0.003494

 34 H s       :    -0.001193  s :    -0.001193
      pz      :    -0.000132  p :    -0.000350
      px      :     0.000174
      py      :    -0.000393

 35 H s       :     0.008921  s :     0.008921
      pz      :    -0.000772  p :    -0.000708
      px      :     0.000249
      py      :    -0.000185

 36 H s       :    -0.000368  s :    -0.000368
      pz      :     0.000045  p :     0.000053
      px      :     0.000051
      py      :    -0.000043

 37 H s       :     0.000125  s :     0.000125
      pz      :    -0.000004  p :     0.000060
      px      :     0.000067
      py      :    -0.000002

 38 H s       :    -0.000306  s :    -0.000306
      pz      :    -0.000177  p :    -0.000034
      px      :     0.000260
      py      :    -0.000117

 39 H s       :     0.001377  s :     0.001377
      pz      :    -0.000020  p :     0.000201
      px      :    -0.000424
      py      :     0.000644

 40 H s       :    -0.005254  s :    -0.005254
      pz      :     0.003870  p :     0.018701
      px      :     0.013887
      py      :     0.000945

 41 H s       :    -0.000063  s :    -0.000063
      pz      :    -0.000068  p :     0.000198
      px      :     0.000220
      py      :     0.000046

 42 H s       :     0.008475  s :     0.008475
      pz      :    -0.016819  p :    -0.021916
      px      :    -0.007087
      py      :     0.001989

 43 H s       :    -0.004963  s :    -0.004963
      pz      :    -0.001606  p :    -0.002584
      px      :     0.001441
      py      :    -0.002419

 44 H s       :    -0.000226  s :    -0.000226
      pz      :     0.000145  p :     0.000936
      px      :     0.000404
      py      :     0.000387

 45 H s       :    -0.017752  s :    -0.017752
      pz      :    -0.002727  p :    -0.006078
      px      :    -0.001794
      py      :    -0.001556

 46 H s       :    -0.029800  s :    -0.029800
      pz      :    -0.034680  p :    -0.052115
      px      :     0.002109
      py      :    -0.019544

 47 H s       :    -0.000001  s :    -0.000001
      pz      :     0.000000  p :    -0.000000
      px      :    -0.000000
      py      :     0.000000

 48 H s       :     0.000000  s :     0.000000
      pz      :     0.000000  p :     0.000000
      px      :     0.000000
      py      :     0.000000

 49 H s       :    -0.000014  s :    -0.000014
      pz      :     0.000009  p :     0.000018
      px      :     0.000001
      py      :     0.000007

 50 H s       :    -0.001986  s :    -0.001986
      pz      :     0.026267  p :     0.015314
      px      :     0.007185
      py      :    -0.018138

 51 H s       :     0.000009  s :     0.000009
      pz      :    -0.000024  p :     0.000006
      px      :     0.000000
      py      :     0.000029

 52 H s       :    -0.000915  s :    -0.000915
      pz      :     0.000303  p :     0.000351
      px      :    -0.000011
      py      :     0.000060

 53 H s       :    -0.000002  s :    -0.000002
      pz      :    -0.000002  p :    -0.000001
      px      :    -0.000001
      py      :     0.000002

 54 H s       :     0.000017  s :     0.000017
      pz      :    -0.000009  p :    -0.000010
      px      :    -0.000006
      py      :     0.000005

 55 F s       :     3.919967  s :     3.919967
      pz      :     1.926657  p :     5.361609
      px      :     1.541494
      py      :     1.893458
      dz2     :     0.005183  d :     0.031826
      dxz     :     0.003283
      dyz     :     0.006700
      dx2y2   :     0.005505
      dxy     :     0.011155
      f0      :     0.000070  f :     0.000712
      f+1     :     0.000125
      f-1     :     0.000008
      f+2     :     0.000126
      f-2     :     0.000042
      f+3     :     0.000194
      f-3     :     0.000147

 56 F s       :     4.073917  s :     4.073917
      pz      :     1.560466  p :     5.353446
      px      :     1.823405
      py      :     1.969574
      dz2     :     0.004110  d :     0.022306
      dxz     :     0.005651
      dyz     :     0.005008
      dx2y2   :     0.004142
      dxy     :     0.003394
      f0      :     0.000131  f :     0.000742
      f+1     :     0.000245
      f-1     :     0.000107
      f+2     :     0.000114
      f-2     :     0.000109
      f+3     :     0.000017
      f-3     :     0.000018

 57 F s       :     3.921944  s :     3.921944
      pz      :     1.721193  p :     5.238245
      px      :     1.945056
      py      :     1.571996
      dz2     :     0.002874  d :     0.014422
      dxz     :     0.000637
      dyz     :     0.004478
      dx2y2   :     0.004142
      dxy     :     0.002291
      f0      :     0.000074  f :     0.000724
      f+1     :     0.000013
      f-1     :     0.000167
      f+2     :     0.000204
      f-2     :     0.000103
      f+3     :     0.000068
      f-3     :     0.000094

 58 F s       :     4.109556  s :     4.109556
      pz      :     1.783969  p :     5.288184
      px      :     1.564468
      py      :     1.939747
      dz2     :     0.005277  d :     0.024143
      dxz     :     0.006176
      dyz     :     0.003755
      dx2y2   :     0.005550
      dxy     :     0.003385
      f0      :     0.000076  f :     0.000738
      f+1     :     0.000163
      f-1     :     0.000009
      f+2     :     0.000208
      f-2     :     0.000101
      f+3     :     0.000102
      f-3     :     0.000077

 59 F s       :     4.060280  s :     4.060280
      pz      :     1.430571  p :     5.266057
      px      :     1.896897
      py      :     1.938588
      dz2     :     0.008114  d :     0.028089
      dxz     :     0.004419
      dyz     :     0.007346
      dx2y2   :     0.004049
      dxy     :     0.004161
      f0      :     0.000284  f :     0.000708
      f+1     :     0.000204
      f-1     :     0.000153
      f+2     :     0.000035
      f-2     :     0.000028
      f+3     :     0.000003
      f-3     :     0.000002

 60 F s       :     4.094507  s :     4.094507
      pz      :     1.931697  p :     5.293846
      px      :     1.399606
      py      :     1.962542
      dz2     :     0.004037  d :     0.025133
      dxz     :     0.003472
      dyz     :     0.004187
      dx2y2   :     0.007133
      dxy     :     0.006304
      f0      :     0.000059  f :     0.000728
      f+1     :     0.000145
      f-1     :     0.000013
      f+2     :     0.000100
      f-2     :     0.000007
      f+3     :     0.000231
      f-3     :     0.000173

 61 F s       :     4.006947  s :     4.006947
      pz      :     1.423982  p :     5.275029
      px      :     1.947469
      py      :     1.903577
      dz2     :     0.006395  d :     0.019715
      dxz     :     0.003850
      dyz     :     0.003721
      dx2y2   :     0.003198
      dxy     :     0.002551
      f0      :     0.000313  f :     0.000670
      f+1     :     0.000136
      f-1     :     0.000184
      f+2     :     0.000014
      f-2     :     0.000020
      f+3     :     0.000002
      f-3     :     0.000001

 62 F s       :     4.101119  s :     4.101119
      pz      :     1.928609  p :     5.310835
      px      :     1.643404
      py      :     1.738822
      dz2     :     0.001415  d :     0.014099
      dxz     :     0.002319
      dyz     :     0.003082
      dx2y2   :     0.001972
      dxy     :     0.005310
      f0      :     0.000057  f :     0.000668
      f+1     :     0.000078
      f-1     :     0.000058
      f+2     :     0.000012
      f-2     :     0.000104
      f+3     :     0.000166
      f-3     :     0.000194

 63 F s       :     4.099776  s :     4.099776
      pz      :     1.542869  p :     5.262386
      px      :     1.872963
      py      :     1.846554
      dz2     :     0.005009  d :     0.021589
      dxz     :     0.005212
      dyz     :     0.003656
      dx2y2   :     0.004247
      dxy     :     0.003465
      f0      :     0.000129  f :     0.000744
      f+1     :     0.000164
      f-1     :     0.000187
      f+2     :     0.000094
      f-2     :     0.000133
      f+3     :     0.000020
      f-3     :     0.000016

 64 F s       :     4.010017  s :     4.010017
      pz      :     1.891305  p :     5.269677
      px      :     1.838877
      py      :     1.539495
      dz2     :     0.003826  d :     0.025368
      dxz     :     0.002735
      dyz     :     0.003658
      dx2y2   :     0.006590
      dxy     :     0.008559
      f0      :     0.000072  f :     0.000735
      f+1     :     0.000033
      f-1     :     0.000101
      f+2     :     0.000066
      f-2     :     0.000110
      f+3     :     0.000211
      f-3     :     0.000142

 65 F s       :     4.061115  s :     4.061115
      pz      :     1.924102  p :     5.255848
      px      :     1.883247
      py      :     1.448500
      dz2     :     0.002745  d :     0.015320
      dxz     :     0.001390
      dyz     :     0.001102
      dx2y2   :     0.005673
      dxy     :     0.004410
      f0      :     0.000066  f :     0.000786
      f+1     :     0.000031
      f-1     :     0.000141
      f+2     :     0.000062
      f-2     :     0.000056
      f+3     :     0.000248
      f-3     :     0.000182

 66 F s       :     4.093936  s :     4.093936
      pz      :     1.732588  p :     5.255482
      px      :     1.596442
      py      :     1.926451
      dz2     :     0.001897  d :     0.015414
      dxz     :     0.006167
      dyz     :     0.001169
      dx2y2   :     0.004268
      dxy     :     0.001912
      f0      :     0.000087  f :     0.000781
      f+1     :     0.000197
      f-1     :     0.000011
      f+2     :     0.000226
      f-2     :     0.000102
      f+3     :     0.000088
      f-3     :     0.000069

 67 F s       :     3.881161  s :     3.881161
      pz      :     1.496192  p :     5.235713
      px      :     1.892078
      py      :     1.847443
      dz2     :     0.003499  d :     0.016082
      dxz     :     0.004552
      dyz     :     0.003908
      dx2y2   :     0.004653
      dxy     :    -0.000530
      f0      :     0.000224  f :     0.000768
      f+1     :     0.000209
      f-1     :     0.000183
      f+2     :     0.000062
      f-2     :     0.000078
      f+3     :     0.000008
      f-3     :     0.000005

 68 O s       :     4.033370  s :     4.033370
      pz      :     1.592622  p :     4.852851
      px      :     1.669135
      py      :     1.591093
      dz2     :     0.004187  d :     0.035087
      dxz     :     0.010304
      dyz     :     0.006786
      dx2y2   :     0.005425
      dxy     :     0.008386
      f0      :     0.000277  f :     0.001668
      f+1     :     0.000375
      f-1     :     0.000203
      f+2     :     0.000342
      f-2     :     0.000326
      f+3     :     0.000084
      f-3     :     0.000061

 69 O s       :     4.028115  s :     4.028115
      pz      :     1.368747  p :     4.817291
      px      :     1.792036
      py      :     1.656507
      dz2     :     0.011267  d :     0.036601
      dxz     :     0.010811
      dyz     :     0.010401
      dx2y2   :     0.001138
      dxy     :     0.002983
      f0      :     0.000570  f :     0.001667
      f+1     :     0.000476
      f-1     :     0.000442
      f+2     :     0.000075
      f-2     :     0.000097
      f+3     :     0.000004
      f-3     :     0.000004

 70 C s       :     3.475315  s :     3.475315
      pz      :     0.532897  p :     1.351458
      px      :     0.476206
      py      :     0.342356
      dz2     :     0.066725  d :     0.418528
      dxz     :     0.004651
      dyz     :     0.127122
      dx2y2   :     0.119168
      dxy     :     0.100863
      f0      :     0.005391  f :     0.029084
      f+1     :     0.004778
      f-1     :     0.002842
      f+2     :     0.005171
      f-2     :     0.003430
      f+3     :     0.002849
      f-3     :     0.004623

 71 C s       :     3.236428  s :     3.236428
      pz      :     0.450833  p :     1.352852
      px      :     0.379336
      py      :     0.522682
      dz2     :    -0.001493  d :     0.410425
      dxz     :     0.117893
      dyz     :     0.144800
      dx2y2   :     0.026749
      dxy     :     0.122477
      f0      :     0.005987  f :     0.028717
      f+1     :     0.004783
      f-1     :     0.004766
      f+2     :     0.004110
      f-2     :     0.001570
      f+3     :     0.002612
      f-3     :     0.004889

 72 C s       :     3.479214  s :     3.479214
      pz      :     0.509225  p :     1.429372
      px      :     0.434080
      py      :     0.486067
      dz2     :     0.104359  d :     0.466897
      dxz     :     0.072283
      dyz     :     0.089398
      dx2y2   :     0.115239
      dxy     :     0.085618
      f0      :     0.002471  f :     0.029042
      f+1     :     0.004542
      f-1     :     0.004489
      f+2     :     0.004101
      f-2     :     0.005565
      f+3     :     0.003862
      f-3     :     0.004012

 73 C s       :     3.300114  s :     3.300114
      pz      :     0.409074  p :     1.457100
      px      :     0.506899
      py      :     0.541127
      dz2     :     0.026063  d :     0.371869
      dxz     :     0.105211
      dyz     :     0.102520
      dx2y2   :     0.112740
      dxy     :     0.025335
      f0      :     0.005131  f :     0.028706
      f+1     :     0.005955
      f-1     :     0.004831
      f+2     :     0.001502
      f-2     :     0.003517
      f+3     :     0.004796
      f-3     :     0.002974

 74 C s       :     3.285637  s :     3.285637
      pz      :     0.383471  p :     1.431805
      px      :     0.591150
      py      :     0.457184
      dz2     :     0.076119  d :     0.427269
      dxz     :     0.137306
      dyz     :     0.099072
      dx2y2   :     0.079487
      dxy     :     0.035286
      f0      :     0.005361  f :     0.029135
      f+1     :     0.003296
      f-1     :     0.004365
      f+2     :     0.004374
      f-2     :     0.004248
      f+3     :     0.002304
      f-3     :     0.005187

 75 C s       :     3.362472  s :     3.362472
      pz      :     1.171127  p :     3.348388
      px      :     1.098326
      py      :     1.078935
      dz2     :     0.065686  d :     0.237167
      dxz     :     0.106925
      dyz     :     0.000638
      dx2y2   :     0.031611
      dxy     :     0.032307
      f0      :     0.001042  f :     0.004832
      f+1     :     0.000694
      f-1     :     0.000219
      f+2     :     0.000402
      f-2     :     0.000532
      f+3     :     0.000943
      f-3     :     0.001000

 76 C s       :     3.545505  s :     3.545505
      pz      :     0.449351  p :     1.354298
      px      :     0.461456
      py      :     0.443491
      dz2     :     0.091027  d :     0.451118
      dxz     :     0.057041
      dyz     :     0.116892
      dx2y2   :     0.048565
      dxy     :     0.137594
      f0      :     0.007754  f :     0.042490
      f+1     :     0.007667
      f-1     :     0.004595
      f+2     :     0.005734
      f-2     :     0.006333
      f+3     :     0.003779
      f-3     :     0.006628

 77 C s       :     3.094934  s :     3.094934
      pz      :     0.574371  p :     1.927747
      px      :     0.735216
      py      :     0.618160
      dz2     :     0.054569  d :     0.239935
      dxz     :     0.027263
      dyz     :     0.075658
      dx2y2   :     0.048578
      dxy     :     0.033866
      f0      :     0.006166  f :     0.026196
      f+1     :     0.006133
      f-1     :     0.004953
      f+2     :     0.003628
      f-2     :     0.002732
      f+3     :     0.001491
      f-3     :     0.001093

 78 H s       :     0.608380  s :     0.608380
      pz      :     0.038264  p :     0.035601
      px      :    -0.005690
      py      :     0.003028

 79 H s       :     0.553303  s :     0.553303
      pz      :    -0.009586  p :    -0.000942
      px      :    -0.014137
      py      :     0.022781



                     *******************************
                     * LOEWDIN POPULATION ANALYSIS *
                     *******************************

------------------------
LOEWDIN FRAGMENT CHARGES
------------------------
 Fragment   0 :  -0.316624
 Fragment   1 :  -0.683376

----------------------------
LOEWDIN FRAGMENT BOND ORDERS
----------------------------
                  0          1    
      0       0.327654   0.618365
      1       0.618365 283.036611

----------------------
LOEWDIN ATOMIC CHARGES
----------------------
   0 N :   -0.000694
   1 C :   -0.000059
   2 C :   -0.000312
   3 C :   -0.010565
   4 C :   -0.000377
   5 C :   -0.000010
   6 C :   -0.028124
   7 C :   -0.018261
   8 C :   -0.002443
   9 C :   -0.001007
  10 C :   -0.004414
  11 C :   -0.009400
  12 C :   -0.000137
  13 C :   -0.005616
  14 C :   -0.009411
  15 C :   -0.009626
  16 C :   -0.022831
  17 C :   -0.000007
  18 C :   -0.013890
  19 C :   -0.000050
  20 C :   -0.002507
  21 C :   -0.000021
  22 C :   -0.000040
  23 H :   -0.000013
  24 H :   -0.000016
  25 H :   -0.000108
  26 H :   -0.018688
  27 H :   -0.000005
  28 H :   -0.000002
  29 H :   -0.047917
  30 H :   -0.006556
  31 H :   -0.000031
  32 H :   -0.000711
  33 H :   -0.006039
  34 H :   -0.000067
  35 H :   -0.003496
  36 H :   -0.000034
  37 H :   -0.000018
  38 H :   -0.000039
  39 H :   -0.000351
  40 H :   -0.014730
  41 H :   -0.000144
  42 H :   -0.027791
  43 H :   -0.000317
  44 H :   -0.000249
  45 H :   -0.001031
  46 H :   -0.024118
  47 H :   -0.000001
  48 H :   -0.000001
  49 H :   -0.000013
  50 H :   -0.022666
  51 H :   -0.000011
  52 H :   -0.001649
  53 H :   -0.000003
  54 H :   -0.000005
  55 F :    0.179024
  56 F :    0.180868
  57 F :    0.189424
  58 F :    0.163345
  59 F :    0.149105
  60 F :    0.143846
  61 F :    0.113192
  62 F :    0.099092
  63 F :    0.165652
  64 F :    0.154434
  65 F :    0.197113
  66 F :    0.188755
  67 F :    0.220527
  68 O :   -0.102914
  69 O :   -0.052853
  70 C :   -0.317192
  71 C :   -0.333481
  72 C :   -0.310494
  73 C :   -0.416097
  74 C :   -0.329345
  75 C :   -0.002055
  76 C :   -0.541407
  77 C :   -0.703546
  78 H :    0.134822
  79 H :    0.146809

-------------------------------
LOEWDIN REDUCED ORBITAL CHARGES
-------------------------------
  0 N s       :     0.000358  s :     0.000358
      pz      :     0.000010  p :     0.000044
      px      :     0.000017
      py      :     0.000017
      dz2     :     0.000033  d :     0.000292
      dxz     :     0.000053
      dyz     :     0.000032
      dx2y2   :     0.000012
      dxy     :     0.000161
      f0      :     0.000000  f :     0.000000
      f+1     :     0.000000
      f-1     :     0.000000
      f+2     :     0.000000
      f-2     :     0.000000
      f+3     :     0.000000
      f-3     :     0.000000

  1 C s       :     0.000018  s :     0.000018
      pz      :     0.000011  p :     0.000015
      px      :     0.000002
      py      :     0.000002
      dz2     :     0.000013  d :     0.000026
      dxz     :     0.000003
      dyz     :     0.000004
      dx2y2   :     0.000002
      dxy     :     0.000004
      f0      :     0.000000  f :     0.000000
      f+1     :     0.000000
      f-1     :     0.000000
      f+2     :     0.000000
      f-2     :     0.000000
      f+3     :     0.000000
      f-3     :     0.000000

  2 C s       :     0.000095  s :     0.000095
      pz      :     0.000021  p :     0.000033
      px      :     0.000004
      py      :     0.000008
      dz2     :     0.000053  d :     0.000183
      dxz     :     0.000006
      dyz     :     0.000105
      dx2y2   :     0.000014
      dxy     :     0.000005
      f0      :     0.000000  f :     0.000001
      f+1     :     0.000000
      f-1     :     0.000000
      f+2     :     0.000000
      f-2     :     0.000000
      f+3     :     0.000000
      f-3     :     0.000000

  3 C s       :     0.001115  s :     0.001115
      pz      :     0.000625  p :     0.001031
      px      :     0.000057
      py      :     0.000349
      dz2     :     0.003305  d :     0.008417
      dxz     :     0.000676
      dyz     :     0.002869
      dx2y2   :     0.001326
      dxy     :     0.000242
      f0      :     0.000000  f :     0.000001
      f+1     :     0.000000
      f-1     :     0.000000
      f+2     :     0.000000
      f-2     :     0.000000
      f+3     :     0.000000
      f-3     :     0.000000

  4 C s       :     0.000109  s :     0.000109
      pz      :     0.000019  p :     0.000042
      px      :     0.000013
      py      :     0.000010
      dz2     :     0.000060  d :     0.000225
      dxz     :     0.000059
      dyz     :     0.000061
      dx2y2   :     0.000013
      dxy     :     0.000032
      f0      :     0.000000  f :     0.000001
      f+1     :     0.000000
      f-1     :     0.000000
      f+2     :     0.000000
      f-2     :     0.000000
      f+3     :     0.000000
      f-3     :     0.000000

  5 C s       :     0.000003  s :     0.000003
      pz      :     0.000001  p :     0.000002
      px      :     0.000001
      py      :     0.000001
      dz2     :     0.000002  d :     0.000005
      dxz     :     0.000001
      dyz     :     0.000001
      dx2y2   :     0.000001
      dxy     :     0.000001
      f0      :     0.000000  f :     0.000000
      f+1     :     0.000000
      f-1     :     0.000000
      f+2     :     0.000000
      f-2     :     0.000000
      f+3     :     0.000000
      f-3     :     0.000000

  6 C s       :     0.003568  s :     0.003568
      pz      :     0.000724  p :     0.003137
      px      :     0.000866
      py      :     0.001547
      dz2     :     0.002427  d :     0.021417
      dxz     :     0.004097
      dyz     :     0.004668
      dx2y2   :     0.004135
      dxy     :     0.006091
      f0      :     0.000000  f :     0.000003
      f+1     :     0.000000
      f-1     :     0.000000
      f+2     :     0.000000
      f-2     :     0.000001
      f+3     :     0.000000
      f-3     :     0.000000

  7 C s       :     0.001878  s :     0.001878
      pz      :     0.001400  p :     0.002174
      px      :     0.000371
      py      :     0.000404
      dz2     :     0.004099  d :     0.014206
      dxz     :     0.004159
      dyz     :     0.003799
      dx2y2   :     0.001015
      dxy     :     0.001133
      f0      :     0.000000  f :     0.000003
      f+1     :     0.000001
      f-1     :     0.000001
      f+2     :     0.000000
      f-2     :     0.000000
      f+3     :     0.000000
      f-3     :     0.000000

  8 C s       :     0.000357  s :     0.000357
      pz      :     0.000113  p :     0.000211
      px      :     0.000011
      py      :     0.000086
      dz2     :     0.000362  d :     0.001874
      dxz     :     0.000087
      dyz     :     0.001169
      dx2y2   :     0.000199
      dxy     :     0.000058
      f0      :     0.000000  f :     0.000001
      f+1     :     0.000000
      f-1     :     0.000000
      f+2     :     0.000000
      f-2     :     0.000000
      f+3     :     0.000000
      f-3     :     0.000000

  9 C s       :     0.000172  s :     0.000172
      pz      :     0.000071  p :     0.000092
      px      :     0.000011
      py      :     0.000010
      dz2     :     0.000563  d :     0.000743
      dxz     :     0.000042
      dyz     :     0.000113
      dx2y2   :     0.000014
      dxy     :     0.000011
      f0      :     0.000000  f :     0.000001
      f+1     :     0.000000
      f-1     :     0.000000
      f+2     :     0.000000
      f-2     :     0.000000
      f+3     :     0.000000
      f-3     :     0.000000

 10 C s       :     0.000656  s :     0.000656
      pz      :     0.000244  p :     0.000421
      px      :     0.000108
      py      :     0.000070
      dz2     :     0.001056  d :     0.003336
      dxz     :     0.001387
      dyz     :     0.000513
      dx2y2   :     0.000208
      dxy     :     0.000171
      f0      :     0.000000  f :     0.000001
      f+1     :     0.000000
      f-1     :     0.000000
      f+2     :     0.000000
      f-2     :     0.000000
      f+3     :     0.000000
      f-3     :     0.000000

 11 C s       :     0.001024  s :     0.001024
      pz      :     0.000350  p :     0.000894
      px      :     0.000223
      py      :     0.000321
      dz2     :     0.001079  d :     0.007481
      dxz     :     0.002468
      dyz     :     0.001375
      dx2y2   :     0.000778
      dxy     :     0.001781
      f0      :     0.000000  f :     0.000001
      f+1     :     0.000000
      f-1     :     0.000000
      f+2     :     0.000000
      f-2     :     0.000000
      f+3     :     0.000000
      f-3     :     0.000000

 12 C s       :     0.000036  s :     0.000036
      pz      :     0.000011  p :     0.000044
      px      :     0.000013
      py      :     0.000020
      dz2     :     0.000006  d :     0.000057
      dxz     :     0.000012
      dyz     :     0.000012
      dx2y2   :     0.000003
      dxy     :     0.000025
      f0      :     0.000000  f :     0.000000
      f+1     :     0.000000
      f-1     :     0.000000
      f+2     :     0.000000
      f-2     :     0.000000
      f+3     :     0.000000
      f-3     :     0.000000

 13 C s       :     0.001408  s :     0.001408
      pz      :     0.000092  p :     0.000540
      px      :     0.000336
      py      :     0.000111
      dz2     :     0.000447  d :     0.003667
      dxz     :     0.001052
      dyz     :     0.000177
      dx2y2   :     0.000897
      dxy     :     0.001094
      f0      :     0.000000  f :     0.000001
      f+1     :     0.000000
      f-1     :     0.000000
      f+2     :     0.000000
      f-2     :     0.000000
      f+3     :     0.000000
      f-3     :     0.000000

 14 C s       :     0.001673  s :     0.001673
      pz      :     0.000380  p :     0.001105
      px      :     0.000457
      py      :     0.000268
      dz2     :     0.000323  d :     0.006632
      dxz     :     0.003087
      dyz     :     0.001288
      dx2y2   :     0.000498
      dxy     :     0.001436
      f0      :     0.000000  f :     0.000001
      f+1     :     0.000000
      f-1     :     0.000000
      f+2     :     0.000000
      f-2     :     0.000000
      f+3     :     0.000000
      f-3     :     0.000000

 15 C s       :     0.000870  s :     0.000870
      pz      :     0.001028  p :     0.001213
      px      :     0.000139
      py      :     0.000046
      dz2     :     0.004539  d :     0.007541
      dxz     :     0.002182
      dyz     :     0.000577
      dx2y2   :     0.000150
      dxy     :     0.000092
      f0      :     0.000001  f :     0.000002
      f+1     :     0.000000
      f-1     :     0.000000
      f+2     :     0.000000
      f-2     :     0.000000
      f+3     :     0.000000
      f-3     :     0.000000

 16 C s       :     0.002609  s :     0.002609
      pz      :     0.001708  p :     0.002761
      px      :     0.000424
      py      :     0.000629
      dz2     :     0.005757  d :     0.017459
      dxz     :     0.004335
      dyz     :     0.004027
      dx2y2   :     0.002666
      dxy     :     0.000674
      f0      :     0.000001  f :     0.000003
      f+1     :     0.000001
      f-1     :     0.000000
      f+2     :     0.000000
      f-2     :     0.000001
      f+3     :     0.000000
      f-3     :     0.000000

 17 C s       :     0.000003  s :     0.000003
      pz      :     0.000001  p :     0.000001
      px      :     0.000000
      py      :     0.000000
      dz2     :     0.000000  d :     0.000003
      dxz     :     0.000001
      dyz     :     0.000001
      dx2y2   :     0.000000
      dxy     :     0.000001
      f0      :     0.000000  f :     0.000000
      f+1     :     0.000000
      f-1     :     0.000000
      f+2     :     0.000000
      f-2     :     0.000000
      f+3     :     0.000000
      f-3     :     0.000000

 18 C s       :     0.001447  s :     0.001447
      pz      :     0.000687  p :     0.001427
      px      :     0.000129
      py      :     0.000611
      dz2     :     0.002067  d :     0.011013
      dxz     :     0.001766
      dyz     :     0.004582
      dx2y2   :     0.001288
      dxy     :     0.001310
      f0      :     0.000000  f :     0.000002
      f+1     :     0.000000
      f-1     :     0.000000
      f+2     :     0.000001
      f-2     :     0.000000
      f+3     :     0.000000
      f-3     :     0.000000

 19 C s       :     0.000012  s :     0.000012
      pz      :     0.000008  p :     0.000017
      px      :     0.000004
      py      :     0.000005
      dz2     :     0.000003  d :     0.000021
      dxz     :     0.000003
      dyz     :     0.000007
      dx2y2   :     0.000003
      dxy     :     0.000005
      f0      :     0.000000  f :     0.000000
      f+1     :     0.000000
      f-1     :     0.000000
      f+2     :     0.000000
      f-2     :     0.000000
      f+3     :     0.000000
      f-3     :     0.000000

 20 C s       :     0.000381  s :     0.000381
      pz      :     0.000099  p :     0.000193
      px      :     0.000017
      py      :     0.000077
      dz2     :     0.000274  d :     0.001932
      dxz     :     0.000171
      dyz     :     0.001118
      dx2y2   :     0.000246
      dxy     :     0.000123
      f0      :     0.000000  f :     0.000001
      f+1     :     0.000000
      f-1     :     0.000000
      f+2     :     0.000000
      f-2     :     0.000000
      f+3     :     0.000000
      f-3     :     0.000000

 21 C s       :     0.000003  s :     0.000003
      pz      :     0.000004  p :     0.000007
      px      :     0.000002
      py      :     0.000001
      dz2     :     0.000001  d :     0.000010
      dxz     :     0.000001
      dyz     :     0.000004
      dx2y2   :     0.000002
      dxy     :     0.000002
      f0      :     0.000000  f :     0.000000
      f+1     :     0.000000
      f-1     :     0.000000
      f+2     :     0.000000
      f-2     :     0.000000
      f+3     :     0.000000
      f-3     :     0.000000

 22 C s       :     0.000012  s :     0.000012
      pz      :     0.000008  p :     0.000012
      px      :     0.000002
      py      :     0.000002
      dz2     :     0.000004  d :     0.000016
      dxz     :     0.000002
      dyz     :     0.000006
      dx2y2   :     0.000002
      dxy     :     0.000002
      f0      :     0.000000  f :     0.000000
      f+1     :     0.000000
      f-1     :     0.000000
      f+2     :     0.000000
      f-2     :     0.000000
      f+3     :     0.000000
      f-3     :     0.000000

 23 H s       :     0.000003  s :     0.000003
      pz      :     0.000004  p :     0.000010
      px      :     0.000001
      py      :     0.000005

 24 H s       :     0.000005  s :     0.000005
      pz      :     0.000003  p :     0.000011
      px      :     0.000003
      py      :     0.000005

 25 H s       :     0.000013  s :     0.000013
      pz      :     0.000074  p :     0.000095
      px      :     0.000005
      py      :     0.000015

 26 H s       :     0.001667  s :     0.001667
      pz      :     0.009620  p :     0.017021
      px      :     0.000792
      py      :     0.006609

 27 H s       :     0.000002  s :     0.000002
      pz      :     0.000001  p :     0.000003
      px      :     0.000001
      py      :     0.000001

 28 H s       :     0.000001  s :     0.000001
      pz      :     0.000000  p :     0.000001
      px      :     0.000000
      py      :     0.000000

 29 H s       :     0.005741  s :     0.005741
      pz      :     0.009211  p :     0.042176
      px      :     0.009708
      py      :     0.023256

 30 H s       :     0.000543  s :     0.000543
      pz      :     0.001130  p :     0.006013
      px      :     0.003519
      py      :     0.001364

 31 H s       :     0.000007  s :     0.000007
      pz      :     0.000018  p :     0.000024
      px      :     0.000004
      py      :     0.000002

 32 H s       :     0.000049  s :     0.000049
      pz      :     0.000516  p :     0.000662
      px      :     0.000095
      py      :     0.000051

 33 H s       :     0.000461  s :     0.000461
      pz      :     0.001816  p :     0.005578
      px      :     0.002862
      py      :     0.000900

 34 H s       :     0.000010  s :     0.000010
      pz      :     0.000029  p :     0.000057
      px      :     0.000005
      py      :     0.000023

 35 H s       :     0.000252  s :     0.000252
      pz      :     0.000993  p :     0.003244
      px      :     0.001306
      py      :     0.000945

 36 H s       :     0.000010  s :     0.000010
      pz      :     0.000006  p :     0.000024
      px      :     0.000009
      py      :     0.000009

 37 H s       :     0.000002  s :     0.000002
      pz      :     0.000005  p :     0.000015
      px      :     0.000006
      py      :     0.000004

 38 H s       :     0.000007  s :     0.000007
      pz      :     0.000017  p :     0.000032
      px      :     0.000007
      py      :     0.000009

 39 H s       :     0.000068  s :     0.000068
      pz      :     0.000033  p :     0.000283
      px      :     0.000179
      py      :     0.000071

 40 H s       :     0.001559  s :     0.001559
      pz      :     0.002701  p :     0.013170
      px      :     0.009639
      py      :     0.000830

 41 H s       :     0.000043  s :     0.000043
      pz      :     0.000014  p :     0.000101
      px      :     0.000067
      py      :     0.000021

 42 H s       :     0.003624  s :     0.003624
      pz      :     0.010792  p :     0.024167
      px      :     0.010216
      py      :     0.003160

 43 H s       :     0.000072  s :     0.000072
      pz      :     0.000097  p :     0.000245
      px      :     0.000060
      py      :     0.000088

 44 H s       :     0.000063  s :     0.000063
      pz      :     0.000052  p :     0.000186
      px      :     0.000097
      py      :     0.000037

 45 H s       :     0.000065  s :     0.000065
      pz      :     0.000606  p :     0.000966
      px      :     0.000291
      py      :     0.000070

 46 H s       :     0.002454  s :     0.002454
      pz      :     0.009453  p :     0.021664
      px      :     0.002455
      py      :     0.009756

 47 H s       :     0.000000  s :     0.000000
      pz      :     0.000000  p :     0.000000
      px      :     0.000000
      py      :     0.000000

 48 H s       :     0.000001  s :     0.000001
      pz      :     0.000000  p :     0.000001
      px      :     0.000000
      py      :     0.000000

 49 H s       :     0.000003  s :     0.000003
      pz      :     0.000005  p :     0.000010
      px      :     0.000002
      py      :     0.000003

 50 H s       :     0.001943  s :     0.001943
      pz      :     0.010370  p :     0.020724
      px      :     0.004603
      py      :     0.005751

 51 H s       :     0.000004  s :     0.000004
      pz      :     0.000005  p :     0.000007
      px      :     0.000001
      py      :     0.000001

 52 H s       :     0.000103  s :     0.000103
      pz      :     0.000647  p :     0.001545
      px      :     0.000043
      py      :     0.000855

 53 H s       :     0.000001  s :     0.000001
      pz      :     0.000000  p :     0.000001
      px      :     0.000001
      py      :     0.000000

 54 H s       :     0.000001  s :     0.000001
      pz      :     0.000002  p :     0.000004
      px      :     0.000001
      py      :     0.000001

 55 F s       :     3.489764  s :     3.489764
      pz      :     1.756594  p :     5.079495
      px      :     1.535459
      py      :     1.787441
      dz2     :     0.030478  d :     0.249985
      dxz     :     0.064946
      dyz     :     0.020590
      dx2y2   :     0.060526
      dxy     :     0.073445
      f0      :     0.000174  f :     0.001733
      f+1     :     0.000266
      f-1     :     0.000019
      f+2     :     0.000300
      f-2     :     0.000126
      f+3     :     0.000428
      f-3     :     0.000419

 56 F s       :     3.506584  s :     3.506584
      pz      :     1.583947  p :     5.068290
      px      :     1.709974
      py      :     1.774369
      dz2     :     0.060454  d :     0.242490
      dxz     :     0.051193
      dyz     :     0.066285
      dx2y2   :     0.040276
      dxy     :     0.024282
      f0      :     0.000320  f :     0.001769
      f+1     :     0.000510
      f-1     :     0.000284
      f+2     :     0.000292
      f-2     :     0.000274
      f+3     :     0.000046
      f-3     :     0.000044

 57 F s       :     3.501124  s :     3.501124
      pz      :     1.688554  p :     5.064965
      px      :     1.774823
      py      :     1.601588
      dz2     :     0.039091  d :     0.242736
      dxz     :     0.039632
      dyz     :     0.071426
      dx2y2   :     0.052059
      dxy     :     0.040528
      f0      :     0.000162  f :     0.001751
      f+1     :     0.000040
      f-1     :     0.000444
      f+2     :     0.000427
      f-2     :     0.000281
      f+3     :     0.000169
      f-3     :     0.000228

 58 F s       :     3.510694  s :     3.510694
      pz      :     1.704898  p :     5.083701
      px      :     1.596592
      py      :     1.782211
      dz2     :     0.037509  d :     0.240511
      dxz     :     0.066848
      dyz     :     0.040250
      dx2y2   :     0.052160
      dxy     :     0.043745
      f0      :     0.000158  f :     0.001750
      f+1     :     0.000434
      f-1     :     0.000026
      f+2     :     0.000427
      f-2     :     0.000275
      f+3     :     0.000238
      f-3     :     0.000193

 59 F s       :     3.509223  s :     3.509223
      pz      :     1.539923  p :     5.102563
      px      :     1.765683
      py      :     1.796957
      dz2     :     0.075865  d :     0.237424
      dxz     :     0.049926
      dyz     :     0.070477
      dx2y2   :     0.019750
      dxy     :     0.021406
      f0      :     0.000612  f :     0.001685
      f+1     :     0.000435
      f-1     :     0.000460
      f+2     :     0.000099
      f-2     :     0.000069
      f+3     :     0.000007
      f-3     :     0.000004

 60 F s       :     3.516470  s :     3.516470
      pz      :     1.778426  p :     5.094141
      px      :     1.520632
      py      :     1.795083
      dz2     :     0.028576  d :     0.243820
      dxz     :     0.056287
      dyz     :     0.017289
      dx2y2   :     0.070771
      dxy     :     0.070899
      f0      :     0.000148  f :     0.001722
      f+1     :     0.000296
      f-1     :     0.000039
      f+2     :     0.000245
      f-2     :     0.000016
      f+3     :     0.000475
      f-3     :     0.000502

 61 F s       :     3.524667  s :     3.524667
      pz      :     1.540305  p :     5.129438
      px      :     1.801284
      py      :     1.787849
      dz2     :     0.073750  d :     0.231115
      dxz     :     0.059666
      dyz     :     0.066595
      dx2y2   :     0.014319
      dxy     :     0.016785
      f0      :     0.000654  f :     0.001588
      f+1     :     0.000374
      f-1     :     0.000462
      f+2     :     0.000028
      f-2     :     0.000063
      f+3     :     0.000003
      f-3     :     0.000002

 62 F s       :     3.536342  s :     3.536342
      pz      :     1.783251  p :     5.125892
      px      :     1.651847
      py      :     1.690794
      dz2     :     0.033926  d :     0.237098
      dxz     :     0.032227
      dyz     :     0.029509
      dx2y2   :     0.078844
      dxy     :     0.062592
      f0      :     0.000130  f :     0.001575
      f+1     :     0.000180
      f-1     :     0.000131
      f+2     :     0.000025
      f-2     :     0.000238
      f+3     :     0.000462
      f-3     :     0.000409

 63 F s       :     3.518303  s :     3.518303
      pz      :     1.591314  p :     5.084105
      px      :     1.753947
      py      :     1.738843
      dz2     :     0.058428  d :     0.230186
      dxz     :     0.062629
      dyz     :     0.050641
      dx2y2   :     0.026494
      dxy     :     0.031995
      f0      :     0.000311  f :     0.001754
      f+1     :     0.000382
      f-1     :     0.000407
      f+2     :     0.000269
      f-2     :     0.000296
      f+3     :     0.000052
      f-3     :     0.000038

 64 F s       :     3.508996  s :     3.508996
      pz      :     1.761166  p :     5.094061
      px      :     1.736668
      py      :     1.596227
      dz2     :     0.030997  d :     0.240768
      dxz     :     0.028461
      dyz     :     0.050995
      dx2y2   :     0.057645
      dxy     :     0.072671
      f0      :     0.000175  f :     0.001741
      f+1     :     0.000072
      f-1     :     0.000213
      f+2     :     0.000165
      f-2     :     0.000270
      f+3     :     0.000443
      f-3     :     0.000403

 65 F s       :     3.517611  s :     3.517611
      pz      :     1.771422  p :     5.067629
      px      :     1.747769
      py      :     1.548438
      dz2     :     0.022189  d :     0.215827
      dxz     :     0.024472
      dyz     :     0.051162
      dx2y2   :     0.057525
      dxy     :     0.060480
      f0      :     0.000166  f :     0.001820
      f+1     :     0.000067
      f-1     :     0.000301
      f+2     :     0.000140
      f-2     :     0.000151
      f+3     :     0.000541
      f-3     :     0.000453

 66 F s       :     3.524799  s :     3.524799
      pz      :     1.681118  p :     5.074096
      px      :     1.613877
      py      :     1.779101
      dz2     :     0.052931  d :     0.210540
      dxz     :     0.052181
      dyz     :     0.021865
      dx2y2   :     0.037171
      dxy     :     0.046393
      f0      :     0.000211  f :     0.001810
      f+1     :     0.000463
      f-1     :     0.000022
      f+2     :     0.000481
      f-2     :     0.000255
      f+3     :     0.000190
      f-3     :     0.000187

 67 F s       :     3.505957  s :     3.505957
      pz      :     1.548845  p :     5.052081
      px      :     1.746764
      py      :     1.756471
      dz2     :     0.067276  d :     0.219615
      dxz     :     0.062650
      dyz     :     0.048291
      dx2y2   :     0.020025
      dxy     :     0.021372
      f0      :     0.000523  f :     0.001820
      f+1     :     0.000501
      f-1     :     0.000414
      f+2     :     0.000161
      f-2     :     0.000189
      f+3     :     0.000021
      f-3     :     0.000010

 68 O s       :     3.351280  s :     3.351280
      pz      :     1.541844  p :     4.505153
      px      :     1.540508
      py      :     1.422801
      dz2     :     0.076067  d :     0.241099
      dxz     :     0.054598
      dyz     :     0.044099
      dx2y2   :     0.027141
      dxy     :     0.039194
      f0      :     0.001000  f :     0.005382
      f+1     :     0.001268
      f-1     :     0.000775
      f+2     :     0.000782
      f-2     :     0.001095
      f+3     :     0.000159
      f-3     :     0.000303

 69 O s       :     3.334120  s :     3.334120
      pz      :     1.470626  p :     4.468485
      px      :     1.558298
      py      :     1.439562
      dz2     :     0.084372  d :     0.244825
      dxz     :     0.081271
      dyz     :     0.056003
      dx2y2   :     0.013209
      dxy     :     0.009971
      f0      :     0.002114  f :     0.005423
      f+1     :     0.001755
      f-1     :     0.001085
      f+2     :     0.000283
      f-2     :     0.000166
      f+3     :     0.000011
      f-3     :     0.000008

 70 C s       :     2.568945  s :     2.568945
      pz      :     0.726114  p :     2.222150
      px      :     0.671541
      py      :     0.824495
      dz2     :     0.240466  d :     1.339319
      dxz     :     0.295833
      dyz     :     0.275634
      dx2y2   :     0.294249
      dxy     :     0.233137
      f0      :     0.031755  f :     0.186777
      f+1     :     0.037091
      f-1     :     0.016865
      f+2     :     0.030093
      f-2     :     0.020797
      f+3     :     0.022408
      f-3     :     0.027767

 71 C s       :     2.575260  s :     2.575260
      pz      :     0.704249  p :     2.230277
      px      :     0.682432
      py      :     0.843596
      dz2     :     0.300803  d :     1.343266
      dxz     :     0.265724
      dyz     :     0.259067
      dx2y2   :     0.269023
      dxy     :     0.248648
      f0      :     0.039322  f :     0.184677
      f+1     :     0.035678
      f-1     :     0.025895
      f+2     :     0.022879
      f-2     :     0.011069
      f+3     :     0.022173
      f-3     :     0.027661

 72 C s       :     2.572502  s :     2.572502
      pz      :     0.746046  p :     2.224561
      px      :     0.736742
      py      :     0.741773
      dz2     :     0.213236  d :     1.327107
      dxz     :     0.302836
      dyz     :     0.300790
      dx2y2   :     0.295640
      dxy     :     0.214605
      f0      :     0.020584  f :     0.186323
      f+1     :     0.026513
      f-1     :     0.026652
      f+2     :     0.031429
      f-2     :     0.030438
      f+3     :     0.024896
      f-3     :     0.025811

 73 C s       :     2.581816  s :     2.581816
      pz      :     0.691612  p :     2.260409
      px      :     0.796812
      py      :     0.771986
      dz2     :     0.320843  d :     1.390192
      dxz     :     0.256602
      dyz     :     0.268192
      dx2y2   :     0.259377
      dxy     :     0.285179
      f0      :     0.037388  f :     0.183680
      f+1     :     0.034565
      f-1     :     0.029886
      f+2     :     0.011177
      f-2     :     0.021427
      f+3     :     0.027394
      f-3     :     0.021844

 74 C s       :     2.573838  s :     2.573838
      pz      :     0.729132  p :     2.231408
      px      :     0.789876
      py      :     0.712400
      dz2     :     0.237845  d :     1.337296
      dxz     :     0.293432
      dyz     :     0.278668
      dx2y2   :     0.244943
      dxy     :     0.282408
      f0      :     0.031597  f :     0.186803
      f+1     :     0.021966
      f-1     :     0.031870
      f+2     :     0.024827
      f-2     :     0.026055
      f+3     :     0.020471
      f-3     :     0.030017

 75 C s       :     2.650652  s :     2.650652
      pz      :     0.929935  p :     2.698791
      px      :     0.864512
      py      :     0.904344
      dz2     :     0.132332  d :     0.617777
      dxz     :     0.122294
      dyz     :     0.069943
      dx2y2   :     0.153304
      dxy     :     0.139904
      f0      :     0.005535  f :     0.034835
      f+1     :     0.004411
      f-1     :     0.001372
      f+2     :     0.005755
      f-2     :     0.005206
      f+3     :     0.005267
      f-3     :     0.007288

 76 C s       :     2.563345  s :     2.563345
      pz      :     0.697216  p :     2.169345
      px      :     0.741415
      py      :     0.730714
      dz2     :     0.328417  d :     1.538538
      dxz     :     0.338544
      dyz     :     0.277565
      dx2y2   :     0.281583
      dxy     :     0.312429
      f0      :     0.046200  f :     0.270180
      f+1     :     0.047158
      f-1     :     0.034709
      f+2     :     0.039980
      f-2     :     0.035453
      f+3     :     0.029093
      f-3     :     0.037586

 77 C s       :     2.644052  s :     2.644052
      pz      :     0.906938  p :     2.406693
      px      :     0.825921
      py      :     0.673834
      dz2     :     0.431395  d :     1.485830
      dxz     :     0.406684
      dyz     :     0.320875
      dx2y2   :     0.157983
      dxy     :     0.168893
      f0      :     0.038913  f :     0.166971
      f+1     :     0.039108
      f-1     :     0.028025
      f+2     :     0.024637
      f-2     :     0.021431
      f+3     :     0.007432
      f-3     :     0.007425

 78 H s       :     0.650931  s :     0.650931
      pz      :     0.100839  p :     0.214247
      px      :     0.056325
      py      :     0.057083

 79 H s       :     0.648834  s :     0.648834
      pz      :     0.063117  p :     0.204357
      px      :     0.054233
      py      :     0.087007



                      *****************************
                      * MAYER POPULATION ANALYSIS *
                      *****************************

  NA   - Mulliken gross atomic population
  ZA   - Total nuclear charge
  QA   - Mulliken gross atomic charge
  VA   - Mayer's total valence
  BVA  - Mayer's bonded valence
  FA   - Mayer's free valence

  ATOM       NA         ZA         QA         VA         BVA        FA
  0 N      0.0164     0.0000    -0.0164     0.0325     0.0325     0.0000
  1 C      0.0015     0.0000    -0.0015     0.0031     0.0031     0.0000
  2 C     -0.0144     0.0000     0.0144    -0.0289    -0.0289     0.0000
  3 C      0.0259     0.0000    -0.0259     0.0520     0.0520    -0.0000
  4 C     -0.0070     0.0000     0.0070    -0.0140    -0.0140     0.0000
  5 C      0.0001     0.0000    -0.0001     0.0003     0.0003    -0.0000
  6 C     -0.0579     0.0000     0.0579    -0.1215    -0.1215    -0.0000
  7 C     -0.0799     0.0000     0.0799    -0.1614    -0.1614    -0.0000
  8 C     -0.0226     0.0000     0.0226    -0.0451    -0.0451     0.0000
  9 C      0.0147     0.0000    -0.0147     0.0293     0.0293     0.0000
 10 C     -0.0002     0.0000     0.0002    -0.0002    -0.0002    -0.0000
 11 C      0.0090     0.0000    -0.0090     0.0179     0.0179     0.0000
 12 C      0.0025     0.0000    -0.0025     0.0050     0.0050    -0.0000
 13 C     -0.0033     0.0000     0.0033    -0.0067    -0.0067    -0.0000
 14 C      0.0142     0.0000    -0.0142     0.0277     0.0277    -0.0000
 15 C      0.0301     0.0000    -0.0301     0.0612     0.0612     0.0000
 16 C      0.0553     0.0000    -0.0553     0.1130     0.1130    -0.0000
 17 C      0.0000     0.0000    -0.0000     0.0000     0.0000    -0.0000
 18 C      0.0157     0.0000    -0.0157     0.0303     0.0303    -0.0000
 19 C      0.0030     0.0000    -0.0030     0.0061     0.0061     0.0000
 20 C     -0.0243     0.0000     0.0243    -0.0492    -0.0492    -0.0000
 21 C      0.0002     0.0000    -0.0002     0.0005     0.0005    -0.0000
 22 C     -0.0011     0.0000     0.0011    -0.0021    -0.0021     0.0000
 23 H     -0.0000     0.0000     0.0000    -0.0000    -0.0000    -0.0000
 24 H     -0.0000     0.0000     0.0000    -0.0001    -0.0001    -0.0000
 25 H     -0.0017     0.0000     0.0017    -0.0034    -0.0034    -0.0000
 26 H      0.0046     0.0000    -0.0046     0.0112     0.0112    -0.0000
 27 H      0.0000     0.0000    -0.0000     0.0000     0.0000    -0.0000
 28 H     -0.0000     0.0000     0.0000    -0.0000    -0.0000     0.0000
 29 H      0.0765     0.0000    -0.0765     0.1407     0.1407     0.0000
 30 H     -0.0331     0.0000     0.0331    -0.0675    -0.0675     0.0000
 31 H      0.0018     0.0000    -0.0018     0.0037     0.0037     0.0000
 32 H      0.0015     0.0000    -0.0015     0.0030     0.0030     0.0000
 33 H      0.0034     0.0000    -0.0034     0.0067     0.0067     0.0000
 34 H     -0.0015     0.0000     0.0015    -0.0031    -0.0031    -0.0000
 35 H      0.0082     0.0000    -0.0082     0.0164     0.0164    -0.0000
 36 H     -0.0003     0.0000     0.0003    -0.0006    -0.0006     0.0000
 37 H      0.0002     0.0000    -0.0002     0.0004     0.0004    -0.0000
 38 H     -0.0003     0.0000     0.0003    -0.0007    -0.0007     0.0000
 39 H      0.0016     0.0000    -0.0016     0.0032     0.0032    -0.0000
 40 H      0.0134     0.0000    -0.0134     0.0268     0.0268     0.0000
 41 H      0.0001     0.0000    -0.0001     0.0003     0.0003    -0.0000
 42 H     -0.0134     0.0000     0.0134    -0.0271    -0.0271     0.0000
 43 H     -0.0075     0.0000     0.0075    -0.0152    -0.0152    -0.0000
 44 H      0.0007     0.0000    -0.0007     0.0014     0.0014     0.0000
 45 H     -0.0238     0.0000     0.0238    -0.0482    -0.0482     0.0000
 46 H     -0.0819     0.0000     0.0819    -0.1698    -0.1698    -0.0000
 47 H     -0.0000     0.0000     0.0000    -0.0000    -0.0000    -0.0000
 48 H      0.0000     0.0000    -0.0000     0.0000     0.0000     0.0000
 49 H      0.0000     0.0000    -0.0000     0.0000     0.0000    -0.0000
 50 H      0.0133     0.0000    -0.0133     0.0242     0.0242     0.0000
 51 H      0.0000     0.0000    -0.0000     0.0000     0.0000    -0.0000
 52 H     -0.0006     0.0000     0.0006    -0.0011    -0.0011     0.0000
 53 H     -0.0000     0.0000     0.0000    -0.0000    -0.0000    -0.0000
 54 H      0.0000     0.0000    -0.0000     0.0000     0.0000     0.0000
 55 F      9.3141     9.0000    -0.3141     1.5593     1.5593     0.0000
 56 F      9.4504     9.0000    -0.4504     0.6404     0.6404     0.0000
 57 F      9.1753     9.0000    -0.1753     0.9792     0.9792     0.0000
 58 F      9.4226     9.0000    -0.4226     0.5546     0.5546     0.0000
 59 F      9.3551     9.0000    -0.3551     0.5623     0.5623    -0.0000
 60 F      9.4142     9.0000    -0.4142     0.6368     0.6368    -0.0000
 61 F      9.3024     9.0000    -0.3024     0.7412     0.7412     0.0000
 62 F      9.4267     9.0000    -0.4267     0.6256     0.6256     0.0000
 63 F      9.3845     9.0000    -0.3845     0.6410     0.6410     0.0000
 64 F      9.3058     9.0000    -0.3058     0.7521     0.7521     0.0000
 65 F      9.3331     9.0000    -0.3331     0.8645     0.8645    -0.0000
 66 F      9.3656     9.0000    -0.3656     0.7035     0.7035     0.0000
 67 F      9.1337     9.0000    -0.1337     1.6473     1.6473    -0.0000
 68 O      8.9230     8.0000    -0.9230     1.3452     1.3452     0.0000
 69 O      8.8837     8.0000    -0.8837     1.4153     1.4153     0.0000
 70 C      5.2744     6.0000     0.7256     5.2910     5.2910     0.0000
 71 C      5.0284     6.0000     0.9716     3.2313     3.2313    -0.0000
 72 C      5.4045     6.0000     0.5955     4.1932     4.1932     0.0000
 73 C      5.1578     6.0000     0.8422     3.4561     3.4561    -0.0000
 74 C      5.1738     6.0000     0.8262     4.0059     4.0059     0.0000
 75 C      6.9529     6.0000    -0.9529     4.2153     4.2153     0.0000
 76 C      5.3934     6.0000     0.6066     3.8168     3.8168    -0.0000
 77 C      5.2888     6.0000     0.7112     3.7804     3.7804     0.0000
 78 H      0.6440     1.0000     0.3560     0.8966     0.8966     0.0000
 79 H      0.5524     1.0000     0.4476     0.7767     0.7767    -0.0000

  Mayer bond orders larger than 0.100000
B( 55-F , 56-F ) :   0.1564 B( 55-F , 70-C ) :   0.6669 B( 55-F , 71-C ) :   0.1471 
B( 55-F , 72-C ) :   0.1853 B( 55-F , 74-C ) :   0.1540 B( 55-F , 77-C ) :   0.1027 
B( 56-F , 60-F ) :   0.1281 B( 56-F , 72-C ) :   0.2032 B( 57-F , 70-C ) :   0.2053 
B( 57-F , 72-C ) :   0.5063 B( 57-F , 74-C ) :   0.1234 B( 58-F , 70-C ) :   0.3070 
B( 58-F , 74-C ) :   0.1855 B( 59-F , 70-C ) :   0.3405 B( 59-F , 72-C ) :   0.1225 
B( 59-F , 73-C ) :   0.1044 B( 60-F , 70-C ) :   0.3042 B( 60-F , 71-C ) :   0.2252 
B( 60-F , 72-C ) :  -0.1292 B( 60-F , 73-C ) :   0.1323 B( 61-F , 62-F ) :  -0.1186 
B( 61-F , 73-C ) :   0.4875 B( 61-F , 75-C ) :   0.1686 B( 62-F , 71-C ) :   0.2201 
B( 62-F , 73-C ) :   0.1904 B( 62-F , 75-C ) :   0.2971 B( 63-F , 64-F ) :  -0.1168 
B( 63-F , 72-C ) :   0.1282 B( 63-F , 74-C ) :   0.3551 B( 63-F , 76-C ) :   0.1804 
B( 64-F , 70-C ) :   0.1829 B( 64-F , 72-C ) :   0.1124 B( 64-F , 74-C ) :   0.4324 
B( 64-F , 76-C ) :   0.1798 B( 65-F , 67-F ) :   0.1365 B( 65-F , 74-C ) :   0.1615 
B( 65-F , 76-C ) :   0.5642 B( 66-F , 67-F ) :   0.1125 B( 66-F , 74-C ) :   0.1441 
B( 66-F , 76-C ) :   0.4958 B( 67-F , 74-C ) :   0.2971 B( 67-F , 76-C ) :   1.0924 
B( 68-O , 77-C ) :   1.1732 B( 69-O , 77-C ) :   1.3531 B( 70-C , 71-C ) :   0.9758 
B( 70-C , 72-C ) :   1.4725 B( 70-C , 73-C ) :   0.4950 B( 70-C , 74-C ) :   0.2521 
B( 71-C , 73-C ) :   0.9709 B( 71-C , 75-C ) :   0.2006 B( 72-C , 74-C ) :   1.0942 
B( 72-C , 76-C ) :   0.4281 B( 73-C , 75-C ) :   0.8400 B( 73-C , 77-C ) :   0.1751 
B( 74-C , 76-C ) :   0.8165 B( 75-C , 77-C ) :   0.9032 B( 75-C , 78-H ) :   0.9397 
B( 75-C , 79-H ) :   0.8034 

-------
TIMINGS
-------

Total SCF time: 0 days 0 hours 10 min 14 sec 

Total time                  ....     614.413 sec
Sum of individual times     ....     571.715 sec  ( 93.1%)

SCF preparation             ....       3.562 sec  (  0.6%)
Fock matrix formation       ....     548.167 sec  ( 89.2%)
  Startup                   ....       0.481 sec  (  0.1% of F)
  Split-RI-J                ....      23.599 sec  (  4.3% of F)
  Chain of spheres X        ....     505.101 sec  ( 92.1% of F)
  XC integration            ....      34.167 sec  (  6.2% of F)
    Basis function eval.    ....       4.397 sec  ( 12.9% of XC)
    Density eval.           ....      15.147 sec  ( 44.3% of XC)
    XC-Functional eval.     ....       0.118 sec  (  0.3% of XC)
    XC-Potential eval.      ....      10.535 sec  ( 30.8% of XC)
  CPCM terms                ....      25.239 sec  (  4.6% of F)
Diagonalization             ....       0.000 sec  (  0.0%)
Density matrix formation    ....       1.826 sec  (  0.3%)
Total Energy calculation    ....       1.091 sec  (  0.2%)
Population analysis         ....       0.915 sec  (  0.1%)
Orbital Transformation      ....       2.306 sec  (  0.4%)
Orbital Orthonormalization  ....       0.000 sec  (  0.0%)
DIIS solution               ....       9.804 sec  (  1.6%)
SOSCF solution              ....       4.044 sec  (  0.7%)
Finished LeanSCF after 615.3 sec

Maximum memory used throughout the entire LEANSCF-calculation: 597.8 MB


-------------------------------------------------------------------------------
                          DFT DISPERSION CORRECTION                            
                                                                               
                              DFTD3 V3.1  Rev 1                                
                              USING zero damping                               
-------------------------------------------------------------------------------
The omegaB97X-D3 functional is recognized. Fit by Chai et al.
Active option DFTDOPT                   ...         3   

molecular C6(AA) [au] = 6317.650970 


            DFT-D V3
 parameters
 s6 scaling factor         :     1.0000 
 rs6 scaling factor        :     1.2810 
 s8 scaling factor         :     1.0000 
 rs8 scaling factor        :     1.0940 
 Damping factor alpha6     :    14.0000 
 Damping factor alpha8     :    16.0000 
 ad hoc parameters k1-k3   :    16.0000     1.3333    -4.0000 

 Edisp/kcal,au: -8.405909983082  -0.013395668805 
 E6   /kcal   :  -3.343248462 
 E8   /kcal   :  -5.062661521 
 % E8         :  60.227405847 

-------------------------   ----------------
Dispersion correction           -0.013395669
-------------------------   ----------------


-------------------------   --------------------
FINAL SINGLE POINT ENERGY     -1754.939193230813
-------------------------   --------------------



           ************************************************************
           *        Program running with 32 parallel MPI-processes    *
           *              working on a common directory               *
           ************************************************************

------------------------------------------------------------------------------
                              ORCA PROPERTY CALCULATIONS
------------------------------------------------------------------------------

GBWName                                 ... R4N+FHEA-_EDA_frag2.gbw
Number of atoms                         ...     80
Number of basis functions               ...   2053
Max core memory                         ...   4000 MB

Electric properties:
Dipole moment                           ... YES
Quadrupole moment                       ...  NO
Static polarizability (Dipole/Dipole)   ...  NO
Static polarizability (Dipole/Quad.)    ...  NO
Static polarizability (Quad./Quad.)     ...  NO
Static polarizability (Velocity)        ...  NO
Static hyperpolarizability              ...  NO

Atomic electric properties:
Dipole moment                           ...  NO
Quadrupole moment                       ...  NO
Static polarizability                   ...  NO

Choice of electric origin               ... Center of mass
Position of electric origin             ...     3.591275    -3.803047     2.856583

General magnetic properties:
Magnetizability                         ...  NO

EPR properties:
g-Tensor (aka g-matrix)                 ...  NO
Zero-Field splitting spin-orbit         ...  NO
Zero-field splitting spin-spin          ...  NO
Hyperfine couplings                     ...  NO (   0 nuclei)
Quadrupole couplings                    ...  NO (   0 nuclei)
Contact density                         ...  NO (   0 nuclei)

NMR properties:
Chemical shifts                         ...  NO (   0 nuclei)
Spin-rotation constants                 ...  NO (   0 nuclei)
Spin-spin couplings                     ...  NO (   0 nuclei,    0 pairs)

Choice of magnetic origin               ... GIAO
Position of magnetic origin             ...     0.000000     0.000000     0.000000

Properties with geometric perturbations:
SCF Hessian                             ...  NO
IR spectrum                             ...  NO
VCD spectrum                            ...  NO
X-ray spectroscopy properties:
SCF XES/XAS/RIXS spectra                ...  NO

SCF SOC stabilization energy            ...  NO
Diagonal Born-Oppenheimer correction    ...  NO

-------------
DIPOLE MOMENT
-------------

Method             : SCF
Type of density    : Electron Density
Multiplicity       :   1
Irrep              :   0
Energy             : -1754.9257975620080288 Eh
Basis              : AO
                                X                 Y                 Z
Electronic contribution:     -8.158164382     -17.448123779       3.836988561
Nuclear contribution   :      4.327330055      13.766579639      -1.736989416
                        -----------------------------------------
Total Dipole Moment    :     -3.830834327      -3.681544140       2.099999145
                        -----------------------------------------
Magnitude (a.u.)       :      5.713060065
Magnitude (Debye)      :     14.521444646



--------------------
Rotational spectrum 
--------------------
 
Rotational constants in cm-1:             0.014468             0.007028             0.005975 
Rotational constants in MHz :           433.737563           210.684557           179.132682 

Dipole components along the rotational axes: 
x,y,z [a.u.] :     3.181713    -4.677538    -0.797745 
x,y,z [Debye]:     8.087273   -11.889356    -2.027707 

 

Dipole moment calculation done in   0.2 sec 

Maximum memory used throughout the entire PROP-calculation: 375.1 MB

--------------------------------
SUGGESTED CITATIONS FOR THIS RUN
--------------------------------

Below you find a list of papers that are relevant to this ORCA run
We neither can nor want to force you to cite these papers, but we appreciate if you do
You receive ORCA, which is the product of decades of hard work by many enthusiastic individuals, for free
The only thing we kindly ask in return is that you cite our papers,
We deeply appreciate it, if you show your appreciation for ORCA by not just citing the generic ORCA reference.

Please note that relegating all ORCA citations to the supporting information does *not* help us.
SI sections are not indexed - citations you put there will not count into any citation statistics
But we need these citations in order to attract the funding resources that allow us to do what we are doing

Therefore, if you are a happy ORCA user, please consider citing a few of the papers listed below in the main body of your paper

In addition to the list printed below, the program has created the file R4N+FHEA-_EDA_frag2.bibtex that contains the list in bibtex format
You can import this file easily into all common literature databanks and citation aid programs


List of essential papers. We consider these as the minimum necessary citations

  1. Neese, F.
     Software update: the ORCA program system, version 6.0
     WIRES Comput. Molec. Sci. 2025 15(1), e70019
     doi.org/10.1002/wcms.7019

List of papers to cite with high priority. The work reported in these papers was absolutely
necessary for this run to complete.
Our perspective: the developers of density functionals and basis sets usually get cited in chemistry papers
Good! But without the algorithms to do something with them, the functionals or basis sets would not do anything.
Hence, in our opinion, the algorithm design and method developments papers are equally worthy of getting cited

  1. Neese, F.
     An improvement of the resolution of the identity approximation for the formation of the Coulomb matrix
     J. Comp. Chem. 2003 24(14), 1740-1747
     doi.org/10.1002/jcc.10318
  2. Neese, F.; Wennmohs, F.; Hansen, A.; Becker, U.
     Efficient, approximate and parallel Hartree-Fock and hybrid DFT calculations. A 'chain-of-spheres' algorithm for the Hartree-Fock exchange
     Chem. Phys. 2009 356(1-3), 98-109
     doi.org/10.1016/j.chemphys.2008.10.036
  3. Grimme, S.; Antony, J.; Ehrlich, S.; Krieg, H.
     A consistent and accurate ab initio parametrization of density functional dispersion correction (DFT-D) for the 94 elements H-Pu
     J. Chem. Phys. 2010 132 , 154104
     doi.org/10.1063/1.3382344
  4. Garcia-Rates, M.; Neese, F.
     Effect of the Solute Cavity on the Solvation Energy and its Derivatives within the Framework of the Gaussian Charge Scheme
     J. Comput. Chem. 2020 41 , 922-939
     doi.org/10.1002/jcc.26139
  5. Helmich-Paris, B.; de Souza, B.; Neese, F.; Izsák, R.
     An improved chain of spheres for exchange algorithm
     J. Chem. Phys. 2021 155(10), 104109
     doi.org/10.1063/5.0058766
  6. Neese, F.
     The SHARK Integral Generation and Digestion System
     J. Comp. Chem. 2022 44(3), 381
     doi.org/10.1002/jcc.26942

List of suggested additional citations. These are papers that are important in the 'surrounding' of 
of this run, or papers that preceded the highly important papers. If you like your results we are grateful for a citation.

  1. Izsak, R.; Neese, F.
     An overlap fitted chain of spheres exchange method
     J. Chem. Phys. 2011 135 , 144105
     doi.org/10.1063/1.3646921
  2. Izsak, R.; Hansen, A.; Neese, F.
     The resolution of identity and chain of spheres approximations for the LPNO-CCSD singles Fock term
     Molec. Phys. 2012 110 , 2413-2417
     doi.org/10.1080/00268976.2012.687466
  3. Neese, F.
     The ORCA program system
     WIRES Comput. Molec. Sci. 2012 2(1), 73-78
     doi.org/10.1002/wcms.81
  4. Izsak, R.; Neese, F.; Klopper, W.
     Robust fitting techniques in the chain of spheres approximation to the Fock exchange: The role of the complementary space
     J. Chem. Phys. 2013 139 , 
     doi.org/10.1063/1.4819264
  5. Neese, F.
     Software update: the ORCA program system, version 4.0
     WIRES Comput. Molec. Sci. 2018 8(1), 1-6
     doi.org/10.1002/wcms.1327
  6. Neese, F.; Wennmohs, F.; Becker, U.; Riplinger, C.
     The ORCA quantum chemistry program package
     J. Chem. Phys. 2020 152(22), 224108
     doi.org/10.1063/5.0004608
  7. Neese, F.
     Software update: The ORCA program system—Version 5.0
     WIRES Comput. Molec. Sci. 2022 12(1), e1606
     doi.org/10.1002/wcms.1606

List of optional additional citations

  1. Neese, F.
     Approximate second-order SCF convergence for spin unrestricted wavefunctions
     Chem. Phys. Lett. 2000 325(1-3), 93-98
     doi.org/10.1016/s0009-2614(00)00662-x

Timings for individual modules:

Sum of individual times          ...      636.894 sec (=  10.615 min)
Startup calculation              ...       12.101 sec (=   0.202 min)   1.9 %
SCF iterations                   ...      621.948 sec (=  10.366 min)  97.7 %
Property calculations            ...        2.844 sec (=   0.047 min)   0.4 %
                             ****ORCA TERMINATED NORMALLY****
TOTAL RUN TIME: 0 days 0 hours 10 minutes 38 seconds 135 msec
