46
Coordinates from ORCA-job R4N+PFHxA-_0.15M E -1922.676121647777
  N          -2.80571106817583      0.70489047026394      0.98979305182001
  C          -2.30544660247967      0.13314247964841     -0.33987949726363
  C          -2.03214336703192      1.92922406787584      1.37640126360658
  C          -4.24876980070339      1.07942378809171      0.80529080115901
  C          -2.70206430267387     -0.31103706738110      2.08768692648475
  C          -0.86521705137449     -0.28607064690547     -0.33726792938176
  C           0.13494800979157      0.61726070505310     -0.70989605011103
  C          -0.51012669842466     -1.59645316940692     -0.00348657828086
  C           1.46929056580219      0.22338864532439     -0.72599555270949
  C           0.82420177574972     -1.99056095859548     -0.01946411034473
  C           1.81621000534228     -1.08000564039179     -0.37672091129906
  H          -2.48221907835219      0.92038389208819     -1.07796433892433
  H          -2.96092485569860     -0.71533360647043     -0.55473187084523
  H          -2.09679172427537      2.65685139453099      0.56484750909942
  H          -0.99315301773741      1.65329245012999      1.56174029937399
  H          -2.47765071245135      2.33568195512325      2.28697042138940
  H          -4.31694486880797      1.82085986775894      0.00616242841573
  H          -4.61221668660339      1.49939670050333      1.74438593396680
  H          -4.81123652291309      0.18180794806136      0.53996977556508
  H          -1.65140409082886     -0.55590954654253      2.25024405995982
  H          -3.26121906755890     -1.20263759216028      1.79610580342884
  H          -3.12427424558419      0.12683961701649      2.99525645308768
  H          -0.13609815379575      1.63104649533101     -0.99386025675469
  H          -1.28472856027280     -2.31091433961386      0.26366435758881
  H           2.23835630489388      0.93244617896457     -1.01854633052048
  H           1.08888320561813     -3.01162754609572      0.23981890008871
  H           2.85765073363372     -1.38873093933543     -0.39324057450087
  F          -7.66179259034353     -1.94302763247747      3.35346267714260
  F          -5.83169885512014     -0.75318799030915      3.10582903204616
  F          -8.54470878750840     -0.25191010102309      5.29251294291644
  F          -6.64603012007165     -1.29244338765400      5.63419566840522
  F          -7.64368353861950     -0.51605153910809      1.17332268753624
  F          -7.22230214654120      1.36125393970220      2.22611660486764
  F          -7.32860504283162      2.06621919423174      4.88228240055621
  F          -6.68631106255167      1.10008913252015      6.74352612190722
  F          -9.63523588649185      1.35467539122969      3.37511543678649
  F          -9.81974021124407      0.88560574137634      1.26412994615977
  F         -10.03567428465472     -0.69484121557029      2.74609664962926
  O          -4.27542332326361      0.43667843808503      5.58315805063819
  O          -4.78526984749032      2.14755410647603      4.19153976448359
  C          -7.14505952171985     -0.69345431785212      3.44170690082148
  C          -7.22823738876938     -0.28037803839570      4.94589294601342
  C          -7.84081443782411      0.16649591572063      2.32797536666274
  C          -6.55945087207227      1.05661657853756      5.37849929774513
  C          -9.37732001375862      0.43101871025866      2.44467840840571
  C          -5.04155453430956      1.23362466678528      5.00060578217733
