56
Coordinates from ORCA-job R4N+PFOS-_0.15M E -3071.263984705567
  N          -4.57891579907617     -1.18947265414566      0.18619838544369
  C          -3.81192143852999     -0.63564625525865     -1.01994140446926
  C          -4.78234420742880     -0.12602003633725      1.22355194956429
  C          -5.91846007397160     -1.65533276853511     -0.30819906874659
  C          -3.85551289327295     -2.35048109796275      0.79797742909704
  C          -2.44928032909577     -0.09856870127114     -0.69607757093720
  C          -2.28075013448100      1.25032550051796     -0.36881656158539
  C          -1.32752829673202     -0.93077144661711     -0.75681778852220
  C          -1.01503717051607      1.75298058144982     -0.08415197036700
  C          -0.06164946696261     -0.42833503785173     -0.47176030566134
  C           0.09574491224392      0.91325240863920     -0.13070215112087
  H          -4.45267005880720      0.14761675268030     -1.43540029172522
  H          -3.74897557806955     -1.46536506897101     -1.72992592046430
  H          -5.25618843427392      0.73592992372369      0.75026623044489
  H          -5.42271081295439     -0.53462844609648      2.00783798701297
  H          -3.81510185781453      0.15566579164086      1.64210724783770
  H          -5.76175696435491     -2.42468473022741     -1.06687429517973
  H          -6.47551866657264     -2.06561862306571      0.53583954073683
  H          -6.45009693415267     -0.80285415008685     -0.73549154273167
  H          -3.70532703376999     -3.11433728844368      0.03223215895316
  H          -2.89691265944136     -2.01004672149883      1.19161859811885
  H          -4.47180336730622     -2.74351916432511      1.60923235818647
  H          -3.14579437404052      1.90819421277858     -0.34245921037405
  H          -1.44805487169014     -1.97486972693704     -1.03459986236549
  H          -0.89489918838730      2.80271766832903      0.16781982349245
  H           0.80359702128076     -1.08300080464238     -0.52297882928116
  H           1.08454305281524      1.30656916627683      0.08802518678222
  S          -8.23796533147747      1.48639266071262      1.04060450471651
  F         -12.51833371401910     -1.13485799407797     -0.46741433634167
  F         -11.49241923169464     -0.39022332345814      1.31876777187973
  F         -12.13718787246336      1.14710266251051     -1.77289078873834
  F         -10.32894396264746      0.16172586275386     -1.02735229756804
  F         -13.35676437192533      1.47295459769812      1.73099071427731
  F         -14.07420423997623     -0.59498982071926      1.62396687212407
  F         -10.22754812906751      2.82285575767815     -1.24529639496053
  F         -11.95205255113363      3.07549168118673      0.08180874099168
  F         -15.79722021919150      1.27270810620045      0.86365157432397
  F         -14.44091827512390      2.03080596185036     -0.68159390443734
  F         -10.59330702418928      2.04370148284789      2.16750527618765
  F          -9.63341414374066      3.73318724582747      1.15193715970178
  F         -14.57825016819089     -0.27554775116552     -2.05230460033711
  F         -16.50919952939239      0.65553697781093     -1.58341196018516
  F         -16.80747012506986     -1.25536360558357      0.49777623161769
  F         -15.04561766509721     -2.26536412691228     -0.29596878182472
  F         -16.77107845787620     -1.93504401181644     -1.57057018273044
  O          -7.52078183404362      2.17910185520494      2.14241471019720
  O          -7.68516924228450      1.73994875193599     -0.31415631287211
  O          -8.58310115624248      0.07289742156112      1.32749123254919
  C         -12.25928770632281     -0.02757772981466      0.26868972928246
  C         -11.40000557586115      0.90160760479207     -0.66217675057832
  C         -13.62170532388405      0.45109287330205      0.88867749786322
  C         -10.87048599728528      2.29394169723522     -0.17702317938383
  C         -14.82022210178404      0.92390315132939     -0.00684493389071
  C          -9.91473595694445      2.40683611946315      1.05294945043077
  C         -15.46761446192208     -0.03766929595996     -1.06623733936469
  C         -16.03392051708588     -1.41237985435558     -0.58239788456931
