46
Coordinates from ORCA-job R4N+PFHxA-_0.15M E -1922.615000941361
  N      -2.269364     -0.026398      0.225001
  C      -1.269270     -0.033391     -0.952638
  C      -2.100886      1.227199      1.072153
  C      -3.681403     -0.046394     -0.349378
  C      -2.079228     -1.253768      1.105357
  C       0.184062     -0.017999     -0.585549
  C       0.904511      1.251309     -0.469497
  C       0.923849     -1.273239     -0.441299
  C       2.299475      1.263642     -0.053440
  C       2.318852     -1.254938     -0.025612
  C       3.006505      0.011952      0.162571
  H      -1.515854      0.838606     -1.572017
  H      -1.502544     -0.924122     -1.550133
  H      -2.179971      2.101151      0.418998
  H      -1.127482      1.197342      1.568432
  H      -2.895727      1.243470      1.824455
  H      -3.815485      0.843322     -0.971941
  H      -4.395672     -0.041337      0.479533
  H      -3.799962     -0.954866     -0.947532
  H      -1.106620     -1.193622      1.600477
  H      -2.142860     -2.146118      0.475823
  H      -2.873856     -1.263774      1.857990
  H       0.472391      2.174792     -0.838952
  H       0.505935     -2.211257     -0.789925
  H       2.861851      2.191114     -0.076648
  H       2.895484     -2.173900     -0.028838
  H       4.081707      0.021797      0.305693
  F      -9.853337     -1.153587      3.784584
  F      -8.045479     -0.636654      2.742421
  F      -9.036200     -0.263995      6.108370
  F      -7.681091     -1.690761      5.227695
  F     -10.105777      1.012136      2.257238
  F      -8.542318      2.108591      3.279355
  F      -7.407954      1.846681      5.422683
  F      -6.471350      0.332391      6.676081
  F      -9.925642      1.847657      5.706855
  F     -11.128018      2.677394      4.110009
  F     -11.425046      0.616197      4.721728
  O      -4.911210     -0.409559      4.654224
  O      -6.058070      0.992005      3.280465
  C      -8.823707     -0.226128      3.783669
  C      -8.091711     -0.388198      5.110902
  C      -9.451535      1.121478      3.466790
  C      -6.960834      0.555716      5.419178
  C     -10.470627      1.553484      4.507384
  C      -5.866244      0.365776      4.365218
46
Coordinates from ORCA-job R4N+PFHxA-_0.15M E -1922.647754223916
  N      -2.246540      0.002300      0.231069
  C      -1.274094      0.007176     -0.956135
  C      -2.043473      1.228865      1.099621
  C      -3.662465      0.016745     -0.317877
  C      -2.060509     -1.242785      1.075668
  C       0.176461     -0.008638     -0.593895
  C       0.898567      1.217850     -0.450773
  C       0.879010     -1.249669     -0.482139
  C       2.264099      1.199962     -0.051171
  C       2.244639     -1.263662     -0.082798
  C       2.938080     -0.039776      0.129224
  H      -1.516824      0.897219     -1.548484
  H      -1.531176     -0.866564     -1.566420
  H      -2.119501      2.117265      0.467909
  H      -1.062449      1.171931      1.575522
  H      -2.825537      1.240563      1.865415
  H      -3.791175      0.921642     -0.917058
  H      -4.364434      0.013954      0.522851
  H      -3.804074     -0.874628     -0.934119
  H      -1.078928     -1.208257      1.552638
  H      -2.148416     -2.117919      0.427219
  H      -2.842714     -1.258088      1.840896
  H       0.469334      2.156561     -0.786022
  H       0.434949     -2.172622     -0.841030
  H       2.836849      2.121540     -0.045169
  H       2.802781     -2.194003     -0.100988
  H       4.012684     -0.050204      0.279349
  F      -9.780076     -1.201229      3.900787
  F      -7.997622     -0.621760      2.830224
  F      -8.936088     -0.314444      6.222035
  F      -7.579662     -1.688968      5.263829
  F     -10.107767      0.791548      2.243058
  F      -8.657045      2.083115      3.195310
  F      -7.273018      1.826635      5.570318
  F      -6.350363      0.255704      6.755597
  F     -10.230354      2.105935      5.518713
  F     -11.273754      2.629609      3.707887
  F     -11.584932      0.674933      4.595442
  O      -4.824242     -0.438690      4.690276
  O      -5.965945      1.006304      3.373114
  C      -8.793163     -0.238751      3.868563
  C      -8.015854     -0.397030      5.202660
  C      -9.513649      1.073255      3.446580
  C      -6.846516      0.533438      5.514685
  C     -10.646661      1.610271      4.342953
  C      -5.766146      0.354560      4.432595
46
Coordinates from ORCA-job R4N+PFHxA-_0.15M E -1922.661362302228
  N      -2.227324      0.005622      0.213631
  C      -1.268233      0.010841     -0.969807
  C      -2.020748      1.224637      1.075515
  C      -3.635925      0.020171     -0.330242
  C      -2.037945     -1.232662      1.050741
  C       0.175998     -0.006060     -0.588709
  C       0.875757      1.188344     -0.431139
  C       0.855807     -1.215895     -0.465162
  C       2.204306      1.171186     -0.033283
  C       2.184401     -1.232183     -0.067549
  C       2.860420     -0.038885      0.150396
  H      -1.513852      0.903094     -1.555052
  H      -1.528894     -0.864796     -1.573361
  H      -2.098019      2.111511      0.443874
  H      -1.038117      1.166910      1.544853
  H      -2.800652      1.237502      1.841763
  H      -3.764048      0.924177     -0.928477
  H      -4.337870      0.017111      0.510395
  H      -3.776722     -0.869963     -0.946163
  H      -1.054851     -1.197958      1.521292
  H      -2.127304     -2.105923      0.401917
  H      -2.818035     -1.248893      1.816237
  H       0.427666      2.130075     -0.736337
  H       0.392123     -2.141000     -0.796771
  H       2.767817      2.098358      0.007915
  H       2.732483     -2.169360     -0.053297
  H       3.928974     -0.050515      0.343554
  F      -9.789420     -1.216161      3.930854
  F      -7.994747     -0.639147      2.829115
  F      -8.946865     -0.278907      6.209876
  F      -7.569124     -1.681966      5.261676
  F     -10.146424      0.749689      2.254933
  F      -8.651407      2.038688      3.184092
  F      -7.275480      1.820967      5.542988
  F      -6.357425      0.248836      6.745066
  F     -10.127544      2.103890      5.505198
  F     -11.227361      2.648499      3.714342
  F     -11.559634      0.705299      4.645226
  O      -4.799363     -0.432847      4.670927
  O      -5.935207      1.007738      3.359294
  C      -8.801175     -0.270174      3.860351
  C      -8.017886     -0.400784      5.207182
  C      -9.526861      1.050713      3.432216
  C      -6.824970      0.534995      5.498377
  C     -10.630215      1.628899      4.360776
  C      -5.733816      0.357521      4.408710
46
Coordinates from ORCA-job R4N+PFHxA-_0.15M E -1922.666164340745
  N      -2.216963      0.018770      0.206404
  C      -1.261672      0.022289     -0.982724
  C      -2.001331      1.229811      1.069571
  C      -3.621379      0.045042     -0.336643
  C      -2.035198     -1.221620      1.034568
  C       0.187612     -0.007039     -0.604639
  C       0.896277      1.183720     -0.429973
  C       0.857382     -1.225466     -0.472383
  C       2.234035      1.155002     -0.052164
  C       2.195176     -1.253405     -0.094807
  C       2.883538     -0.063508      0.124397
  H      -1.504884      0.921688     -1.557657
  H      -1.532724     -0.851167     -1.584586
  H      -2.072221      2.119923      0.441463
  H      -1.018864      1.164204      1.537802
  H      -2.780984      1.245922      1.833331
  H      -3.742928      0.952301     -0.931489
  H      -4.324682      0.043042      0.501034
  H      -3.767000     -0.841662     -0.956551
  H      -1.051560     -1.196961      1.504174
  H      -2.130751     -2.091471      0.381797
  H      -2.815129     -1.236250      1.797596
  H       0.424868      2.135982     -0.660988
  H       0.355497     -2.153236     -0.736501
  H       2.791167      2.083292      0.039392
  H       2.722021     -2.201864     -0.036752
  H       3.943214     -0.084885      0.363822
  F      -9.799376     -1.243018      3.968725
  F      -8.018700     -0.650630      2.843233
  F      -8.941101     -0.239734      6.219211
  F      -7.565745     -1.657130      5.265168
  F     -10.216476      0.691078      2.275404
  F      -8.704457      2.007527      3.151941
  F      -7.276130      1.840268      5.520579
  F      -6.362629      0.259065      6.721816
  F     -10.106701      2.107760      5.496541
  F     -11.280053      2.609450      3.739262
  F     -11.563300      0.684746      4.721768
  O      -4.794641     -0.421111      4.652982
  O      -5.913492      1.035026      3.341491
  C      -8.828965     -0.287311      3.867487
  C      -8.027595     -0.381992      5.211116
  C      -9.574621      1.021753      3.429172
  C      -6.820257      0.555169      5.474510
  C     -10.656900      1.610302      4.385196
  C      -5.719092      0.377524      4.384832
46
Coordinates from ORCA-job R4N+PFHxA-_0.15M E -1922.668793827099
  N      -2.199534      0.040848      0.208514
  C      -1.239729      0.042229     -0.984658
  C      -1.973620      1.240017      1.079763
  C      -3.596759      0.090372     -0.342028
  C      -2.039318     -1.207349      1.024070
  C       0.212811     -0.009096     -0.610775
  C       0.936676      1.171463     -0.420659
  C       0.867858     -1.237789     -0.487300
  C       2.285265      1.123872     -0.081189
  C       2.216403     -1.286087     -0.147859
  C       2.926579     -0.105212      0.059226
  H      -1.471974      0.953129     -1.544584
  H      -1.522919     -0.825679     -1.587802
  H      -2.029674      2.136985      0.459538
  H      -0.994364      1.160139      1.552835
  H      -2.758228      1.261097      1.838080
  H      -3.704226      1.004017     -0.930016
  H      -4.305342      0.090292      0.489518
  H      -3.751095     -0.789050     -0.970500
  H      -1.057548     -1.203468      1.498305
  H      -2.144639     -2.070761      0.363925
  H      -2.824120     -1.218118      1.781839
  H       0.443171      2.131234     -0.551410
  H       0.320678     -2.159091     -0.670536
  H       2.840375      2.046927      0.059088
  H       2.717760     -2.245639     -0.059778
  H       3.981446     -0.142489      0.315971
  F      -9.821507     -1.294308      4.024015
  F      -8.063282     -0.674605      2.869018
  F      -8.930630     -0.186412      6.238843
  F      -7.568514     -1.631897      5.294983
  F     -10.316646      0.606293      2.311149
  F      -8.777851      1.945859      3.113791
  F      -7.297103      1.872219      5.457899
  F      -6.373262      0.307148      6.681325
  F     -10.100120      2.135307      5.472599
  F     -11.370927      2.538083      3.757959
  F     -11.567697      0.656436      4.835470
  O      -4.806960     -0.404660      4.627542
  O      -5.885851      1.083319      3.311058
  C      -8.877457     -0.322584      3.887498
  C      -8.047218     -0.362273      5.218920
  C      -9.645838      0.969402      3.434114
  C      -6.831200      0.589127      5.429076
  C     -10.699716      1.581845      4.414369
  C      -5.711868      0.410100      4.346725
46
Coordinates from ORCA-job R4N+PFHxA-_0.15M E -1922.669390952382
  N      -2.194157      0.059238      0.199322
  C      -1.225197      0.058939     -0.988561
  C      -1.958243      1.247099      1.081834
  C      -3.586295      0.131970     -0.358779
  C      -2.054827     -1.198072      1.003223
  C       0.224323     -0.010416     -0.606374
  C       0.960392      1.161731     -0.405891
  C       0.865490     -1.247319     -0.484134
  C       2.310253      1.098042     -0.073141
  C       2.215297     -1.311474     -0.151130
  C       2.938292     -0.138898      0.060305
  H      -1.443016      0.977976     -1.540372
  H      -1.513124     -0.803310     -1.597087
  H      -2.000746      2.150937      0.470530
  H      -0.981861      1.152042      1.558435
  H      -2.745713      1.271517      1.837670
  H      -3.680948      1.052170     -0.938642
  H      -4.296870      0.133130      0.470456
  H      -3.750720     -0.739315     -0.996036
  H      -1.074417     -1.214053      1.480399
  H      -2.170749     -2.054148      0.335277
  H      -2.842288     -1.205198      1.758847
  H       0.470800      2.126420     -0.512802
  H       0.301717     -2.161638     -0.651199
  H       2.872130      2.014663      0.081476
  H       2.702985     -2.277446     -0.057029
  H       3.991376     -0.188886      0.322245
  F      -9.817851     -1.332008      4.066092
  F      -8.082560     -0.692724      2.885263
  F      -8.912524     -0.148579      6.254868
  F      -7.559735     -1.613844      5.327533
  F     -10.378525      0.539057      2.345740
  F      -8.826282      1.900507      3.084453
  F      -7.306718      1.896202      5.404760
  F      -6.359873      0.361496      6.648375
  F     -10.098255      2.164698      5.450637
  F     -11.441320      2.464548      3.770064
  F     -11.545495      0.622154      4.926035
  O      -4.817137     -0.396466      4.598091
  O      -5.860761      1.122977      3.284860
  C      -8.894586     -0.346334      3.907264
  C      -8.047125     -0.347736      5.226038
  C      -9.684805      0.928056      3.444845
  C      -6.832603      0.616252      5.393226
  C     -10.719579      1.553293      4.436865
  C      -5.705863      0.433945      4.314079
46
Coordinates from ORCA-job R4N+PFHxA-_0.15M E -1922.669902774086
  N      -2.191001      0.089523      0.184988
  C      -1.208027      0.087065     -0.993239
  C      -1.941620      1.259761      1.085858
  C      -3.575058      0.197677     -0.384208
  C      -2.085145     -1.181231      0.971756
  C       0.236321     -0.012413     -0.598982
  C       0.991171      1.144427     -0.378696
  C       0.856049     -1.261529     -0.488662
  C       2.336915      1.053313     -0.036572
  C       2.201915     -1.352641     -0.146900
  C       2.943364     -0.195466      0.082249
  H      -1.402584      1.018382     -1.532591
  H      -1.504077     -0.763572     -1.613858
  H      -1.963485      2.173549      0.488433
  H      -0.970431      1.141465      1.567969
  H      -2.732934      1.288707      1.838097
  H      -3.649657      1.127546     -0.951327
  H      -4.288012      0.200659      0.442415
  H      -3.754336     -0.660561     -1.035036
  H      -1.107902     -1.227382      1.453459
  H      -2.217132     -2.025541      0.291876
  H      -2.875880     -1.182350      1.724555
  H       0.516645      2.118182     -0.470743
  H       0.276608     -2.163820     -0.667241
  H       2.911358      1.958330      0.139032
  H       2.671072     -2.328273     -0.057974
  H       3.993186     -0.266785      0.352599
  F      -9.790733     -1.391545      4.129248
  F      -8.091912     -0.722155      2.910515
  F      -8.883109     -0.090667      6.275877
  F      -7.532880     -1.581147      5.386368
  F     -10.453483      0.425016      2.399576
  F      -8.890567      1.826316      3.034678
  F      -7.327766      1.932138      5.320175
  F      -6.333440      0.458473      6.599979
  F     -10.096419      2.213954      5.399105
  F     -11.539029      2.337235      3.780626
  F     -11.490719      0.573107      5.056988
  O      -4.834785     -0.381814      4.551909
  O      -5.823141      1.183587      3.246448
  C      -8.901771     -0.383295      3.939099
  C      -8.035988     -0.324782      5.239784
  C      -9.728911      0.860211      3.460093
  C      -6.832857      0.661196      5.341739
  C     -10.738306      1.506774      4.462908
  C      -5.699220      0.471569      4.265559
46
Coordinates from ORCA-job R4N+PFHxA-_0.15M E -1922.670247114022
  N      -2.187076      0.133869      0.169818
  C      -1.192391      0.124555     -0.998591
  C      -1.917630      1.282946      1.091451
  C      -3.562900      0.286972     -0.407749
  C      -2.121317     -1.151757      0.936793
  C       0.244541     -0.019726     -0.592693
  C       1.028169      1.112590     -0.348100
  C       0.829102     -1.286444     -0.495314
  C       2.367566      0.979790      0.003799
  C       2.168497     -1.419049     -0.143278
  C       2.938173     -0.286377      0.111202
  H      -1.355934      1.069792     -1.523694
  H      -1.504052     -0.708388     -1.635333
  H      -1.914768      2.207140      0.509842
  H      -0.952361      1.135320      1.577477
  H      -2.711724      1.318393      1.841019
  H      -3.612089      1.227779     -0.959356
  H      -4.276911      0.293691      0.417576
  H      -3.762095     -0.554799     -1.074064
  H      -1.147783     -1.233926      1.421365
  H      -2.274203     -1.981403      0.243322
  H      -2.913975     -1.143840      1.688011
  H       0.583184      2.100592     -0.435862
  H       0.229077     -2.170078     -0.697809
  H       2.966047      1.866357      0.192736
  H       2.611412     -2.408134     -0.069574
  H       3.984134     -0.390066      0.386092
  F      -9.712914     -1.453432      4.197388
  F      -8.061001     -0.729488      2.946924
  F      -8.838826     -0.004097      6.299637
  F      -7.475951     -1.514790      5.468189
  F     -10.474122      0.294953      2.434440
  F      -8.973937      1.778396      3.030244
  F      -7.341577      1.993253      5.229149
  F      -6.289984      0.601560      6.555042
  F     -10.204264      2.171469      5.386559
  F     -11.660985      2.160484      3.777857
  F     -11.496587      0.437787      5.098083
  O      -4.847024     -0.348018      4.504999
  O      -5.771429      1.267977      3.213373
  C      -8.877196     -0.408205      3.979702
  C      -8.001101     -0.276064      5.263992
  C      -9.766720      0.784782      3.482299
  C      -6.818450      0.736337      5.296023
  C     -10.804966      1.400078      4.474552
  C      -5.683372      0.532409      4.220394
46
Coordinates from ORCA-job R4N+PFHxA-_0.15M E -1922.670541630247
  N      -2.196560      0.167978      0.162460
  C      -1.194524      0.153343     -0.998296
  C      -1.914262      1.302921      1.098086
  C      -3.566764      0.351350     -0.420335
  C      -2.158731     -1.126840      0.916447
  C       0.236135     -0.022744     -0.583490
  C       1.038486      1.091261     -0.318611
  C       0.795789     -1.301083     -0.497110
  C       2.370883      0.928704      0.046525
  C       2.128110     -1.463557     -0.131714
  C       2.915936     -0.349152      0.146057
  H      -1.336356      1.106922     -1.514624
  H      -1.516912     -0.665570     -1.647846
  H      -1.895135      2.233443      0.526964
  H      -0.953300      1.135991      1.586533
  H      -2.710289      1.341620      1.845609
  H      -3.598255      1.299404     -0.960799
  H      -4.281282      0.359945      0.404256
  H      -3.778454     -0.478573     -1.097424
  H      -1.188212     -1.232802      1.402615
  H      -2.325400     -1.946083      0.213843
  H      -2.952206     -1.112542      1.667142
  H       0.616854      2.089321     -0.407540
  H       0.184832     -2.170893     -0.725145
  H       2.985941      1.801364      0.246516
  H       2.553215     -2.461285     -0.071129
  H       3.957752     -0.475824      0.426850
  F      -9.641121     -1.508326      4.239594
  F      -8.016306     -0.753344      2.969962
  F      -8.801966      0.024597      6.313021
  F      -7.406725     -1.474878      5.521029
  F     -10.465064      0.183455      2.456508
  F      -8.990985      1.713589      2.994339
  F      -7.376728      2.023940      5.163817
  F      -6.259412      0.713294      6.521061
  F     -10.211339      2.160220      5.343582
  F     -11.682052      2.059554      3.752884
  F     -11.464684      0.386307      5.127332
  O      -4.861813     -0.323141      4.470405
  O      -5.743605      1.324917      3.190868
  C      -8.837946     -0.442199      4.003892
  C      -7.961956     -0.257713      5.280176
  C      -9.759363      0.718098      3.483618
  C      -6.812276      0.787863      5.265827
  C     -10.801211      1.343619      4.465472
  C      -5.680447      0.574718      4.188703
46
Coordinates from ORCA-job R4N+PFHxA-_0.15M E -1922.670815425864
  N      -2.212179      0.197520      0.163945
  C      -1.207827      0.176644     -0.993014
  C      -1.910914      1.315562      1.114640
  C      -3.577718      0.416273     -0.419675
  C      -2.204468     -1.106763      0.902735
  C       0.218546     -0.027128     -0.575214
  C       1.037112      1.071052     -0.295869
  C       0.757700     -1.314850     -0.501419
  C       2.363327      0.883385      0.079973
  C       2.083864     -1.502795     -0.125390
  C       2.887723     -0.403993      0.169414
  H      -1.332536      1.136447     -1.502446
  H      -1.542276     -0.628591     -1.653649
  H      -1.873189      2.252501      0.555106
  H      -0.954379      1.124941      1.603124
  H      -2.707935      1.358225      1.860572
  H      -3.588392      1.372356     -0.946771
  H      -4.292454      0.427392      0.404590
  H      -3.804039     -0.399704     -1.108722
  H      -1.236928     -1.239141      1.388489
  H      -2.387853     -1.913616      0.190111
  H      -2.997343     -1.084271      1.653855
  H       0.634858      2.077248     -0.382620
  H       0.137485     -2.172621     -0.749074
  H       2.991677      1.743745      0.291613
  H       2.493535     -2.507463     -0.074221
  H       3.925526     -0.550082      0.455450
  F      -9.552907     -1.549348      4.271690
  F      -7.944943     -0.768228      2.994649
  F      -8.769862      0.059506      6.319494
  F      -7.340304     -1.429241      5.577808
  F     -10.415356      0.077703      2.454170
  F      -8.987980      1.662454      2.960056
  F      -7.397341      2.055527      5.120887
  F      -6.223288      0.817999      6.498429
  F     -10.227848      2.125452      5.297908
  F     -11.684160      1.961218      3.698734
  F     -11.438148      0.318968      5.107049
  O      -4.874272     -0.301492      4.440446
  O      -5.713262      1.381277      3.180549
  C      -8.779594     -0.465229      4.021562
  C      -7.915979     -0.232778      5.299028
  C      -9.730208      0.658399      3.470508
  C      -6.795942      0.840402      5.250265
  C     -10.792925      1.279985      4.432247
  C      -5.674316      0.616347      4.166922
46
Coordinates from ORCA-job R4N+PFHxA-_0.15M E -1922.671039514749
  N      -2.231034      0.225369      0.174931
  C      -1.227777      0.198492     -0.981651
  C      -1.909881      1.325586      1.140489
  C      -3.592560      0.477476     -0.406627
  C      -2.249528     -1.087284      0.897883
  C       0.195543     -0.029668     -0.565183
  C       1.030651      1.054486     -0.279879
  C       0.714377     -1.325995     -0.497124
  C       2.354717      0.844783      0.092650
  C       2.038383     -1.536191     -0.124306
  C       2.859194     -0.451223      0.176472
  H      -1.338923      1.163017     -1.485501
  H      -1.574634     -0.595252     -1.649949
  H      -1.854376      2.268682      0.592942
  H      -0.957762      1.111126      1.627604
  H      -2.707992      1.371078      1.884772
  H      -3.583703      1.441232     -0.919655
  H      -4.308339      0.489927      0.416834
  H      -3.831568     -0.324594     -1.107576
  H      -1.284528     -1.243920      1.381785
  H      -2.448606     -1.881804      0.175768
  H      -3.041282     -1.057205      1.649681
  H       0.644341      2.067312     -0.361644
  H       0.081123     -2.173116     -0.748400
  H       2.997022      1.694197      0.306649
  H       2.433248     -2.547073     -0.079590
  H       3.894905     -0.614571      0.460653
  F      -9.470160     -1.582649      4.296922
  F      -7.866491     -0.787796      3.020248
  F      -8.746536      0.095297      6.318873
  F      -7.287638     -1.389216      5.634693
  F     -10.348334     -0.018843      2.437084
  F      -8.963987      1.611432      2.920146
  F      -7.406560      2.079848      5.093901
  F      -6.189129      0.899056      6.482918
  F     -10.235363      2.097779      5.234611
  F     -11.670289      1.870112      3.623454
  F     -11.406465      0.263882      5.071066
  O      -4.883562     -0.285623      4.413491
  O      -5.685042      1.430526      3.176765
  C      -8.719055     -0.486732      4.033125
  C      -7.874603     -0.210763      5.316928
  C      -9.688462      0.603030      3.445955
  C      -6.776008      0.882288      5.242794
  C     -10.774572      1.223487      4.382066
  C      -5.666466      0.651210      4.150859
46
Coordinates from ORCA-job R4N+PFHxA-_0.15M E -1922.671258891391
  N      -2.252228      0.247990      0.193032
  C      -1.252931      0.217228     -0.966608
  C      -1.912290      1.332271      1.170532
  C      -3.611136      0.527136     -0.383977
  C      -2.289707     -1.070794      0.903151
  C       0.169058     -0.030555     -0.556324
  C       1.017796      1.042200     -0.267102
  C       0.673171     -1.333405     -0.499418
  C       2.340962      0.814730      0.098986
  C       1.996364     -1.561360     -0.133379
  C       2.831392     -0.487726      0.169893
  H      -1.354887      1.186026     -1.464234
  H      -1.611499     -0.567190     -1.639829
  H      -1.842037      2.280283      0.633226
  H      -0.963827      1.096787      1.654988
  H      -2.711381      1.379788      1.913380
  H      -3.586651      1.497096     -0.884690
  H      -4.328477      0.540380      0.438388
  H      -3.859845     -0.263334     -1.094693
  H      -1.326446     -1.246387      1.384138
  H      -2.502269     -1.855597      0.174352
  H      -3.079727     -1.033389      1.656110
  H       0.640741      2.059560     -0.334840
  H       0.027707     -2.171423     -0.750109
  H       2.992688      1.654956      0.320670
  H       2.378846     -2.577219     -0.093633
  H       3.865652     -0.665048      0.451001
  F      -9.400661     -1.606814      4.319209
  F      -7.787334     -0.815984      3.049970
  F      -8.729663      0.134756      6.312498
  F      -7.249442     -1.354426      5.690062
  F     -10.272176     -0.100102      2.409366
  F      -8.922646      1.563912      2.878755
  F      -7.400994      2.099465      5.078123
  F      -6.154383      0.955273      6.471551
  F     -10.233949      2.080294      5.159328
  F     -11.642560      1.792537      3.534086
  F     -11.374397      0.225797      5.023886
  O      -4.885297     -0.274213      4.388204
  O      -5.659148      1.469963      3.174499
  C      -8.661727     -0.506448      4.040955
  C      -7.839586     -0.190662      5.332896
  C      -9.638563      0.554870      3.414136
  C      -6.751556      0.913166      5.239411
  C     -10.748386      1.178199      4.320442
  C      -5.654284      0.678604      4.137542
46
Coordinates from ORCA-job R4N+PFHxA-_0.15M E -1922.671494041755
  N      -2.275576      0.257841      0.215989
  C      -1.283392      0.227077     -0.950169
  C      -1.923971      1.334628      1.198211
  C      -3.636261      0.546246     -0.354005
  C      -2.314419     -1.063152      0.921700
  C       0.139905     -0.027222     -0.548922
  C       0.994897      1.041690     -0.262318
  C       0.638363     -1.332646     -0.495752
  C       2.320629      0.808158      0.090881
  C       1.964060     -1.566488     -0.142224
  C       2.805840     -0.496697      0.156161
  H      -1.385169      1.197687     -1.444247
  H      -1.648765     -0.554747     -1.622692
  H      -1.849411      2.285071      0.665736
  H      -0.975940      1.089063      1.678335
  H      -2.722775      1.381014      1.941305
  H      -3.607731      1.519380     -0.848339
  H      -4.354244      0.558285      0.468269
  H      -3.888120     -0.239599     -1.068817
  H      -1.349821     -1.243918      1.398065
  H      -2.534073     -1.845319      0.192179
  H      -3.101417     -1.021303      1.677269
  H       0.619009      2.060072     -0.320451
  H      -0.015168     -2.167247     -0.736772
  H       2.976907      1.645246      0.310998
  H       2.341747     -2.584226     -0.104221
  H       3.841080     -0.678946      0.430484
  F      -9.371487     -1.612063      4.326820
  F      -7.725690     -0.857645      3.077045
  F      -8.720607      0.158226      6.301370
  F      -7.236156     -1.345746      5.725376
  F     -10.194722     -0.135412      2.367340
  F      -8.852553      1.532912      2.842980
  F      -7.372708      2.102916      5.088227
  F      -6.120284      0.953855      6.472534
  F     -10.206356      2.084544      5.085464
  F     -11.585197      1.771846      3.438798
  F     -11.348665      0.231166      4.959960
  O      -4.870688     -0.275840      4.371262
  O      -5.643812      1.481421      3.176493
  C      -8.620334     -0.521926      4.039395
  C      -7.817554     -0.186123      5.341464
  C      -9.580599      0.531543      3.376097
  C      -6.722680      0.914758      5.245775
  C     -10.707334      1.168941      4.251860
  C      -5.636470      0.683873      4.133017
46
Coordinates from ORCA-job R4N+PFHxA-_0.15M E -1922.671690171503
  N      -2.296749      0.265243      0.231931
  C      -1.307365      0.234911     -0.937791
  C      -1.938133      1.337271      1.216884
  C      -3.657627      0.559734     -0.333853
  C      -2.336411     -1.056898      0.935889
  C       0.116175     -0.024451     -0.541335
  C       0.975015      1.041267     -0.253608
  C       0.611579     -1.331440     -0.494508
  C       2.300977      0.802951      0.095048
  C       1.937614     -1.569812     -0.145706
  C       2.783004     -0.503260      0.153153
  H      -1.407228      1.207933     -1.427215
  H      -1.676319     -0.545295     -1.610030
  H      -1.861381      2.289487      0.687880
  H      -0.990273      1.085129      1.693763
  H      -2.736205      1.382993      1.960891
  H      -3.627010      1.534920     -0.824012
  H      -4.375708      0.571120      0.488606
  H      -3.912849     -0.222718     -1.051196
  H      -1.370637     -1.241587      1.408047
  H      -2.562634     -1.837886      0.207082
  H      -3.120403     -1.010688      1.694382
  H       0.599702      2.060276     -0.304177
  H      -0.046235     -2.162972     -0.734494
  H       2.959152      1.637591      0.318785
  H       2.311964     -2.588891     -0.110357
  H       3.818263     -0.689300      0.424986
  F      -9.356497     -1.613070      4.338384
  F      -7.682682     -0.901290      3.102434
  F      -8.703576      0.180172      6.293704
  F      -7.220649     -1.337588      5.746048
  F     -10.132333     -0.157870      2.335541
  F      -8.791443      1.508294      2.821322
  F      -7.339538      2.108161      5.089866
  F      -6.088040      0.945964      6.465023
  F     -10.184410      2.090348      5.028908
  F     -11.541001      1.752213      3.368456
  F     -11.324128      0.234748      4.914494
  O      -4.851776     -0.276931      4.348631
  O      -5.626370      1.491064      3.168690
  C      -8.590866     -0.535618      4.040451
  C      -7.798368     -0.180994      5.343549
  C      -9.533389      0.513985      3.349689
  C      -6.695345      0.914354      5.241246
  C     -10.673186      1.161561      4.201372
  C      -5.614393      0.688058      4.121076
46
Coordinates from ORCA-job R4N+PFHxA-_0.15M E -1922.671848000622
  N      -2.315395      0.272881      0.240838
  C      -1.325034      0.242640     -0.928774
  C      -1.955935      1.343915      1.226816
  C      -3.675465      0.568689     -0.324409
  C      -2.355168     -1.049331      0.945232
  C       0.097215     -0.021486     -0.531829
  C       0.959012      1.040795     -0.240924
  C       0.588519     -1.329940     -0.486937
  C       2.283768      0.797694      0.107858
  C       1.913292     -1.573018     -0.137712
  C       2.761283     -0.509900      0.164561
  H      -1.421151      1.217825     -1.414434
  H      -1.695071     -0.536426     -1.601573
  H      -1.880399      2.297163      0.699531
  H      -1.007560      1.090644      1.702049
  H      -2.752852      1.388323      1.972482
  H      -3.645627      1.544750     -0.812881
  H      -4.392752      0.579006      0.498779
  H      -3.932910     -0.212008     -1.042863
  H      -1.388099     -1.236113      1.413742
  H      -2.586467     -1.830242      0.217916
  H      -3.136150     -1.000085      1.706918
  H       0.587244      2.061042     -0.292680
  H      -0.071464     -2.158577     -0.731032
  H       2.944808      1.630148      0.331257
  H       2.284770     -2.593261     -0.106165
  H       3.796189     -0.699628      0.435219
  F      -9.347412     -1.616762      4.349122
  F      -7.658201     -0.942075      3.115645
  F      -8.680076      0.190909      6.286096
  F      -7.199486     -1.334179      5.750300
  F     -10.097400     -0.178068      2.319591
  F      -8.745864      1.480787      2.798488
  F      -7.309047      2.110346      5.084974
  F      -6.059047      0.934934      6.450772
  F     -10.149660      2.099123      4.988186
  F     -11.502629      1.744717      3.328246
  F     -11.297759      0.247369      4.894370
  O      -4.829434     -0.277200      4.323838
  O      -5.609532      1.496793      3.154587
  C      -8.570509     -0.550463      4.039946
  C      -7.779046     -0.180221      5.337134
  C      -9.499459      0.497223      3.331725
  C      -6.671526      0.911350      5.227978
  C     -10.639471      1.161037      4.171199
  C      -5.590755      0.690077      4.104752
46
Coordinates from ORCA-job R4N+PFHxA-_0.15M E -1922.672005044707
  N      -2.340020      0.286605      0.249232
  C      -1.346385      0.254799     -0.917652
  C      -1.979212      1.354564      1.238083
  C      -3.697027      0.589375     -0.317454
  C      -2.387318     -1.036354      0.952028
  C       0.072854     -0.019855     -0.517751
  C       0.940053      1.035346     -0.218551
  C       0.556247     -1.331226     -0.479034
  C       2.261184      0.782157      0.135907
  C       1.877469     -1.584421     -0.124556
  C       2.730394     -0.528391      0.187603
  H      -1.434377      1.233142     -1.398421
  H      -1.719058     -0.519834     -1.594060
  H      -1.902723      2.309344      0.713792
  H      -1.031026      1.098435      1.712277
  H      -2.774775      1.398439      1.985820
  H      -3.664418      1.566969     -0.802699
  H      -4.412942      0.599227      0.506713
  H      -3.959221     -0.186982     -1.038845
  H      -1.419845     -1.230969      1.416445
  H      -2.627631     -1.814569      0.224751
  H      -3.164316     -0.982067      1.717844
  H       0.575980      2.058408     -0.269777
  H      -0.106372     -2.154365     -0.734395
  H       2.926667      1.609470      0.365104
  H       2.242991     -2.606970     -0.099108
  H       3.763223     -0.725896      0.460598
  F      -9.314605     -1.627988      4.366209
  F      -7.621440     -0.981314      3.124825
  F      -8.640648      0.203887      6.276241
  F      -7.154050     -1.320678      5.755479
  F     -10.051397     -0.215229      2.306556
  F      -8.698225      1.445346      2.773566
  F      -7.279584      2.117064      5.063207
  F      -6.017914      0.947530      6.423734
  F     -10.115270      2.094833      4.945810
  F     -11.460536      1.718463      3.284828
  F     -11.263748      0.242141      4.871378
  O      -4.803181     -0.271533      4.287089
  O      -5.581664      1.512552      3.131710
  C      -8.534697     -0.569005      4.040913
  C      -7.742712     -0.174925      5.327887
  C      -9.457564      0.469723      3.314216
  C      -6.640054      0.919562      5.203165
  C     -10.601220      1.145906      4.139407
  C      -5.559597      0.700475      4.077815
46
Coordinates from ORCA-job R4N+PFHxA-_0.15M E -1922.672161830784
  N      -2.366135      0.293689      0.259551
  C      -1.369851      0.260666     -0.904428
  C      -2.007715      1.362169      1.248733
  C      -3.721541      0.597981     -0.309496
  C      -2.417727     -1.028674      0.963353
  C       0.047637     -0.018128     -0.501468
  C       0.916574      1.034145     -0.198288
  C       0.527488     -1.330591     -0.463710
  C       2.235629      0.776944      0.160702
  C       1.846503     -1.587990     -0.104445
  C       2.701150     -0.534819      0.212564
  H      -1.454057      1.239945     -1.384101
  H      -1.742987     -0.511906     -1.582978
  H      -1.934203      2.317349      0.724796
  H      -1.058299      1.108680      1.722116
  H      -2.801216      1.404540      1.999381
  H      -3.689190      1.575890     -0.794126
  H      -4.435088      0.606959      0.516299
  H      -3.985906     -0.176496     -1.032104
  H      -1.449065     -1.228133      1.423367
  H      -2.665626     -1.805831      0.237516
  H      -3.189909     -0.969861      1.733990
  H       0.557382      2.058754     -0.253087
  H      -0.134883     -2.151879     -0.725650
  H       2.903296      1.602250      0.390737
  H       2.209875     -2.611348     -0.081571
  H       3.732928     -0.735378      0.487206
  F      -9.284976     -1.632383      4.370924
  F      -7.596693     -1.010376      3.111946
  F      -8.596143      0.202280      6.259648
  F      -7.105562     -1.318233      5.737906
  F     -10.017682     -0.234265      2.293859
  F      -8.656258      1.423366      2.748139
  F      -7.242767      2.116811      5.042876
  F      -5.973117      0.947381      6.395862
  F     -10.068515      2.091088      4.920304
  F     -11.412819      1.719507      3.257682
  F     -11.230661      0.246893      4.849826
  O      -4.766989     -0.270646      4.250735
  O      -5.552319      1.516791      3.106557
  C      -8.501193     -0.581396      4.030409
  C      -7.701598     -0.176183      5.307649
  C      -9.419863      0.454984      3.295931
  C      -6.603042      0.920559      5.176231
  C     -10.559865      1.143618      4.116350
  C      -5.522713      0.702472      4.050233
46
Coordinates from ORCA-job R4N+PFHxA-_0.15M E -1922.672319531195
  N      -2.388423      0.298714      0.270390
  C      -1.390343      0.262921     -0.890982
  C      -2.029497      1.365467      1.260734
  C      -3.741861      0.609269     -0.300466
  C      -2.448558     -1.023900      0.972954
  C       0.026028     -0.018707     -0.485759
  C       0.896476      1.032067     -0.182159
  C       0.503239     -1.332025     -0.446524
  C       2.214467      0.772597      0.179561
  C       1.821228     -1.591836     -0.084764
  C       2.677524     -0.540087      0.233243
  H      -1.471914      1.241820     -1.372080
  H      -1.764496     -0.507812     -1.571202
  H      -1.955764      2.321210      0.737840
  H      -1.079746      1.112033      1.733700
  H      -2.821676      1.407293      2.012932
  H      -3.705715      1.588066     -0.783001
  H      -4.454079      0.618281      0.526215
  H      -4.008720     -0.161945     -1.025606
  H      -1.479921     -1.231342      1.429747
  H      -2.704481     -1.798033      0.246713
  H      -3.216940     -0.960187      1.747281
  H       0.540566      2.057725     -0.238726
  H      -0.159260     -2.152781     -0.709785
  H       2.883589      1.596651      0.409859
  H       2.182906     -2.615765     -0.060979
  H       3.708451     -0.742414      0.509705
  F      -9.244745     -1.637146      4.366518
  F      -7.572478     -1.016076      3.085919
  F      -8.553451      0.198047      6.240542
  F      -7.056230     -1.314236      5.713426
  F      -9.993496     -0.248704      2.285657
  F      -8.635390      1.415637      2.728496
  F      -7.213419      2.117532      5.014201
  F      -5.932896      0.959137      6.366125
  F     -10.037910      2.078620      4.911129
  F     -11.383741      1.712846      3.248553
  F     -11.201287      0.235543      4.837255
  O      -4.737031     -0.270362      4.215384
  O      -5.520476      1.522671      3.080026
  C      -8.466608     -0.586076      4.014514
  C      -7.659214     -0.175596      5.285076
  C      -9.392954      0.446026      3.282208
  C      -6.568494      0.926273      5.147663
  C     -10.530972      1.134365      4.105443
  C      -5.489999      0.705415      4.020952
46
Coordinates from ORCA-job R4N+PFHxA-_0.15M E -1922.672488621046
  N      -2.409341      0.292439      0.286577
  C      -1.413112      0.254303     -0.875143
  C      -2.051861      1.362233      1.273821
  C      -3.764424      0.600767     -0.284308
  C      -2.469893     -1.028689      0.991826
  C       0.005291     -0.019166     -0.470787
  C       0.871908      1.037451     -0.176238
  C       0.487933     -1.330286     -0.423022
  C       2.192112      0.786113      0.184064
  C       1.808079     -1.582075     -0.062466
  C       2.661065     -0.524396      0.245704
  H      -1.500218      1.229359     -1.363291
  H      -1.785862     -0.520017     -1.552225
  H      -1.982583      2.316932      0.748336
  H      -1.099932      1.114738      1.745724
  H      -2.842646      1.402019      2.027324
  H      -3.728778      1.579025     -0.767924
  H      -4.475524      0.609439      0.543254
  H      -4.028971     -0.171619     -1.009074
  H      -1.499977     -1.237451      1.445619
  H      -2.729756     -1.803314      0.267566
  H      -3.234606     -0.961315      1.769370
  H       0.511598      2.061367     -0.236349
  H      -0.171823     -2.156292     -0.676544
  H       2.857999      1.614316      0.408831
  H       2.173895     -2.604315     -0.030392
  H       3.693074     -0.720494      0.522592
  F      -9.218256     -1.630908      4.337821
  F      -7.563313     -1.003805      3.036810
  F      -8.512179      0.176841      6.214781
  F      -7.017571     -1.329490      5.662146
  F      -9.985977     -0.229454      2.273362
  F      -8.621948      1.432364      2.711875
  F      -7.175420      2.107189      4.990772
  F      -5.895422      0.945890      6.340253
  F      -9.997658      2.073601      4.922092
  F     -11.353523      1.742857      3.260129
  F     -11.176081      0.241585      4.827798
  O      -4.698749     -0.278930      4.185221
  O      -5.491219      1.510670      3.051589
  C      -8.441160     -0.579994      3.982142
  C      -7.620019     -0.185593      5.251513
  C      -9.374316      0.459908      3.267001
  C      -6.530633      0.917303      5.121423
  C     -10.502407      1.145610      4.105414
  C      -5.455507      0.694480      3.992944
46
Coordinates from ORCA-job R4N+PFHxA-_0.15M E -1922.672602756673
  N      -2.423575      0.291337      0.301469
  C      -1.429449      0.249990     -0.861582
  C      -2.064285      1.361636      1.287020
  C      -3.779511      0.600371     -0.268331
  C      -2.485536     -1.028764      1.007993
  C      -0.009922     -0.020835     -0.458962
  C       0.856325      1.037921     -0.170061
  C       0.474227     -1.331425     -0.407353
  C       2.178371      0.789363      0.185970
  C       1.796287     -1.580346     -0.051227
  C       2.649094     -0.520544      0.250499
  H      -1.518728      1.222647     -1.354165
  H      -1.802965     -0.526446     -1.535897
  H      -1.995647      2.315749      0.760328
  H      -1.111630      1.115493      1.758136
  H      -2.855448      1.400603      2.039895
  H      -3.741791      1.578639     -0.751770
  H      -4.491739      0.609804      0.558553
  H      -4.042194     -0.172628     -0.993102
  H      -1.515406     -1.239215      1.460669
  H      -2.747959     -1.803543      0.284850
  H      -3.248793     -0.957790      1.786544
  H       0.493575      2.061030     -0.229015
  H      -0.186293     -2.159195     -0.652973
  H       2.843604      1.618947      0.407604
  H       2.163045     -2.602131     -0.015045
  H       3.681889     -0.714552      0.525978
  F      -9.187625     -1.631834      4.308551
  F      -7.545502     -0.983071      3.000592
  F      -8.481710      0.167086      6.194199
  F      -6.988772     -1.335579      5.626657
  F      -9.981024     -0.220839      2.265290
  F      -8.621319      1.446102      2.699406
  F      -7.152605      2.103403      4.963506
  F      -5.870455      0.947403      6.315387
  F      -9.978411      2.067067      4.927512
  F     -11.347069      1.741524      3.274730
  F     -11.150188      0.231083      4.831559
  O      -4.674511     -0.279794      4.159560
  O      -5.467806      1.508518      3.023867
  C      -8.418031     -0.573967      3.955799
  C      -7.591095     -0.189585      5.226443
  C      -9.363392      0.467018      3.256551
  C      -6.504227      0.915738      5.097538
  C     -10.486582      1.142298      4.109022
  C      -5.432937      0.692507      3.965734
46
Coordinates from ORCA-job R4N+PFHxA-_0.15M E -1922.672673044191
  N      -2.426302      0.282447      0.311362
  C      -1.435388      0.240167     -0.854710
  C      -2.069827      1.360232      1.290636
  C      -3.786160      0.579017     -0.257637
  C      -2.477900     -1.034232      1.025383
  C      -0.013355     -0.021635     -0.454996
  C       0.848483      1.042678     -0.172645
  C       0.477676     -1.329629     -0.399909
  C       2.173024      0.802125      0.179578
  C       1.802255     -1.570423     -0.047618
  C       2.650752     -0.505130      0.246563
  H      -1.531063      1.209639     -1.352287
  H      -1.806706     -0.542167     -1.523350
  H      -2.007536      2.311793      0.758511
  H      -1.114876      1.121925      1.760993
  H      -2.861169      1.397768      2.042877
  H      -3.754451      1.554839     -0.746469
  H      -4.499681      0.588998      0.568276
  H      -4.042350     -0.200865     -0.977369
  H      -1.506070     -1.235342      1.478582
  H      -2.735389     -1.815059      0.306972
  H      -3.241448     -0.963071      1.803293
  H       0.478964      2.063347     -0.231901
  H      -0.180680     -2.161330     -0.637974
  H       2.834243      1.635869      0.397621
  H       2.173813     -2.590334     -0.007320
  H       3.685246     -0.692919      0.520046
  F      -9.189478     -1.624511      4.270136
  F      -7.553677     -0.954851      2.964180
  F      -8.469396      0.148946      6.180372
  F      -6.987638     -1.354012      5.584213
  F      -9.999628     -0.183011      2.260634
  F      -8.632717      1.475545      2.702381
  F      -7.137511      2.094104      4.954347
  F      -5.865712      0.924432      6.304424
  F      -9.967021      2.072325      4.950229
  F     -11.354493      1.764035      3.309760
  F     -11.139572      0.237088      4.847571
  O      -4.654455     -0.281672      4.154184
  O      -5.463650      1.493361      3.005158
  C      -8.420346     -0.561406      3.929935
  C      -7.585728     -0.199775      5.203600
  C      -9.370759      0.490886      3.254822
  C      -6.493302      0.902268      5.085604
  C     -10.484247      1.155788      4.127380
  C      -5.422489      0.682943      3.952493
46
Coordinates from ORCA-job R4N+PFHxA-_0.15M E -1922.672709496147
  N      -2.435239      0.283508      0.321654
  C      -1.446007      0.239954     -0.846327
  C      -2.078881      1.363907      1.297963
  C      -3.795994      0.575141     -0.246014
  C      -2.482429     -1.030689      1.040123
  C      -0.023586     -0.022011     -0.448523
  C       0.838911      1.041726     -0.165958
  C       0.467254     -1.330165     -0.395776
  C       2.163895      0.800383      0.183535
  C       1.792289     -1.571669     -0.046220
  C       2.641198     -0.507005      0.248392
  H      -1.541807      1.209308     -1.343962
  H      -1.817832     -0.544031     -1.512670
  H      -2.018960      2.314426      0.763740
  H      -1.123092      1.127216      1.767208
  H      -2.870566      1.400961      2.050166
  H      -3.766723      1.549849     -0.737269
  H      -4.511118      0.586096      0.579047
  H      -4.050298     -0.207806     -0.963031
  H      -1.509664     -1.227829      1.492926
  H      -2.739176     -1.814886      0.325098
  H      -3.245745     -0.957229      1.818294
  H       0.469114      2.062329     -0.224664
  H      -0.192122     -2.160867     -0.634560
  H       2.825812      1.633832      0.400582
  H       2.163739     -2.591730     -0.008830
  H       3.676305     -0.695355      0.519179
  F      -9.172887     -1.627417      4.246587
  F      -7.536134     -0.944498      2.949102
  F      -8.452724      0.144732      6.169829
  F      -6.973636     -1.357626      5.566497
  F      -9.988916     -0.174122      2.250118
  F      -8.622908      1.482507      2.698549
  F      -7.125866      2.092824      4.942399
  F      -5.852129      0.920972      6.288840
  F      -9.956466      2.073084      4.945644
  F     -11.351179      1.755334      3.313277
  F     -11.118315      0.230325      4.849681
  O      -4.638528     -0.275185      4.140744
  O      -5.455635      1.492711      2.986811
  C      -8.406335     -0.559458      3.915134
  C      -7.572991     -0.202348      5.189804
  C      -9.359116      0.494493      3.247522
  C      -6.480149      0.899858      5.071601
  C     -10.472258      1.152471      4.125851
  C      -5.410819      0.685171      3.935836
46
Coordinates from ORCA-job R4N+PFHxA-_0.15M E -1922.672725825424
  N      -2.432932      0.277442      0.322794
  C      -1.444637      0.234609     -0.846375
  C      -2.079870      1.363997      1.294610
  C      -3.795859      0.558828     -0.244894
  C      -2.471787     -1.034268      1.047050
  C      -0.021133     -0.022264     -0.449341
  C       0.838309      1.044151     -0.167780
  C       0.473773     -1.328864     -0.396613
  C       2.163823      0.806855      0.182159
  C       1.799398     -1.566300     -0.046872
  C       2.645059     -0.498992      0.247217
  H      -1.543552      1.202999     -1.345194
  H      -1.814108     -0.552625     -1.510132
  H      -2.024705      2.312534      0.756388
  H      -1.122630      1.132331      1.763327
  H      -2.870794      1.401073      2.047385
  H      -3.772826      1.530991     -0.741548
  H      -4.511550      0.570582      0.579711
  H      -4.047059     -0.229456     -0.957161
  H      -1.497779     -1.223306      1.500535
  H      -2.723991     -1.823323      0.335719
  H      -3.235681     -0.961641      1.824454
  H       0.465606      2.063565     -0.228738
  H      -0.183005     -2.161258     -0.636683
  H       2.823427      1.642462      0.397911
  H       2.174068     -2.585200     -0.010287
  H       3.680997     -0.684086      0.517050
  F      -9.179454     -1.623239      4.224755
  F      -7.544298     -0.926245      2.933363
  F      -8.454153      0.133603      6.165982
  F      -6.980257     -1.367120      5.546479
  F     -10.002355     -0.148652      2.249162
  F      -8.631827      1.501002      2.706632
  F      -7.124028      2.089119      4.947396
  F      -5.857236      0.905014      6.289412
  F      -9.956043      2.076879      4.961887
  F     -11.360378      1.768477      3.336123
  F     -11.117043      0.233522      4.860618
  O      -4.630760     -0.272160      4.147028
  O      -5.462295      1.483916      2.982429
  C      -8.413562     -0.551278      3.904773
  C      -7.578636     -0.206997      5.180677
  C      -9.367181      0.509529      3.250286
  C      -6.482138      0.892428      5.070820
  C     -10.475861      1.160954      4.139266
  C      -5.410769      0.681604      3.936153
46
Coordinates from ORCA-job R4N+PFHxA-_0.15M E -1922.672734920140
  N      -2.435968      0.276431      0.324387
  C      -1.447804      0.233568     -0.844921
  C      -2.083232      1.364163      1.295043
  C      -3.798874      0.556008     -0.243029
  C      -2.473691     -1.034554      1.050056
  C      -0.024109     -0.022425     -0.447923
  C       0.834980      1.044359     -0.167025
  C       0.471188     -1.328806     -0.394536
  C       2.160320      0.807627      0.183817
  C       1.796579     -1.565731     -0.043686
  C       2.641844     -0.498013      0.250028
  H      -1.547073      1.201884     -1.343801
  H      -1.816784     -0.554305     -1.508178
  H      -2.029054      2.312271      0.756016
  H      -1.125596      1.132695      1.763036
  H      -2.873140      1.401751      2.048992
  H      -3.777539      1.527283     -0.741507
  H      -4.514642      0.568401      0.581590
  H      -4.050634     -0.233339     -0.953954
  H      -1.499245     -1.222380      1.503085
  H      -2.726003     -1.824548      0.339811
  H      -3.237179     -0.961253      1.827899
  H       0.462479      2.063712     -0.230226
  H      -0.184968     -2.161445     -0.635465
  H       2.819821      1.643594      0.398473
  H       2.171648     -2.584472     -0.006967
  H       3.677858     -0.682620      0.519884
  F      -9.172849     -1.623498      4.214683
  F      -7.537758     -0.919287      2.927286
  F      -8.450399      0.129601      6.162581
  F      -6.975515     -1.368667      5.539884
  F      -9.996616     -0.142140      2.244399
  F      -8.627790      1.506871      2.708614
  F      -7.120205      2.088788      4.949239
  F      -5.853259      0.901367      6.288049
  F      -9.953957      2.074792      4.963876
  F     -11.358024      1.768606      3.337592
  F     -11.112037      0.229707      4.857682
  O      -4.624457     -0.268651      4.145869
  O      -5.461948      1.483300      2.980031
  C      -8.408542     -0.549184      3.899894
  C      -7.574999     -0.207748      5.176428
  C      -9.362588      0.512869      3.248250
  C      -6.478618      0.891536      5.069158
  C     -10.472430      1.160380      4.138973
  C      -5.406902      0.682696      3.934544
46
Coordinates from ORCA-job R4N+PFHxA-_0.15M E -1922.672743863830
  N      -2.437357      0.275186      0.325040
  C      -1.449258      0.231957     -0.844292
  C      -2.084162      1.363764      1.294649
  C      -3.799951      0.553957     -0.242320
  C      -2.475076     -1.035478      1.051426
  C      -0.025309     -0.023217     -0.447388
  C       0.833697      1.044081     -0.168496
  C       0.470294     -1.329414     -0.392630
  C       2.159217      0.808083      0.182225
  C       1.795883     -1.565650     -0.042021
  C       2.640989     -0.497376      0.250282
  H      -1.548908      1.200010     -1.343613
  H      -1.818045     -0.556351     -1.507156
  H      -2.030075      2.311443      0.754925
  H      -1.126277      1.131507      1.761797
  H      -2.872376      1.402798      2.050371
  H      -3.779933      1.524103     -0.743065
  H      -4.515870      0.567390      0.582135
  H      -4.052918     -0.236151     -0.952034
  H      -1.500464     -1.222788      1.504313
  H      -2.727519     -1.825769      0.341586
  H      -3.238359     -0.961827      1.829439
  H       0.461439      2.063392     -0.233721
  H      -0.185318     -2.162537     -0.633346
  H       2.818836      1.644481      0.394820
  H       2.171416     -2.584198     -0.004888
  H       3.677246     -0.681370      0.519595
  F      -9.165130     -1.624260      4.203143
  F      -7.529977     -0.907872      2.922269
  F      -8.451922      0.124351      6.160324
  F      -6.973352     -1.369456      5.535916
  F      -9.990393     -0.135896      2.239344
  F      -8.626429      1.514577      2.712681
  F      -7.120895      2.089248      4.955668
  F      -5.854489      0.899245      6.292463
  F      -9.956901      2.070555      4.967332
  F     -11.358397      1.767301      3.338390
  F     -11.110351      0.222960      4.852810
  O      -4.620658     -0.262807      4.150361
  O      -5.465276      1.484427      2.982911
  C      -8.404114     -0.546018      3.895831
  C      -7.574114     -0.207943      5.174812
  C      -9.359668      0.516569      3.246741
  C      -6.478971      0.892212      5.072337
  C     -10.472319      1.158323      4.138496
  C      -5.406201      0.685652      3.938469
46
Coordinates from ORCA-job R4N+PFHxA-_0.15M E -1922.672749448105
  N      -2.439093      0.275674      0.326189
  C      -1.451277      0.231334     -0.843346
  C      -2.084374      1.364088      1.295163
  C      -3.801281      0.555371     -0.240984
  C      -2.477929     -1.034945      1.052508
  C      -0.027216     -0.024132     -0.446907
  C       0.832489      1.043169     -0.170160
  C       0.467779     -1.330505     -0.390518
  C       2.158171      0.807055      0.180013
  C       1.793466     -1.566878     -0.040243
  C       2.639434     -0.498547      0.249518
  H      -1.550798      1.199050     -1.343352
  H      -1.820769     -0.556997     -1.505807
  H      -2.029664      2.311609      0.755258
  H      -1.126286      1.130668      1.761401
  H      -2.871064      1.404463      2.052486
  H      -3.781149      1.524939     -0.742851
  H      -4.517385      0.569614      0.583254
  H      -4.055327     -0.234646     -0.950468
  H      -1.503357     -1.223054      1.505190
  H      -2.731156     -1.824803      0.342493
  H      -3.240936     -0.960862      1.830771
  H       0.460749      2.062616     -0.236184
  H      -0.188367     -2.163802     -0.629150
  H       2.818292      1.643421      0.391179
  H       2.168461     -2.585561     -0.001404
  H       3.675747     -0.682641      0.518546
  F      -9.157238     -1.625748      4.195662
  F      -7.521661     -0.901113      2.919590
  F      -8.452454      0.120949      6.158340
  F      -6.970062     -1.369246      5.534333
  F      -9.983313     -0.134893      2.234652
  F      -8.624282      1.518129      2.713780
  F      -7.121183      2.090054      4.960018
  F      -5.855106      0.899277      6.296339
  F      -9.958978      2.065673      4.967572
  F     -11.357173      1.763744      3.335533
  F     -11.108678      0.216144      4.846688
  O      -4.617016     -0.257073      4.153178
  O      -5.466767      1.487412      2.985857
  C      -8.398793     -0.544791      3.892755
  C      -7.571840     -0.207970      5.174164
  C      -9.355935      0.517130      3.244269
  C      -6.478318      0.893782      5.075218
  C     -10.471335      1.154638      4.135662
  C      -5.404740      0.689398      3.941729
46
Coordinates from ORCA-job R4N+PFHxA-_0.15M E -1922.672756524324
  N      -2.441102      0.278052      0.328237
  C      -1.453708      0.231221     -0.841696
  C      -2.083071      1.365696      1.296414
  C      -3.802519      0.560554     -0.238883
  C      -2.482660     -1.032626      1.054176
  C      -0.029754     -0.026000     -0.446057
  C       0.831771      1.040571     -0.171952
  C       0.463512     -1.332994     -0.388229
  C       2.157720      0.803205      0.176548
  C       1.789509     -1.570597     -0.039789
  C       2.637315     -0.502982      0.247387
  H      -1.552213      1.198526     -1.342703
  H      -1.825036     -0.556760     -1.503566
  H      -2.026705      2.313067      0.756432
  H      -1.124743      1.130245      1.761260
  H      -2.867560      1.408420      2.055943
  H      -3.780808      1.529593     -0.741719
  H      -4.519188      0.576195      0.584759
  H      -4.058078     -0.228839     -0.948583
  H      -1.508477     -1.222876      1.506838
  H      -2.737364     -1.821473      0.343589
  H      -3.245441     -0.957777      1.832579
  H       0.461210      2.060453     -0.237878
  H      -0.194098     -2.165929     -0.624041
  H       2.819148      1.638950      0.386080
  H       2.163141     -2.589730      0.000454
  H       3.673657     -0.688094      0.515610
  F      -9.145479     -1.629298      4.187925
  F      -7.509768     -0.894072      2.917631
  F      -8.453166      0.117424      6.156149
  F      -6.964401     -1.367213      5.533971
  F      -9.973780     -0.138076      2.228888
  F      -8.622697      1.519942      2.713866
  F      -7.123989      2.092315      4.964110
  F      -5.857517      0.903163      6.301502
  F      -9.963765      2.057544      4.965980
  F     -11.357039      1.754147      3.329950
  F     -11.106614      0.204225      4.838556
  O      -4.612307     -0.246585      4.157308
  O      -5.468385      1.494790      2.990248
  C      -8.391111     -0.544536      3.889438
  C      -7.568451     -0.207386      5.174089
  C      -9.351376      0.514938      3.240809
  C      -6.478355      0.897983      5.079026
  C     -10.470976      1.146547      4.130859
  C      -5.402994      0.697274      3.946413
46
Coordinates from ORCA-job R4N+PFHxA-_0.15M E -1922.672764797066
  N      -2.443432      0.283925      0.330731
  C      -1.456614      0.233244     -0.839788
  C      -2.080355      1.370091      1.298164
  C      -3.803743      0.571215     -0.236433
  C      -2.489160     -1.026917      1.055947
  C      -0.033260     -0.028404     -0.445169
  C       0.832049      1.035758     -0.173307
  C       0.455767     -1.336935     -0.385926
  C       2.157728      0.794574      0.173694
  C       1.781446     -1.578340     -0.038761
  C       2.633235     -0.513089      0.245432
  H      -1.552477      1.200419     -1.341560
  H      -1.831219     -0.553641     -1.501111
  H      -2.021546      2.317408      0.758333
  H      -1.121690      1.131914      1.761035
  H      -2.862138      1.415917      2.060325
  H      -3.778769      1.540039     -0.739541
  H      -4.521372      0.588696      0.586268
  H      -4.061188     -0.216920     -0.946901
  H      -1.515654     -1.220657      1.508630
  H      -2.746094     -1.814253      0.344494
  H      -3.251745     -0.950985      1.834417
  H       0.464550      2.056748     -0.239151
  H      -0.205026     -2.168208     -0.618680
  H       2.821975      1.628417      0.381889
  H       2.151637     -2.598663      0.003203
  H       3.669211     -0.701242      0.512972
  F      -9.129601     -1.636085      4.182742
  F      -7.494758     -0.890117      2.917335
  F      -8.452160      0.114573      6.153930
  F      -6.954529     -1.362651      5.535420
  F      -9.962403     -0.148790      2.223320
  F      -8.621671      1.516802      2.711487
  F      -7.129542      2.096146      4.965795
  F      -5.860303      0.912592      6.305647
  F      -9.970115      2.045893      4.961287
  F     -11.357782      1.736301      3.321618
  F     -11.103090      0.186810      4.830034
  O      -4.606049     -0.230722      4.160987
  O      -5.468960      1.507642      2.994546
  C      -8.380770     -0.546863      3.886809
  C      -7.562942     -0.206080      5.174305
  C      -9.345832      0.507569      3.236618
  C      -6.478443      0.905254      5.081891
  C     -10.470561      1.132742      4.124276
  C      -5.400317      0.710067      3.950678
46
Coordinates from ORCA-job R4N+PFHxA-_0.15M E -1922.672776940413
  N      -2.446671      0.295893      0.334795
  C      -1.460720      0.238790     -0.836647
  C      -2.075064      1.379551      1.301201
  C      -3.805036      0.591652     -0.232745
  C      -2.499670     -1.015100      1.059072
  C      -0.038893     -0.032343     -0.443462
  C       0.833706      1.026196     -0.172625
  C       0.441730     -1.344015     -0.384964
  C       2.158291      0.776417      0.172469
  C       1.766430     -1.593970     -0.040081
  C       2.625386     -0.534337      0.243444
  H      -1.550836      1.206482     -1.338481
  H      -1.841306     -0.545411     -1.497704
  H      -2.012223      2.326752      0.761565
  H      -1.115869      1.136944      1.760782
  H      -2.852752      1.430561      2.067203
  H      -3.773690      1.560498     -0.735466
  H      -4.524490      0.612399      0.588217
  H      -4.065533     -0.194314     -0.944542
  H      -1.527469     -1.214785      1.511983
  H      -2.760312     -1.800174      0.346453
  H      -3.262147     -0.937125      1.837407
  H       0.472475      2.049518     -0.236967
  H      -0.224812     -2.171042     -0.616435
  H       2.828064      1.605902      0.380374
  H       2.130028     -2.616687      0.001423
  H       3.660407     -0.729274      0.509833
  F      -9.103268     -1.649077      4.180587
  F      -7.471379     -0.889087      2.919643
  F      -8.448704      0.112630      6.151258
  F      -6.935795     -1.352064      5.540517
  F      -9.944894     -0.173380      2.216689
  F      -8.621453      1.505875      2.705352
  F      -7.141667      2.103889      4.963775
  F      -5.864807      0.934439      6.309060
  F      -9.981588      2.026049      4.950693
  F     -11.360602      1.700943      3.306750
  F     -11.096741      0.156290      4.818600
  O      -4.596404     -0.202025      4.165844
  O      -5.468620      1.531983      2.999646
  C      -8.363914     -0.553127      3.885088
  C      -7.553271     -0.202424      5.175158
  C      -9.337461      0.490790      3.230525
  C      -6.479342      0.919801      5.083801
  C     -10.470542      1.106757      4.113347
  C      -5.396284      0.733951      3.955495
46
Coordinates from ORCA-job R4N+PFHxA-_0.15M E -1922.672789841035
  N      -2.450367      0.313571      0.339393
  C      -1.465498      0.248814     -0.833112
  C      -2.068403      1.394147      1.304811
  C      -3.806321      0.619798     -0.228693
  C      -2.512148     -0.997487      1.062712
  C      -0.046212     -0.036637     -0.441450
  C       0.836953      1.012796     -0.169308
  C       0.421426     -1.353056     -0.385216
  C       2.159177      0.749400      0.174573
  C       1.743705     -1.616638     -0.041292
  C       2.613339     -0.566017      0.243030
  H      -1.546934      1.217974     -1.333573
  H      -1.854009     -0.530960     -1.494695
  H      -2.001097      2.341183      0.765339
  H      -1.108510      1.146147      1.760097
  H      -2.841308      1.451306      2.075164
  H      -3.766674      1.589015     -0.730113
  H      -4.528119      0.644664      0.590084
  H      -4.070623     -0.163556     -0.941966
  H      -1.541526     -1.204251      1.515834
  H      -2.777229     -1.780134      0.349015
  H      -3.274600     -0.916859      1.840765
  H       0.485745      2.039696     -0.232156
  H      -0.253550     -2.173036     -0.617346
  H       2.837242      1.571907      0.383316
  H       2.097101     -2.642994     -0.001504
  H       3.646537     -0.771647      0.508463
  F      -9.068646     -1.667097      4.183011
  F      -7.442635     -0.891983      2.923872
  F      -8.441681      0.112020      6.148145
  F      -6.909013     -1.336231      5.548221
  F      -9.923577     -0.210581      2.210875
  F      -8.622672      1.487198      2.695519
  F      -7.158690      2.114296      4.956394
  F      -5.869298      0.967142      6.309289
  F      -9.995910      1.999578      4.935596
  F     -11.365036      1.650845      3.288351
  F     -11.087177      0.115524      4.807164
  O      -4.584161     -0.163839      4.170161
  O      -5.466644      1.564761      3.003364
  C      -8.342029     -0.563025      3.884789
  C      -7.539697     -0.196578      5.175824
  C      -9.327117      0.465489      3.223594
  C      -6.480287      0.939873      5.082775
  C     -10.470376      1.070721      4.100279
  C      -5.391164      0.765931      3.958536
46
Coordinates from ORCA-job R4N+PFHxA-_0.15M E -1922.672799319822
  N      -2.452765      0.325158      0.343227
  C      -1.468787      0.255906     -0.830095
  C      -2.064357      1.404419      1.307694
  C      -3.807397      0.637465     -0.225320
  C      -2.519617     -0.985553      1.066824
  C      -0.051249     -0.039332     -0.439513
  C       0.838890      1.003489     -0.164955
  C       0.407783     -1.358914     -0.387246
  C       2.159220      0.730421      0.178491
  C       1.728279     -1.632176     -0.044229
  C       2.604593     -0.588127      0.243623
  H      -1.544273      1.226466     -1.328741
  H      -1.862259     -0.520677     -1.492395
  H      -1.995059      2.351006      0.767631
  H      -1.103845      1.153258      1.759888
  H      -2.834314      1.465564      2.080629
  H      -3.762419      1.606920     -0.725828
  H      -4.530741      0.665477      0.592061
  H      -4.074233     -0.144834     -0.938768
  H      -1.549910     -1.196029      1.520140
  H      -2.787179     -1.767459      0.353194
  H      -3.282190     -0.902803      1.844520
  H       0.494507      2.032817     -0.226009
  H      -0.272489     -2.173555     -0.622687
  H       2.842812      1.547891      0.388967
  H       2.075056     -2.660920     -0.008126
  H       3.636484     -0.801291      0.508180
  F      -9.044818     -1.678598      4.184983
  F      -7.424777     -0.893428      2.924659
  F      -8.434768      0.111896      6.145162
  F      -6.889255     -1.324790      5.550862
  F      -9.910960     -0.235807      2.208009
  F      -8.626074      1.475080      2.688220
  F      -7.170105      2.121404      4.947982
  F      -5.871258      0.991196      6.306319
  F     -10.005629      1.981322      4.926428
  F     -11.369616      1.616015      3.278653
  F     -11.079852      0.087215      4.801755
  O      -4.574533     -0.136662      4.172611
  O      -5.464078      1.586498      3.003131
  C      -8.327412     -0.568920      3.883968
  C      -7.529701     -0.191764      5.174271
  C      -9.321175      0.448563      3.219264
  C      -6.480160      0.953766      5.079243
  C     -10.470766      1.045912      4.093214
  C      -5.387316      0.787709      3.958040
46
Coordinates from ORCA-job R4N+PFHxA-_0.15M E -1922.672806533883
  N      -2.454048      0.329081      0.345515
  C      -1.470762      0.258784     -0.828325
  C      -2.063456      1.408402      1.309537
  C      -3.808571      0.643022     -0.222964
  C      -2.521974     -0.981237      1.069780
  C      -0.053700     -0.039933     -0.438407
  C       0.839106      1.000204     -0.162739
  C       0.401845     -1.360765     -0.387603
  C       2.158633      0.723272      0.180604
  C       1.721428     -1.637952     -0.044366
  C       2.600503     -0.596481      0.244428
  H      -1.544168      1.230158     -1.325669
  H      -1.865712     -0.516649     -1.491021
  H      -1.994621      2.354554      0.768640
  H      -1.102493      1.156254      1.760111
  H      -2.832422      1.470767      2.083327
  H      -3.761876      1.612654     -0.722954
  H      -4.532161      0.672611      0.594259
  H      -4.076782     -0.139435     -0.935666
  H      -1.552319     -1.192165      1.522977
  H      -2.790099     -1.763588      0.356822
  H      -3.284601     -0.897417      1.847317
  H       0.497653      2.030499     -0.224088
  H      -0.280582     -2.173123     -0.624698
  H       2.844553      1.538746      0.391245
  H       2.065561     -2.667627     -0.009785
  H       3.631909     -0.812607      0.508456
  F      -9.035025     -1.682341      4.184326
  F      -7.418961     -0.892870      2.921677
  F      -8.429567      0.110304      6.142705
  F      -6.879443     -1.321155      5.547743
  F      -9.907141     -0.244188      2.206879
  F      -8.628926      1.471996      2.685028
  F      -7.173526      2.123458      4.942573
  F      -5.870143      1.000391      6.302520
  F     -10.008458      1.973873      4.924381
  F     -11.371869      1.603408      3.277378
  F     -11.076239      0.076041      4.800718
  O      -4.568282     -0.124884      4.173352
  O      -5.461487      1.593875      3.000628
  C      -8.321513     -0.570324      3.882080
  C      -7.524509     -0.190002      5.171115
  C      -9.319233      0.443028      3.217354
  C      -6.478618      0.958357      5.075441
  C     -10.470785      1.036646      4.091850
  C      -5.384830      0.795552      3.955447
46
Coordinates from ORCA-job R4N+PFHxA-_0.15M E -1922.672810652874
  N      -2.455144      0.330502      0.347288
  C      -1.472442      0.259809     -0.826929
  C      -2.063117      1.409617      1.311241
  C      -3.809487      0.645680     -0.220734
  C      -2.523997     -0.979638      1.071601
  C      -0.055377     -0.040305     -0.437760
  C       0.838728      0.998815     -0.162705
  C       0.398793     -1.361651     -0.387542
  C       2.158088      0.720375      0.180117
  C       1.718265     -1.640349     -0.045148
  C       2.598525     -0.599858      0.243659
  H      -1.545113      1.231564     -1.323628
  H      -1.868173     -0.515061     -1.489807
  H      -1.994593      2.355559      0.769952
  H      -1.101997      1.156321      1.760786
  H      -2.831371      1.472609      2.085716
  H      -3.761916      1.615334     -0.720578
  H      -4.532680      0.676443      0.596838
  H      -4.079229     -0.136750     -0.932860
  H      -1.554340     -1.190936      1.524631
  H      -2.792589     -1.762072      0.358909
  H      -3.286514     -0.895100      1.849177
  H       0.498399      2.029501     -0.223815
  H      -0.284583     -2.173134     -0.624894
  H       2.845023      1.535069      0.390466
  H       2.061393     -2.670377     -0.011177
  H       3.629852     -0.817112      0.507066
  F      -9.029637     -1.684036      4.183602
  F      -7.414861     -0.892509      2.920387
  F      -8.427944      0.108674      6.141200
  F      -6.874404     -1.319318      5.546536
  F      -9.902809     -0.248212      2.204749
  F      -8.628290      1.470602      2.683263
  F      -7.175384      2.124556      4.941277
  F      -5.870270      1.004514      6.301989
  F     -10.009317      1.969740      4.922305
  F     -11.370820      1.598555      3.273858
  F     -11.075164      0.070978      4.796999
  O      -4.564284     -0.117852      4.175715
  O      -5.460329      1.597636      3.000728
  C      -8.317893     -0.571080      3.881091
  C      -7.522045     -0.189041      5.169883
  C      -9.316846      0.440397      3.215283
  C      -6.478212      0.960652      5.074596
  C     -10.470046      1.032496      4.089094
  C      -5.383561      0.799586      3.955506
46
Coordinates from ORCA-job R4N+PFHxA-_0.15M E -1922.672815335763
  N      -2.456941      0.332476      0.349793
  C      -1.475319      0.260828     -0.825130
  C      -2.062307      1.410948      1.313639
  C      -3.811116      0.649733     -0.216986
  C      -2.527255     -0.977611      1.073861
  C      -0.058209     -0.041071     -0.437239
  C       0.837633      0.996962     -0.163852
  C       0.394048     -1.363078     -0.386359
  C       2.157067      0.716869      0.177480
  C       1.713465     -1.643446     -0.045077
  C       2.595683     -0.603951      0.241524
  H      -1.547132      1.232811     -1.321499
  H      -1.872473     -0.513363     -1.487955
  H      -1.993866      2.356759      0.772150
  H      -1.101000      1.155594      1.761595
  H      -2.829255      1.474712      2.089396
  H      -3.762529      1.619238     -0.717022
  H      -4.533295      0.682201      0.601432
  H      -4.083379     -0.132478     -0.928386
  H      -1.557608     -1.189748      1.526582
  H      -2.796766     -1.759831      0.361297
  H      -3.289422     -0.892083      1.851677
  H       0.498781      2.028124     -0.225153
  H      -0.290847     -2.173756     -0.622067
  H       2.845443      1.530716      0.386396
  H       2.055126     -2.673937     -0.010403
  H       3.626989     -0.822469      0.503962
  F      -9.021366     -1.686316      4.180585
  F      -7.407046     -0.890895      2.918969
  F      -8.426967      0.105813      6.138932
  F      -6.868198     -1.317121      5.545470
  F      -9.894378     -0.252492      2.199786
  F      -8.625610      1.469792      2.681373
  F      -7.177372      2.126157      4.941668
  F      -5.871398      1.008764      6.303564
  F     -10.010987      1.963181      4.918976
  F     -11.368248      1.591956      3.266896
  F     -11.073581      0.063018      4.788961
  O      -4.557976     -0.107656      4.180546
  O      -5.459310      1.602938      3.002716
  C      -8.311970     -0.571850      3.879070
  C      -7.518838     -0.188050      5.168779
  C      -9.312229      0.437385      3.211459
  C      -6.477827      0.963671      5.075355
  C     -10.468485      1.026445      4.083546
  C      -5.381442      0.805303      3.957625
46
Coordinates from ORCA-job R4N+PFHxA-_0.15M E -1922.672821878507
  N      -2.460421      0.336438      0.355050
  C      -1.480904      0.262363     -0.821372
  C      -2.060867      1.413649      1.318460
  C      -3.814356      0.657527     -0.209369
  C      -2.533558     -0.973551      1.078899
  C      -0.063772     -0.042956     -0.436072
  C       0.835240      0.993154     -0.165818
  C       0.385364     -1.366044     -0.385022
  C       2.154781      0.710142      0.172856
  C       1.704947     -1.649302     -0.046730
  C       2.590322     -0.611692      0.237096
  H      -1.551135      1.234494     -1.317673
  H      -1.881162     -0.510650     -1.483707
  H      -1.991917      2.359353      0.776909
  H      -1.099288      1.154827      1.763828
  H      -2.825506      1.478748      2.096448
  H      -3.763952      1.626518     -0.710244
  H      -4.534726      0.693009      0.610507
  H      -4.090787     -0.124251     -0.919649
  H      -1.564120     -1.187592      1.531228
  H      -2.805013     -1.755226      0.366512
  H      -3.295059     -0.886030      1.857162
  H       0.498745      2.025120     -0.226552
  H      -0.302056     -2.175315     -0.618177
  H       2.845541      1.522465      0.379840
  H       2.044212     -2.680572     -0.011653
  H       3.621642     -0.832478      0.497576
  F      -9.005247     -1.690882      4.173699
  F      -7.390975     -0.887288      2.916951
  F      -8.425577      0.101889      6.134421
  F      -6.857609     -1.312573      5.544481
  F      -9.878488     -0.260691      2.190144
  F      -8.620313      1.467958      2.677013
  F      -7.180628      2.129510      4.942076
  F      -5.874011      1.016793      6.306956
  F     -10.014201      1.951712      4.911326
  F     -11.363949      1.577977      3.253475
  F     -11.069140      0.047882      4.774471
  O      -4.546628     -0.089314      4.188856
  O      -5.457399      1.612997      3.006459
  C      -8.300386     -0.573191      3.874719
  C      -7.512928     -0.186142      5.166953
  C      -9.303353      0.431625      3.203923
  C      -6.477001      0.969747      5.077078
  C     -10.465140      1.014723      4.072637
  C      -5.376933      0.816314      3.961961
46
Coordinates from ORCA-job R4N+PFHxA-_0.15M E -1922.672833309226
  N      -2.467475      0.346536      0.365466
  C      -1.492318      0.266649     -0.814041
  C      -2.057621      1.421100      1.327756
  C      -3.821045      0.675593     -0.194243
  C      -2.546492     -0.963221      1.089193
  C      -0.075720     -0.047101     -0.433680
  C       0.830424      0.984023     -0.168076
  C       0.365651     -1.372786     -0.382379
  C       2.149754      0.693647      0.165328
  C       1.684897     -1.663405     -0.048947
  C       2.577718     -0.630685      0.229466
  H      -1.558381      1.239082     -1.310322
  H      -1.899647     -0.503601     -1.475259
  H      -1.986940      2.366751      0.786421
  H      -1.095439      1.155845      1.768030
  H      -2.817617      1.488864      2.110102
  H      -3.766740      1.643379     -0.697084
  H      -4.537902      0.717036      0.628376
  H      -4.105410     -0.105235     -0.902472
  H      -1.577623     -1.181663      1.540731
  H      -2.822308     -1.743637      0.377165
  H      -3.306615     -0.871461      1.868351
  H       0.499825      2.017940     -0.227978
  H      -0.327589     -2.178398     -0.610910
  H       2.846096      1.502092      0.368772
  H       2.018159     -2.696615     -0.013292
  H       3.608708     -0.857266      0.486265
  F      -8.968975     -1.701751      4.158565
  F      -7.355879     -0.878675      2.912705
  F      -8.421053      0.094920      6.124807
  F      -6.834373     -1.302081      5.542793
  F      -9.845760     -0.279487      2.171100
  F      -8.610856      1.463154      2.667646
  F      -7.188127      2.136743      4.940367
  F      -5.879314      1.035957      6.312640
  F     -10.022115      1.927048      4.894875
  F     -11.357490      1.542848      3.227588
  F     -11.056564      0.012850      4.747623
  O      -4.523679     -0.050963      4.203917
  O      -5.452898      1.635441      3.012935
  C      -8.274843     -0.576226      3.865187
  C      -7.499397     -0.182098      5.162763
  C      -9.284985      0.418245      3.188973
  C      -6.474844      0.983640      5.079390
  C     -10.458135      0.987259      4.051292
  C      -5.366774      0.840905      3.970025
46
Coordinates from ORCA-job R4N+PFHxA-_0.15M E -1922.672849760181
  N      -2.475086      0.359226      0.377531
  C      -1.505288      0.272292     -0.805733
  C      -2.053835      1.430963      1.338295
  C      -3.828664      0.697086     -0.176466
  C      -2.560573     -0.950042      1.101800
  C      -0.089618     -0.052098     -0.431197
  C       0.825101      0.972514     -0.169575
  C       0.342367     -1.380894     -0.381542
  C       2.143650      0.672681      0.158554
  C       1.660954     -1.680942     -0.053831
  C       2.562312     -0.654719      0.221001
  H      -1.566114      1.245123     -1.301915
  H      -1.921338     -0.494425     -1.465564
  H      -1.980954      2.376619      0.797337
  H      -1.090968      1.159474      1.773267
  H      -2.809096      1.501166      2.124974
  H      -3.770235      1.663171     -0.682157
  H      -4.540768      0.745358      0.649826
  H      -4.121942     -0.082911     -0.882021
  H      -1.592423     -1.173578      1.552421
  H      -2.841652     -1.729159      0.390475
  H      -3.319037     -0.853045      1.881970
  H       0.501688      2.008809     -0.227568
  H      -0.357621     -2.181645     -0.606561
  H       2.846546      1.476078      0.359456
  H       1.986910     -2.716518     -0.019161
  H       3.592636     -0.888757      0.473769
  F      -8.925600     -1.714698      4.141093
  F      -7.314219     -0.868177      2.908766
  F      -8.415614      0.088543      6.113583
  F      -6.807816     -1.288691      5.542092
  F      -9.807623     -0.302774      2.149433
  F      -8.600780      1.456530      2.655819
  F      -7.197766      2.145495      4.936709
  F      -5.886571      1.060336      6.319162
  F     -10.032339      1.898775      4.873645
  F     -11.351696      1.497320      3.197565
  F     -11.039326     -0.029438      4.718587
  O      -4.498375     -0.006155      4.221645
  O      -5.447494      1.661962      3.020264
  C      -8.244606     -0.579609      3.854135
  C      -7.483647     -0.176897      5.158117
  C      -9.263672      0.401760      3.171701
  C      -6.472691      1.000917      5.081843
  C     -10.449957      0.953555      4.026503
  C      -5.354874      0.870614      3.979885
46
Coordinates from ORCA-job R4N+PFHxA-_0.15M E -1922.672869969190
  N      -2.478382      0.369799      0.385112
  C      -1.513089      0.277657     -0.801188
  C      -2.049782      1.439522      1.344794
  C      -3.832904      0.713803     -0.163729
  C      -2.567825     -0.939040      1.110307
  C      -0.098498     -0.055802     -0.431066
  C       0.823007      0.962973     -0.170204
  C       0.325672     -1.387137     -0.384273
  C       2.140579      0.654878      0.154000
  C       1.643274     -1.695468     -0.060297
  C       2.551471     -0.675095      0.213518
  H      -1.569534      1.250983     -1.296941
  H      -1.936270     -0.485876     -1.460096
  H      -1.975101      2.385411      0.804512
  H      -1.086392      1.165234      1.776870
  H      -2.802851      1.510268      2.133377
  H      -3.772188      1.678230     -0.672319
  H      -4.539608      0.767086      0.666819
  H      -4.133011     -0.065963     -0.866695
  H      -1.600200     -1.166298      1.560137
  H      -2.852982     -1.717200      0.399594
  H      -3.325020     -0.838165      1.891150
  H       0.505607      2.001240     -0.226160
  H      -0.379641     -2.183501     -0.608258
  H       2.848761      1.453812      0.354138
  H       1.963079     -2.733037     -0.027871
  H       3.581022     -0.915695      0.463266
  F      -8.894641     -1.724804      4.129905
  F      -7.283591     -0.861024      2.909421
  F      -8.414511      0.086035      6.106877
  F      -6.791543     -1.277553      5.545569
  F      -9.779855     -0.322310      2.134196
  F      -8.594608      1.449690      2.646697
  F      -7.208403      2.152558      4.934556
  F      -5.896470      1.081087      6.327187
  F     -10.043352      1.879260      4.854600
  F     -11.350639      1.458009      3.173992
  F     -11.026020     -0.061639      4.699374
  O      -4.483636      0.027538      4.239348
  O      -5.444931      1.682088      3.028502
  C      -8.223520     -0.582332      3.847584
  C      -7.474471     -0.172547      5.157079
  C      -9.249107      0.388128      3.159578
  C      -6.473960      1.015264      5.086249
  C     -10.445692      0.926888      4.007644
  C      -5.347958      0.894241      3.991073
46
Coordinates from ORCA-job R4N+PFHxA-_0.15M E -1922.672887669572
  N      -2.480677      0.379803      0.391551
  C      -1.519187      0.283290     -0.797295
  C      -2.046627      1.448174      1.349932
  C      -3.835855      0.728677     -0.153235
  C      -2.573419     -0.928107      1.118245
  C      -0.105838     -0.058922     -0.430786
  C       0.822025      0.953746     -0.168700
  C       0.310748     -1.392741     -0.388550
  C       2.138170      0.637130      0.152814
  C       1.627052     -1.709611     -0.067672
  C       2.541469     -0.695346      0.207829
  H      -1.571235      1.257446     -1.291907
  H      -1.948483     -0.477187     -1.455693
  H      -1.970318      2.394208      0.810069
  H      -1.082585      1.172604      1.779757
  H      -2.798238      1.519879      2.139803
  H      -3.772635      1.691531     -0.664443
  H      -4.538062      0.786683      0.680758
  H      -4.141592     -0.051387     -0.853430
  H      -1.606224     -1.158836      1.567104
  H      -2.862569     -1.705670      0.408469
  H      -3.329670     -0.823540      1.899561
  H       0.510496      1.993932     -0.222167
  H      -0.399458     -2.184306     -0.614097
  H       2.851331      1.431435      0.353687
  H       1.940876     -2.749119     -0.039259
  H       3.570078     -0.942646      0.454887
  F      -8.865866     -1.734858      4.120879
  F      -7.257429     -0.854570      2.909119
  F      -8.412487      0.084053      6.100520
  F      -6.775911     -1.266682      5.548254
  F      -9.757389     -0.341893      2.122944
  F      -8.591062      1.441641      2.637882
  F      -7.220852      2.158898      4.930289
  F      -5.906795      1.102309      6.332582
  F     -10.052716      1.861981      4.837862
  F     -11.351213      1.420129      3.155925
  F     -11.012662     -0.090796      4.686594
  O      -4.472527      0.058267      4.254272
  O      -5.442371      1.701743      3.034760
  C      -8.204691     -0.585244      3.841989
  C      -7.465990     -0.168378      5.155222
  C      -9.237100      0.374477      3.149952
  C      -6.475955      1.029303      5.088282
  C     -10.442035      0.901992      3.993190
  C      -5.342231      0.917700      4.000179
46
Coordinates from ORCA-job R4N+PFHxA-_0.15M E -1922.672902338584
  N      -2.483614      0.388168      0.397580
  C      -1.525758      0.287843     -0.793662
  C      -2.044341      1.455991      1.354156
  C      -3.839540      0.740904     -0.143562
  C      -2.578771     -0.918572      1.126240
  C      -0.113362     -0.061690     -0.430398
  C       0.820108      0.945613     -0.167713
  C       0.296310     -1.397744     -0.391195
  C       2.134965      0.621498      0.151501
  C       1.611264     -1.722146     -0.072390
  C       2.531303     -0.713162      0.203760
  H      -1.574142      1.262709     -1.287243
  H      -1.960077     -0.470286     -1.451396
  H      -1.967320      2.401877      0.814050
  H      -1.079297      1.179426      1.781101
  H      -2.793855      1.529375      2.145835
  H      -3.773957      1.702263     -0.657243
  H      -4.537662      0.803864      0.693468
  H      -4.150784     -0.040001     -0.840356
  H      -1.611618     -1.152133      1.573630
  H      -2.871838     -1.696071      0.417945
  H      -3.333940     -0.810360      1.908151
  H       0.513931      1.987462     -0.219827
  H      -0.418381     -2.185012     -0.617618
  H       2.852633      1.411719      0.352402
  H       1.919629     -2.763348     -0.046665
  H       3.558976     -0.966297      0.448777
  F      -8.838131     -1.743402      4.109970
  F      -7.233188     -0.846923      2.905636
  F      -8.409025      0.078524      6.093369
  F      -6.759166     -1.258137      5.547034
  F      -9.735335     -0.356911      2.111277
  F      -8.586811      1.436638      2.630872
  F      -7.232317      2.163777      4.927878
  F      -5.916080      1.120031      6.337995
  F     -10.060005      1.844250      4.824844
  F     -11.349539      1.387915      3.139971
  F     -10.999995     -0.118246      4.672679
  O      -4.460297      0.088829      4.268835
  O      -5.440243      1.720507      3.041185
  C      -8.186159     -0.587144      3.835137
  C      -7.456772     -0.165462      5.151630
  C      -9.224711      0.363531      3.140596
  C      -6.477007      1.041400      5.090339
  C     -10.437458      0.879576      3.980147
  C      -5.336337      0.940548      4.009211
46
Coordinates from ORCA-job R4N+PFHxA-_0.15M E -1922.672921498415
  N      -2.490973      0.400702      0.409657
  C      -1.539186      0.293386     -0.785565
  C      -2.041825      1.468107      1.362551
  C      -3.847644      0.759642     -0.125838
  C      -2.590437     -0.903874      1.141755
  C      -0.127894     -0.066776     -0.428016
  C       0.814512      0.932948     -0.168595
  C       0.271297     -1.406093     -0.390847
  C       2.127832      0.598192      0.145957
  C       1.584733     -1.741145     -0.076923
  C       2.513712     -0.739576      0.196357
  H      -1.582346      1.268694     -1.278731
  H      -1.981534     -0.461738     -1.441312
  H      -1.964252      2.413212      0.821102
  H      -1.075111      1.188638      1.783769
  H      -2.786454      1.545182      2.158482
  H      -3.778203      1.718456     -0.643711
  H      -4.539758      0.831228      0.715420
  H      -4.168084     -0.022663     -0.816828
  H      -1.623258     -1.141550      1.586818
  H      -2.889692     -1.681666      0.436327
  H      -3.343491     -0.789253      1.924798
  H       0.516430      1.977190     -0.219910
  H      -0.450564     -2.187358     -0.615299
  H       2.852564      1.382602      0.344245
  H       1.884859     -2.784790     -0.052947
  H       3.540249     -1.000957      0.437434
  F      -8.790318     -1.755987      4.086930
  F      -7.191477     -0.831668      2.895624
  F      -8.401156      0.064352      6.078983
  F      -6.728502     -1.246409      5.539230
  F      -9.695640     -0.376481      2.088357
  F      -8.576817      1.432279      2.619852
  F      -7.247762      2.170163      4.926223
  F      -5.929141      1.143477      6.346797
  F     -10.068231      1.812153      4.805961
  F     -11.341481      1.341197      3.112728
  F     -10.978449     -0.163529      4.643634
  O      -4.435234      0.141843      4.291775
  O      -5.436557      1.751273      3.051604
  C      -8.153438     -0.589166      3.820423
  C      -7.439258     -0.162160      5.142896
  C      -9.201510      0.348401      3.122781
  C      -6.476527      1.058894      5.093600
  C     -10.426822      0.844234      3.956916
  C      -5.324873      0.977586      4.023468
46
Coordinates from ORCA-job R4N+PFHxA-_0.15M E -1922.672944585160
  N      -2.503627      0.412310      0.427096
  C      -1.560849      0.294994     -0.773807
  C      -2.042534      1.482089      1.371858
  C      -3.862698      0.775853     -0.099909
  C      -2.605208     -0.887692      1.167153
  C      -0.149726     -0.074280     -0.423740
  C       0.801960      0.918786     -0.173295
  C       0.239027     -1.416709     -0.383865
  C       2.114271      0.574584      0.135407
  C       1.551335     -1.761207     -0.075630
  C       2.489687     -0.765989      0.188971
  H      -1.600010      1.269335     -1.269134
  H      -2.012051     -0.459265     -1.424438
  H      -1.967303      2.424995      0.826210
  H      -1.072522      1.201243      1.784426
  H      -2.779603      1.564432      2.174292
  H      -3.790359      1.730174     -0.625562
  H      -4.544939      0.860452      0.748247
  H      -4.195686     -0.010697     -0.779962
  H      -1.636826     -1.128130      1.607964
  H      -2.912628     -1.668062      0.468048
  H      -3.354358     -0.763542      1.952410
  H       0.511851      1.965139     -0.227302
  H      -0.490494     -2.192681     -0.601775
  H       2.846393      1.353880      0.326574
  H       1.843202     -2.807134     -0.049526
  H       3.515428     -1.034618      0.425419
  F      -8.727398     -1.768041      4.040412
  F      -7.137534     -0.803116      2.869340
  F      -8.384738      0.031893      6.054457
  F      -6.683458     -1.240209      5.510619
  F      -9.644258     -0.384096      2.051878
  F      -8.560409      1.438738      2.608281
  F      -7.262196      2.173429      4.930941
  F      -5.944326      1.158339      6.360591
  F     -10.070585      1.769669      4.789815
  F     -11.325268      1.296338      3.083359
  F     -10.946942     -0.218812      4.600237
  O      -4.395424      0.215939      4.324554
  O      -5.431284      1.788491      3.066131
  C      -8.109092     -0.587355      3.790930
  C      -7.412218     -0.163664      5.122914
  C      -9.168803      0.339153      3.096293
  C      -6.471575      1.075014      5.098880
  C     -10.407958      0.805558      3.928280
  C      -5.305980      1.025665      4.043889
46
Coordinates from ORCA-job R4N+PFHxA-_0.15M E -1922.672944995358
  N      -2.522966      0.438140      0.452919
  C      -1.592140      0.302276     -0.755171
  C      -2.036243      1.506243      1.389219
  C      -3.881052      0.817548     -0.064036
  C      -2.637697     -0.857542      1.199311
  C      -0.183920     -0.087404     -0.415492
  C       0.785300      0.892156     -0.179488
  C       0.184118     -1.435500     -0.370431
  C       2.094896      0.529353      0.119488
  C       1.493576     -1.798586     -0.071549
  C       2.449778     -0.816581      0.178224
  H      -1.620407      1.275161     -1.254023
  H      -2.060332     -0.446942     -1.399514
  H      -1.958019      2.446792      0.840045
  H      -1.064010      1.214043      1.788520
  H      -2.759849      1.597937      2.202819
  H      -3.799642      1.766333     -0.598323
  H      -4.553128      0.919931      0.789771
  H      -4.232721      0.030626     -0.734191
  H      -1.670384     -1.107133      1.637401
  H      -2.957153     -1.637815      0.505578
  H      -3.382038     -0.719517      1.986832
  H       0.511153      1.942631     -0.236756
  H      -0.559448     -2.201361     -0.576281
  H       2.840747      1.298206      0.299587
  H       1.769314     -2.848761     -0.040864
  H       3.473204     -1.099799      0.407596
  F      -8.619396     -1.790320      3.980849
  F      -7.048392     -0.759380      2.841103
  F      -8.360250     -0.006026      6.020408
  F      -6.612759     -1.217671      5.483765
  F      -9.558381     -0.411444      2.000302
  F      -8.541283      1.438829      2.590935
  F      -7.286731      2.182254      4.928641
  F      -5.966243      1.194051      6.374933
  F     -10.082926      1.689961      4.762155
  F     -11.302572      1.204420      3.033823
  F     -10.895151     -0.321562      4.532319
  O      -4.337683      0.330156      4.363731
  O      -5.423858      1.854516      3.086254
  C      -8.036539     -0.587485      3.753988
  C      -7.370075     -0.159388      5.099795
  C      -9.118114      0.313814      3.058487
  C      -6.467159      1.106350      5.103123
  C     -10.380351      0.729273      3.882246
  C      -5.280782      1.100408      4.069883
46
Coordinates from ORCA-job R4N+PFHxA-_0.15M E -1922.672988710304
  N      -2.525242      0.425669      0.452541
  C      -1.595303      0.287829     -0.755833
  C      -2.043569      1.500016      1.381614
  C      -3.886044      0.797870     -0.063250
  C      -2.632098     -0.866262      1.206241
  C      -0.183734     -0.089939     -0.415113
  C       0.779797      0.897861     -0.190909
  C       0.192742     -1.435350     -0.357264
  C       2.092089      0.546090      0.109632
  C       1.504926     -1.787356     -0.057151
  C       2.455422     -0.796912      0.181246
  H      -1.630389      1.257092     -1.261175
  H      -2.058760     -0.469212     -1.394602
  H      -1.971076      2.438113      0.827497
  H      -1.069324      1.213758      1.780230
  H      -2.766085      1.593378      2.195803
  H      -3.807958      1.744802     -0.601227
  H      -4.554776      0.903455      0.793385
  H      -4.238163      0.005883     -0.727051
  H      -1.662370     -1.110644      1.641865
  H      -2.951345     -1.650584      0.516944
  H      -3.374764     -0.727754      1.995075
  H       0.499120      1.946019     -0.257956
  H      -0.546453     -2.207690     -0.554415
  H       2.833467      1.321259      0.280929
  H       1.787205     -2.835437     -0.016091
  H       3.480903     -1.071386      0.412067
  F      -8.626449     -1.779141      3.947489
  F      -7.055917     -0.738673      2.815213
  F      -8.354317     -0.033850      6.012287
  F      -6.608910     -1.236376      5.447821
  F      -9.566671     -0.366521      1.989275
  F      -8.541893      1.471106      2.606349
  F      -7.278991      2.175022      4.952002
  F      -5.965438      1.160607      6.385698
  F     -10.076869      1.686146      4.790709
  F     -11.299907      1.244217      3.053157
  F     -10.900279     -0.315625      4.518590
  O      -4.335162      0.332360      4.374385
  O      -5.424988      1.848411      3.093369
  C      -8.040125     -0.575473      3.735564
  C      -7.367621     -0.170198      5.085734
  C      -9.120781      0.340508      3.057107
  C      -6.462723      1.093480      5.111344
  C     -10.380090      0.746465      3.891077
  C      -5.278801      1.098159      4.077731
46
Coordinates from ORCA-job R4N+PFHxA-_0.15M E -1922.673018037757
  N      -2.532293      0.424051      0.459859
  C      -1.605558      0.277890     -0.750285
  C      -2.045572      1.500909      1.382299
  C      -3.893083      0.797501     -0.054288
  C      -2.639936     -0.864472      1.218914
  C      -0.192511     -0.095853     -0.411437
  C       0.770550      0.895531     -0.201144
  C       0.186334     -1.440044     -0.342378
  C       2.084872      0.548781      0.096391
  C       1.500449     -1.787022     -0.044763
  C       2.450599     -0.792933      0.179435
  H      -1.642907      1.243205     -1.262922
  H      -2.070744     -0.483733     -1.382364
  H      -1.974128      2.436886      0.824582
  H      -1.070244      1.213674      1.777705
  H      -2.763540      1.597990      2.200173
  H      -3.813705      1.742254     -0.595876
  H      -4.559790      0.908043      0.803434
  H      -4.248429      0.004045     -0.714641
  H      -1.669833     -1.108683      1.653842
  H      -2.961450     -1.650513      0.532679
  H      -3.380610     -0.723058      2.009164
  H       0.487920      1.942638     -0.276023
  H      -0.552332     -2.215609     -0.528521
  H       2.825749      1.326713      0.257038
  H       1.784655     -2.834195      0.005435
  H       3.477530     -1.063620      0.408294
  F      -8.609019     -1.776867      3.913007
  F      -7.041093     -0.718595      2.794187
  F      -8.345524     -0.059663      5.998801
  F      -6.592389     -1.243954      5.419891
  F      -9.553689     -0.344608      1.970849
  F      -8.536377      1.489521      2.609605
  F      -7.276136      2.171085      4.967475
  F      -5.965989      1.142531      6.393652
  F     -10.071583      1.666622      4.801046
  F     -11.289953      1.252755      3.053452
  F     -10.891710     -0.331418      4.493051
  O      -4.319893      0.355825      4.384486
  O      -5.422218      1.860551      3.102379
  C      -8.026734     -0.569060      3.715309
  C      -7.356786     -0.177378      5.071798
  C      -9.110606      0.351255      3.046826
  C      -6.457805      1.090039      5.116689
  C     -10.371422      0.742027      3.884832
  C      -5.270780      1.110149      4.085995
46
Coordinates from ORCA-job R4N+PFHxA-_0.15M E -1922.673076856957
  N      -2.553249      0.436209      0.483698
  C      -1.637818      0.261436     -0.732177
  C      -2.044258      1.517777      1.387281
  C      -3.912387      0.820571     -0.024901
  C      -2.669954     -0.842625      1.256952
  C      -0.223986     -0.114787     -0.400207
  C       0.747125      0.875955     -0.225673
  C       0.148415     -1.458943     -0.302887
  C       2.063301      0.529287      0.063667
  C       1.464432     -1.805827     -0.013392
  C       2.422846     -0.812175      0.174521
  H      -1.673504      1.216948     -1.262845
  H      -2.114765     -0.507724     -1.346088
  H      -1.972134      2.447990      0.820327
  H      -1.066093      1.223823      1.770945
  H      -2.746426      1.628311      2.217111
  H      -3.824352      1.758546     -0.576772
  H      -4.572297      0.948715      0.835514
  H      -4.281403      0.024989     -0.675198
  H      -1.700180     -1.092179      1.689736
  H      -3.001928     -1.631452      0.578962
  H      -3.404589     -0.690508      2.051051
  H       0.469097      1.922660     -0.320729
  H      -0.596319     -2.235078     -0.460241
  H       2.810126      1.306737      0.196774
  H       1.743723     -2.853020      0.059425
  H       3.451019     -1.083172      0.397393
  F      -8.524244     -1.783074      3.814560
  F      -6.976366     -0.655707      2.737661
  F      -8.312836     -0.134489      5.954564
  F      -6.524473     -1.249669      5.346770
  F      -9.497927     -0.313575      1.916558
  F      -8.523151      1.522941      2.611305
  F      -7.288363      2.161822      4.996071
  F      -5.980149      1.119534      6.413299
  F     -10.065769      1.589809      4.811348
  F     -11.266338      1.220218      3.041995
  F     -10.845045     -0.410582      4.422294
  O      -4.270373      0.455329      4.421024
  O      -5.412425      1.924562      3.134846
  C      -7.968961     -0.557007      3.657484
  C      -7.315255     -0.193007      5.031002
  C      -9.072020      0.359377      3.013516
  C      -6.449453      1.095139      5.127492
  C     -10.342403      0.695491      3.858491
  C      -5.246598      1.171617      4.115404
46
Coordinates from ORCA-job R4N+PFHxA-_0.15M E -1922.673134529491
  N      -2.578277      0.451659      0.516161
  C      -1.677192      0.245539     -0.706693
  C      -2.046132      1.539534      1.397729
  C      -3.936123      0.845766      0.014209
  C      -2.702720     -0.815928      1.306228
  C      -0.262511     -0.134775     -0.384950
  C       0.717514      0.853394     -0.247334
  C       0.103184     -1.478637     -0.263427
  C       2.036190      0.504947      0.027942
  C       1.421667     -1.827275      0.012706
  C       2.389289     -0.836192      0.162498
  H      -1.711755      1.190326     -1.256229
  H      -2.168469     -0.530792     -1.299776
  H      -1.973880      2.462870      0.819920
  H      -1.065004      1.240554      1.770233
  H      -2.732280      1.663735      2.238961
  H      -3.840444      1.775753     -0.549756
  H      -4.589482      0.992229      0.876560
  H      -4.318291      0.047511     -0.625240
  H      -1.733131     -1.070124      1.736887
  H      -3.045669     -1.608756      0.638431
  H      -3.430590     -0.652024      2.104650
  H       0.444067      1.899589     -0.359802
  H      -0.648096     -2.253808     -0.391721
  H       2.789615      1.280424      0.132238
  H       1.695811     -2.874375      0.104324
  H       3.419226     -1.109066      0.374686
  F      -8.427880     -1.789356      3.708491
  F      -6.900336     -0.591749      2.681522
  F      -8.274135     -0.211652      5.902048
  F      -6.449471     -1.253212      5.271947
  F      -9.430375     -0.287038      1.855541
  F      -8.497997      1.549783      2.604136
  F      -7.302178      2.147490      5.018297
  F      -5.993241      1.096420      6.427718
  F     -10.051368      1.517359      4.802357
  F     -11.234737      1.175032      3.016507
  F     -10.781927     -0.487529      4.348609
  O      -4.219630      0.558721      4.457023
  O      -5.398117      1.995954      3.170825
  C      -7.901177     -0.545937      3.594847
  C      -7.267458     -0.210172      4.985784
  C      -9.022555      0.363714      2.972749
  C      -6.439604      1.099069      5.134099
  C     -10.302270      0.646376      3.820792
  C      -5.219774      1.235843      4.145204
46
Coordinates from ORCA-job R4N+PFHxA-_0.15M E -1922.672818503221
  N      -2.573201      0.475650      0.526324
  C      -1.671789      0.259916     -0.696978
  C      -2.038864      1.560201      1.408228
  C      -3.926692      0.877020      0.013635
  C      -2.706254     -0.791865      1.314806
  C      -0.262453     -0.136134     -0.378552
  C       0.725537      0.842395     -0.223690
  C       0.094292     -1.484052     -0.286109
  C       2.043025      0.479410      0.036293
  C       1.411523     -1.847381     -0.023118
  C       2.387208     -0.867088      0.140387
  H      -1.697528      1.205783     -1.245537
  H      -2.174196     -0.509650     -1.288662
  H      -1.955321      2.480023      0.826500
  H      -1.062261      1.266107      1.796798
  H      -2.735033      1.689219      2.238738
  H      -3.826409      1.809197     -0.546186
  H      -4.601603      1.013989      0.862180
  H      -4.293836      0.084707     -0.642134
  H      -1.741089     -1.050350      1.753063
  H      -3.046975     -1.583684      0.644486
  H      -3.437252     -0.633415      2.110808
  H       0.457668      1.892111     -0.315213
  H      -0.661656     -2.251945     -0.429985
  H       2.802291      1.247506      0.151863
  H       1.678463     -2.898313      0.041939
  H       3.416480     -1.152379      0.338878
  F      -8.423846     -1.817851      3.744249
  F      -6.889634     -0.630590      2.714111
  F      -8.288606     -0.190918      5.920956
  F      -6.460848     -1.244297      5.322430
  F      -9.422576     -0.353644      1.868441
  F      -8.471353      1.491247      2.568902
  F      -7.332501      2.147383      4.992004
  F      -5.997045      1.143604      6.408976
  F     -10.048376      1.572400      4.733701
  F     -11.239410      1.100589      2.983827
  F     -10.747877     -0.466863      4.413917
  O      -4.275705      0.524699      4.437714
  O      -5.383809      2.040552      3.178129
  C      -7.897422     -0.573795      3.617017
  C      -7.276356     -0.212539      5.008212
  C      -9.012222      0.322249      2.972476
  C      -6.460628      1.111425      5.121683
  C     -10.290446      0.636008      3.809159
  C      -5.243125      1.234560      4.123265
46
Coordinates from ORCA-job R4N+PFHxA-_0.15M E -1922.673206156015
  N      -2.579701      0.468293      0.518114
  C      -1.680470      0.258551     -0.705956
  C      -2.041161      1.553226      1.399302
  C      -3.935988      0.868816      0.014485
  C      -2.709147     -0.798978      1.307158
  C      -0.269529     -0.135016     -0.385404
  C       0.718248      0.843619     -0.235249
  C       0.084750     -1.482842     -0.276370
  C       2.032827      0.481618      0.041182
  C       1.399452     -1.845154      0.000027
  C       2.374574     -0.863700      0.162737
  H      -1.707448      1.205870     -1.251666
  H      -2.178573     -0.511922     -1.300670
  H      -1.964002      2.475066      0.819628
  H      -1.060953      1.253703      1.773766
  H      -2.727696      1.682987      2.238798
  H      -3.836865      1.799411     -0.547963
  H      -4.595563      1.014260      0.872503
  H      -4.316863      0.073385     -0.629290
  H      -1.740467     -1.058414      1.736800
  H      -3.056098     -1.590337      0.639565
  H      -3.435766     -0.635003      2.106535
  H       0.453353      1.892808     -0.340083
  H      -0.672431     -2.250458     -0.415043
  H       2.792329      1.249823      0.154719
  H       1.664455     -2.895465      0.080982
  H       3.401765     -1.147386      0.374008
  F      -8.405239     -1.805740      3.729922
  F      -6.877907     -0.610134      2.699908
  F      -8.272855     -0.199045      5.908575
  F      -6.439536     -1.239576      5.302251
  F      -9.398761     -0.324111      1.851854
  F      -8.479436      1.521683      2.594398
  F      -7.318276      2.150655      5.007980
  F      -5.995171      1.128399      6.425048
  F     -10.059279      1.513618      4.768665
  F     -11.227645      1.121921      2.983105
  F     -10.763350     -0.508102      4.350187
  O      -4.233824      0.562670      4.456085
  O      -5.388612      2.034381      3.184821
  C      -7.883831     -0.560083      3.607041
  C      -7.261087     -0.205432      4.997472
  C      -9.004160      0.337062      2.968662
  C      -6.444337      1.113132      5.131987
  C     -10.293638      0.620046      3.802849
  C      -5.223802      1.253087      4.144506
46
Coordinates from ORCA-job R4N+PFHxA-_0.15M E -1922.673301812265
  N      -2.633373      0.503052      0.584275
  C      -1.771301      0.247101     -0.657715
  C      -2.046488      1.604624      1.423770
  C      -3.995570      0.918221      0.109182
  C      -2.769590     -0.744614      1.406472
  C      -0.360112     -0.168952     -0.363781
  C       0.653657      0.790518     -0.272695
  C      -0.033605     -1.521057     -0.221357
  C       1.966936      0.406580     -0.020024
  C       1.279615     -1.905221      0.032084
  C       2.280874     -0.941764      0.138064
  H      -1.792482      1.182172     -1.224318
  H      -2.299892     -0.526323     -1.221856
  H      -1.979631      2.511859      0.820142
  H      -1.056499      1.300300      1.767098
  H      -2.697877      1.761541      2.286358
  H      -3.892584      1.827478     -0.486654
  H      -4.618073      1.110094      0.983689
  H      -4.419557      0.111738     -0.493147
  H      -1.796079     -1.012991      1.819301
  H      -3.146623     -1.544854      0.765876
  H      -3.475280     -0.548896      2.217515
  H       0.410597      1.841748     -0.407138
  H      -0.811262     -2.274943     -0.317191
  H       2.746971      1.159977      0.046958
  H       1.522895     -2.958560      0.139213
  H       3.306775     -1.242438      0.331716
  F      -8.159034     -1.811063      3.534935
  F      -6.683096     -0.473059      2.610444
  F      -8.189391     -0.328089      5.790732
  F      -6.271874     -1.211408      5.184390
  F      -9.195155     -0.297972      1.704836
  F      -8.418851      1.562974      2.567854
  F      -7.352979      2.131038      5.056385
  F      -6.045125      1.101593      6.482673
  F     -10.046014      1.326494      4.702091
  F     -11.141983      0.977925      2.861563
  F     -10.615195     -0.705377      4.139988
  O      -4.112344      0.824303      4.580878
  O      -5.369101      2.201103      3.299607
  C      -7.714201     -0.529834      3.489557
  C      -7.152254     -0.213501      4.914787
  C      -8.873376      0.328054      2.864744
  C      -6.422769      1.140544      5.166055
  C     -10.201212      0.482401      3.677057
  C      -5.166202      1.418677      4.253517
46
Coordinates from ORCA-job R4N+PFHxA-_0.15M E -1922.673570205258
  N      -2.636468      0.513702      0.578459
  C      -1.769649      0.266066     -0.660296
  C      -2.060916      1.598901      1.430576
  C      -3.993070      0.939450      0.100889
  C      -2.777138     -0.735633      1.391413
  C      -0.363376     -0.162207     -0.363000
  C       0.654354      0.789586     -0.246364
  C      -0.045766     -1.518083     -0.240702
  C       1.962965      0.393751      0.011402
  C       1.263312     -1.914291      0.014798
  C       2.268788     -0.958927      0.145093
  H      -1.782720      1.207060     -1.217225
  H      -2.299839     -0.498050     -1.235331
  H      -1.983626      2.510248      0.834394
  H      -1.076173      1.292049      1.786503
  H      -2.727512      1.751835      2.283057
  H      -3.884591      1.854666     -0.484562
  H      -4.622457      1.121725      0.974987
  H      -4.413692      0.140860     -0.513606
  H      -1.805127     -1.011225      1.803211
  H      -3.157625     -1.529424      0.745263
  H      -3.483171     -0.540968      2.203071
  H       0.417847      1.844340     -0.362564
  H      -0.827058     -2.265524     -0.353650
  H       2.746284      1.141189      0.098679
  H       1.499691     -2.970602      0.105681
  H       3.291536     -1.268876      0.340441
  F      -8.134874     -1.822486      3.580943
  F      -6.662383     -0.491632      2.640861
  F      -8.189097     -0.286976      5.813470
  F      -6.270795     -1.186654      5.245879
  F      -9.161017     -0.339675      1.718576
  F      -8.399115      1.534169      2.562762
  F      -7.353846      2.148405      5.022805
  F      -6.022956      1.164640      6.460834
  F     -10.045931      1.327872      4.678687
  F     -11.122856      0.939624      2.835259
  F     -10.600016     -0.715500      4.149575
  O      -4.163714      0.754488      4.544828
  O      -5.347935      2.198222      3.272505
  C      -7.695723     -0.541181      3.518760
  C      -7.146201     -0.197142      4.942086
  C      -8.852468      0.302587      2.872483
  C      -6.421006      1.163449      5.150198
  C     -10.187529      0.464540      3.668526
  C      -5.175052      1.402828      4.218276
46
Coordinates from ORCA-job R4N+PFHxA-_0.15M E -1922.673796222800
  N      -2.666054      0.554065      0.612131
  C      -1.816858      0.284427     -0.634325
  C      -2.059946      1.634629      1.454544
  C      -4.018293      1.004146      0.146017
  C      -2.825171     -0.691159      1.429974
  C      -0.418407     -0.175906     -0.350732
  C       0.620579      0.753290     -0.239886
  C      -0.128623     -1.538631     -0.238557
  C       1.923174      0.328315      0.001002
  C       1.174294     -1.963935      0.001028
  C       2.201427     -1.031296      0.124302
  H      -1.814201      1.224666     -1.192694
  H      -2.371065     -0.467066     -1.202894
  H      -1.975351      2.542838      0.854629
  H      -1.075874      1.315315      1.801455
  H      -2.715262      1.797773      2.312791
  H      -3.896789      1.913939     -0.445154
  H      -4.635695      1.202516      1.023581
  H      -4.459471      0.211913     -0.461998
  H      -1.856323     -0.982554      1.838371
  H      -3.222523     -1.480407      0.788546
  H      -3.522601     -0.483263      2.245484
  H       0.405073      1.813417     -0.347302
  H      -0.926547     -2.268836     -0.346497
  H       2.722973      1.058371      0.084016
  H       1.388964     -3.025462      0.084003
  H       3.219347     -1.364291      0.306319
  F      -7.980636     -1.849513      3.552575
  F      -6.532703     -0.469303      2.647545
  F      -8.156219     -0.315199      5.775071
  F      -6.187330     -1.137174      5.272582
  F      -9.002895     -0.405987      1.656929
  F      -8.327602      1.492688      2.515887
  F      -7.396483      2.148585      5.004209
  F      -6.060701      1.225701      6.477232
  F     -10.027224      1.239579      4.582861
  F     -11.037176      0.807303      2.712087
  F     -10.496424     -0.822346      4.050140
  O      -4.140244      0.863306      4.596747
  O      -5.334349      2.301284      3.328426
  C      -7.583982     -0.554318      3.498620
  C      -7.090847     -0.186314      4.936922
  C      -8.749479      0.247989      2.817462
  C      -6.428415      1.204102      5.158422
  C     -10.110322      0.367490      3.573666
  C      -5.165459      1.486506      4.262396
46
Coordinates from ORCA-job R4N+PFHxA-_0.15M E -1922.674039755189
  N      -2.685131      0.586180      0.644629
  C      -1.854991      0.308632     -0.612737
  C      -2.061424      1.669322      1.478643
  C      -4.044129      1.040637      0.194094
  C      -2.842385     -0.655419      1.471941
  C      -0.463140     -0.181814     -0.347545
  C       0.595070      0.724944     -0.230758
  C      -0.198900     -1.551804     -0.263125
  C       1.891654      0.270215     -0.011830
  C       1.097480     -2.006736     -0.042838
  C       2.143913     -1.096560      0.087000
  H      -1.840602      1.252639     -1.164746
  H      -2.429904     -0.428390     -1.179637
  H      -1.979699      2.573607      0.872352
  H      -1.076009      1.349559      1.820649
  H      -2.713764      1.837965      2.336994
  H      -3.930012      1.942514     -0.410476
  H      -4.645423      1.250878      1.078781
  H      -4.498639      0.244009     -0.398248
  H      -1.870948     -0.945739      1.874600
  H      -3.248284     -1.449470      0.841837
  H      -3.531757     -0.434612      2.289618
  H       0.399507      1.790606     -0.319992
  H      -1.012121     -2.263901     -0.377333
  H       2.706441      0.982965      0.075476
  H       1.292013     -3.073593      0.018332
  H       3.156711     -1.452635      0.253165
  F      -7.865693     -1.868989      3.562020
  F      -6.412486     -0.470542      2.696939
  F      -8.148830     -0.316695      5.753898
  F      -6.146158     -1.095127      5.321817
  F      -8.844291     -0.485445      1.602232
  F      -8.251002      1.443879      2.451756
  F      -7.424962      2.158352      5.010092
  F      -6.100961      1.270730      6.513362
  F     -10.019686      1.194940      4.449681
  F     -10.948911      0.689659      2.555280
  F     -10.418629     -0.889872      3.956208
  O      -4.127339      0.962938      4.660177
  O      -5.344517      2.378061      3.383383
  C      -7.496756     -0.565715      3.500093
  C      -7.060771     -0.168576      4.950862
  C      -8.653505      0.194565      2.759888
  C      -6.437319      1.239659      5.186693
  C     -10.044091      0.295022      3.461473
  C      -5.167332      1.560348      4.313230
46
Coordinates from ORCA-job R4N+PFHxA-_0.15M E -1922.674340559866
  N      -2.734455      0.613530      0.686433
  C      -1.927510      0.317686     -0.581697
  C      -2.086424      1.697196      1.500949
  C      -4.095855      1.078684      0.256908
  C      -2.889353     -0.618323      1.528603
  C      -0.539910     -0.193683     -0.332368
  C       0.534313      0.695886     -0.228478
  C      -0.297777     -1.567750     -0.244047
  C       1.825140      0.220267     -0.019277
  C       0.992865     -2.043507     -0.034145
  C       2.055520     -1.150138      0.082563
  H      -1.905640      1.259294     -1.137523
  H      -2.520929     -0.413871     -1.136745
  H      -2.006449      2.596943      0.887614
  H      -1.099255      1.368089      1.828149
  H      -2.724561      1.878296      2.368275
  H      -3.982877      1.971502     -0.361285
  H      -4.677727      1.308194      1.149943
  H      -4.573199      0.280732     -0.315741
  H      -1.914029     -0.914839      1.917151
  H      -3.314995     -1.414431      0.914115
  H      -3.562826     -0.379429      2.354736
  H       0.355802      1.764310     -0.320622
  H      -1.124641     -2.266032     -0.345947
  H       2.652429      0.919798      0.058092
  H       1.170010     -3.113217      0.030416
  H       3.063666     -1.522253      0.241897
  F      -7.684825     -1.877048      3.494940
  F      -6.249304     -0.419217      2.698745
  F      -8.093493     -0.357428      5.692644
  F      -6.053067     -1.066991      5.320531
  F      -8.637813     -0.497137      1.515012
  F      -8.142272      1.437945      2.415331
  F      -7.431949      2.143994      5.001308
  F      -6.112947      1.288869      6.527056
  F      -9.973708      1.103200      4.337984
  F     -10.815920      0.588478      2.405633
  F     -10.282481     -0.988395      3.808804
  O      -4.086285      1.060319      4.702841
  O      -5.322409      2.468261      3.437198
  C      -7.358389     -0.561509      3.460499
  C      -6.985867     -0.165955      4.927523
  C      -8.513085      0.170603      2.688753
  C      -6.415622      1.259277      5.192080
  C      -9.931183      0.214191      3.340453
  C      -5.138428      1.636806      4.352626
46
Coordinates from ORCA-job R4N+PFHxA-_0.15M E -1922.674540275385
  N      -2.772876      0.602747      0.714111
  C      -1.982655      0.294613     -0.561870
  C      -2.117498      1.695826      1.502870
  C      -4.142582      1.058708      0.299694
  C      -2.904009     -0.614178      1.577899
  C      -0.587613     -0.203507     -0.322365
  C       0.482678      0.693027     -0.243904
  C      -0.337438     -1.574982     -0.212144
  C       1.777489      0.227512     -0.036634
  C       0.957135     -2.040610     -0.004855
  C       2.015910     -1.139408      0.087429
  H      -1.973139      1.229574     -1.128942
  H      -2.576244     -0.450826     -1.098437
  H      -2.044307      2.588769      0.878610
  H      -1.127085      1.364943      1.817644
  H      -2.742468      1.894533      2.377441
  H      -4.040074      1.941782     -0.334273
  H      -4.711160      1.305045      1.198795
  H      -4.631904      0.250661     -0.248570
  H      -1.919628     -0.904155      1.947651
  H      -3.342765     -1.419372      0.984315
  H      -3.561434     -0.364194      2.413108
  H       0.298038      1.758787     -0.353782
  H      -1.162622     -2.278108     -0.294372
  H       2.601842      0.932666      0.021238
  H       1.140184     -3.108138      0.077691
  H       3.027293     -1.502997      0.246226
  F      -7.606148     -1.865673      3.412205
  F      -6.162121     -0.380139      2.677612
  F      -8.048030     -0.401179      5.645236
  F      -5.996545     -1.088344      5.273167
  F      -8.528412     -0.430366      1.448427
  F      -8.061228      1.479564      2.421638
  F      -7.416533      2.114514      5.018674
  F      -6.100216      1.239857      6.537313
  F      -9.933306      1.075581      4.292109
  F     -10.731882      0.615765      2.327247
  F     -10.219327     -1.001705      3.691908
  O      -4.060508      1.094935      4.732974
  O      -5.300461      2.517005      3.483099
  C      -7.287027     -0.547588      3.416422
  C      -6.936553     -0.182984      4.893150
  C      -8.431064      0.201566      2.644820
  C      -6.384815      1.240780      5.197112
  C      -9.865071      0.217781      3.269628
  C      -5.111532      1.673104      4.380618
46
Coordinates from ORCA-job R4N+PFHxA-_0.15M E -1922.674611598699
  N      -2.769932      0.599358      0.718664
  C      -1.981164      0.287934     -0.557266
  C      -2.112410      1.691998      1.506057
  C      -4.138849      1.056667      0.302684
  C      -2.902497     -0.618227      1.582985
  C      -0.584423     -0.205698     -0.319828
  C       0.484094      0.693853     -0.255488
  C      -0.330166     -1.575496     -0.201236
  C       1.781150      0.233202     -0.052357
  C       0.966849     -2.036375      0.000918
  C       2.023831     -1.132169      0.079914
  H      -1.975569      1.219910     -1.129229
  H      -2.574691     -0.460508     -1.089495
  H      -2.036762      2.583075      0.879602
  H      -1.122957      1.359467      1.822279
  H      -2.735582      1.893007      2.380421
  H      -4.034396      1.939348     -0.331449
  H      -4.708956      1.303510      1.200480
  H      -4.627316      0.248946     -0.246520
  H      -1.918619     -0.908902      1.953552
  H      -3.341003     -1.423147      0.988931
  H      -3.559821     -0.369147      2.418699
  H       0.296526      1.758275     -0.372749
  H      -1.153426     -2.281733     -0.274429
  H       2.604203      0.940565     -0.005963
  H       1.153299     -3.102819      0.089252
  H       3.037252     -1.492263      0.233411
  F      -7.612736     -1.858714      3.395487
  F      -6.174841     -0.368630      2.660416
  F      -8.050782     -0.405049      5.638688
  F      -6.000919     -1.091363      5.258315
  F      -8.549126     -0.421267      1.446460
  F      -8.077271      1.487452      2.417028
  F      -7.418070      2.113940      5.021555
  F      -6.103186      1.229264      6.536310
  F      -9.936494      1.075088      4.302954
  F     -10.747288      0.619644      2.341676
  F     -10.220891     -1.000653      3.697362
  O      -4.061144      1.092449      4.741684
  O      -5.291775      2.523256      3.495029
  C      -7.295371     -0.540486      3.406278
  C      -6.940253     -0.184115      4.884727
  C      -8.443960      0.209329      2.642796
  C      -6.388254      1.237126      5.196355
  C      -9.873251      0.221464      3.276842
  C      -5.110766      1.669826      4.386128
46
Coordinates from ORCA-job R4N+PFHxA-_0.15M E -1922.674662693190
  N      -2.770426      0.585966      0.726662
  C      -1.985428      0.271802     -0.550802
  C      -2.110789      1.679380      1.509771
  C      -4.140405      1.039102      0.310741
  C      -2.897776     -0.630965      1.593749
  C      -0.583110     -0.207287     -0.318415
  C       0.477191      0.703005     -0.275086
  C      -0.314666     -1.572942     -0.186245
  C       1.780524      0.257292     -0.079402
  C       0.988563     -2.018883      0.009496
  C       2.037559     -1.104033      0.067159
  H      -1.991677      1.198717     -1.130917
  H      -2.576102     -0.484626     -1.074813
  H      -2.032990      2.567290      0.879124
  H      -1.122027      1.345218      1.826869
  H      -2.730170      1.884968      2.385345
  H      -4.037730      1.920578     -0.325260
  H      -4.714284      1.285721      1.206247
  H      -4.624377      0.228817     -0.238541
  H      -1.912021     -0.918144      1.961931
  H      -3.335568     -1.438304      1.002586
  H      -3.552205     -0.382298      2.432027
  H       0.278729      1.764322     -0.402093
  H      -1.130910     -2.288514     -0.244642
  H       2.597210      0.972782     -0.049543
  H       1.186394     -3.082341      0.108258
  H       3.055846     -1.452681      0.214650
  F      -7.649472     -1.851204      3.388014
  F      -6.189477     -0.381890      2.657618
  F      -8.061840     -0.403981      5.637376
  F      -6.019282     -1.106409      5.249631
  F      -8.561558     -0.398789      1.440818
  F      -8.070860      1.501940      2.415161
  F      -7.408143      2.110993      5.028280
  F      -6.095389      1.207288      6.535006
  F      -9.934608      1.095139      4.305247
  F     -10.747826      0.667697      2.338540
  F     -10.241783     -0.971052      3.679369
  O      -4.058218      1.068122      4.744530
  O      -5.276246      2.521786      3.510972
  C      -7.312842     -0.538009      3.401953
  C      -6.950157     -0.190547      4.881240
  C      -8.450602      0.227565      2.638623
  C      -6.385823      1.224387      5.196501
  C      -9.879983      0.251244      3.270814
  C      -5.102958      1.652973      4.389384
46
Coordinates from ORCA-job R4N+PFHxA-_0.15M E -1922.674688170985
  N      -2.780674      0.588260      0.736367
  C      -2.001907      0.269771     -0.543603
  C      -2.111491      1.678357      1.516850
  C      -4.150115      1.047100      0.324881
  C      -2.910259     -0.628034      1.604043
  C      -0.599107     -0.210529     -0.316384
  C       0.462189      0.698886     -0.282995
  C      -0.331284     -1.575777     -0.179095
  C       1.766141      0.252889     -0.092046
  C       0.972499     -2.021959      0.012432
  C       2.022642     -1.107875      0.060378
  H      -2.009504      1.194868     -1.126554
  H      -2.596181     -0.486631     -1.063709
  H      -2.027993      2.564334      0.884117
  H      -1.124332      1.337890      1.832472
  H      -2.726152      1.890839      2.393919
  H      -4.045238      1.926775     -0.313198
  H      -4.720283      1.298067      1.221220
  H      -4.639191      0.237677     -0.221154
  H      -1.923704     -0.919325      1.966642
  H      -3.354888     -1.433661      1.015707
  H      -3.558058     -0.375908      2.445769
  H       0.264413      1.759871     -0.413681
  H      -1.148170     -2.291153     -0.229916
  H       2.583737      0.967607     -0.070036
  H       1.169965     -3.085066      0.115598
  H       3.041340     -1.456695      0.204575
  F      -7.613300     -1.852498      3.375403
  F      -6.156555     -0.372316      2.659536
  F      -8.056684     -0.412036      5.623027
  F      -6.006114     -1.099850      5.255247
  F      -8.518234     -0.405255      1.423513
  F      -8.045593      1.498469      2.399902
  F      -7.415972      2.107034      5.024169
  F      -6.108572      1.213302      6.541564
  F      -9.920587      1.077908      4.279812
  F     -10.716116      0.657530      2.304615
  F     -10.216124     -0.986159      3.641616
  O      -4.059096      1.077547      4.766753
  O      -5.262341      2.554384      3.544284
  C      -7.285434     -0.537464      3.394859
  C      -6.938305     -0.190003      4.878604
  C      -8.420375      0.222632      2.621503
  C      -6.388066      1.228776      5.200421
  C      -9.854928      0.239528      3.241984
  C      -5.099711      1.669086      4.408519
46
Coordinates from ORCA-job R4N+PFHxA-_0.15M E -1922.674706315661
  N      -2.777946      0.582869      0.731555
  C      -1.997300      0.268285     -0.548443
  C      -2.109357      1.671079      1.515030
  C      -4.147648      1.040688      0.319816
  C      -2.906093     -0.635457      1.596458
  C      -0.593096     -0.208255     -0.320759
  C       0.465507      0.704394     -0.286864
  C      -0.321362     -1.572714     -0.182274
  C       1.770702      0.262379     -0.094492
  C       0.983715     -2.014932      0.010050
  C       2.031165     -1.097586      0.058569
  H      -2.006877      1.194054     -1.130284
  H      -2.588834     -0.489167     -1.070380
  H      -2.022304      2.557836      0.883769
  H      -1.123462      1.327758      1.831412
  H      -2.723919      1.885170      2.392180
  H      -4.043285      1.921554     -0.316759
  H      -4.719771      1.289804      1.215485
  H      -4.635038      0.231097     -0.227617
  H      -1.918360     -0.926142      1.956419
  H      -3.351113     -1.440411      1.007537
  H      -3.552042     -0.384208      2.439671
  H       0.264772      1.764831     -0.417496
  H      -1.136217     -2.290524     -0.232347
  H       2.586179      0.979569     -0.071626
  H       1.184275     -3.077338      0.114663
  H       3.050724     -1.443141      0.204627
  F      -7.633370     -1.854639      3.392470
  F      -6.166096     -0.387303      2.669500
  F      -8.070092     -0.399756      5.631631
  F      -6.024141     -1.103502      5.268991
  F      -8.526208     -0.409506      1.431262
  F      -8.043049      1.495554      2.401024
  F      -7.414162      2.111867      5.023354
  F      -6.113687      1.216720      6.545272
  F      -9.923117      1.092489      4.281144
  F     -10.718021      0.676577      2.304900
  F     -10.233881     -0.970083      3.644734
  O      -4.067399      1.055111      4.766086
  O      -5.259236      2.552017      3.552523
  C      -7.297634     -0.541757      3.405199
  C      -6.949371     -0.188654      4.887519
  C      -8.426442      0.223030      2.626611
  C      -6.391240      1.228375      5.203433
  C      -9.862127      0.252564      3.244449
  C      -5.101457      1.660599      4.409928
46
Coordinates from ORCA-job R4N+PFHxA-_0.15M E -1922.674728106329
  N      -2.787416      0.584628      0.740780
  C      -2.012068      0.266334     -0.541968
  C      -2.115283      1.675579      1.518347
  C      -4.158932      1.040687      0.333941
  C      -2.911099     -0.631750      1.609524
  C      -0.607181     -0.210710     -0.319190
  C       0.451953      0.701884     -0.290933
  C      -0.335103     -1.575085     -0.179764
  C       1.758012      0.259879     -0.103646
  C       0.970909     -2.017326      0.006816
  C       2.018885     -1.100111      0.049548
  H      -2.023354      1.190713     -1.126018
  H      -2.606443     -0.491997     -1.059469
  H      -2.028923      2.560730      0.884753
  H      -1.128560      1.332138      1.831876
  H      -2.726090      1.892896      2.398087
  H      -4.057578      1.919529     -0.306001
  H      -4.727315      1.292710      1.230923
  H      -4.648591      0.229347     -0.209015
  H      -1.920844     -0.920625      1.964250
  H      -3.359674     -1.438444      1.025842
  H      -3.550861     -0.376406      2.456314
  H       0.250589      1.762277     -0.420942
  H      -1.150551     -2.292705     -0.223622
  H       2.573613      0.977083     -0.084116
  H       1.171622     -3.079577      0.112914
  H       3.038899     -1.445657      0.192509
  F      -7.615748     -1.857471      3.391852
  F      -6.137738     -0.394890      2.682300
  F      -8.069180     -0.403091      5.622813
  F      -6.018829     -1.102715      5.278957
  F      -8.480122     -0.408444      1.414810
  F      -8.010351      1.494481      2.397215
  F      -7.413070      2.109489      5.021056
  F      -6.121943      1.217599      6.551969
  F      -9.914909      1.085242      4.250709
  F     -10.683121      0.677349      2.262351
  F     -10.217836     -0.974786      3.602955
  O      -4.060547      1.060880      4.774600
  O      -5.252795      2.569290      3.575639
  C      -7.277389     -0.545522      3.404369
  C      -6.942263     -0.189872      4.889095
  C      -8.396532      0.220914      2.613190
  C      -6.389065      1.229270      5.207881
  C      -9.839998      0.248952      3.211736
  C      -5.094890      1.668492      4.422693
46
Coordinates from ORCA-job R4N+PFHxA-_0.15M E -1922.674748914115
  N      -2.787353      0.587601      0.740047
  C      -2.012269      0.268922     -0.542846
  C      -2.115983      1.679629      1.516535
  C      -4.159115      1.043340      0.333786
  C      -2.910276     -0.628321      1.609238
  C      -0.608364     -0.210932     -0.320123
  C       0.452277      0.699863     -0.287771
  C      -0.338608     -1.576187     -0.184854
  C       1.757493      0.255063     -0.101358
  C       0.966425     -2.021107      0.002139
  C       2.015896     -1.105812      0.048331
  H      -2.021627      1.193977     -1.125841
  H      -2.607894     -0.488191     -1.060616
  H      -2.029669      2.564588      0.882734
  H      -1.128891      1.337339      1.830360
  H      -2.727227      1.897174      2.395988
  H      -4.058328      1.922264     -0.306142
  H      -4.726276      1.295432      1.231605
  H      -4.649509      0.232205     -0.208762
  H      -1.919411     -0.917218      1.962272
  H      -3.360386     -1.434747      1.026461
  H      -3.547822     -0.372044      2.457442
  H       0.252403      1.760953     -0.414388
  H      -1.155316     -2.292195     -0.231492
  H       2.574196      0.970906     -0.078780
  H       1.165197     -3.084032      0.105056
  H       3.035203     -1.453562      0.190957
  F      -7.609037     -1.860194      3.397041
  F      -6.132454     -0.397123      2.686950
  F      -8.072708     -0.400625      5.622408
  F      -6.020338     -1.099107      5.288077
  F      -8.471320     -0.415423      1.414787
  F      -8.004927      1.489450      2.395913
  F      -7.417230      2.111084      5.019246
  F      -6.129345      1.223617      6.555290
  F      -9.915471      1.084402      4.242390
  F     -10.677794      0.666611      2.253867
  F     -10.212677     -0.978917      3.602584
  O      -4.064730      1.058395      4.776539
  O      -5.251844      2.576598      3.585320
  C      -7.272946     -0.547773      3.407419
  C      -6.943310     -0.188028      4.892526
  C      -8.391237      0.215782      2.612504
  C      -6.392608      1.232644      5.210315
  C      -9.836063      0.243706      3.207136
  C      -5.096438      1.671188      4.427640
46
Coordinates from ORCA-job R4N+PFHxA-_0.15M E -1922.674794929117
  N      -2.785430      0.590295      0.739825
  C      -2.013065      0.270275     -0.544413
  C      -2.118090      1.688486      1.510363
  C      -4.159892      1.041359      0.336915
  C      -2.901956     -0.623121      1.613378
  C      -0.609672     -0.211710     -0.323920
  C       0.452440      0.697287     -0.287470
  C      -0.342069     -1.577853     -0.194099
  C       1.756700      0.249707     -0.101996
  C       0.962213     -2.025663     -0.009173
  C       2.012937     -1.112238      0.041478
  H      -2.021868      1.195530     -1.127031
  H      -2.610539     -0.486940     -1.059678
  H      -2.035434      2.571395      0.873398
  H      -1.129138      1.352390      1.825443
  H      -2.730982      1.906213      2.388198
  H      -4.063736      1.919847     -0.304320
  H      -4.721713      1.293977      1.238108
  H      -4.651941      0.229012     -0.202052
  H      -1.908332     -0.910159      1.960133
  H      -3.356678     -1.430532      1.035735
  H      -3.531781     -0.363178      2.466312
  H       0.253606      1.758931     -0.410989
  H      -1.160247     -2.291970     -0.243536
  H       2.574419      0.964230     -0.076648
  H       1.159084     -3.089369      0.089026
  H       3.031665     -1.462345      0.182364
  F      -7.603753     -1.864172      3.405346
  F      -6.124285     -0.404651      2.697304
  F      -8.087756     -0.394333      5.619409
  F      -6.032718     -1.096301      5.307818
  F      -8.454539     -0.424115      1.412522
  F      -7.989930      1.482426      2.392166
  F      -7.425548      2.114154      5.020945
  F      -6.146801      1.228312      6.565801
  F      -9.917416      1.093286      4.219626
  F     -10.666310      0.652446      2.231049
  F     -10.206539     -0.977420      3.599805
  O      -4.074931      1.044140      4.783763
  O      -5.246310      2.592262      3.617699
  C      -7.267946     -0.551575      3.412848
  C      -6.951377     -0.185469      4.899472
  C      -8.380986      0.209671      2.609288
  C      -6.402214      1.235781      5.219151
  C      -9.829373      0.241266      3.193981
  C      -5.099485      1.671629      4.444589
46
Coordinates from ORCA-job R4N+PFHxA-_0.15M E -1922.674821876038
  N      -2.783192      0.587841      0.740832
  C      -2.013086      0.268031     -0.544543
  C      -2.118745      1.689471      1.508559
  C      -4.159868      1.035103      0.340923
  C      -2.895353     -0.623736      1.617378
  C      -0.608517     -0.211373     -0.326122
  C       0.452223      0.699110     -0.290478
  C      -0.338731     -1.577222     -0.197834
  C       1.757351      0.253239     -0.107391
  C       0.966204     -2.023173     -0.013370
  C       2.015600     -1.108257      0.036263
  H      -2.024644      1.192792     -1.127883
  H      -2.610164     -0.490864     -1.057762
  H      -2.039372      2.571031      0.869330
  H      -1.128929      1.357410      1.825196
  H      -2.734180      1.906209      2.384528
  H      -4.067522      1.913504     -0.300987
  H      -4.718333      1.287453      1.244460
  H      -4.652072      0.221412     -0.195720
  H      -1.900203     -0.910168      1.960159
  H      -3.353293     -1.431963      1.043443
  H      -3.520633     -0.360921      2.472834
  H       0.251651      1.760443     -0.413875
  H      -1.155940     -2.292397     -0.247783
  H       2.574085      0.968906     -0.083055
  H       1.164748     -3.086673      0.083622
  H       3.035016     -1.456966      0.175615
  F      -7.612070     -1.864404      3.410022
  F      -6.125584     -0.411206      2.703942
  F      -8.099471     -0.387189      5.619659
  F      -6.046335     -1.098859      5.318105
  F      -8.451309     -0.423631      1.412137
  F      -7.983201      1.482087      2.391312
  F      -7.425633      2.115924      5.020823
  F      -6.150273      1.228804      6.568052
  F      -9.919229      1.105088      4.209603
  F     -10.663089      0.656302      2.220865
  F     -10.211153     -0.967926      3.598337
  O      -4.080061      1.025883      4.782590
  O      -5.238879      2.592493      3.629330
  C      -7.271592     -0.552767      3.416518
  C      -6.959390     -0.184916      4.903442
  C      -8.379594      0.210844      2.608491
  C      -6.405502      1.234342      5.221352
  C      -9.830011      0.247976      3.188300
  C      -5.099433      1.664109      4.448712
46
Coordinates from ORCA-job R4N+PFHxA-_0.15M E -1922.674820597017
  N      -2.791249      0.575377      0.760189
  C      -2.038710      0.252310     -0.533582
  C      -2.131625      1.692447      1.509544
  C      -4.179818      1.006428      0.380137
  C      -2.879889     -0.626945      1.652944
  C      -0.626805     -0.212101     -0.331168
  C       0.426244      0.707158     -0.313415
  C      -0.344062     -1.575071     -0.200271
  C       1.737060      0.272839     -0.144731
  C       0.966114     -2.009123     -0.026026
  C       2.008128     -1.085239      0.005712
  H      -2.068035      1.171955     -1.124305
  H      -2.635732     -0.516829     -1.031478
  H      -2.066650      2.566187      0.858059
  H      -1.137869      1.374186      1.827708
  H      -2.751205      1.909711      2.381002
  H      -4.106608      1.881865     -0.268288
  H      -4.719328      1.261136      1.294960
  H      -4.675672      0.185351     -0.141180
  H      -1.876831     -0.911595      1.973126
  H      -3.355600     -1.439432      1.099824
  H      -3.480545     -0.349148      2.521449
  H       0.215588      1.765899     -0.442176
  H      -1.155887     -2.296934     -0.240330
  H       2.548175      0.995184     -0.135514
  H       1.174866     -3.070499      0.072537
  H       3.032114     -1.424693      0.133908
  F      -7.617845     -1.867600      3.414603
  F      -6.088076     -0.441398      2.745456
  F      -8.144276     -0.365276      5.603044
  F      -6.096272     -1.113500      5.368420
  F      -8.375195     -0.424399      1.387656
  F      -7.898573      1.477655      2.367445
  F      -7.422054      2.115151      5.019380
  F      -6.167259      1.225504      6.583155
  F      -9.893723      1.156729      4.126337
  F     -10.591508      0.690523      2.124524
  F     -10.204628     -0.919826      3.535707
  O      -4.090800      0.956819      4.791211
  O      -5.196761      2.607578      3.702332
  C      -7.255091     -0.561129      3.425294
  C      -6.980661     -0.187998      4.917446
  C      -8.325922      0.215519      2.581488
  C      -6.413190      1.224119      5.234440
  C      -9.792093      0.283516      3.120168
  C      -5.089954      1.638783      4.481191
46
Coordinates from ORCA-job R4N+PFHxA-_0.15M E -1922.674872457318
  N      -2.787721      0.573907      0.756182
  C      -2.030659      0.250751     -0.535059
  C      -2.126478      1.687399      1.510352
  C      -4.173208      1.007491      0.370553
  C      -2.881763     -0.629900      1.645431
  C      -0.619020     -0.213103     -0.328427
  C       0.433381      0.707136     -0.310548
  C      -0.335560     -1.575497     -0.192540
  C       1.744168      0.274455     -0.136059
  C       0.975118     -2.008399     -0.018478
  C       2.016442     -1.083499      0.014223
  H      -2.058542      1.170110     -1.126346
  H      -2.625922     -0.518200     -1.035456
  H      -2.058711      2.562978      0.861545
  H      -1.133517      1.366041      1.827757
  H      -2.745118      1.905062      2.383891
  H      -4.095399      1.882625     -0.277753
  H      -4.719191      1.262378      1.281012
  H      -4.666248      0.186333     -0.153581
  H      -1.880671     -0.913735      1.972511
  H      -3.350967     -1.443116      1.087711
  H      -3.490995     -0.356727      2.509266
  H       0.222456      1.765684     -0.440473
  H      -1.146713     -2.298280     -0.230561
  H       2.554665      0.997534     -0.125644
  H       1.184533     -3.069342      0.083507
  H       3.040435     -1.421770      0.145555
  F      -7.626489     -1.861046      3.402104
  F      -6.110422     -0.426156      2.720065
  F      -8.124744     -0.376437      5.606428
  F      -6.077959     -1.115784      5.333497
  F      -8.416840     -0.410137      1.393433
  F      -7.936365      1.489376      2.377466
  F      -7.416449      2.112818      5.021183
  F      -6.154665      1.214350      6.573918
  F      -9.903362      1.142934      4.167015
  F     -10.626568      0.697945      2.169589
  F     -10.215225     -0.927655      3.557560
  O      -4.082071      0.979911      4.787048
  O      -5.208612      2.594776      3.668796
  C      -7.268498     -0.553715      3.414829
  C      -6.972332     -0.190087      4.904992
  C      -8.353871      0.224132      2.589997
  C      -6.405447      1.221795      5.226048
  C      -9.812596      0.282000      3.149565
  C      -5.089990      1.643856      4.465825
46
Coordinates from ORCA-job R4N+PFHxA-_0.15M E -1922.674883388994
  N      -2.786081      0.571654      0.755193
  C      -2.028090      0.248462     -0.535550
  C      -2.122872      1.683651      1.510815
  C      -4.170728      1.006369      0.368130
  C      -2.881475     -0.633205      1.642935
  C      -0.615956     -0.213736     -0.328336
  C       0.435236      0.708033     -0.311865
  C      -0.330593     -1.575569     -0.190603
  C       1.746776      0.277384     -0.137351
  C       0.980754     -2.006374     -0.015928
  C       2.020911     -1.079983      0.015300
  H      -2.056913      1.167265     -1.127722
  H      -2.622502     -0.521084     -1.036142
  H      -2.053527      2.559511      0.862500
  H      -1.130422      1.360510      1.827732
  H      -2.740451      1.902567      2.385048
  H      -4.091751      1.881173     -0.280532
  H      -4.719859      1.261073      1.276515
  H      -4.662211      0.184873     -0.157114
  H      -1.880856     -0.917179      1.971439
  H      -3.348800     -1.446752      1.084042
  H      -3.493184     -0.362318      2.505600
  H       0.223118      1.766236     -0.442614
  H      -1.140694     -2.299676     -0.226239
  H       2.556308      1.001582     -0.127638
  H       1.191619     -3.066797      0.088534
  H       3.045325     -1.416568      0.147683
  F      -7.630666     -1.857661      3.396924
  F      -6.118461     -0.419076      2.712787
  F      -8.121351     -0.379166      5.607799
  F      -6.075407     -1.116684      5.323900
  F      -8.429617     -0.401688      1.395087
  F      -7.949012      1.495773      2.383474
  F      -7.416244      2.112637      5.021535
  F      -6.153968      1.212387      6.572667
  F      -9.908263      1.138491      4.180774
  F     -10.637892      0.703624      2.183638
  F     -10.220029     -0.929157      3.561855
  O      -4.081967      0.983144      4.788559
  O      -5.211543      2.590455      3.660850
  C      -7.274222     -0.550199      3.412092
  C      -6.971847     -0.190723      4.902280
  C      -8.363374      0.229353      2.593408
  C      -6.405052      1.221533      5.224699
  C      -9.820137      0.283195      3.158464
  C      -5.091743      1.643854      4.463306
46
Coordinates from ORCA-job R4N+PFHxA-_0.15M E -1922.674891224166
  N      -2.785498      0.569609      0.756576
  C      -2.028262      0.246409     -0.534458
  C      -2.122304      1.681974      1.511844
  C      -4.170505      1.003112      0.370547
  C      -2.879487     -0.634774      1.644895
  C      -0.615340     -0.213894     -0.328181
  C       0.434646      0.709285     -0.313186
  C      -0.328046     -1.575254     -0.189844
  C       1.746935      0.280471     -0.139480
  C       0.984111     -2.004294     -0.016809
  C       2.023111     -1.076524      0.012922
  H      -2.058960      1.164558     -1.127575
  H      -2.622196     -0.524118     -1.034151
  H      -2.054130      2.557785      0.863307
  H      -1.129580      1.359375      1.828250
  H      -2.739936      1.900758      2.386109
  H      -4.093202      1.877137     -0.279376
  H      -4.719589      1.257817      1.278884
  H      -4.661239      0.180410     -0.153600
  H      -1.878520     -0.918659      1.972419
  H      -3.346949     -1.449242      1.087392
  H      -3.490909     -0.363854      2.507838
  H       0.221266      1.767241     -0.443827
  H      -1.137174     -2.300531     -0.224002
  H       2.555519      1.005745     -0.130593
  H       1.196521     -3.064377      0.088000
  H       3.048107     -1.411663      0.144476
  F      -7.633307     -1.855623      3.393718
  F      -6.120666     -0.416232      2.711806
  F      -8.122587     -0.378295      5.606936
  F      -6.077890     -1.118194      5.321096
  F      -8.433973     -0.399292      1.394558
  F      -7.951518      1.498167      2.382003
  F      -7.414559      2.113336      5.021930
  F      -6.153344      1.209917      6.572031
  F      -9.907749      1.141502      4.182867
  F     -10.640551      0.709468      2.186258
  F     -10.222820     -0.925166      3.562537
  O      -4.081518      0.980442      4.787845
  O      -5.210921      2.584584      3.656140
  C      -7.276850     -0.548440      3.410503
  C      -6.973279     -0.190982      4.901002
  C      -8.366086      0.232118      2.592583
  C      -6.404570      1.220848      5.223873
  C      -9.822072      0.287164      3.159580
  C      -5.091844      1.641368      4.462287
46
Coordinates from ORCA-job R4N+PFHxA-_0.15M E -1922.674901723785
  N      -2.785310      0.566701      0.760102
  C      -2.030794      0.242476     -0.532212
  C      -2.121771      1.681435      1.512368
  C      -4.172109      0.997249      0.376693
  C      -2.874964     -0.636593      1.650499
  C      -0.616392     -0.214619     -0.329063
  C       0.431697      0.710831     -0.317802
  C      -0.325827     -1.575166     -0.189790
  C       1.745358      0.285007     -0.146987
  C       0.987774     -2.001284     -0.020305
  C       2.024907     -1.071311      0.005637
  H      -2.065148      1.159169     -1.127384
  H      -2.624626     -0.530178     -1.028759
  H      -2.055938      2.555969      0.861831
  H      -1.128165      1.360905      1.828008
  H      -2.738761      1.901431      2.386680
  H      -4.098853      1.869835     -0.275630
  H      -4.719968      1.252014      1.285633
  H      -4.662091      0.172353     -0.144829
  H      -1.872493     -0.920045      1.973790
  H      -3.344278     -1.452674      1.096864
  H      -3.482676     -0.364948      2.515774
  H       0.215947      1.768297     -0.448477
  H      -1.133455     -2.302288     -0.220365
  H       2.552404      1.012022     -0.140683
  H       1.202712     -3.060784      0.085267
  H       3.050953     -1.404125      0.134897
  F      -7.636623     -1.853436      3.391659
  F      -6.119186     -0.415911      2.716166
  F      -8.130090     -0.374722      5.604916
  F      -6.086923     -1.120504      5.325299
  F      -8.428123     -0.394283      1.391083
  F      -7.945947      1.501637      2.381708
  F      -7.413977      2.114674      5.022298
  F      -6.158443      1.208502      6.575288
  F      -9.908637      1.146828      4.175692
  F     -10.635706      0.716912      2.176516
  F     -10.224436     -0.919092      3.553290
  O      -4.084476      0.969208      4.790988
  O      -5.204286      2.582074      3.662393
  C      -7.278184     -0.547134      3.410784
  C      -6.978130     -0.191099      4.902474
  C      -8.363214      0.236148      2.589798
  C      -6.406629      1.220179      5.226147
  C      -9.820826      0.292983      3.152110
  C      -5.092011      1.636552      4.467564
46
Coordinates from ORCA-job R4N+PFHxA-_0.15M E -1922.674911680654
  N      -2.785554      0.564862      0.763484
  C      -2.033294      0.240242     -0.530153
  C      -2.122203      1.681541      1.512884
  C      -4.173715      0.992779      0.382292
  C      -2.871127     -0.637679      1.655394
  C      -0.617772     -0.214643     -0.329930
  C       0.428991      0.712347     -0.321286
  C      -0.324786     -1.574724     -0.191455
  C       1.743693      0.288489     -0.153947
  C       0.989770     -1.998788     -0.024261
  C       2.025555     -1.067311     -0.000972
  H      -2.070237      1.156175     -1.126310
  H      -2.627192     -0.533924     -1.024260
  H      -2.058490      2.555099      0.860818
  H      -1.127717      1.362577      1.827351
  H      -2.738000      1.902550      2.387677
  H      -4.103856      1.864394     -0.271677
  H      -4.720428      1.247356      1.291980
  H      -4.663442      0.166409     -0.137160
  H      -1.867117     -0.920598      1.974383
  H      -3.342196     -1.454809      1.104823
  H      -3.474678     -0.365477      2.523452
  H       0.211419      1.769460     -0.451792
  H      -1.131374     -2.303082     -0.220045
  H       2.549651      1.016721     -0.149759
  H       1.206500     -3.057943      0.081111
  H       3.052382     -1.398578      0.126036
  F      -7.639128     -1.853154      3.393542
  F      -6.115880     -0.419052      2.723878
  F      -8.139718     -0.368505      5.603393
  F      -6.098131     -1.121813      5.334498
  F      -8.419805     -0.394773      1.388656
  F      -7.936933      1.501302      2.378631
  F      -7.413217      2.117433      5.022202
  F      -6.163782      1.208919      6.578804
  F      -9.907539      1.154267      4.164847
  F     -10.627963      0.722094      2.163695
  F     -10.225540     -0.912183      3.545032
  O      -4.088050      0.956267      4.792919
  O      -5.197294      2.578548      3.668764
  C      -7.278405     -0.547692      3.413157
  C      -6.984158     -0.190243      4.905722
  C      -8.358174      0.237086      2.586693
  C      -6.409127      1.220198      5.228949
  C      -9.817687      0.298232      3.143150
  C      -5.091962      1.630816      4.472721
46
Coordinates from ORCA-job R4N+PFHxA-_0.15M E -1922.674924059370
  N      -2.786111      0.563626      0.767495
  C      -2.036489      0.238460     -0.527803
  C      -2.122577      1.682478      1.513170
  C      -4.175863      0.988832      0.388510
  C      -2.867034     -0.638299      1.660807
  C      -0.619945     -0.214638     -0.330909
  C       0.425763      0.713574     -0.324773
  C      -0.324963     -1.574323     -0.193060
  C       1.741316      0.291324     -0.160576
  C       0.990509     -1.996825     -0.029260
  C       2.025194     -1.064158     -0.008538
  H      -2.075679      1.153837     -1.124611
  H      -2.630764     -0.537090     -1.019222
  H      -2.061115      2.554761      0.859193
  H      -1.126942      1.365143      1.825828
  H      -2.736054      1.905141      2.389044
  H      -4.109176      1.859580     -0.266909
  H      -4.721304      1.243389      1.299002
  H      -4.665693      0.161203     -0.128818
  H      -1.861100     -0.920109      1.974776
  H      -3.339833     -1.456285      1.113078
  H      -3.465338     -0.365933      2.532405
  H       0.206425      1.770381     -0.454835
  H      -1.130773     -2.303604     -0.219975
  H       2.546354      1.020570     -0.158464
  H       1.208724     -3.055767      0.075184
  H       3.052741     -1.394249      0.115674
  F      -7.640953     -1.853248      3.396989
  F      -6.111264     -0.423481      2.733105
  F      -8.150308     -0.361009      5.601899
  F      -6.110201     -1.122322      5.345842
  F      -8.408199     -0.395970      1.385684
  F      -7.926107      1.500274      2.375786
  F      -7.412223      2.121016      5.021453
  F      -6.170229      1.210644      6.583082
  F      -9.907371      1.161338      4.150582
  F     -10.618293      0.724604      2.146995
  F     -10.225418     -0.906429      3.534691
  O      -4.092171      0.942633      4.796600
  O      -5.188515      2.574708      3.676284
  C      -7.277663     -0.548572      3.416299
  C      -6.990639     -0.188585      4.909772
  C      -8.351484      0.237183      2.583180
  C      -6.411903      1.220630      5.232679
  C      -9.813605      0.302186      3.131712
  C      -5.091441      1.624574      4.478883
46
Coordinates from ORCA-job R4N+PFHxA-_0.15M E -1922.674940125616
  N      -2.786709      0.562966      0.773009
  C      -2.040155      0.237290     -0.524433
  C      -2.122431      1.683539      1.514511
  C      -4.177727      0.985729      0.396242
  C      -2.862978     -0.638535      1.667200
  C      -0.622539     -0.214340     -0.331690
  C       0.422395      0.714757     -0.329601
  C      -0.325774     -1.573721     -0.194699
  C       1.738839      0.293777     -0.169927
  C       0.990520     -1.994877     -0.034334
  C       2.024351     -1.061271     -0.017373
  H      -2.081505      1.152353     -1.121501
  H      -2.635119     -0.539443     -1.013077
  H      -2.062975      2.554557      0.858679
  H      -1.125541      1.367180      1.824363
  H      -2.732021      1.908571      2.392561
  H      -4.113158      1.855881     -0.260158
  H      -4.722170      1.240697      1.307245
  H      -4.667977      0.157252     -0.119247
  H      -1.854927     -0.918860      1.975801
  H      -3.337456     -1.456840      1.121541
  H      -3.455444     -0.366738      2.543002
  H       0.201353      1.771163     -0.460078
  H      -1.131097     -2.303628     -0.219030
  H       2.543175      1.023792     -0.171239
  H       1.209961     -3.053594      0.069793
  H       3.052599     -1.390394      0.103563
  F      -7.643158     -1.854295      3.401838
  F      -6.106450     -0.429928      2.743012
  F      -8.162059     -0.352445      5.599729
  F      -6.123532     -1.122602      5.358125
  F      -8.395917     -0.399710      1.382512
  F      -7.914052      1.497441      2.371145
  F      -7.411183      2.124979      5.018807
  F      -6.178184      1.212885      6.586841
  F      -9.906634      1.169387      4.133857
  F     -10.607667      0.726189      2.128215
  F     -10.225590     -0.900240      3.524012
  O      -4.096065      0.929859      4.803237
  O      -5.179105      2.568767      3.682780
  C      -7.276847     -0.550399      3.419671
  C      -6.997885     -0.186545      4.913696
  C      -8.344233      0.235820      2.578849
  C      -6.415153      1.220914      5.236099
  C      -9.809150      0.305947      3.118888
  C      -5.090337      1.617907      4.485495
46
Coordinates from ORCA-job R4N+PFHxA-_0.15M E -1922.674962476917
  N      -2.787485      0.562881      0.780598
  C      -2.045824      0.236639     -0.519980
  C      -2.120652      1.684617      1.517120
  C      -4.180216      0.984058      0.407596
  C      -2.858427     -0.638498      1.675478
  C      -0.627076     -0.213952     -0.333081
  C       0.417234      0.715833     -0.335375
  C      -0.328793     -1.573131     -0.197113
  C       1.734564      0.295800     -0.180906
  C       0.988452     -1.993403     -0.042636
  C       2.021657     -1.059066     -0.029965
  H      -2.089761      1.151598     -1.116960
  H      -2.642310     -0.540870     -1.005454
  H      -2.063290      2.554161      0.859154
  H      -1.122311      1.368741      1.823045
  H      -2.724912      1.912763      2.398089
  H      -4.117334      1.853805     -0.249538
  H      -4.722455      1.240203      1.319592
  H      -4.671859      0.155119     -0.105682
  H      -1.847826     -0.917395      1.977176
  H      -3.335818     -1.456533      1.132133
  H      -3.443272     -0.367370      2.556590
  H       0.194465      1.771978     -0.465077
  H      -1.133841     -2.303426     -0.218552
  H       2.538326      1.026424     -0.185729
  H       1.209013     -3.052018      0.060105
  H       3.050645     -1.387510      0.086430
  F      -7.644511     -1.856258      3.410043
  F      -6.098504     -0.439298      2.757068
  F      -8.176197     -0.341198      5.597401
  F      -6.139158     -1.121133      5.375295
  F      -8.376242     -0.406504      1.377980
  F      -7.897704      1.492503      2.364958
  F      -7.410726      2.130234      5.012865
  F      -6.189324      1.219910      6.591173
  F      -9.906395      1.177141      4.109534
  F     -10.592049      0.724141      2.100800
  F     -10.224097     -0.895311      3.508124
  O      -4.100955      0.917475      4.815954
  O      -5.168116      2.560723      3.689105
  C      -7.274282     -0.553214      3.424805
  C      -7.006153     -0.183173      4.919446
  C      -8.333052      0.232432      2.572750
  C      -6.419637      1.222550      5.240037
  C      -9.802303      0.307922      3.100156
  C      -5.089200      1.610803      4.493376
46
Coordinates from ORCA-job R4N+PFHxA-_0.15M E -1922.675002973868
  N      -2.789132      0.562762      0.797486
  C      -2.058409      0.233753     -0.509297
  C      -2.116666      1.687031      1.523622
  C      -4.184852      0.981515      0.433589
  C      -2.850348     -0.637436      1.694910
  C      -0.637247     -0.214466     -0.334792
  C       0.405807      0.716589     -0.349670
  C      -0.335813     -1.573031     -0.199006
  C       1.725111      0.298585     -0.207154
  C       0.983340     -1.991216     -0.056005
  C       2.015344     -1.055461     -0.055411
  H      -2.108599      1.147434     -1.107672
  H      -2.658284     -0.545788     -0.987253
  H      -2.063825      2.553723      0.861510
  H      -1.115602      1.372069      1.821697
  H      -2.710766      1.921059      2.410283
  H      -4.124950      1.849810     -0.225821
  H      -4.720963      1.241715      1.347945
  H      -4.680230      0.151415     -0.073963
  H      -1.835594     -0.914868      1.983981
  H      -3.334594     -1.455051      1.157235
  H      -3.421638     -0.366146      2.585020
  H       0.179923      1.771969     -0.480228
  H      -1.140295     -2.304163     -0.211286
  H       2.527809      1.030252     -0.221822
  H       1.206206     -3.049323      0.046975
  H       3.045844     -1.382292      0.051805
  F      -7.643298     -1.859534      3.417139
  F      -6.082573     -0.453276      2.776382
  F      -8.198519     -0.326781      5.587055
  F      -6.162931     -1.119643      5.398126
  F      -8.339788     -0.416191      1.365906
  F      -7.867579      1.485205      2.351904
  F      -7.412065      2.136186      5.000013
  F      -6.213766      1.228078      6.597505
  F      -9.902886      1.188056      4.065878
  F     -10.562308      0.721986      2.051420
  F     -10.218439     -0.887992      3.475254
  O      -4.105425      0.906410      4.848558
  O      -5.150932      2.549712      3.703460
  C      -7.267207     -0.557834      3.428739
  C      -7.018271     -0.179248      4.924278
  C      -8.311153      0.227510      2.558429
  C      -6.428353      1.224060      5.244770
  C      -9.787690      0.311076      3.064599
  C      -5.086108      1.602972      4.511838
46
Coordinates from ORCA-job R4N+PFHxA-_0.15M E -1922.675074865866
  N      -2.790789      0.567317      0.822136
  C      -2.077767      0.235377     -0.494137
  C      -2.107148      1.690875      1.537128
  C      -4.190322      0.987940      0.473778
  C      -2.841221     -0.632587      1.721232
  C      -0.654748     -0.214051     -0.338990
  C       0.388895      0.715994     -0.368498
  C      -0.352794     -1.572976     -0.207305
  C       1.709642      0.296697     -0.243897
  C       0.967811     -1.992489     -0.082978
  C       2.000618     -1.057641     -0.096543
  H      -2.135131      1.148508     -1.092708
  H      -2.685102     -0.543815     -0.963187
  H      -2.058905      2.555335      0.871700
  H      -1.103303      1.374539      1.824356
  H      -2.688560      1.931501      2.430557
  H      -4.133441      1.855154     -0.187512
  H      -4.715314      1.253570      1.393114
  H      -4.693264      0.158252     -0.026670
  H      -1.821907     -0.911535      1.992487
  H      -3.337676     -1.448000      1.191681
  H      -3.393600     -0.359508      2.622817
  H       0.161902      1.771494     -0.496090
  H      -1.158270     -2.303113     -0.208262
  H       2.512774      1.027574     -0.269679
  H       1.191063     -3.050797      0.016945
  H       3.032185     -1.385442     -0.003536
  F      -7.637413     -1.868555      3.440238
  F      -6.051666     -0.480915      2.819640
  F      -8.232639     -0.302302      5.576523
  F      -6.198042     -1.109422      5.445835
  F      -8.268472     -0.443991      1.350842
  F      -7.815148      1.465144      2.331240
  F      -7.419661      2.146923      4.976052
  F      -6.253877      1.256335      6.606891
  F      -9.896981      1.195175      3.990076
  F     -10.505125      0.705908      1.964998
  F     -10.204714     -0.886989      3.417169
  O      -4.117489      0.898396      4.903268
  O      -5.132488      2.531852      3.716632
  C      -7.252271     -0.569006      3.443035
  C      -7.036393     -0.170772      4.938943
  C      -8.269498      0.211013      2.537449
  C      -6.445240      1.232929      5.251619
  C      -9.759006      0.305386      3.003229
  C      -5.087217      1.595912      4.536313
46
Coordinates from ORCA-job R4N+PFHxA-_0.15M E -1922.675152918006
  N      -2.791396      0.572104      0.841941
  C      -2.093767      0.235344     -0.481220
  C      -2.097891      1.695920      1.547631
  C      -4.193641      0.995270      0.508364
  C      -2.834812     -0.625694      1.743609
  C      -0.669701     -0.215432     -0.341297
  C       0.374550      0.713415     -0.384257
  C      -0.367918     -1.574505     -0.210388
  C       1.696219      0.292731     -0.273922
  C       0.953612     -1.995472     -0.101368
  C       1.987359     -1.061824     -0.128601
  H      -2.157429      1.146601     -1.082085
  H      -2.707618     -0.543967     -0.941683
  H      -2.053903      2.559083      0.880139
  H      -1.091937      1.379053      1.826663
  H      -2.671327      1.939963      2.445336
  H      -4.139780      1.860901     -0.155385
  H      -4.706994      1.266553      1.432593
  H      -4.703968      0.165704      0.015322
  H      -1.813311     -0.908731      2.001982
  H      -3.342568     -1.439151      1.221848
  H      -3.374356     -0.349998      2.652373
  H       0.147595      1.769081     -0.510470
  H      -1.174101     -2.303808     -0.200747
  H       2.499941      1.022544     -0.309863
  H       1.176893     -3.053866     -0.002416
  H       3.019561     -1.390671     -0.047058
  F      -7.629307     -1.876249      3.450770
  F      -6.028818     -0.500317      2.841907
  F      -8.251889     -0.292667      5.561969
  F      -6.215907     -1.102230      5.470157
  F      -8.218100     -0.465911      1.337147
  F      -7.776910      1.449197      2.311238
  F      -7.428213      2.150055      4.955205
  F      -6.289435      1.272024      6.611303
  F      -9.887293      1.194897      3.937919
  F     -10.461640      0.696628      1.905261
  F     -10.191942     -0.889243      3.371355
  O      -4.121035      0.910892      4.956566
  O      -5.123945      2.524568      3.729863
  C      -7.238899     -0.578097      3.447673
  C      -7.045172     -0.167441      4.942614
  C      -8.237886      0.197796      2.518862
  C      -6.458429      1.238309      5.252716
  C      -9.735177      0.299472      2.958485
  C      -5.087027      1.598363      4.559876
46
Coordinates from ORCA-job R4N+PFHxA-_0.15M E -1922.675232382782
  N      -2.789523      0.580996      0.856103
  C      -2.105599      0.241244     -0.472735
  C      -2.085459      1.701746      1.558459
  C      -4.193756      1.010417      0.537140
  C      -2.830516     -0.615495      1.758227
  C      -0.682087     -0.214363     -0.345475
  C       0.364810      0.711262     -0.394958
  C      -0.383846     -1.574652     -0.219442
  C       1.686006      0.286054     -0.295337
  C       0.937240     -2.000203     -0.121859
  C       1.973905     -1.069841     -0.155098
  H      -2.172977      1.151586     -1.074743
  H      -2.726567     -0.535790     -0.927740
  H      -2.043912      2.565313      0.891219
  H      -1.078824      1.383365      1.832597
  H      -2.657027      1.945415      2.457234
  H      -4.144152      1.875712     -0.127512
  H      -4.696209      1.283952      1.466766
  H      -4.710607      0.181928      0.048893
  H      -1.809034     -0.908892      2.004548
  H      -3.352157     -1.425475      1.244527
  H      -3.359276     -0.336035      2.672140
  H       0.141399      1.768137     -0.517091
  H      -1.191945     -2.301739     -0.203570
  H       2.491993      1.013155     -0.335616
  H       1.158025     -3.059397     -0.025859
  H       3.005613     -1.402145     -0.081805
  F      -7.627749     -1.887794      3.476252
  F      -6.008918     -0.530309      2.873883
  F      -8.271390     -0.277711      5.556142
  F      -6.236090     -1.091841      5.503834
  F      -8.172448     -0.506154      1.332994
  F      -7.739269      1.421380      2.285360
  F      -7.436160      2.154676      4.933760
  F      -6.318839      1.295996      6.613645
  F      -9.874459      1.195593      3.887402
  F     -10.417580      0.683499      1.849488
  F     -10.183865     -0.891106      3.334736
  O      -4.132411      0.916934      4.998249
  O      -5.117174      2.515649      3.731457
  C      -7.229655     -0.592284      3.461127
  C      -7.055332     -0.163286      4.953027
  C      -8.208337      0.175349      2.504461
  C      -6.470770      1.246794      5.251429
  C      -9.711902      0.290656      2.918391
  C      -5.090881      1.598897      4.573282
46
Coordinates from ORCA-job R4N+PFHxA-_0.15M E -1922.675304765257
  N      -2.794323      0.590083      0.885557
  C      -2.134006      0.245387     -0.453840
  C      -2.077395      1.711357      1.572743
  C      -4.202319      1.023501      0.591008
  C      -2.822155     -0.605607      1.793144
  C      -0.709749     -0.213709     -0.349790
  C       0.338661      0.709271     -0.414196
  C      -0.413125     -1.574919     -0.230262
  C       1.660142      0.280447     -0.336133
  C       0.908224     -2.004058     -0.153820
  C       1.946677     -1.076378     -0.202003
  H      -2.209684      1.154134     -1.057267
  H      -2.764543     -0.531258     -0.896365
  H      -2.045130      2.572880      0.902342
  H      -1.067444      1.391557      1.832205
  H      -2.635587      1.959167      2.478474
  H      -4.161824      1.886617     -0.077188
  H      -4.686737      1.301285      1.529374
  H      -4.730992      0.195414      0.114815
  H      -1.798238     -0.909375      2.015510
  H      -3.363457     -1.413669      1.296847
  H      -3.326877     -0.315691      2.717772
  H       0.116654      1.767042     -0.530971
  H      -1.222684     -2.300038     -0.202329
  H       2.467363      1.005484     -0.387581
  H       1.127798     -3.063935     -0.062633
  H       2.978528     -1.411400     -0.144813
  F      -7.614010     -1.901413      3.503284
  F      -5.964001     -0.569149      2.927761
  F      -8.307781     -0.249171      5.533030
  F      -6.277223     -1.075865      5.560293
  F      -8.072986     -0.551204      1.318197
  F      -7.660034      1.388781      2.254852
  F      -7.440289      2.166762      4.896306
  F      -6.374029      1.332521      6.621066
  F      -9.848933      1.198034      3.789370
  F     -10.324767      0.665395      1.739820
  F     -10.155066     -0.892854      3.251173
  O      -4.142934      0.910882      5.065063
  O      -5.093692      2.497702      3.754472
  C      -7.203732     -0.610060      3.477815
  C      -7.072964     -0.153728      4.966276
  C      -8.144025      0.148959      2.476883
  C      -6.489079      1.259940      5.255027
  C      -9.659780      0.280195      2.837339
  C      -5.090166      1.591878      4.609307
46
Coordinates from ORCA-job R4N+PFHxA-_0.15M E -1922.675365274844
  N      -2.805279      0.624615      0.918516
  C      -2.174079      0.273641     -0.432411
  C      -2.067584      1.739537      1.594290
  C      -4.214064      1.073508      0.656808
  C      -2.828658     -0.569085      1.828087
  C      -0.755681     -0.207658     -0.352850
  C       0.306374      0.698906     -0.424833
  C      -0.479282     -1.574138     -0.247678
  C       1.621712      0.248402     -0.369804
  C       0.835955     -2.024850     -0.191919
  C       1.888366     -1.113742     -0.248533
  H      -2.247352      1.183897     -1.033886
  H      -2.823292     -0.493308     -0.864792
  H      -2.044923      2.603744      0.926983
  H      -1.055154      1.412896      1.834185
  H      -2.613238      1.984008      2.507606
  H      -4.183799      1.937346     -0.010980
  H      -4.671828      1.351516      1.609059
  H      -4.762581      0.251647      0.191865
  H      -1.807362     -0.899690      2.021268
  H      -3.401020     -1.367717      1.351126
  H      -3.304716     -0.266689      2.763764
  H       0.100989      1.761169     -0.530676
  H      -1.299593     -2.286826     -0.213188
  H       2.439744      0.960780     -0.426984
  H       1.039813     -3.088753     -0.111561
  H       2.915396     -1.465608     -0.208015
  F      -7.575660     -1.937593      3.559416
  F      -5.886641     -0.643185      3.008896
  F      -8.338706     -0.221041      5.500928
  F      -6.311273     -1.042959      5.644920
  F      -7.919897     -0.657866      1.312201
  F      -7.527358      1.308716      2.200994
  F      -7.448746      2.174170      4.828384
  F      -6.448441      1.398332      6.618437
  F      -9.786567      1.181700      3.649160
  F     -10.168828      0.611092      1.590007
  F     -10.095426     -0.915888      3.140988
  O      -4.156450      0.925436      5.146674
  O      -5.070365      2.479554      3.771244
  C      -7.150222     -0.652572      3.508776
  C      -7.081156     -0.144139      4.985182
  C      -8.035323      0.082073      2.441984
  C      -6.510800      1.283164      5.248734
  C      -9.563709      0.240712      2.726976
  C      -5.091008      1.593939      4.648585
46
Coordinates from ORCA-job R4N+PFHxA-_0.15M E -1922.675433763486
  N      -2.802276      0.616060      0.913599
  C      -2.165586      0.264467     -0.435103
  C      -2.068899      1.735898      1.588459
  C      -4.214260      1.057428      0.642699
  C      -2.823572     -0.576587      1.825298
  C      -0.744833     -0.209356     -0.351324
  C       0.312563      0.702432     -0.425747
  C      -0.461340     -1.573986     -0.240648
  C       1.630143      0.259155     -0.366733
  C       0.856134     -2.017580     -0.181957
  C       1.903780     -1.101131     -0.240619
  H      -2.240977      1.173367     -1.038266
  H      -2.809834     -0.506896     -0.866797
  H      -2.045625      2.596417      0.916429
  H      -1.056208      1.412606      1.832477
  H      -2.614651      1.984960      2.501721
  H      -4.185291      1.920090     -0.026605
  H      -4.677096      1.334539      1.591538
  H      -4.756480      0.232147      0.176520
  H      -1.800257     -0.898956      2.022073
  H      -3.388714     -1.379173      1.346702
  H      -3.301794     -0.274537      2.759297
  H       0.100875      1.762964     -0.536551
  H      -1.278204     -2.290574     -0.205450
  H       2.444351      0.975677     -0.426386
  H       1.065268     -3.080165     -0.097929
  H       2.932597     -1.447518     -0.198411
  F      -7.593269     -1.928676      3.548347
  F      -5.909124     -0.632788      2.991311
  F      -8.335768     -0.223802      5.508362
  F      -6.310140     -1.054909      5.624993
  F      -7.960609     -0.635939      1.312215
  F      -7.553273      1.324249      2.208084
  F      -7.442994      2.172044      4.846560
  F      -6.428788      1.377326      6.620619
  F      -9.799056      1.197633      3.675101
  F     -10.205455      0.629754      1.619884
  F     -10.115249     -0.899120      3.167771
  O      -4.156742      0.906407      5.124530
  O      -5.063445      2.482383      3.771314
  C      -7.167471     -0.643613      3.501186
  C      -7.082984     -0.146920      4.980693
  C      -8.062497      0.097739      2.447495
  C      -6.504270      1.274065      5.252488
  C      -9.587673      0.257685      2.749338
  C      -5.088719      1.585927      4.639354
46
Coordinates from ORCA-job R4N+PFHxA-_0.15M E -1922.675482188333
  N      -2.805927      0.622416      0.921275
  C      -2.173948      0.268896     -0.429262
  C      -2.066265      1.737967      1.593912
  C      -4.216557      1.067123      0.653077
  C      -2.829302     -0.568317      1.832282
  C      -0.754149     -0.208710     -0.349883
  C       0.305088      0.700311     -0.431072
  C      -0.473419     -1.573819     -0.237479
  C       1.621838      0.254113     -0.376371
  C       0.843218     -2.020312     -0.182731
  C       1.892749     -1.106439     -0.247672
  H      -2.247545      1.178446     -1.031583
  H      -2.821460     -0.500706     -0.858963
  H      -2.039350      2.598687      0.922316
  H      -1.054670      1.407326      1.833268
  H      -2.604460      1.990576      2.511469
  H      -4.187036      1.930005     -0.015839
  H      -4.675883      1.344126      1.603152
  H      -4.761916      0.243739      0.187370
  H      -1.805490     -0.891476      2.025500
  H      -3.396887     -1.368770      1.353324
  H      -3.301901     -0.265680      2.769076
  H       0.094798      1.760903     -0.544014
  H      -1.292002     -2.288171     -0.197759
  H       2.437345      0.968621     -0.441737
  H       1.050046     -3.083201     -0.097019
  H       2.920908     -1.455171     -0.209213
  F      -7.585225     -1.933259      3.554589
  F      -5.897582     -0.642580      3.000808
  F      -8.337986     -0.219909      5.499992
  F      -6.313032     -1.051297      5.631326
  F      -7.938864     -0.652959      1.307926
  F      -7.534038      1.311344      2.195547
  F      -7.440572      2.172788      4.835314
  F      -6.438663      1.380329      6.618329
  F      -9.790421      1.193434      3.649710
  F     -10.183875      0.614979      1.594905
  F     -10.103027     -0.905940      3.151130
  O      -4.154765      0.909323      5.139776
  O      -5.050361      2.485272      3.781879
  C      -7.158098     -0.648761      3.502088
  C      -7.081983     -0.144847      4.979193
  C      -8.046517      0.086796      2.438761
  C      -6.504620      1.275664      5.251418
  C      -9.573294      0.248921      2.730172
  C      -5.082611      1.589412      4.649648
46
Coordinates from ORCA-job R4N+PFHxA-_0.15M E -1922.675546500943
  N      -2.818083      0.634590      0.950894
  C      -2.208676      0.275061     -0.408643
  C      -2.059990      1.750176      1.607440
  C      -4.233096      1.083830      0.702624
  C      -2.832574     -0.555160      1.867624
  C      -0.789735     -0.208454     -0.350618
  C       0.271737      0.695734     -0.452968
  C      -0.512887     -1.574356     -0.237303
  C       1.587336      0.244342     -0.416967
  C       0.802549     -2.026152     -0.202577
  C       1.854600     -1.116800     -0.287737
  H      -2.286365      1.184265     -1.010867
  H      -2.865712     -0.492963     -0.826319
  H      -2.035280      2.606806      0.930580
  H      -1.047471      1.412004      1.832714
  H      -2.578445      2.012309      2.532918
  H      -4.208849      1.946124      0.032740
  H      -4.675348      1.362288      1.660114
  H      -4.788930      0.262601      0.245846
  H      -1.806219     -0.881416      2.042163
  H      -3.413166     -1.353883      1.401968
  H      -3.282132     -0.240488      2.811045
  H       0.062760      1.756422     -0.567488
  H      -1.334166     -2.284583     -0.182302
  H       2.404452      0.955283     -0.498814
  H       1.006101     -3.089616     -0.116311
  H       2.881800     -1.469671     -0.264812
  F      -7.558171     -1.945475      3.573239
  F      -5.844337     -0.675786      3.053088
  F      -8.364563     -0.200913      5.464877
  F      -6.348100     -1.037127      5.674779
  F      -7.825069     -0.696923      1.291910
  F      -7.439376      1.277190      2.165981
  F      -7.439915      2.178969      4.800185
  F      -6.493640      1.411490      6.623669
  F      -9.748971      1.190206      3.540292
  F     -10.071449      0.584198      1.481313
  F     -10.052626     -0.914754      3.060588
  O      -4.167818      0.901336      5.209518
  O      -5.016771      2.487033      3.831288
  C      -7.120467     -0.664197      3.512447
  C      -7.091461     -0.136257      4.984861
  C      -7.967954      0.058986      2.408250
  C      -6.519155      1.285457      5.259795
  C      -9.503491      0.232011      2.642748
  C      -5.078589      1.587456      4.694159
46
Coordinates from ORCA-job R4N+PFHxA-_0.15M E -1922.675540325941
  N      -2.828783      0.654231      0.961073
  C      -2.231203      0.286877     -0.400721
  C      -2.053945      1.765032      1.612890
  C      -4.241873      1.114633      0.724924
  C      -2.848255     -0.527429      1.879091
  C      -0.816784     -0.210380     -0.347958
  C       0.252883      0.682846     -0.460041
  C      -0.552814     -1.578096     -0.227156
  C       1.564136      0.218854     -0.427703
  C       0.758292     -2.042437     -0.195647
  C       1.818693     -1.143974     -0.291252
  H      -2.302901      1.195674     -1.004318
  H      -2.897292     -0.476052     -0.813356
  H      -2.025456      2.622564      0.937490
  H      -1.043683      1.416632      1.832300
  H      -2.569246      2.025498      2.539311
  H      -4.219711      1.977359      0.055558
  H      -4.673279      1.392636      1.687212
  H      -4.807075      0.297267      0.271946
  H      -1.822982     -0.859305      2.049524
  H      -3.436144     -1.322428      1.415955
  H      -3.291995     -0.213940      2.825049
  H       0.053565      1.744855     -0.579402
  H      -1.380788     -2.279855     -0.164237
  H       2.387724      0.921384     -0.517013
  H       0.951820     -3.107323     -0.103913
  H       2.842515     -1.506663     -0.270379
  F      -7.508276     -1.956582      3.563361
  F      -5.799098     -0.673534      3.061281
  F      -8.350073     -0.221410      5.443012
  F      -6.326476     -1.034133      5.676081
  F      -7.750149     -0.711356      1.274662
  F      -7.400788      1.266459      2.154271
  F      -7.445547      2.167426      4.787483
  F      -6.516346      1.411459      6.625357
  F      -9.731278      1.149609      3.496379
  F     -10.012400      0.548938      1.430027
  F     -10.003329     -0.956427      3.003906
  O      -4.165037      0.937569      5.246788
  O      -5.009194      2.511129      3.861296
  C      -7.080099     -0.671551      3.505509
  C      -7.072586     -0.141844      4.977535
  C      -7.918966      0.042576      2.389060
  C      -6.519488      1.286406      5.261634
  C      -9.459866      0.197884      2.599454
  C      -5.074133      1.610115      4.721607
46
Coordinates from ORCA-job R4N+PFHxA-_0.15M E -1922.675609235798
  N      -2.822772      0.642250      0.962753
  C      -2.226476      0.273945     -0.399687
  C      -2.054676      1.754956      1.608815
  C      -4.235626      1.096931      0.727757
  C      -2.832706     -0.540286      1.884075
  C      -0.808049     -0.212001     -0.350410
  C       0.253994      0.689282     -0.471141
  C      -0.532630     -1.577034     -0.224966
  C       1.569085      0.235833     -0.443128
  C       0.782309     -2.030841     -0.198087
  C       1.835121     -1.124427     -0.302591
  H      -2.308240      1.179364     -1.007109
  H      -2.888530     -0.495213     -0.807484
  H      -2.029671      2.610125      0.930249
  H      -1.043238      1.410100      1.827862
  H      -2.566914      2.020296      2.536817
  H      -4.215748      1.958517      0.056687
  H      -4.672439      1.375525      1.688293
  H      -4.796847      0.276329      0.275329
  H      -1.805661     -0.866736      2.054248
  H      -3.417611     -1.340121      1.425591
  H      -3.277521     -0.224056      2.830004
  H       0.046232      1.749334     -0.593379
  H      -1.354432     -2.285294     -0.154299
  H       2.386743      0.944428     -0.539013
  H       0.984931     -3.093699     -0.102433
  H       2.861895     -1.478876     -0.284988
  F      -7.535841     -1.949226      3.560560
  F      -5.819075     -0.672113      3.068511
  F      -8.369610     -0.206187      5.445512
  F      -6.355343     -1.041496      5.678346
  F      -7.767526     -0.694989      1.277590
  F      -7.410414      1.278357      2.163936
  F      -7.442888      2.173357      4.795699
  F      -6.515248      1.402173      6.628154
  F      -9.739293      1.174203      3.501487
  F     -10.026302      0.573543      1.435922
  F     -10.024905     -0.930694      3.010827
  O      -4.172191      0.913754      5.245818
  O      -5.008107      2.494096      3.854518
  C      -7.101200     -0.666558      3.509051
  C      -7.091001     -0.140875      4.980798
  C      -7.934417      0.056202      2.393996
  C      -6.523435      1.282121      5.263076
  C      -9.474654      0.220166      2.604819
  C      -5.076786      1.596727      4.719543
46
Coordinates from ORCA-job R4N+PFHxA-_0.15M E -1922.675628942757
  N      -2.821387      0.632941      0.965936
  C      -2.228732      0.260593     -0.397023
  C      -2.054714      1.753011      1.603508
  C      -4.237655      1.082100      0.734048
  C      -2.823302     -0.547452      1.892968
  C      -0.807055     -0.216296     -0.351084
  C       0.248727      0.691308     -0.479578
  C      -0.522371     -1.579088     -0.221389
  C       1.566867      0.246476     -0.454461
  C       0.795638     -2.024244     -0.197112
  C       1.842234     -1.111426     -0.308817
  H      -2.318861      1.162078     -1.009122
  H      -2.888051     -0.514461     -0.798187
  H      -2.036359      2.604149      0.919652
  H      -1.040829      1.414558      1.821397
  H      -2.565154      2.021266      2.531535
  H      -4.222248      1.942094      0.060789
  H      -4.672266      1.362120      1.694843
  H      -4.798312      0.258543      0.286147
  H      -1.794808     -0.870105      2.060829
  H      -3.407909     -1.351156      1.440952
  H      -3.265881     -0.227376      2.838410
  H       0.033947      1.749557     -0.605285
  H      -1.339161     -2.292475     -0.144534
  H       2.379634      0.959862     -0.556327
  H       1.005628     -3.085302     -0.097416
  H       2.871347     -1.459128     -0.293248
  F      -7.544988     -1.941894      3.549210
  F      -5.824897     -0.667370      3.062153
  F      -8.376494     -0.205145      5.439846
  F      -6.365150     -1.047906      5.672000
  F      -7.771167     -0.676565      1.271240
  F      -7.412512      1.292255      2.167297
  F      -7.440063      2.174522      4.804165
  F      -6.519453      1.391193      6.634682
  F      -9.740216      1.187970      3.501568
  F     -10.028727      0.594938      1.433872
  F     -10.031577     -0.914570      3.003769
  O      -4.173973      0.902866      5.253937
  O      -5.004902      2.489150      3.866881
  C      -7.107300     -0.660350      3.503393
  C      -7.096951     -0.141811      4.977672
  C      -7.938095      0.069601      2.390891
  C      -6.524901      1.277494      5.268302
  C      -9.478129      0.236194      2.601604
  C      -5.077186      1.588476      4.728017
46
Coordinates from ORCA-job R4N+PFHxA-_0.15M E -1922.675650859957
  N      -2.817675      0.632884      0.966931
  C      -2.229709      0.255705     -0.396728
  C      -2.048035      1.754696      1.598522
  C      -4.234418      1.082587      0.738017
  C      -2.816791     -0.544310      1.897064
  C      -0.807125     -0.219008     -0.354058
  C       0.246815      0.689883     -0.489095
  C      -0.519834     -1.580951     -0.221193
  C       1.565787      0.247264     -0.467233
  C       0.799035     -2.023974     -0.200793
  C       1.843840     -1.109853     -0.318926
  H      -2.323900      1.154390     -1.012399
  H      -2.889708     -0.521528     -0.792661
  H      -2.032249      2.603620      0.911798
  H      -1.033412      1.417119      1.814137
  H      -2.556145      2.025942      2.527008
  H      -4.220222      1.943508      0.065939
  H      -4.668468      1.361390      1.699478
  H      -4.796094      0.259483      0.290388
  H      -1.787772     -0.865441      2.063917
  H      -3.401991     -1.349800      1.448946
  H      -3.258772     -0.223388      2.842302
  H       0.030295      1.747502     -0.617064
  H      -1.334981     -2.295609     -0.138912
  H       2.377128      0.961594     -0.573886
  H       1.011240     -3.084353     -0.098524
  H       2.873558     -1.455875     -0.305786
  F      -7.549130     -1.941867      3.551320
  F      -5.823990     -0.669710      3.074395
  F      -8.390431     -0.202961      5.436380
  F      -6.382413     -1.049591      5.682208
  F      -7.758311     -0.674484      1.271850
  F      -7.407352      1.294081      2.172234
  F      -7.447281      2.175530      4.810070
  F      -6.536585      1.390001      6.644308
  F      -9.739815      1.190685      3.490812
  F     -10.017162      0.598604      1.421128
  F     -10.032503     -0.911259      2.990646
  O      -4.189573      0.893274      5.268976
  O      -5.006324      2.487813      3.884206
  C      -7.109770     -0.661126      3.508327
  C      -7.107850     -0.142454      4.982963
  C      -7.933088      0.070574      2.390857
  C      -6.535434      1.276922      5.276750
  C      -9.474225      0.238421      2.592018
  C      -5.086873      1.585263      4.741294
46
Coordinates from ORCA-job R4N+PFHxA-_0.15M E -1922.675661679511
  N      -2.820290      0.634756      0.983579
  C      -2.249804      0.244673     -0.383941
  C      -2.044438      1.764119      1.592872
  C      -4.239828      1.081268      0.769149
  C      -2.805568     -0.534835      1.924608
  C      -0.825175     -0.224793     -0.355537
  C       0.223653      0.686066     -0.515146
  C      -0.531322     -1.584053     -0.210736
  C       1.544345      0.248253     -0.506212
  C       0.789285     -2.022354     -0.203674
  C       1.829160     -1.106206     -0.346621
  H      -2.355956      1.136057     -1.008265
  H      -2.912668     -0.538768     -0.762429
  H      -2.040397      2.605406      0.896616
  H      -1.026253      1.430887      1.798089
  H      -2.539114      2.043670      2.525914
  H      -4.234167      1.941825      0.096503
  H      -4.665636      1.359033      1.734709
  H      -4.804953      0.257123      0.327796
  H      -1.774028     -0.852450      2.082471
  H      -3.394980     -1.345058      1.490676
  H      -3.237743     -0.205800      2.871988
  H       0.001855      1.741454     -0.652054
  H      -1.342563     -2.300635     -0.109013
  H       2.351638      0.964050     -0.631932
  H       1.006705     -3.080771     -0.092465
  H       2.860147     -1.448653     -0.343807
  F      -7.543561     -1.942939      3.542727
  F      -5.801684     -0.679836      3.104070
  F      -8.416541     -0.196884      5.409389
  F      -6.419904     -1.055525      5.700073
  F      -7.693568     -0.670722      1.259316
  F      -7.358721      1.294976      2.171954
  F      -7.448346      2.175418      4.805385
  F      -6.574248      1.384842      6.655278
  F      -9.717968      1.199050      3.434670
  F      -9.952596      0.606229      1.359717
  F     -10.008735     -0.902028      2.929475
  O      -4.205712      0.869180      5.313296
  O      -4.988878      2.482991      3.930947
  C      -7.096560     -0.664562      3.510059
  C      -7.123954     -0.145006      4.983952
  C      -7.892166      0.072012      2.375641
  C      -6.549595      1.272011      5.287471
  C      -9.436818      0.244764      2.542371
  C      -5.090064      1.572955      4.779007
46
Coordinates from ORCA-job R4N+PFHxA-_0.15M E -1922.675674538185
  N      -2.812126      0.633749      0.980152
  C      -2.242965      0.233680     -0.385132
  C      -2.039806      1.771210      1.578704
  C      -4.232299      1.073019      0.764218
  C      -2.792171     -0.526863      1.927676
  C      -0.816795     -0.230509     -0.355349
  C       0.228826      0.682256     -0.524900
  C      -0.518293     -1.587276     -0.198103
  C       1.550900      0.248824     -0.514285
  C       0.803727     -2.021215     -0.189291
  C       1.840374     -1.103188     -0.342569
  H      -2.354174      1.118736     -1.017573
  H      -2.903877     -0.555479     -0.754981
  H      -2.044348      2.607771      0.876746
  H      -1.018778      1.445907      1.782225
  H      -2.533944      2.052972      2.511616
  H      -4.230776      1.933437      0.091461
  H      -4.660880      1.349596      1.728777
  H      -4.792237      0.246001      0.322152
  H      -1.758762     -0.836647      2.089287
  H      -3.375781     -1.342781      1.496231
  H      -3.228430     -0.201056      2.874679
  H       0.003701      1.735677     -0.671116
  H      -1.326847     -2.305665     -0.088114
  H       2.355672      0.966015     -0.647863
  H       1.024830     -3.077866     -0.068958
  H       2.872429     -1.442365     -0.338551
  F      -7.552826     -1.938316      3.518756
  F      -5.818311     -0.665410      3.079960
  F      -8.416176     -0.213401      5.409471
  F      -6.416918     -1.072648      5.677637
  F      -7.729408     -0.642284      1.252794
  F      -7.387336      1.314605      2.181601
  F      -7.452546      2.165886      4.821070
  F      -6.572014      1.354682      6.659335
  F      -9.732995      1.205204      3.465202
  F      -9.988746      0.628174      1.388184
  F     -10.027557     -0.892125      2.946121
  O      -4.208660      0.860820      5.310886
  O      -4.992411      2.481349      3.942606
  C      -7.109319     -0.658348      3.497268
  C      -7.126610     -0.155851      4.975663
  C      -7.917273      0.088794      2.378387
  C      -6.551937      1.257840      5.289802
  C      -9.460257      0.257916      2.562465
  C      -5.093581      1.566368      4.783585
46
Coordinates from ORCA-job R4N+PFHxA-_0.15M E -1922.675690991230
  N      -2.812912      0.635055      0.981808
  C      -2.243378      0.236922     -0.383947
  C      -2.041097      1.772194      1.581050
  C      -4.234278      1.072681      0.766028
  C      -2.792282     -0.526205      1.929615
  C      -0.817642     -0.228683     -0.354721
  C       0.229114      0.683386     -0.520498
  C      -0.520853     -1.586573     -0.203533
  C       1.550627      0.248176     -0.511497
  C       0.800594     -2.022131     -0.195159
  C       1.838403     -1.104726     -0.344261
  H      -2.353052      1.123604     -1.014348
  H      -2.904635     -0.551196     -0.755334
  H      -2.046340      2.609262      0.879673
  H      -1.019820      1.446587      1.783105
  H      -2.533700      2.054465      2.514450
  H      -4.233973      1.932592      0.092573
  H      -4.661517      1.349571      1.731273
  H      -4.793480      0.244753      0.324772
  H      -1.758800     -0.836683      2.089416
  H      -3.376506     -1.342257      1.499421
  H      -3.226299     -0.197720      2.876365
  H       0.005062      1.737543     -0.663112
  H      -1.330568     -2.304232     -0.097426
  H       2.356270      0.964904     -0.642248
  H       1.020211     -3.079557     -0.078988
  H       2.870046     -1.445163     -0.341176
  F      -7.556269     -1.938850      3.526168
  F      -5.817593     -0.671752      3.087952
  F      -8.417686     -0.207159      5.412258
  F      -6.419879     -1.069125      5.683342
  F      -7.724341     -0.649705      1.254900
  F      -7.380994      1.308961      2.179227
  F      -7.450038      2.168783      4.818219
  F      -6.568606      1.362694      6.658038
  F      -9.731929      1.204647      3.457977
  F      -9.981836      0.624160      1.381219
  F     -10.025627     -0.893387      2.941972
  O      -4.208482      0.858916      5.309079
  O      -4.991902      2.473769      3.931801
  C      -7.109645     -0.659850      3.501117
  C      -7.127889     -0.152634      4.978717
  C      -7.913692      0.084768      2.378161
  C      -6.550625      1.260676      5.289504
  C      -9.457081      0.255745      2.557812
  C      -5.092793      1.563966      4.777166
46
Coordinates from ORCA-job R4N+PFHxA-_0.15M E -1922.675698471114
  N      -2.812327      0.634387      0.981900
  C      -2.243280      0.234294     -0.383487
  C      -2.042855      1.775752      1.576617
  C      -4.235576      1.067542      0.767231
  C      -2.788343     -0.524673      1.933068
  C      -0.816650     -0.228701     -0.354755
  C       0.228608      0.684674     -0.522556
  C      -0.517674     -1.585979     -0.202127
  C       1.550777      0.251436     -0.513716
  C       0.804368     -2.019691     -0.194826
  C       1.840696     -1.100913     -0.345817
  H      -2.355010      1.119551     -1.015523
  H      -2.903199     -0.556147     -0.752296
  H      -2.053446      2.610630      0.872636
  H      -1.019651      1.454800      1.776474
  H      -2.533233      2.058974      2.510775
  H      -4.239050      1.926920      0.093068
  H      -4.660651      1.343535      1.733444
  H      -4.792742      0.237659      0.327062
  H      -1.754537     -0.835428      2.090319
  H      -3.373328     -1.342206      1.506742
  H      -3.219598     -0.193155      2.880078
  H       0.002857      1.738290     -0.666540
  H      -1.326360     -2.304610     -0.094683
  H       2.355217      0.969229     -0.646058
  H       1.025513     -3.076702     -0.077759
  H       2.872847     -1.439823     -0.343348
  F      -7.568962     -1.939604      3.529691
  F      -5.822742     -0.682846      3.091900
  F      -8.423685     -0.202112      5.412730
  F      -6.429850     -1.072157      5.687069
  F      -7.727443     -0.651851      1.256374
  F      -7.372719      1.305362      2.179649
  F      -7.445776      2.169319      4.817226
  F      -6.567830      1.362293      6.658175
  F      -9.728051      1.214696      3.455709
  F      -9.976789      0.636250      1.378386
  F     -10.031300     -0.881635      2.938776
  O      -4.209791      0.842155      5.306057
  O      -4.986585      2.466720      3.934110
  C      -7.115328     -0.663028      3.503541
  C      -7.133098     -0.153381      4.980582
  C      -7.913568      0.084843      2.378850
  C      -6.550356      1.258180      5.289878
  C      -9.456330      0.264698      2.555967
  C      -5.090880      1.553645      4.777335
46
Coordinates from ORCA-job R4N+PFHxA-_0.15M E -1922.675705720596
  N      -2.811177      0.635099      0.985879
  C      -2.246336      0.229392     -0.379563
  C      -2.041649      1.780610      1.571734
  C      -4.236005      1.064239      0.774995
  C      -2.782067     -0.519036      1.942438
  C      -0.818630     -0.230631     -0.354133
  C       0.224297      0.683586     -0.531364
  C      -0.516590     -1.586501     -0.195006
  C       1.547247      0.252689     -0.525490
  C       0.806226     -2.017820     -0.190248
  C       1.840288     -1.098089     -0.350725
  H      -2.362151      1.111380     -1.015430
  H      -2.905779     -0.564422     -0.741952
  H      -2.058725      2.612633      0.864457
  H      -1.016505      1.462545      1.766135
  H      -2.526500      2.066958      2.507992
  H      -4.244209      1.922757      0.099768
  H      -4.657574      1.339779      1.742848
  H      -4.792107      0.232291      0.337397
  H      -1.747364     -0.828307      2.097057
  H      -3.367209     -1.339570      1.522026
  H      -3.209943     -0.184136      2.889770
  H      -0.003864      1.735940     -0.680681
  H      -1.323640     -2.305838     -0.080219
  H       2.349832      0.971140     -0.665317
  H       1.029657     -3.073765     -0.068019
  H       2.873053     -1.435129     -0.350508
  F      -7.575932     -1.939160      3.522947
  F      -5.824965     -0.687079      3.091029
  F      -8.428716     -0.203070      5.408006
  F      -6.437854     -1.079133      5.684140
  F      -7.726369     -0.646432      1.251644
  F      -7.366917      1.307682      2.179551
  F      -7.442852      2.166268      4.816557
  F      -6.571394      1.355091      6.658736
  F      -9.726116      1.219736      3.452431
  F      -9.971203      0.650097      1.372381
  F     -10.033354     -0.873851      2.926825
  O      -4.211333      0.830405      5.314085
  O      -4.980919      2.456368      3.939647
  C      -7.118289     -0.663885      3.500071
  C      -7.137252     -0.156992      4.978095
  C      -7.911999      0.088645      2.375391
  C      -6.551050      1.252242      5.290589
  C      -9.454674      0.272571      2.549827
  C      -5.089100      1.543896      4.782142
46
Coordinates from ORCA-job R4N+PFHxA-_0.15M E -1922.675713583582
  N      -2.808901      0.634126      0.991760
  C      -2.251214      0.219595     -0.373740
  C      -2.038765      1.786488      1.563990
  C      -4.235973      1.057743      0.786949
  C      -2.772121     -0.512106      1.956747
  C      -0.821509     -0.234663     -0.353954
  C       0.216654      0.681709     -0.547133
  C      -0.513182     -1.587848     -0.184179
  C       1.541237      0.255794     -0.546612
  C       0.811265     -2.014118     -0.184301
  C       1.840667     -1.092086     -0.360789
  H      -2.374596      1.096069     -1.015822
  H      -2.909665     -0.579790     -0.725551
  H      -2.064825      2.613458      0.851062
  H      -1.010913      1.473407      1.752069
  H      -2.517226      2.077149      2.501981
  H      -4.250879      1.914836      0.110097
  H      -4.652742      1.332522      1.757020
  H      -4.790964      0.222839      0.353656
  H      -1.735984     -0.818006      2.108781
  H      -3.356822     -1.337491      1.545158
  H      -3.196378     -0.172179      2.904105
  H      -0.016490      1.731757     -0.704756
  H      -1.316748     -2.309021     -0.057164
  H       2.340051      0.975912     -0.698878
  H       1.039504     -3.068023     -0.053682
  H       2.874692     -1.425207     -0.364603
  F      -7.584936     -1.936855      3.510537
  F      -5.827007     -0.689143      3.094013
  F      -8.439716     -0.204212      5.399846
  F      -6.454184     -1.090081      5.681420
  F      -7.719471     -0.633720      1.244173
  F      -7.358624      1.315292      2.182579
  F      -7.440478      2.162677      4.819303
  F      -6.580276      1.342814      6.662988
  F      -9.724142      1.228285      3.444041
  F      -9.960586      0.669944      1.360039
  F     -10.034804     -0.861779      2.906404
  O      -4.217186      0.810456      5.326995
  O      -4.973168      2.444910      3.955208
  C      -7.122458     -0.663182      3.495552
  C      -7.146264     -0.162256      4.975636
  C      -7.908025      0.097057      2.370355
  C      -6.554692      1.243358      5.294845
  C      -9.451022      0.284939      2.538108
  C      -5.088846      1.529825      4.793678
46
Coordinates from ORCA-job R4N+PFHxA-_0.15M E -1922.675664225051
  N      -2.790773      0.628752      1.026074
  C      -2.275118      0.166309     -0.339746
  C      -2.013083      1.812824      1.522318
  C      -4.229007      1.028360      0.855571
  C      -2.713496     -0.475824      2.031582
  C      -0.834979     -0.255396     -0.355285
  C       0.172849      0.671597     -0.641973
  C      -0.488042     -1.590516     -0.123431
  C       1.506375      0.275014     -0.674154
  C       0.845359     -1.987273     -0.155288
  C       1.844979     -1.054062     -0.426548
  H      -2.442966      1.011061     -1.014467
  H      -2.927392     -0.662551     -0.631522
  H      -2.085669      2.610834      0.779632
  H      -0.972702      1.520511      1.672539
  H      -2.449263      2.133246      2.470212
  H      -4.276809      1.879920      0.173469
  H      -4.618804      1.295365      1.836540
  H      -4.781694      0.181111      0.443535
  H      -1.669522     -0.763684      2.166253
  H      -3.296190     -1.324962      1.666419
  H      -3.116060     -0.115514      2.982088
  H      -0.090754      1.706690     -0.846273
  H      -1.268904     -2.321050      0.076506
  H       2.281219      1.003197     -0.899369
  H       1.103415     -3.027463      0.023923
  H       2.885831     -1.364295     -0.455462
  F      -7.647431     -1.927629      3.458141
  F      -5.847692     -0.716394      3.112895
  F      -8.512327     -0.198883      5.351867
  F      -6.561366     -1.144040      5.675795
  F      -7.690665     -0.588199      1.211580
  F      -7.305867      1.338627      2.187462
  F      -7.429223      2.146361      4.824411
  F      -6.651446      1.284521      6.685979
  F      -9.704267      1.291659      3.389093
  F      -9.898925      0.777155      1.289796
  F     -10.054015     -0.780335      2.805149
  O      -4.264417      0.696939      5.417685
  O      -4.928229      2.369575      4.049297
  C      -7.154040     -0.665849      3.477288
  C      -7.206876     -0.187309      4.964446
  C      -7.889160      0.132046      2.343405
  C      -6.584513      1.197305      5.318458
  C      -9.431096      0.357897      2.473830
  C      -5.094956      1.445543      4.868213
46
Coordinates from ORCA-job R4N+PFHxA-_0.15M E -1922.674655410952
  N      -2.804820      0.625045      1.000321
  C      -2.247419      0.241928     -0.376461
  C      -2.027902      1.752118      1.607298
  C      -4.224537      1.071408      0.801505
  C      -2.774626     -0.559208      1.947479
  C      -0.821669     -0.224058     -0.368121
  C       0.222002      0.690880     -0.532734
  C      -0.522712     -1.583952     -0.240800
  C       1.543670      0.256698     -0.541722
  C       0.798751     -2.018871     -0.253350
  C       1.833717     -1.098480     -0.398113
  H      -2.363250      1.135655     -0.995146
  H      -2.913162     -0.540560     -0.750015
  H      -2.019513      2.594722      0.912611
  H      -1.010730      1.416702      1.814907
  H      -2.524200      2.033951      2.540973
  H      -4.219525      1.933116      0.130254
  H      -4.655027      1.355479      1.774651
  H      -4.791064      0.246804      0.363377
  H      -1.742936     -0.874122      2.109313
  H      -3.361846     -1.374563      1.521315
  H      -3.216743     -0.203955      2.879801
  H      -0.004870      1.746658     -0.658391
  H      -1.330369     -2.303602     -0.136486
  H       2.347170      0.975623     -0.670388
  H       1.020160     -3.077682     -0.153842
  H       2.865484     -1.438042     -0.409708
  F      -7.544567     -1.932647      3.556473
  F      -5.805098     -0.659575      3.140597
  F      -8.460395     -0.165418      5.393797
  F      -6.473250     -1.031232      5.727091
  F      -7.670679     -0.678945      1.264261
  F      -7.361018      1.295944      2.165803
  F      -7.467703      2.198330      4.788608
  F      -6.631137      1.414654      6.659134
  F      -9.736627      1.207742      3.380309
  F      -9.944506      0.558197      1.317954
  F     -10.004491     -0.908276      2.925856
  O      -4.235668      0.856680      5.378128
  O      -4.984197      2.476135      3.946782
  C      -7.105626     -0.650909      3.523692
  C      -7.160098     -0.122685      4.991993
  C      -7.890347      0.070601      2.371446
  C      -6.584132      1.291984      5.294433
  C      -9.438347      0.232818      2.515455
  C      -5.113862      1.578104      4.807591
46
Coordinates from ORCA-job R4N+PFHxA-_0.15M E -1922.675638387402
  N      -2.799543      0.641288      0.987721
  C      -2.246589      0.236813     -0.382054
  C      -2.016437      1.774076      1.580305
  C      -4.221845      1.085146      0.789724
  C      -2.774163     -0.511599      1.944390
  C      -0.821296     -0.229355     -0.364522
  C       0.222803      0.681219     -0.552799
  C      -0.522397     -1.585092     -0.199812
  C       1.544554      0.246616     -0.553911
  C       0.799325     -2.019967     -0.200811
  C       1.834716     -1.104160     -0.373943
  H      -2.361617      1.120943     -1.015065
  H      -2.912559     -0.553070     -0.741056
  H      -2.016303      2.612268      0.880847
  H      -0.997092      1.439155      1.777545
  H      -2.505938      2.055295      2.516691
  H      -4.230310      1.946466      0.118089
  H      -4.635775      1.359180      1.762557
  H      -4.789487      0.259287      0.354405
  H      -1.741795     -0.824365      2.105903
  H      -3.362623     -1.330155      1.524896
  H      -3.208183     -0.163161      2.882222
  H      -0.003868      1.733600     -0.704469
  H      -1.330448     -2.301821     -0.076213
  H       2.348132      0.962159     -0.702566
  H       1.020448     -3.075841     -0.073786
  H       2.866517     -1.444170     -0.378629
  F      -7.564617     -1.946084      3.534912
  F      -5.819636     -0.681713      3.113770
  F      -8.452703     -0.194443      5.396250
  F      -6.467002     -1.070171      5.704448
  F      -7.712746     -0.677733      1.256685
  F      -7.361296      1.287918      2.161866
  F      -7.456315      2.172148      4.807202
  F      -6.616027      1.366705      6.665708
  F      -9.727994      1.217933      3.416830
  F      -9.962335      0.607938      1.346886
  F     -10.028487     -0.886185      2.929163
  O      -4.238773      0.829470      5.354859
  O      -4.979748      2.459696      3.968607
  C      -7.117461     -0.667369      3.508536
  C      -7.155965     -0.151366      4.983328
  C      -7.906429      0.070524      2.370020
  C      -6.573745      1.258631      5.298843
  C      -9.449715      0.254271      2.533653
  C      -5.104946      1.550270      4.810708
46
Coordinates from ORCA-job R4N+PFHxA-_0.15M E -1922.675714889505
  N      -2.799008      0.640963      0.994244
  C      -2.250391      0.223901     -0.373870
  C      -2.019898      1.785912      1.568836
  C      -4.224033      1.075174      0.795687
  C      -2.766640     -0.503525      1.960518
  C      -0.822377     -0.235205     -0.360144
  C       0.216432      0.677656     -0.566366
  C      -0.516045     -1.587801     -0.183095
  C       1.540078      0.248940     -0.571950
  C       0.807554     -2.016855     -0.189224
  C       1.837670     -1.098391     -0.379093
  H      -2.373697      1.100433     -1.015846
  H      -2.914371     -0.572946     -0.721018
  H      -2.035082      2.616689      0.860261
  H      -0.995256      1.462465      1.757498
  H      -2.498038      2.075124      2.508962
  H      -4.236748      1.934556      0.121820
  H      -4.635035      1.348960      1.768320
  H      -4.787002      0.245324      0.362699
  H      -1.731772     -0.809875      2.118730
  H      -3.352518     -1.328198      1.549258
  H      -3.195375     -0.155199      2.902005
  H      -0.015941      1.727207     -0.728456
  H      -1.319942     -2.306728     -0.046094
  H       2.339384      0.966300     -0.734224
  H       1.034339     -3.070323     -0.052636
  H       2.870911     -1.433871     -0.387457
  F      -7.576590     -1.942876      3.515294
  F      -5.824565     -0.685193      3.103658
  F      -8.457110     -0.205148      5.389757
  F      -6.472941     -1.086508      5.693741
  F      -7.713919     -0.651267      1.246554
  F      -7.358254      1.304101      2.173799
  F      -7.452983      2.161554      4.806450
  F      -6.618688      1.351386      6.666149
  F      -9.728058      1.223459      3.425859
  F      -9.957587      0.645043      1.346583
  F     -10.032427     -0.872453      2.906652
  O      -4.237109      0.807345      5.359619
  O      -4.972069      2.446299      3.982593
  C      -7.121792     -0.666629      3.499546
  C      -7.159505     -0.162030      4.978081
  C      -7.906603      0.085983      2.367689
  C      -6.573816      1.245067      5.299118
  C      -9.449983      0.272330      2.529585
  C      -5.100913      1.530041      4.817840
46
Coordinates from ORCA-job R4N+PFHxA-_0.15M E -1922.675636355708
  N      -2.794543      0.628772      1.025306
  C      -2.277999      0.169884     -0.341874
  C      -2.021343      1.814011      1.520123
  C      -4.233218      1.027597      0.856337
  C      -2.712453     -0.486102      2.033453
  C      -0.838740     -0.254474     -0.356883
  C       0.172104      0.673409     -0.626419
  C      -0.495542     -1.592554     -0.138425
  C       1.504839      0.274409     -0.655780
  C       0.837062     -1.991816     -0.167658
  C       1.839570     -1.058096     -0.422778
  H      -2.443869      1.017212     -1.013416
  H      -2.931711     -0.655847     -0.637466
  H      -2.097752      2.612192      0.777362
  H      -0.979475      1.526469      1.670776
  H      -2.455196      2.135735      2.467418
  H      -4.277931      1.877873      0.172352
  H      -4.624707      1.300961      1.839664
  H      -4.786409      0.179648      0.447194
  H      -1.667786     -0.771605      2.169766
  H      -3.293973     -1.336905      1.671113
  H      -3.119915     -0.116427      2.979320
  H      -0.088743      1.711089     -0.819981
  H      -1.278455     -2.323374      0.049437
  H       2.282165      1.002981     -0.868415
  H       1.092348     -3.034381      0.000155
  H       2.879712     -1.370487     -0.450719
  F      -7.634468     -1.924664      3.459191
  F      -5.837874     -0.707191      3.123602
  F      -8.508322     -0.198601      5.352915
  F      -6.554592     -1.139127      5.677372
  F      -7.671298     -0.587002      1.213021
  F      -7.302572      1.342218      2.189332
  F      -7.430678      2.148496      4.824378
  F      -6.649513      1.289093      6.686238
  F      -9.703381      1.286663      3.378426
  F      -9.890058      0.760576      1.280614
  F     -10.041986     -0.789471      2.803694
  O      -4.255556      0.713146      5.428202
  O      -4.934675      2.366690      4.029915
  C      -7.145016     -0.660677      3.480900
  C      -7.202789     -0.184080      4.966390
  C      -7.879594      0.132364      2.343734
  C      -6.583403      1.201385      5.318746
  C      -9.423761      0.349531      2.468066
  C      -5.096219      1.451670      4.863235
46
Coordinates from ORCA-job R4N+PFHxA-_0.15M E -1922.674964479837
  N      -2.785555      0.672402      0.972606
  C      -2.218781      0.263770     -0.390571
  C      -1.991570      1.782322      1.594015
  C      -4.198658      1.139792      0.749323
  C      -2.802017     -0.471400      1.915252
  C      -0.800472     -0.223813     -0.357700
  C       0.257888      0.666393     -0.566184
  C      -0.522340     -1.581103     -0.173002
  C       1.573234      0.212046     -0.558046
  C       0.793085     -2.035799     -0.165341
  C       1.843027     -1.138800     -0.351060
  H      -2.313204      1.150253     -1.024612
  H      -2.892007     -0.516679     -0.758738
  H      -1.964233      2.630563      0.908082
  H      -0.981297      1.424995      1.798134
  H      -2.489436      2.058572      2.534349
  H      -4.190934      2.005575      0.083493
  H      -4.618970      1.406404      1.713162
  H      -4.769710      0.323889      0.297500
  H      -1.778654     -0.800728      2.096558
  H      -3.390809     -1.277394      1.471280
  H      -3.250150     -0.139454      2.849189
  H       0.047518      1.718630     -0.739804
  H      -1.341508     -2.283906     -0.039844
  H       2.388114      0.912764     -0.718136
  H       0.998244     -3.092105     -0.017232
  H       2.870144     -1.493739     -0.344431
  F      -7.556937     -1.968630      3.533903
  F      -5.838544     -0.679125      3.064919
  F      -8.424736     -0.238023      5.421712
  F      -6.418122     -1.079261      5.685656
  F      -7.795983     -0.704194      1.267717
  F      -7.417795      1.265285      2.152854
  F      -7.475933      2.146772      4.808318
  F      -6.599097      1.355982      6.655287
  F      -9.749414      1.176205      3.498425
  F     -10.037467      0.595112      1.427671
  F     -10.054336     -0.921842      2.989892
  O      -4.247623      0.852353      5.306280
  O      -5.011041      2.471723      3.947096
  C      -7.127326     -0.684539      3.499764
  C      -7.138028     -0.172432      4.979937
  C      -7.954091      0.048448      2.383834
  C      -6.574278      1.247452      5.287071
  C      -9.491245      0.227080      2.594855
  C      -5.116664      1.559377      4.784497
46
Coordinates from ORCA-job R4N+PFHxA-_0.15M E -1922.675633619732
  N      -2.793481      0.659005      0.970555
  C      -2.226435      0.254917     -0.393867
  C      -2.006415      1.779912      1.579449
  C      -4.208983      1.117227      0.753193
  C      -2.796241     -0.497616      1.920080
  C      -0.805847     -0.225426     -0.361089
  C       0.249048      0.673769     -0.545009
  C      -0.521571     -1.583328     -0.188586
  C       1.566447      0.226071     -0.533992
  C       0.795799     -2.031314     -0.178105
  C       1.841827     -1.126669     -0.346671
  H      -2.324804      1.142876     -1.024370
  H      -2.895848     -0.526855     -0.764334
  H      -1.993699      2.624678      0.888139
  H      -0.990575      1.435432      1.778164
  H      -2.495094      2.059566      2.518982
  H      -4.200694      1.981102      0.085096
  H      -4.630061      1.390709      1.720995
  H      -4.778106      0.298538      0.306592
  H      -1.769681     -0.820088      2.097728
  H      -3.382509     -1.309176      1.483833
  H      -3.244030     -0.154666      2.852988
  H       0.033735      1.727621     -0.702345
  H      -1.337794     -2.291623     -0.069952
  H       2.378407      0.932860     -0.679340
  H       1.005434     -3.088817     -0.045844
  H       2.870252     -1.476937     -0.341916
  F      -7.557813     -1.956776      3.534208
  F      -5.833787     -0.674820      3.077529
  F      -8.426592     -0.227292      5.419210
  F      -6.422993     -1.076439      5.686669
  F      -7.769985     -0.681775      1.265480
  F      -7.408521      1.283341      2.168743
  F      -7.467935      2.155165      4.810300
  F      -6.596392      1.361154      6.659191
  F      -9.749604      1.186768      3.481790
  F     -10.021142      0.598376      1.410670
  F     -10.044796     -0.913590      2.977471
  O      -4.227244      0.850918      5.319962
  O      -5.006046      2.466066      3.942753
  C      -7.122848     -0.674065      3.503490
  C      -7.138096     -0.164764      4.982291
  C      -7.942162      0.062517      2.385304
  C      -6.569491      1.252383      5.291716
  C      -9.482529      0.235294      2.582884
  C      -5.108819      1.556968      4.787895
46
Coordinates from ORCA-job R4N+PFHxA-_0.15M E -1922.675721240825
  N      -2.800560      0.655944      0.978933
  C      -2.241179      0.242050     -0.385715
  C      -2.017318      1.792401      1.564884
  C      -4.220022      1.101899      0.768678
  C      -2.787380     -0.494002      1.940065
  C      -0.818238     -0.231901     -0.358123
  C       0.232461      0.671431     -0.544616
  C      -0.528078     -1.588658     -0.185118
  C       1.551552      0.229109     -0.535464
  C       0.790943     -2.031246     -0.176269
  C       1.832830     -1.122364     -0.347132
  H      -2.347863      1.124312     -1.022591
  H      -2.909300     -0.545280     -0.745976
  H      -2.025416      2.628245      0.862019
  H      -0.994775      1.463534      1.755502
  H      -2.496235      2.078569      2.503909
  H      -4.218461      1.962061      0.095755
  H      -4.636617      1.378605      1.738246
  H      -4.786272      0.277196      0.330701
  H      -1.755846     -0.805440      2.110175
  H      -3.371683     -1.313719      1.517003
  H      -3.227326     -0.148723      2.878724
  H       0.012506      1.724288     -0.702658
  H      -1.341143     -2.299812     -0.062943
  H       2.360279      0.938962     -0.683061
  H       1.005263     -3.087787     -0.043408
  H       2.862513     -1.468532     -0.344645
  F      -7.554058     -1.949222      3.512135
  F      -5.822319     -0.670106      3.083319
  F      -8.426728     -0.232766      5.407987
  F      -6.426833     -1.090443      5.676886
  F      -7.733527     -0.650360      1.251129
  F      -7.389989      1.305028      2.181945
  F      -7.460101      2.148839      4.817941
  F      -6.590742      1.341787      6.663354
  F      -9.742601      1.190204      3.464391
  F      -9.991503      0.619601      1.385051
  F     -10.029235     -0.906273      2.938284
  O      -4.217387      0.842615      5.330094
  O      -4.997429      2.456513      3.948865
  C      -7.113711     -0.667664      3.496053
  C      -7.136271     -0.171154      4.976927
  C      -7.921481      0.079948      2.377767
  C      -6.563043      1.241269      5.295445
  C      -9.465076      0.246869      2.559723
  C      -5.100315      1.545367      4.793757
46
Coordinates from ORCA-job R4N+PFHxA-_0.15M E -1922.675591417454
  N      -2.794101      0.652027      1.043786
  C      -2.285363      0.183172     -0.324454
  C      -2.013175      1.833230      1.531419
  C      -4.231816      1.057458      0.875602
  C      -2.710561     -0.457854      2.054911
  C      -0.849737     -0.254388     -0.347860
  C       0.167297      0.660007     -0.641734
  C      -0.518306     -1.594641     -0.125369
  C       1.495503      0.246746     -0.684473
  C       0.809731     -2.008300     -0.168173
  C       1.819068     -1.086824     -0.441857
  H      -2.448670      1.028251     -1.000192
  H      -2.946979     -0.639018     -0.613621
  H      -2.090790      2.627518      0.784732
  H      -0.972556      1.539010      1.675800
  H      -2.437136      2.166469      2.483395
  H      -4.274457      1.906292      0.189390
  H      -4.623271      1.331681      1.858358
  H      -4.789106      0.209725      0.469423
  H      -1.665802     -0.743833      2.189801
  H      -3.292689     -1.310010      1.696448
  H      -3.115912     -0.088371      2.999319
  H      -0.084368      1.698069     -0.845464
  H      -1.306798     -2.316157      0.076814
  H       2.278085      0.965597     -0.912316
  H       1.056115     -3.052053      0.006156
  H       2.856057     -1.409542     -0.476233
  F      -7.602502     -1.936315      3.443508
  F      -5.814539     -0.697226      3.125402
  F      -8.506418     -0.216116      5.336427
  F      -6.549078     -1.143433      5.674189
  F      -7.638446     -0.596857      1.200270
  F      -7.293935      1.335807      2.178769
  F      -7.443030      2.138662      4.822163
  F      -6.660762      1.278980      6.683187
  F      -9.697771      1.257016      3.357506
  F      -9.869434      0.734818      1.256790
  F     -10.017332     -0.820467      2.775283
  O      -4.267357      0.726166      5.445298
  O      -4.941033      2.367070      4.027630
  C      -7.126980     -0.667316      3.472309
  C      -7.198986     -0.193082      4.958401
  C      -7.859663      0.120491      2.329582
  C      -6.590095      1.195785      5.315587
  C      -9.406081      0.324651      2.445766
  C      -5.104535      1.458299      4.866255
46
Coordinates from ORCA-job R4N+PFHxA-_0.15M E -1922.673716121905
  N      -2.768858      0.637792      0.960998
  C      -2.224298      0.228954     -0.405800
  C      -1.958290      1.764548      1.558341
  C      -4.181924      1.093575      0.768325
  C      -2.768793     -0.485872      1.909253
  C      -0.798130     -0.231629     -0.383041
  C       0.240119      0.685519     -0.568955
  C      -0.488895     -1.580890     -0.188000
  C       1.565723      0.262555     -0.551531
  C       0.836499     -2.004393     -0.173925
  C       1.865607     -1.083553     -0.356815
  H      -2.338717      1.111776     -1.039800
  H      -2.890652     -0.562913     -0.758737
  H      -1.943447      2.610182      0.868883
  H      -0.940641      1.421306      1.754218
  H      -2.461760      2.024811      2.487638
  H      -4.186797      1.956947      0.100708
  H      -4.581420      1.360174      1.738612
  H      -4.757553      0.274183      0.333141
  H      -1.739140     -0.806717      2.066299
  H      -3.366427     -1.293127      1.479638
  H      -3.191650     -0.161169      2.866378
  H       0.005066      1.735235     -0.724945
  H      -1.292031     -2.301057     -0.056030
  H       2.364058      0.981947     -0.707598
  H       1.064995     -3.056021     -0.030016
  H       2.899779     -1.415963     -0.357373
  F      -7.637864     -1.960693      3.566665
  F      -5.890758     -0.723833      3.078713
  F      -8.472839     -0.187339      5.418296
  F      -6.489747     -1.078475      5.702114
  F      -7.852151     -0.725521      1.282231
  F      -7.404223      1.243454      2.139019
  F      -7.445333      2.173003      4.785551
  F      -6.639756      1.369664      6.658613
  F      -9.744583      1.265443      3.467528
  F     -10.056124      0.624879      1.418260
  F     -10.111174     -0.838572      3.029125
  O      -4.249269      0.793469      5.332107
  O      -4.979522      2.438705      4.000811
  C      -7.176506     -0.688859      3.512285
  C      -7.180925     -0.157223      4.986508
  C      -7.985433      0.049368      2.387050
  C      -6.585023      1.250344      5.292968
  C      -9.516239      0.279705      2.595519
  C      -5.102668      1.517471      4.824706
46
Coordinates from ORCA-job R4N+PFHxA-_0.15M E -1922.675081837522
  N      -2.765726      0.615291      1.014793
  C      -2.242688      0.201685     -0.363623
  C      -1.974041      1.766899      1.575418
  C      -4.196413      1.045609      0.842981
  C      -2.702596     -0.530429      1.995425
  C      -0.807986     -0.233978     -0.381058
  C       0.207544      0.692633     -0.626926
  C      -0.472183     -1.577025     -0.187502
  C       1.537510      0.286720     -0.660209
  C       0.857771     -1.982679     -0.218612
  C       1.864534     -1.050758     -0.451393
  H      -2.394163      1.073093     -1.003938
  H      -2.901401     -0.605877     -0.690505
  H      -1.991763      2.593364      0.864262
  H      -0.947347      1.449497      1.758353
  H      -2.449654      2.054708      2.512414
  H      -4.219981      1.906787      0.172641
  H      -4.595185      1.317725      1.825462
  H      -4.763529      0.214426      0.420533
  H      -1.663913     -0.834939      2.129520
  H      -3.297851     -1.361691      1.613279
  H      -3.109183     -0.155259      2.938359
  H      -0.048280      1.735019     -0.796338
  H      -1.258502     -2.306197     -0.017054
  H       2.318525      1.014119     -0.854677
  H       1.107052     -3.028652     -0.068207
  H       2.902617     -1.368013     -0.481398
  F      -7.665442     -1.929186      3.554441
  F      -5.885913     -0.719590      3.134638
  F      -8.541722     -0.131935      5.373604
  F      -6.593754     -1.071178      5.730165
  F      -7.759402     -0.682230      1.260379
  F      -7.357563      1.281134      2.152101
  F      -7.441287      2.194623      4.769966
  F      -6.695941      1.390644      6.668094
  F      -9.743903      1.302220      3.362903
  F      -9.975374      0.647262      1.307094
  F     -10.090712     -0.804552      2.923710
  O      -4.295447      0.687375      5.404818
  O      -4.928044      2.389011      4.023647
  C      -7.185452     -0.664465      3.518402
  C      -7.234508     -0.133903      4.989009
  C      -7.942711      0.082538      2.363643
  C      -6.613491      1.256505      5.305572
  C      -9.481840      0.311419      2.506374
  C      -5.118379      1.473423      4.857376
46
Coordinates from ORCA-job R4N+PFHxA-_0.15M E -1922.675651965134
  N      -2.778414      0.630456      1.019703
  C      -2.255157      0.195444     -0.353251
  C      -1.997858      1.789729      1.560695
  C      -4.212063      1.054019      0.844647
  C      -2.714391     -0.501574      2.007582
  C      -0.819874     -0.241707     -0.367631
  C       0.198325      0.679635     -0.632939
  C      -0.487689     -1.584504     -0.163551
  C       1.527753      0.270234     -0.666258
  C       0.841851     -1.993913     -0.195170
  C       1.851964     -1.065999     -0.440825
  H      -2.408920      1.057084     -1.009143
  H      -2.914780     -0.618326     -0.669345
  H      -2.034811      2.606213      0.836038
  H      -0.967198      1.478762      1.734978
  H      -2.459517      2.092164      2.504440
  H      -4.242628      1.911533      0.168707
  H      -4.607964      1.325589      1.825293
  H      -4.776331      0.217477      0.425475
  H      -1.674551     -0.802082      2.145457
  H      -3.307936     -1.337367      1.630814
  H      -3.119991     -0.131531      2.949950
  H      -0.054238      1.720470     -0.819746
  H      -1.276172     -2.311376      0.016743
  H       2.311284      0.994386     -0.871554
  H       1.089252     -3.039341     -0.033470
  H       2.889957     -1.385866     -0.467584
  F      -7.642227     -1.934012      3.513986
  F      -5.856439     -0.713366      3.136228
  F      -8.525251     -0.168098      5.368337
  F      -6.573359     -1.101583      5.716433
  F      -7.707522     -0.645036      1.241712
  F      -7.331762      1.305448      2.169987
  F      -7.447629      2.167512      4.798993
  F      -6.672980      1.346065      6.680075
  F      -9.724085      1.281086      3.372052
  F      -9.927406      0.690964      1.293216
  F     -10.061358     -0.812721      2.862549
  O      -4.290242      0.706803      5.402656
  O      -4.942373      2.388029      4.026242
  C      -7.161411     -0.667472      3.506331
  C      -7.218075     -0.160389      4.984392
  C      -7.906983      0.098912      2.356851
  C      -6.603040      1.231104      5.313622
  C      -9.449252      0.317738      2.488051
  C      -5.116223      1.470596      4.856163
46
Coordinates from ORCA-job R4N+PFHxA-_0.15M E -1922.675747534931
  N      -2.782034      0.625810      1.022849
  C      -2.267105      0.177399     -0.347239
  C      -1.999146      1.795622      1.539855
  C      -4.215946      1.040245      0.856014
  C      -2.712458     -0.492980      2.018506
  C      -0.829092     -0.249897     -0.364135
  C       0.181815      0.678655     -0.631212
  C      -0.486333     -1.588564     -0.150385
  C       1.514306      0.279169     -0.665151
  C       0.845985     -1.988546     -0.185373
  C       1.848503     -1.054720     -0.440334
  H      -2.429514      1.031134     -1.011435
  H      -2.923541     -0.643753     -0.650118
  H      -2.051893      2.604356      0.807422
  H      -0.964276      1.489540      1.701558
  H      -2.447723      2.105997      2.486361
  H      -4.253785      1.893401      0.175328
  H      -4.604273      1.314296      1.837984
  H      -4.778947      0.198956      0.445436
  H      -1.670486     -0.787231      2.152370
  H      -3.304279     -1.333443      1.649674
  H      -3.113409     -0.124100      2.965253
  H      -0.078946      1.717459     -0.818447
  H      -1.269286     -2.320227      0.034251
  H       2.291703      1.008008     -0.877021
  H       1.101124     -3.031990     -0.023526
  H       2.888363     -1.367822     -0.472725
  F      -7.647715     -1.931687      3.492277
  F      -5.853325     -0.716790      3.132025
  F      -8.525551     -0.175352      5.357053
  F      -6.576533     -1.117645      5.701475
  F      -7.700076     -0.629119      1.229533
  F      -7.315457      1.314679      2.169558
  F      -7.438069      2.162107      4.804060
  F      -6.673361      1.322746      6.681480
  F      -9.710037      1.293365      3.372105
  F      -9.911364      0.728885      1.286249
  F     -10.061606     -0.791688      2.837900
  O      -4.274974      0.710943      5.425181
  O      -4.939257      2.374717      4.041336
  C      -7.159848     -0.667203      3.495193
  C      -7.218250     -0.169619      4.975358
  C      -7.897824      0.110570      2.348494
  C      -6.597877      1.218164      5.315298
  C      -9.439517      0.338095      2.478092
  C      -5.106399      1.459251      4.869501
46
Coordinates from ORCA-job R4N+PFHxA-_0.15M E -1922.675765051394
  N      -2.783996      0.631795      1.027273
  C      -2.270101      0.178304     -0.342034
  C      -2.001987      1.803646      1.540083
  C      -4.219485      1.044257      0.857683
  C      -2.713480     -0.484583      2.025780
  C      -0.832971     -0.251779     -0.359994
  C       0.179289      0.672581     -0.634996
  C      -0.493128     -1.590621     -0.143933
  C       1.510539      0.269638     -0.670117
  C       0.838115     -1.993786     -0.178676
  C       1.842207     -1.063415     -0.437698
  H      -2.432417      1.029335     -1.009332
  H      -2.927778     -0.642911     -0.640761
  H      -2.058045      2.608952      0.804725
  H      -0.966615      1.499875      1.701027
  H      -2.447804      2.118747      2.487040
  H      -4.259011      1.896346      0.175873
  H      -4.608917      1.319052      1.838789
  H      -4.779983      0.201604      0.446831
  H      -1.671531     -0.777931      2.161903
  H      -3.303120     -1.326668      1.657397
  H      -3.117089     -0.114923      2.970915
  H      -0.079524      1.710655     -0.828008
  H      -1.277219     -2.319251      0.046353
  H       2.289118      0.995561     -0.886243
  H       1.091191     -3.036770     -0.011373
  H       2.881271     -1.378916     -0.469213
  F      -7.630804     -1.930558      3.473414
  F      -5.843364     -0.703224      3.122549
  F      -8.515818     -0.193427      5.353540
  F      -6.560513     -1.125935      5.687977
  F      -7.689914     -0.612762      1.220677
  F      -7.317886      1.326329      2.174630
  F      -7.442989      2.152633      4.810689
  F      -6.667794      1.308519      6.681515
  F      -9.713089      1.278399      3.378647
  F      -9.909258      0.732246      1.287274
  F     -10.050352     -0.803463      2.824518
  O      -4.273295      0.718912      5.425889
  O      -4.939318      2.380643      4.040005
  C      -7.149882     -0.663628      3.485716
  C      -7.209597     -0.177573      4.969031
  C      -7.892654      0.117498      2.344915
  C      -6.595831      1.211287      5.314973
  C      -9.435755      0.333469      2.475725
  C      -5.107129      1.463032      4.866952
46
Coordinates from ORCA-job R4N+PFHxA-_0.15M E -1922.675756014505
  N      -2.778135      0.632451      1.030512
  C      -2.268829      0.181573     -0.341630
  C      -1.989316      1.800591      1.547204
  C      -4.212342      1.048489      0.863035
  C      -2.708201     -0.482811      2.026372
  C      -0.832541     -0.250380     -0.365070
  C       0.179308      0.672340     -0.645769
  C      -0.492915     -1.589034     -0.147917
  C       1.510009      0.268197     -0.684280
  C       0.837845     -1.993251     -0.185627
  C       1.841540     -1.064267     -0.449014
  H      -2.431955      1.034045     -1.006314
  H      -2.928540     -0.637983     -0.639182
  H      -2.038583      2.608639      0.814991
  H      -0.955525      1.493261      1.709862
  H      -2.438368      2.113032      2.492501
  H      -4.250968      1.902249      0.183393
  H      -4.602071      1.321224      1.844040
  H      -4.774331      0.208023      0.450212
  H      -1.666110     -0.776965      2.159217
  H      -3.299187     -1.323411      1.656858
  H      -3.109090     -0.116268      2.974684
  H      -0.079686      1.710121     -0.839361
  H      -1.276657     -2.316259      0.047481
  H       2.288268      0.992971     -0.903872
  H       1.090719     -3.035702     -0.015376
  H       2.880223     -1.380494     -0.482382
  F      -7.632880     -1.932149      3.482425
  F      -5.846608     -0.705026      3.130071
  F      -8.527393     -0.187057      5.350512
  F      -6.574373     -1.119086      5.697618
  F      -7.689836     -0.623901      1.224043
  F      -7.317167      1.318378      2.171578
  F      -7.447925      2.157428      4.803123
  F      -6.687337      1.319938      6.682126
  F      -9.717166      1.280089      3.364865
  F      -9.909155      0.714970      1.278048
  F     -10.051049     -0.806806      2.828758
  O      -4.288423      0.713336      5.437136
  O      -4.936668      2.380660      4.050895
  C      -7.153588     -0.665034      3.490431
  C      -7.219327     -0.172930      4.972167
  C      -7.894443      0.110855      2.344879
  C      -6.606895      1.216750      5.316766
  C      -9.437280      0.327438      2.470886
  C      -5.114763      1.462961      4.877034
46
Coordinates from ORCA-job R4N+PFHxA-_0.15M E -1922.675764440493
  N      -2.779300      0.633910      1.031614
  C      -2.272740      0.181557     -0.341816
  C      -1.988559      1.799546      1.543440
  C      -4.211933      1.053181      0.868430
  C      -2.708528     -0.482807      2.029568
  C      -0.836500     -0.250585     -0.368063
  C       0.175154      0.672244     -0.651714
  C      -0.496291     -1.588998     -0.148641
  C       1.505963      0.268045     -0.692399
  C       0.834503     -1.993482     -0.189794
  C       1.837865     -1.064595     -0.457115
  H      -2.437087      1.033859     -1.006818
  H      -2.933521     -0.638310     -0.637338
  H      -2.037508      2.608403      0.811505
  H      -0.954878      1.489111      1.701483
  H      -2.430103      2.115750      2.490430
  H      -4.249790      1.907826      0.189528
  H      -4.600348      1.326330      1.852235
  H      -4.777081      0.214745      0.455400
  H      -1.667319     -0.780020      2.163974
  H      -3.300693     -1.322840      1.660079
  H      -3.112581     -0.113100      2.975276
  H      -0.084392      1.710042     -0.845279
  H      -1.279792     -2.316368      0.048763
  H       2.284047      0.992912     -0.913765
  H       1.087681     -3.035949     -0.019117
  H       2.876614     -1.380816     -0.491799
  F      -7.630319     -1.934984      3.487146
  F      -5.839153     -0.711125      3.147171
  F      -8.537244     -0.183927      5.344139
  F      -6.587918     -1.116802      5.708976
  F      -7.667676     -0.629736      1.224785
  F      -7.299403      1.313482      2.173467
  F      -7.450834      2.160966      4.803819
  F      -6.705606      1.323045      6.688298
  F      -9.708260      1.282213      3.345044
  F      -9.884884      0.710233      1.258551
  F     -10.040506     -0.806415      2.813913
  O      -4.294469      0.714477      5.461572
  O      -4.940306      2.376363      4.064144
  C      -7.149240     -0.668353      3.496136
  C      -7.226365     -0.171779      4.976206
  C      -7.879704      0.106749      2.343348
  C      -6.615636      1.218899      5.323484
  C      -9.422762      0.325894      2.456528
  C      -5.120308      1.462403      4.893134
46
Coordinates from ORCA-job R4N+PFHxA-_0.15M E -1922.675769074119
  N      -2.784637      0.632072      1.029051
  C      -2.273091      0.176592     -0.340639
  C      -2.000676      1.803881      1.537771
  C      -4.219805      1.045330      0.861634
  C      -2.712381     -0.483609      2.028741
  C      -0.835765     -0.252510     -0.359746
  C       0.175441      0.672461     -0.637104
  C      -0.494442     -1.590647     -0.141284
  C       1.506879      0.270319     -0.674835
  C       0.837023     -1.992964     -0.178424
  C       1.839897     -1.062385     -0.442109
  H      -2.436837      1.026827     -1.008624
  H      -2.930936     -0.645529     -0.636847
  H      -2.057036      2.608755      0.801685
  H      -0.964955      1.499651      1.696198
  H      -2.442843      2.121693      2.485561
  H      -4.260002      1.897544      0.179953
  H      -4.607396      1.320551      1.842991
  H      -4.781795      0.203262      0.451531
  H      -1.670449     -0.777797      2.163119
  H      -3.303007     -1.325706      1.661634
  H      -3.114613     -0.113857      2.974558
  H      -0.084669      1.710229     -0.830277
  H      -1.277753     -2.319812      0.050634
  H       2.284560      0.996479     -0.893850
  H       1.091084     -3.035737     -0.011142
  H       2.879070     -1.377374     -0.476182
  F      -7.629442     -1.932075      3.473768
  F      -5.840080     -0.706851      3.126204
  F      -8.519729     -0.193125      5.347998
  F      -6.565843     -1.126055      5.690211
  F      -7.683303     -0.616175      1.219535
  F      -7.308175      1.323016      2.172579
  F      -7.443113      2.152990      4.808588
  F      -6.677872      1.307753      6.682748
  F      -9.706562      1.282111      3.371293
  F      -9.899295      0.734641      1.280197
  F     -10.047152     -0.799676      2.818308
  O      -4.275632      0.719465      5.437824
  O      -4.938933      2.377420      4.046592
  C      -7.147615     -0.665507      3.485956
  C      -7.212099     -0.177818      4.968306
  C      -7.886459      0.115752      2.342643
  C      -6.599453      1.210768      5.316302
  C      -9.429246      0.335654      2.469954
  C      -5.108573      1.461184      4.874925
46
Coordinates from ORCA-job R4N+PFHxA-_0.15M E -1922.675777267913
  N      -2.780869      0.634060      1.031473
  C      -2.272952      0.178562     -0.339906
  C      -1.993061      1.804056      1.540216
  C      -4.215400      1.049103      0.866581
  C      -2.708984     -0.480448      2.030961
  C      -0.836204     -0.252197     -0.363459
  C       0.174954      0.670918     -0.646949
  C      -0.495486     -1.590224     -0.143349
  C       1.505939      0.267518     -0.686692
  C       0.835503     -1.993863     -0.183012
  C       1.838461     -1.064699     -0.450611
  H      -2.437713      1.028980     -1.007257
  H      -2.932446     -0.642783     -0.634125
  H      -2.046720      2.609714      0.805050
  H      -0.958043      1.497912      1.698635
  H      -2.435451      2.121734      2.487129
  H      -4.255538      1.902190      0.186003
  H      -4.602951      1.323227      1.848877
  H      -4.778352      0.208104      0.455732
  H      -1.667281     -0.775533      2.165112
  H      -3.300121     -1.322012      1.663445
  H      -3.111830     -0.111077      2.976979
  H      -0.084953      1.708295     -0.842217
  H      -1.278787     -2.317900      0.053663
  H       2.283643      0.992438     -0.909189
  H       1.089157     -3.036173     -0.012362
  H       2.877318     -1.380520     -0.485620
  F      -7.628626     -1.933070      3.476804
  F      -5.839401     -0.706296      3.135119
  F      -8.528813     -0.191219      5.345205
  F      -6.576580     -1.123527      5.697426
  F      -7.675242     -0.619799      1.220699
  F      -7.305266      1.320542      2.173753
  F      -7.448683      2.154912      4.807535
  F      -6.692233      1.312190      6.686054
  F      -9.709155      1.280382      3.359479
  F      -9.893179      0.724222      1.269673
  F     -10.043700     -0.804132      2.813531
  O      -4.287183      0.716179      5.450689
  O      -4.939312      2.376238      4.056201
  C      -7.148307     -0.666084      3.489376
  C      -7.219570     -0.176342      4.971342
  C      -7.883569      0.112929      2.342308
  C      -6.608355      1.212893      5.320350
  C      -9.426842      0.330894      2.462856
  C      -5.115532      1.460901      4.884420
46
Coordinates from ORCA-job R4N+PFHxA-_0.15M E -1922.675779414787
  N      -2.779934      0.634172      1.032755
  C      -2.273833      0.177742     -0.339039
  C      -1.990975      1.804011      1.539580
  C      -4.214531      1.049485      0.869450
  C      -2.707089     -0.479661      2.033081
  C      -0.836993     -0.252512     -0.364285
  C       0.173260      0.670668     -0.650762
  C      -0.495246     -1.590009     -0.142471
  C       1.504374      0.267835     -0.692048
  C       0.835888     -1.993040     -0.183523
  C       1.837941     -1.063815     -0.454225
  H      -2.439809      1.027623     -1.006734
  H      -2.933504     -0.644024     -0.631596
  H      -2.044567      2.609148      0.803878
  H      -0.955942      1.497479      1.697037
  H      -2.431814      2.122977      2.486698
  H      -4.255374      1.902651      0.188994
  H      -4.601020      1.323485      1.852273
  H      -4.778071      0.208653      0.459086
  H      -1.665366     -0.774921      2.166776
  H      -3.298495     -1.321409      1.666395
  H      -3.109690     -0.109613      2.979003
  H      -0.087520      1.707640     -0.846988
  H      -1.277859     -2.317771      0.056845
  H       2.281377      0.992799     -0.916753
  H       1.090335     -3.034927     -0.011501
  H       2.876907     -1.379147     -0.490212
  F      -7.629744     -1.933297      3.477211
  F      -5.839300     -0.707688      3.138220
  F      -8.532798     -0.189883      5.342847
  F      -6.582125     -1.123644      5.699496
  F      -7.672329     -0.621124      1.220462
  F      -7.301731      1.319330      2.173137
  F      -7.448983      2.155504      4.806486
  F      -6.698365      1.312563      6.687151
  F      -9.707734      1.282616      3.354401
  F      -9.889084      0.724127      1.264997
  F     -10.042933     -0.802326      2.810454
  O      -4.290597      0.713288      5.457363
  O      -4.938210      2.373326      4.060584
  C      -7.148828     -0.666586      3.490064
  C      -7.222746     -0.176141      4.971752
  C      -7.881605      0.112399      2.341370
  C      -6.611224      1.212642      5.321719
  C      -9.424776      0.331878      2.459334
  C      -5.117054      1.458692      4.889170
46
Coordinates from ORCA-job R4N+PFHxA-_0.15M E -1922.675787306205
  N      -2.776371      0.635208      1.037985
  C      -2.277329      0.174102     -0.334850
  C      -1.983926      1.805942      1.536412
  C      -4.211672      1.050326      0.880981
  C      -2.699388     -0.475279      2.042122
  C      -0.840099     -0.254272     -0.366178
  C       0.166755      0.668906     -0.664379
  C      -0.494652     -1.589777     -0.138073
  C       1.498306      0.268112     -0.711347
  C       0.836924     -1.990733     -0.184733
  C       1.835651     -1.061466     -0.467344
  H      -2.448070      1.021390     -1.004586
  H      -2.937618     -0.649529     -0.620541
  H      -2.038624      2.607963      0.797438
  H      -0.948479      1.499223      1.690719
  H      -2.419770      2.130246      2.483895
  H      -4.255964      1.903282      0.200458
  H      -4.593330      1.324404      1.865661
  H      -4.777063      0.209259      0.473680
  H      -1.657379     -0.770184      2.174173
  H      -3.291491     -1.318362      1.679553
  H      -3.100881     -0.102294      2.987486
  H      -0.097188      1.704244     -0.864918
  H      -1.274754     -2.317697      0.070197
  H       2.272703      0.993001     -0.945040
  H       1.094297     -3.031058     -0.007719
  H       2.874953     -1.375165     -0.507542
  F      -7.632478     -1.933516      3.475564
  F      -5.838358     -0.710333      3.147763
  F      -8.546369     -0.186691      5.333725
  F      -6.600936     -1.125673      5.704679
  F      -7.661419     -0.623209      1.218430
  F      -7.290530      1.317290      2.171008
  F      -7.450145      2.156018      4.803222
  F      -6.718977      1.311533      6.690797
  F      -9.703396      1.288922      3.338140
  F      -9.875066      0.726370      1.249125
  F     -10.040145     -0.796586      2.796896
  O      -4.302474      0.702524      5.481324
  O      -4.933989      2.361082      4.075001
  C      -7.150183     -0.667455      3.491041
  C      -7.233551     -0.176458      4.972180
  C      -7.874647      0.112116      2.337341
  C      -6.620749      1.210127      5.326241
  C      -9.417771      0.335755      2.446654
  C      -5.122067      1.449585      4.905287
46
Coordinates from ORCA-job R4N+PFHxA-_0.15M E -1922.675795883610
  N      -2.773689      0.636516      1.041545
  C      -2.279873      0.171586     -0.331770
  C      -1.979189      1.808550      1.533582
  C      -4.209774      1.051027      0.889166
  C      -2.693132     -0.471132      2.048596
  C      -0.842470     -0.255821     -0.367075
  C       0.162227      0.667239     -0.672711
  C      -0.494761     -1.590038     -0.135004
  C       1.493988      0.267633     -0.723503
  C       0.837040     -1.989760     -0.185283
  C       1.833660     -1.060621     -0.475607
  H      -2.453715      1.016903     -1.003167
  H      -2.940781     -0.653204     -0.612461
  H      -2.034719      2.607462      0.791337
  H      -0.943415      1.502209      1.686509
  H      -2.412346      2.137459      2.480929
  H      -4.257078      1.903318      0.208020
  H      -4.586702      1.326031      1.875090
  H      -4.776511      0.209254      0.485274
  H      -1.650527     -0.764557      2.178954
  H      -3.285456     -1.315642      1.689759
  H      -3.092967     -0.096012      2.993863
  H      -0.103678      1.701536     -0.875970
  H      -1.273273     -2.317980      0.078963
  H       2.266744      0.992331     -0.963081
  H       1.096246     -3.029115     -0.005339
  H       2.873109     -1.373415     -0.518770
  F      -7.633641     -1.933458      3.473132
  F      -5.837820     -0.710709      3.153039
  F      -8.555001     -0.185369      5.327337
  F      -6.612909     -1.127911      5.706751
  F      -7.655099     -0.624150      1.216673
  F      -7.284486      1.316550      2.168789
  F      -7.450389      2.155496      4.800408
  F      -6.732354      1.309904      6.692693
  F      -9.701037      1.292438      3.328507
  F      -9.867168      0.728346      1.239574
  F     -10.038779     -0.793170      2.787978
  O      -4.310077      0.695259      5.498009
  O      -4.930387      2.350583      4.083008
  C      -7.151049     -0.667567      3.490923
  C      -7.240445     -0.177188      4.971809
  C      -7.870734      0.112315      2.334294
  C      -6.626614      1.207486      5.328764
  C      -9.413899      0.338261      2.438722
  C      -5.124781      1.442319      4.915673
46
Coordinates from ORCA-job R4N+PFHxA-_0.15M E -1922.675808598025
  N      -2.771817      0.639226      1.043421
  C      -2.281736      0.170866     -0.329851
  C      -1.976634      1.813262      1.530568
  C      -4.208756      1.052881      0.894702
  C      -2.688170     -0.465996      2.052859
  C      -0.844525     -0.257230     -0.367131
  C       0.159941      0.665092     -0.675831
  C      -0.496897     -1.591213     -0.133829
  C       1.491486      0.265050     -0.728470
  C       0.834686     -1.991403     -0.185981
  C       1.831120     -1.063025     -0.479520
  H      -2.456755      1.014738     -1.002834
  H      -2.943742     -0.654196     -0.607155
  H      -2.032541      2.608675      0.784508
  H      -0.940693      1.507870      1.684533
  H      -2.409977      2.146602      2.476734
  H      -4.258814      1.903681      0.211900
  H      -4.579939      1.330616      1.881643
  H      -4.776776      0.209731      0.495570
  H      -1.644655     -0.756748      2.181617
  H      -3.280370     -1.312102      1.697692
  H      -3.086044     -0.089072      2.998185
  H      -0.106046      1.699128     -0.880374
  H      -1.275273     -2.318634      0.082567
  H       2.264104      0.989061     -0.970719
  H       1.093963     -3.030628     -0.005324
  H       2.870370     -1.376278     -0.524386
  F      -7.631146     -1.933603      3.469337
  F      -5.836157     -0.707662      3.155125
  F      -8.559056     -0.186962      5.323179
  F      -6.618058     -1.130550      5.706279
  F      -7.650672     -0.624092      1.214983
  F      -7.283230      1.317248      2.166632
  F      -7.450825      2.153498      4.798439
  F      -6.740056      1.307228      6.693539
  F      -9.700703      1.291345      3.324333
  F      -9.863788      0.728500      1.234863
  F     -10.037349     -0.794039      2.781951
  O      -4.314012      0.692745      5.510574
  O      -4.928003      2.341223      4.084991
  C      -7.150290     -0.666999      3.489873
  C      -7.243603     -0.178800      4.970872
  C      -7.868533      0.112601      2.331949
  C      -6.629655      1.204534      5.329944
  C      -9.412116      0.337844      2.434335
  C      -5.125971      1.437182      4.921637
46
Coordinates from ORCA-job R4N+PFHxA-_0.15M E -1922.675820113849
  N      -2.770611      0.642009      1.044103
  C      -2.283077      0.170897     -0.328953
  C      -1.975417      1.817724      1.527707
  C      -4.208253      1.055417      0.898065
  C      -2.684653     -0.461562      2.055406
  C      -0.846163     -0.258397     -0.367442
  C       0.158915      0.662994     -0.677076
  C      -0.499597     -1.592643     -0.134352
  C       1.490081      0.261872     -0.730456
  C       0.831622     -1.993967     -0.187325
  C       1.828700     -1.066500     -0.481596
  H      -2.458509      1.013522     -1.003481
  H      -2.946205     -0.654139     -0.603750
  H      -2.030777      2.609849      0.778019
  H      -0.939787      1.512494      1.684265
  H      -2.410164      2.155405      2.471894
  H      -4.260095      1.904159      0.212854
  H      -4.573714      1.336997      1.886002
  H      -4.777683      0.210873      0.503969
  H      -1.640262     -0.749468      2.183390
  H      -3.276341     -1.309117      1.702975
  H      -3.081524     -0.083118      3.000427
  H      -0.106304      1.697145     -0.882116
  H      -1.278429     -2.319332      0.083058
  H       2.263177      0.985110     -0.973657
  H       1.090186     -3.033411     -0.006809
  H       2.867628     -1.380743     -0.527369
  F      -7.626996     -1.933928      3.465394
  F      -5.833604     -0.703444      3.157194
  F      -8.561343     -0.189909      5.320634
  F      -6.620379     -1.132868      5.705981
  F      -7.645052     -0.622945      1.213642
  F      -7.283142      1.318823      2.166165
  F      -7.452432      2.151357      4.798311
  F      -6.746020      1.304828      6.695112
  F      -9.701150      1.288146      3.321439
  F      -9.860623      0.727139      1.231080
  F     -10.035027     -0.796995      2.776422
  O      -4.317057      0.693659      5.522332
  O      -4.927355      2.334648      4.086661
  C      -7.148573     -0.666325      3.489151
  C      -7.245404     -0.180740      4.970597
  C      -7.866157      0.113000      2.330473
  C      -6.632198      1.202371      5.331818
  C      -9.410347      0.335754      2.430822
  C      -5.127598      1.434551      4.926951
46
Coordinates from ORCA-job R4N+PFHxA-_0.15M E -1922.675829864707
  N      -2.769270      0.644120      1.044967
  C      -2.284511      0.170748     -0.328101
  C      -1.973327      1.820822      1.525568
  C      -4.207269      1.058156      0.901814
  C      -2.681418     -0.457961      2.057772
  C      -0.847818     -0.259278     -0.368392
  C       0.157487      0.661428     -0.679391
  C      -0.501805     -1.593661     -0.135400
  C       1.488358      0.259534     -0.733988
  C       0.829144     -1.995794     -0.189649
  C       1.826469     -1.068985     -0.485077
  H      -2.460791      1.012088     -1.004039
  H      -2.948565     -0.654458     -0.600221
  H      -2.026650      2.609993      0.772614
  H      -0.938609      1.514414      1.685766
  H      -2.410232      2.162779      2.467145
  H      -4.260400      1.904402      0.213627
  H      -4.566705      1.344147      1.890692
  H      -4.778583      0.212398      0.513151
  H      -1.636287     -0.743556      2.184969
  H      -3.272670     -1.306660      1.707458
  H      -3.077491     -0.078504      3.002762
  H      -0.107255      1.695644     -0.884724
  H      -1.280790     -2.319837      0.083221
  H       2.261607      0.982286     -0.978180
  H       1.087307     -3.035333     -0.009049
  H       2.865173     -1.383857     -0.531744
  F      -7.623880     -1.934622      3.463016
  F      -5.831384     -0.700965      3.160428
  F      -8.564745     -0.191598      5.317768
  F      -6.624439     -1.134188      5.707148
  F      -7.639076     -0.623472      1.212713
  F      -7.281208      1.318838      2.165385
  F      -7.454152      2.150226      4.797374
  F      -6.754401      1.304028      6.696710
  F      -9.700575      1.286627      3.316195
  F      -9.856006      0.724521      1.225634
  F     -10.032576     -0.798824      2.771460
  O      -4.321599      0.694389      5.535845
  O      -4.926406      2.329460      4.091279
  C      -7.147281     -0.666316      3.489163
  C      -7.248214     -0.182107      4.970689
  C      -7.863225      0.112485      2.329017
  C      -6.635825      1.201310      5.333941
  C      -9.407760      0.333814      2.426424
  C      -5.130063      1.432510      4.934169
46
Coordinates from ORCA-job R4N+PFHxA-_0.15M E -1922.675838308076
  N      -2.767338      0.645702      1.046689
  C      -2.286875      0.168953     -0.326536
  C      -1.969808      1.823213      1.522011
  C      -4.205829      1.060564      0.907907
  C      -2.676828     -0.454351      2.062002
  C      -0.850114     -0.260532     -0.370174
  C       0.153997      0.659822     -0.686041
  C      -0.502915     -1.594194     -0.134788
  C       1.484878      0.258299     -0.743127
  C       0.828060     -1.995982     -0.191640
  C       1.824208     -1.069495     -0.491937
  H      -2.465683      1.008140     -1.004477
  H      -2.951468     -0.657338     -0.594056
  H      -2.020573      2.608552      0.764926
  H      -0.936289      1.514713      1.685775
  H      -2.407598      2.171452      2.460642
  H      -4.260932      1.903745      0.216109
  H      -4.558148      1.351444      1.898165
  H      -4.779603      0.213528      0.525766
  H      -1.631184     -0.738279      2.188861
  H      -3.267454     -1.304414      1.713957
  H      -3.073119     -0.073273      3.006287
  H      -0.111586      1.693477     -0.893091
  H      -1.280972     -2.320138      0.087856
  H       2.257124      0.980833     -0.991095
  H       1.087069     -3.034971     -0.009074
  H       2.862911     -1.384080     -0.540580
  F      -7.622622     -1.935256      3.460704
  F      -5.829049     -0.700703      3.167202
  F      -8.572164     -0.191832      5.312503
  F      -6.634460     -1.136032      5.710330
  F      -7.629310     -0.623676      1.211438
  F      -7.274448      1.318456      2.165589
  F      -7.456301      2.149759      4.797074
  F      -6.768378      1.302707      6.700086
  F      -9.697935      1.288225      3.305968
  F      -9.845976      0.723644      1.215393
  F     -10.028859     -0.797663      2.762454
  O      -4.330229      0.690635      5.555004
  O      -4.924417      2.323048      4.102721
  C      -7.146522     -0.666822      3.489891
  C      -7.254292     -0.183443      4.971284
  C      -7.857593      0.112363      2.326975
  C      -6.642299      1.199921      5.338133
  C      -9.402300      0.334031      2.418340
  C      -5.134487      1.428439      4.946503
46
Coordinates from ORCA-job R4N+PFHxA-_0.15M E -1922.675844176020
  N      -2.766995      0.645567      1.046748
  C      -2.287541      0.168824     -0.326649
  C      -1.968426      1.822520      1.522717
  C      -4.205131      1.061517      0.908707
  C      -2.676437     -0.454061      2.061330
  C      -0.850792     -0.260517     -0.371109
  C       0.153159      0.659942     -0.686914
  C      -0.503391     -1.594208     -0.136136
  C       1.484027      0.258429     -0.744496
  C       0.827585     -1.995952     -0.193386
  C       1.823567     -1.069346     -0.493625
  H      -2.466747      1.007752     -1.004711
  H      -2.952233     -0.657558     -0.593555
  H      -2.014248      2.606787      0.764342
  H      -0.936686      1.511271      1.692073
  H      -2.410633      2.172972      2.458532
  H      -4.260266      1.901705      0.213273
  H      -4.553926      1.357069      1.898351
  H      -4.780366      0.213483      0.531118
  H      -1.630404     -0.736994      2.187330
  H      -3.266368     -1.304310      1.712634
  H      -3.071869     -0.075074      3.007042
  H      -0.112336      1.693709     -0.893376
  H      -1.281279     -2.320251      0.086542
  H       2.256066      0.981185     -0.992263
  H       1.086600     -3.034940     -0.010942
  H       2.862279     -1.383820     -0.542427
  F      -7.622268     -1.935897      3.461634
  F      -5.828542     -0.701758      3.168675
  F      -8.573498     -0.191366      5.311279
  F      -6.636329     -1.135275      5.711687
  F      -7.627536     -0.625201      1.211535
  F      -7.272404      1.317027      2.165475
  F      -7.457284      2.150408      4.796421
  F      -6.772661      1.303588      6.700470
  F      -9.696969      1.288876      3.302912
  F      -9.843901      0.721176      1.213054
  F     -10.027789     -0.797707      2.762278
  O      -4.332938      0.691499      5.558555
  O      -4.923938      2.325573      4.108259
  C      -7.146142     -0.667510      3.490426
  C      -7.255359     -0.183245      4.971373
  C      -7.856317      0.111291      2.326777
  C      -6.644181      1.200989      5.338784
  C      -9.400920      0.333162      2.416860
  C      -5.135944      1.429858      4.950324
46
Coordinates from ORCA-job R4N+PFHxA-_0.15M E -1922.675852722247
  N      -2.767322      0.643940      1.047049
  C      -2.288667      0.165723     -0.326084
  C      -1.969142      1.821730      1.520391
  C      -4.205830      1.059033      0.910492
  C      -2.675804     -0.455128      2.063104
  C      -0.851235     -0.261184     -0.371431
  C       0.150723      0.660316     -0.690465
  C      -0.501170     -1.593783     -0.133930
  C       1.482232      0.260903     -0.748799
  C       0.830409     -1.993425     -0.192038
  C       1.824427     -1.065709     -0.495507
  H      -2.470014      1.003319     -1.005215
  H      -2.952181     -0.662276     -0.590981
  H      -2.012998      2.603956      0.759828
  H      -0.938171      1.509835      1.693056
  H      -2.413005      2.175292      2.454017
  H      -4.262560      1.896272      0.211581
  H      -4.552449      1.358575      1.900052
  H      -4.781655      0.209474      0.537247
  H      -1.630173     -0.738982      2.190470
  H      -3.264750     -1.305917      1.713901
  H      -3.073430     -0.076004      3.007821
  H      -0.116656      1.693247     -0.898649
  H      -1.277550     -2.320716      0.091117
  H       2.252652      0.984586     -0.998929
  H       1.091312     -3.031574     -0.007512
  H       2.863656     -1.378423     -0.544718
  F      -7.625564     -1.935326      3.460686
  F      -5.828746     -0.705343      3.170509
  F      -8.576139     -0.189973      5.309037
  F      -6.641016     -1.136768      5.712158
  F      -7.624811     -0.622594      1.210546
  F      -7.266371      1.317690      2.167581
  F      -7.456904      2.150936      4.799371
  F      -6.774719      1.300485      6.702480
  F      -9.693635      1.293952      3.299870
  F      -9.838238      0.727191      1.209677
  F     -10.026888     -0.792004      2.758060
  O      -4.335102      0.684810      5.559335
  O      -4.922553      2.327549      4.116387
  C      -7.146733     -0.667998      3.490306
  C      -7.257411     -0.183632      4.971193
  C      -7.853492      0.113173      2.326346
  C      -6.645413      1.199949      5.340660
  C      -9.397737      0.337972      2.414055
  C      -5.136890      1.428044      4.953803
46
Coordinates from ORCA-job R4N+PFHxA-_0.15M E -1922.675862907717
  N      -2.769269      0.640091      1.045858
  C      -2.288217      0.162299     -0.326669
  C      -1.973352      1.818394      1.519652
  C      -4.208019      1.052721      0.907208
  C      -2.677640     -0.459266      2.061698
  C      -0.849868     -0.261518     -0.370321
  C       0.150186      0.662046     -0.689149
  C      -0.496823     -1.593052     -0.131160
  C       1.482701      0.265678     -0.745879
  C       0.835689     -1.989667     -0.187896
  C       1.827791     -1.059910     -0.491408
  H      -2.470454      0.999636     -1.005825
  H      -2.949672     -0.667073     -0.592283
  H      -2.015633      2.600097      0.758535
  H      -0.942653      1.507047      1.694878
  H      -2.419154      2.172914      2.452034
  H      -4.265772      1.887210      0.205043
  H      -4.557219      1.355536      1.895011
  H      -4.782529      0.201331      0.536142
  H      -1.632413     -0.743956      2.190524
  H      -3.264763     -1.310502      1.710403
  H      -3.077351     -0.082216      3.006228
  H      -0.119358      1.694255     -0.898044
  H      -1.271713     -2.321551      0.093839
  H       2.251563      0.991005     -0.995946
  H       1.098728     -3.027063     -0.002256
  H       2.867770     -1.370238     -0.539638
  F      -7.631372     -1.933348      3.459651
  F      -5.831687     -0.709031      3.166095
  F      -8.573281     -0.188495      5.310848
  F      -6.638602     -1.138174      5.709201
  F      -7.630387     -0.615995      1.209782
  F      -7.266089      1.321037      2.171717
  F      -7.454408      2.151495      4.804516
  F      -6.764012      1.296594      6.702632
  F      -9.693015      1.299158      3.306178
  F      -9.841004      0.737327      1.215124
  F     -10.029625     -0.785249      2.760201
  O      -4.330700      0.677653      5.541484
  O      -4.922195      2.335498      4.117877
  C      -7.148660     -0.667520      3.488818
  C      -7.254957     -0.183511      4.970372
  C      -7.855734      0.117349      2.327800
  C      -6.641083      1.199011      5.339903
  C      -9.399464      0.344865      2.418013
  C      -5.133993      1.428283      4.947141
46
Coordinates from ORCA-job R4N+PFHxA-_0.15M E -1922.675871733397
  N      -2.772347      0.636147      1.045098
  C      -2.287761      0.158811     -0.326562
  C      -1.980546      1.817175      1.519161
  C      -4.211874      1.043896      0.903799
  C      -2.679136     -0.462916      2.061136
  C      -0.848434     -0.261959     -0.367359
  C       0.150087      0.663872     -0.684470
  C      -0.492831     -1.592775     -0.127987
  C       1.483597      0.270499     -0.739049
  C       0.840658     -1.986339     -0.182384
  C       1.831234     -1.054289     -0.483955
  H      -2.470394      0.995899     -1.005907
  H      -2.946967     -0.671953     -0.593397
  H      -2.022793      2.597772      0.756860
  H      -0.949295      1.509314      1.697229
  H      -2.430169      2.171807      2.449597
  H      -4.272173      1.874623      0.197308
  H      -4.564478      1.351292      1.889114
  H      -4.783868      0.189214      0.536374
  H      -1.633834     -0.746911      2.190847
  H      -3.263651     -1.315614      1.708870
  H      -3.080595     -0.088198      3.005843
  H      -0.121463      1.695445     -0.893879
  H      -1.266558     -2.323001      0.095464
  H       2.251282      0.997602     -0.987602
  H       1.105691     -3.023164      0.003616
  H       2.872020     -1.362205     -0.530217
  F      -7.638307     -1.930969      3.456684
  F      -5.835726     -0.712992      3.156470
  F      -8.566442     -0.187557      5.313801
  F      -6.631664     -1.141127      5.702486
  F      -7.640551     -0.607752      1.207980
  F      -7.268365      1.325520      2.174839
  F      -7.448596      2.150834      4.809138
  F      -6.744634      1.290683      6.700033
  F      -9.692437      1.304870      3.317273
  F      -9.847662      0.751291      1.224741
  F     -10.034719     -0.776917      2.764538
  O      -4.320263      0.668301      5.512593
  O      -4.920814      2.344359      4.113705
  C      -7.150961     -0.666897      3.485181
  C      -7.249252     -0.184209      4.967740
  C      -7.860325      0.122623      2.328918
  C      -6.631931      1.196372      5.336000
  C      -9.403352      0.353578      2.424782
  C      -5.127114      1.427137      4.933482
46
Coordinates from ORCA-job R4N+PFHxA-_0.15M E -1922.675877304910
  N      -2.773262      0.635671      1.045711
  C      -2.287954      0.157447     -0.325588
  C      -1.983366      1.818236      1.517946
  C      -4.213510      1.040319      0.903493
  C      -2.677300     -0.461927      2.062684
  C      -0.848398     -0.262572     -0.365418
  C       0.149699      0.664019     -0.681738
  C      -0.492032     -1.593057     -0.125526
  C       1.483525      0.271670     -0.735352
  C       0.841764     -1.985647     -0.179162
  C       1.831858     -1.052966     -0.480270
  H      -2.470700      0.994083     -1.005437
  H      -2.946720     -0.673793     -0.591907
  H      -2.025980      2.597119      0.753853
  H      -0.951567      1.512257      1.696219
  H      -2.433335      2.175655      2.447323
  H      -4.276343      1.868319      0.194008
  H      -4.567409      1.350946      1.887560
  H      -4.784124      0.183310      0.539356
  H      -1.631330     -0.743524      2.192193
  H      -3.259646     -1.316717      1.711818
  H      -3.079399     -0.087902      3.007307
  H      -0.122628      1.695372     -0.891242
  H      -1.265424     -2.323750      0.097536
  H       2.250901      0.999210     -0.983554
  H       1.107462     -3.022314      0.006770
  H       2.872848     -1.360230     -0.526172
  F      -7.641981     -1.929984      3.453258
  F      -5.838376     -0.714325      3.150056
  F      -8.562737     -0.188321      5.315082
  F      -6.627842     -1.144225      5.697659
  F      -7.646499     -0.602824      1.206171
  F      -7.271627      1.328507      2.176010
  F      -7.445293      2.149029      4.810881
  F      -6.733335      1.286647      6.697948
  F      -9.693347      1.306677      3.323342
  F      -9.852671      0.758095      1.229837
  F     -10.038197     -0.773533      2.766474
  O      -4.315100      0.661701      5.496381
  O      -4.919311      2.345839      4.109392
  C      -7.152621     -0.666711      3.482171
  C      -7.246327     -0.185748      4.965725
  C      -7.863796      0.125448      2.328849
  C      -6.626610      1.193559      5.333358
  C      -9.406528      0.357419      2.428150
  C      -5.123144      1.424710      4.924779
46
Coordinates from ORCA-job R4N+PFHxA-_0.15M E -1922.675882554783
  N      -2.773001      0.637244      1.048871
  C      -2.289785      0.156327     -0.322465
  C      -1.984150      1.823148      1.515914
  C      -4.214363      1.038450      0.908653
  C      -2.671737     -0.457358      2.068390
  C      -0.850196     -0.263543     -0.363758
  C       0.147338      0.662824     -0.682860
  C      -0.493370     -1.593684     -0.122836
  C       1.481160      0.270736     -0.737669
  C       0.840482     -1.986009     -0.177556
  C       1.830027     -1.053510     -0.481018
  H      -2.473890      0.991483     -1.003789
  H      -2.948953     -0.675607     -0.585680
  H      -2.028733      2.598651      0.748354
  H      -0.951299      1.520454      1.693690
  H      -2.434112      2.184505      2.443593
  H      -4.281129      1.863446      0.196020
  H      -4.566778      1.352521      1.892207
  H      -4.784233      0.178753      0.549664
  H      -1.624358     -0.734384      2.196317
  H      -3.251895     -1.315315      1.721567
  H      -3.073341     -0.082843      3.013102
  H      -0.125714      1.693688     -0.893870
  H      -1.266346     -2.324168      0.102473
  H       2.248211      0.997959     -0.987900
  H       1.106806     -3.022328      0.009519
  H       2.871034     -1.360636     -0.527694
  F      -7.645995     -1.930035      3.449133
  F      -5.840122     -0.717107      3.146822
  F      -8.562913     -0.188420      5.313192
  F      -6.629749     -1.148353      5.694425
  F      -7.647054     -0.600779      1.203413
  F      -7.270926      1.329448      2.174840
  F      -7.441622      2.146874      4.810411
  F      -6.728434      1.282487      6.696252
  F      -9.692130      1.309141      3.322205
  F      -9.851693      0.763525      1.227840
  F     -10.040405     -0.769665      2.762559
  O      -4.312890      0.651883      5.488897
  O      -4.915851      2.341931      4.108634
  C      -7.154268     -0.667667      3.479342
  C      -7.246641     -0.188034      4.963493
  C      -7.864126      0.126650      2.326590
  C      -6.623704      1.189583      5.331524
  C      -9.406618      0.360671      2.425807
  C      -5.120248      1.418256      4.921313
46
Coordinates from ORCA-job R4N+PFHxA-_0.15M E -1922.675885829681
  N      -2.771971      0.640379      1.051515
  C      -2.290963      0.157762     -0.320086
  C      -1.982286      1.827012      1.515429
  C      -4.213224      1.041300      0.913117
  C      -2.668038     -0.452497      2.072421
  C      -0.851834     -0.263578     -0.362802
  C       0.146375      0.661559     -0.683515
  C      -0.496241     -1.593974     -0.121519
  C       1.479673      0.267978     -0.739746
  C       0.837125     -1.987812     -0.177666
  C       1.827326     -1.056577     -0.482855
  H      -2.475193      0.992311     -1.002141
  H      -2.951337     -0.673833     -0.581410
  H      -2.027702      2.601014      0.746327
  H      -0.949111      1.524623      1.691869
  H      -2.430765      2.191068      2.442794
  H      -4.281110      1.865283      0.199439
  H      -4.564598      1.356641      1.896719
  H      -4.783439      0.180917      0.556266
  H      -1.619735     -0.726458      2.199316
  H      -3.247366     -1.312087      1.728290
  H      -3.069152     -0.076987      3.016971
  H      -0.125904      1.692569     -0.894867
  H      -1.269752     -2.323539      0.104983
  H       2.247330      0.994124     -0.991308
  H       1.102622     -3.024343      0.009460
  H       2.867933     -1.364913     -0.530625
  F      -7.647062     -1.931559      3.447804
  F      -5.840908     -0.718799      3.145037
  F      -8.563073     -0.188751      5.311776
  F      -6.630650     -1.150121      5.692903
  F      -7.647579     -0.603701      1.201891
  F      -7.271872      1.327370      2.171602
  F      -7.439992      2.145413      4.807554
  F      -6.727583      1.281530      6.693984
  F      -9.692063      1.308134      3.319676
  F      -9.852313      0.761154      1.225564
  F     -10.041623     -0.770748      2.761474
  O      -4.312789      0.648066      5.488454
  O      -4.913000      2.337786      4.106750
  C      -7.155105     -0.669273      3.477796
  C      -7.247045     -0.189510      4.961827
  C      -7.864809      0.124564      2.324486
  C      -6.622643      1.187832      5.329402
  C      -9.407240      0.358877      2.423775
  C      -5.119026      1.414987      4.919803
46
Coordinates from ORCA-job R4N+PFHxA-_0.15M E -1922.675888470076
  N      -2.771356      0.643039      1.053656
  C      -2.292530      0.158580     -0.318085
  C      -1.980663      1.830480      1.514233
  C      -4.212651      1.044204      0.917058
  C      -2.665435     -0.448654      2.075991
  C      -0.853706     -0.263646     -0.362447
  C       0.144751      0.660341     -0.685684
  C      -0.498792     -1.594045     -0.120146
  C       1.477670      0.265687     -0.743189
  C       0.834205     -1.988968     -0.177582
  C       1.824685     -1.058804     -0.485117
  H      -2.477362      0.992275     -1.001031
  H      -2.953724     -0.673008     -0.577349
  H      -2.027272      2.602966      0.743682
  H      -0.947195      1.528430      1.689503
  H      -2.427204      2.196656      2.441602
  H      -4.280809      1.867741      0.202882
  H      -4.562800      1.360254      1.900944
  H      -4.783552      0.183780      0.561357
  H      -1.616453     -0.720268      2.202336
  H      -3.244301     -1.309178      1.733534
  H      -3.066284     -0.071991      3.020176
  H      -0.127054      1.691278     -0.897996
  H      -1.272474     -2.322794      0.108385
  H       2.245570      0.990918     -0.996648
  H       1.099229     -3.025449      0.010492
  H       2.865000     -1.367976     -0.533866
  F      -7.647847     -1.933095      3.447049
  F      -5.840496     -0.721339      3.146373
  F      -8.564877     -0.188167      5.309647
  F      -6.634126     -1.151615      5.693443
  F      -7.644314     -0.606184      1.200698
  F      -7.269504      1.325200      2.170053
  F      -7.438492      2.144718      4.805785
  F      -6.729364      1.280917      6.693395
  F      -9.690577      1.308016      3.314465
  F      -9.848924      0.758760      1.220685
  F     -10.040823     -0.771201      2.758118
  O      -4.314103      0.642896      5.490864
  O      -4.910050      2.334353      4.109110
  C      -7.155202     -0.671062      3.477358
  C      -7.248614     -0.190687      4.961113
  C      -7.862947      0.122624      2.322695
  C      -6.622873      1.186512      5.329004
  C      -9.405395      0.357457      2.419862
  C      -5.118676      1.411244      4.921523
46
Coordinates from ORCA-job R4N+PFHxA-_0.15M E -1922.675891521394
  N      -2.771281      0.645649      1.055251
  C      -2.293595      0.160062     -0.316437
  C      -1.979240      1.832842      1.514234
  C      -4.212018      1.048111      0.919252
  C      -2.665369     -0.445589      2.078338
  C      -0.855090     -0.263232     -0.361569
  C       0.143974      0.659485     -0.686402
  C      -0.501213     -1.593790     -0.118442
  C       1.476458      0.263427     -0.744709
  C       0.831335     -1.990104     -0.176602
  C       1.822457     -1.061128     -0.485724
  H      -2.478331      0.993343     -0.999921
  H      -2.955423     -0.671282     -0.574858
  H      -2.026355      2.605068      0.743505
  H      -0.945859      1.530001      1.688603
  H      -2.424016      2.199610      2.442133
  H      -4.278750      1.871580      0.204837
  H      -4.562316      1.364805      1.903060
  H      -4.783792      0.188292      0.563452
  H      -1.616179     -0.716329      2.204842
  H      -3.244464     -1.306017      1.736155
  H      -3.066232     -0.067873      3.022119
  H      -0.126866      1.690532     -0.899404
  H      -1.275332     -2.321697      0.111252
  H       2.244841      0.987722     -0.999366
  H       1.095486     -3.026673      0.012199
  H       2.862451     -1.371305     -0.534933
  F      -7.648033     -1.935053      3.446938
  F      -5.840368     -0.724047      3.145086
  F      -8.564017     -0.187998      5.308561
  F      -6.633926     -1.152486      5.692594
  F      -7.644371     -0.609571      1.199583
  F      -7.268841      1.322233      2.167833
  F      -7.436414      2.143993      4.803466
  F      -6.728276      1.280423      6.691452
  F      -9.689552      1.307065      3.311967
  F      -9.848829      0.755211      1.218874
  F     -10.040629     -0.772724      2.758250
  O      -4.313467      0.639806      5.489924
  O      -4.907041      2.333299      4.109332
  C      -7.155057     -0.673153      3.476306
  C      -7.247963     -0.191720      4.959640
  C      -7.862647      0.120000      2.321204
  C      -6.621375      1.185800      5.327002
  C      -9.405027      0.355120      2.418425
  C      -5.117160      1.409482      4.920630
46
Coordinates from ORCA-job R4N+PFHxA-_0.15M E -1922.675895750856
  N      -2.771604      0.648438      1.056444
  C      -2.295016      0.161027     -0.314856
  C      -1.977853      1.835204      1.513470
  C      -4.212044      1.052612      0.920403
  C      -2.666389     -0.442150      2.080647
  C      -0.856754     -0.263081     -0.360518
  C       0.142657      0.658292     -0.687808
  C      -0.503525     -1.593467     -0.115316
  C       1.474808      0.261080     -0.746644
  C       0.828646     -1.990921     -0.173942
  C       1.820161     -1.063202     -0.485645
  H      -2.479772      0.993540     -0.999264
  H      -2.957260     -0.670323     -0.572109
  H      -2.025431      2.607023      0.742467
  H      -0.944679      1.531203      1.687024
  H      -2.420377      2.202711      2.442121
  H      -4.276787      1.875774      0.205403
  H      -4.562268      1.370598      1.903925
  H      -4.785037      0.193630      0.564561
  H      -1.617199     -0.712667      2.207654
  H      -3.245993     -1.302113      1.738304
  H      -3.067262     -0.063116      3.023886
  H      -0.127361      1.689257     -0.902212
  H      -1.277857     -2.320515      0.116298
  H       2.243411      0.984442     -1.003227
  H       1.092110     -3.027351      0.016511
  H       2.859890     -1.374190     -0.535237
  F      -7.647321     -1.937084      3.445713
  F      -5.839431     -0.726567      3.143851
  F      -8.563038     -0.188484      5.306929
  F      -6.633800     -1.154279      5.691480
  F      -7.643407     -0.611312      1.198021
  F      -7.267263      1.320064      2.167032
  F      -7.433905      2.142837      4.802080
  F      -6.727208      1.278721      6.690222
  F      -9.688277      1.306098      3.309621
  F      -9.847922      0.752283      1.217087
  F     -10.039312     -0.774254      2.757796
  O      -4.312894      0.634972      5.488482
  O      -4.903490      2.332539      4.111461
  C      -7.154157     -0.675302      3.474880
  C      -7.246990     -0.193347      4.958059
  C      -7.861504      0.118062      2.319860
  C      -6.619713      1.184407      5.325591
  C      -9.403903      0.353146      2.416926
  C      -5.115393      1.406956      4.920495
46
Coordinates from ORCA-job R4N+PFHxA-_0.15M E -1922.675903007243
  N      -2.772776      0.652243      1.056675
  C      -2.296272      0.162520     -0.313625
  C      -1.977088      1.838100      1.512601
  C      -4.212480      1.058828      0.918892
  C      -2.670262     -0.437532      2.082237
  C      -0.858337     -0.262945     -0.358473
  C       0.141925      0.656533     -0.688147
  C      -0.506316     -1.593132     -0.110231
  C       1.473673      0.257691     -0.746418
  C       0.825385     -1.992179     -0.168138
  C       1.817828     -1.066226     -0.482312
  H      -2.480110      0.994230     -0.999261
  H      -2.958916     -0.668667     -0.570343
  H      -2.025263      2.610446      0.742275
  H      -0.944244      1.532349      1.685056
  H      -2.417317      2.204736      2.442622
  H      -4.273615      1.881264      0.202677
  H      -4.563929      1.379303      1.901272
  H      -4.786835      0.200880      0.562816
  H      -1.621557     -0.709287      2.210587
  H      -3.251086     -1.296315      1.739103
  H      -3.071348     -0.056690      3.024672
  H      -0.126623      1.687412     -0.904777
  H      -1.281233     -2.318958      0.123214
  H       2.242833      0.979783     -1.004890
  H       1.087637     -3.028439      0.024850
  H       2.857238     -1.378351     -0.531362
  F      -7.644938     -1.939693      3.442858
  F      -5.838132     -0.728411      3.138850
  F      -8.558564     -0.191288      5.306017
  F      -6.628995     -1.157545      5.687522
  F      -7.645346     -0.611747      1.195692
  F      -7.267733      1.318490      2.166619
  F      -7.430152      2.140298      4.801762
  F      -6.721633      1.274225      6.688271
  F      -9.687718      1.303540      3.311324
  F      -9.850434      0.749619      1.219171
  F     -10.038124     -0.777172      2.760017
  O      -4.309071      0.630282      5.481888
  O      -4.899764      2.333415      4.111772
  C      -7.152321     -0.677787      3.471812
  C      -7.242931     -0.196280      4.955271
  C      -7.861700      0.116386      2.318735
  C      -6.615359      1.181737      5.323047
  C      -9.404163      0.350627      2.418239
  C      -5.111545      1.404898      4.917488
46
Coordinates from ORCA-job R4N+PFHxA-_0.15M E -1922.675915075865
  N      -2.774103      0.658064      1.055413
  C      -2.297738      0.163845     -0.313043
  C      -1.975796      1.842847      1.509089
  C      -4.213408      1.067903      0.914778
  C      -2.675543     -0.429588      2.084002
  C      -0.860316     -0.263700     -0.356102
  C       0.141060      0.653075     -0.689548
  C      -0.509812     -1.593267     -0.102334
  C       1.472328      0.252226     -0.746420
  C       0.821339     -1.994274     -0.158660
  C       1.814957     -1.070937     -0.476908
  H      -2.480019      0.993968     -1.001003
  H      -2.961135     -0.667165     -0.568276
  H      -2.025043      2.615421      0.739201
  H      -0.943315      1.534796      1.679657
  H      -2.412732      2.208891      2.440887
  H      -4.270433      1.888396      0.195938
  H      -4.564894      1.393076      1.895648
  H      -4.789886      0.210852      0.560146
  H      -1.627799     -0.703926      2.214629
  H      -3.258221     -1.287094      1.740870
  H      -3.077140     -0.045127      3.024755
  H      -0.125680      1.683597     -0.910065
  H      -1.285503     -2.317290      0.134054
  H       2.242169      0.972465     -1.007967
  H       1.082054     -3.030094      0.038661
  H       2.853969     -1.384533     -0.524825
  F      -7.639120     -1.942772      3.436470
  F      -5.835058     -0.727780      3.132474
  F      -8.553354     -0.198109      5.304198
  F      -6.622815     -1.164030      5.681677
  F      -7.646452     -0.608990      1.192310
  F      -7.268681      1.318902      2.168037
  F      -7.426566      2.135365      4.803997
  F      -6.716878      1.265233      6.688172
  F      -9.687641      1.299327      3.315030
  F      -9.853314      0.747515      1.222757
  F     -10.035251     -0.781557      2.762014
  O      -4.305026      0.623973      5.477500
  O      -4.896195      2.332487      4.114147
  C      -7.148751     -0.680181      3.467378
  C      -7.237898     -0.201661      4.952052
  C      -7.861312      0.115949      2.317753
  C      -6.611116      1.176219      5.322277
  C      -9.404040      0.347885      2.420451
  C      -5.107606      1.400993      4.916660
46
Coordinates from ORCA-job R4N+PFHxA-_0.15M E -1922.675930284486
  N      -2.775461      0.661884      1.051768
  C      -2.297268      0.165514     -0.315148
  C      -1.975920      1.845548      1.507077
  C      -4.213689      1.073783      0.906794
  C      -2.681559     -0.424289      2.081451
  C      -0.860481     -0.264498     -0.354912
  C       0.142667      0.650379     -0.688229
  C      -0.512125     -1.594045     -0.098312
  C       1.473535      0.247760     -0.742148
  C       0.818617     -1.996794     -0.151588
  C       1.814009     -1.075361     -0.469758
  H      -2.476625      0.995445     -1.004090
  H      -2.961576     -0.664517     -0.571168
  H      -2.026119      2.620320      0.739493
  H      -0.943468      1.536272      1.675613
  H      -2.412126      2.207582      2.440696
  H      -4.267079      1.892698      0.185903
  H      -4.567593      1.402344      1.885236
  H      -4.790760      0.216914      0.552840
  H      -1.634843     -0.701840      2.213427
  H      -3.266057     -1.280678      1.738524
  H      -3.082576     -0.038075      3.021745
  H      -0.122182      1.680936     -0.910861
  H      -1.289134     -2.316654      0.138073
  H       2.244628      0.966638     -1.003728
  H       1.077555     -3.032613      0.048044
  H       2.852682     -1.390396     -0.515461
  F      -7.631420     -1.944160      3.431416
  F      -5.831924     -0.722781      3.126961
  F      -8.547671     -0.206459      5.304966
  F      -6.614017     -1.168558      5.676884
  F      -7.648218     -0.604327      1.191018
  F      -7.272846      1.321854      2.170999
  F      -7.426674      2.130981      4.808783
  F      -6.712620      1.257624      6.689921
  F      -9.689861      1.293569      3.322694
  F      -9.858368      0.745931      1.229732
  F     -10.032859     -0.787164      2.765896
  O      -4.300581      0.626622      5.474274
  O      -4.898475      2.333965      4.113649
  C      -7.144900     -0.680243      3.464627
  C      -7.232513     -0.205768      4.950890
  C      -7.862282      0.117075      2.318847
  C      -6.608480      1.172172      5.323567
  C      -9.405429      0.345068      2.425520
  C      -5.105626      1.401534      4.916007
46
Coordinates from ORCA-job R4N+PFHxA-_0.15M E -1922.675947280235
  N      -2.775489      0.663142      1.047241
  C      -2.295372      0.165108     -0.318578
  C      -1.977181      1.847742      1.503080
  C      -4.214154      1.073799      0.899708
  C      -2.682573     -0.420857      2.078795
  C      -0.858895     -0.266017     -0.355292
  C       0.145064      0.648552     -0.687417
  C      -0.511351     -1.595381     -0.097087
  C       1.475969      0.245878     -0.738520
  C       0.819505     -1.998193     -0.147594
  C       1.815613     -1.077199     -0.464518
  H      -2.472739      0.994762     -1.008342
  H      -2.960251     -0.664456     -0.574624
  H      -2.029157      2.622913      0.735923
  H      -0.943930      1.540160      1.669839
  H      -2.414137      2.207975      2.437168
  H      -4.269294      1.890067      0.176029
  H      -4.567807      1.405488      1.876795
  H      -4.790452      0.214814      0.549662
  H      -1.636451     -0.700381      2.211257
  H      -3.267514     -1.278318      1.739077
  H      -3.083140     -0.032224      3.018308
  H      -0.119621      1.678883     -0.911348
  H      -1.289039     -2.317582      0.138347
  H       2.247719      0.964364     -0.999232
  H       1.078062     -3.033895      0.053179
  H       2.854306     -1.392474     -0.508080
  F      -7.626943     -1.943007      3.426763
  F      -5.830744     -0.716107      3.124261
  F      -8.546480     -0.213568      5.306005
  F      -6.610642     -1.173146      5.673949
  F      -7.650442     -0.597669      1.191224
  F      -7.276843      1.327150      2.174259
  F      -7.428998      2.127256      4.814994
  F      -6.712962      1.250469      6.693942
  F      -9.691813      1.292238      3.330608
  F      -9.862321      0.750120      1.236391
  F     -10.032888     -0.787423      2.768740
  O      -4.299288      0.628586      5.477313
  O      -4.902948      2.330885      4.113067
  C      -7.143504     -0.678035      3.463645
  C      -7.231290     -0.208914      4.951672
  C      -7.864036      0.120929      2.320790
  C      -6.609401      1.167669      5.327731
  C      -9.407229      0.346980      2.430471
  C      -5.106632      1.400110      4.918330
46
Coordinates from ORCA-job R4N+PFHxA-_0.15M E -1922.675961347441
  N      -2.776312      0.665732      1.042746
  C      -2.293665      0.165742     -0.321853
  C      -1.980445      1.852202      1.498022
  C      -4.214798      1.073914      0.892398
  C      -2.683301     -0.415782      2.076522
  C      -0.857771     -0.267315     -0.355086
  C       0.147945      0.646169     -0.685461
  C      -0.512372     -1.596918     -0.095617
  C       1.478529      0.242286     -0.733226
  C       0.818269     -2.000963     -0.142883
  C       1.816019     -1.081133     -0.457773
  H      -2.468495      0.995000     -1.012747
  H      -2.959536     -0.663050     -0.577908
  H      -2.035999      2.627442      0.731042
  H      -0.945728      1.547871      1.661704
  H      -2.416721      2.210941      2.433039
  H      -4.271912      1.886525      0.164855
  H      -4.570389      1.409446      1.867442
  H      -4.789328      0.211915      0.546764
  H      -1.637304     -0.695347      2.210046
  H      -3.267577     -1.275205      1.740500
  H      -3.084200     -0.024438      3.014631
  H      -0.115811      1.676446     -0.910813
  H      -1.291460     -2.318062      0.138514
  H       2.251793      0.959676     -0.992517
  H       1.075564     -3.036797      0.058917
  H       2.854478     -1.397556     -0.498717
  F      -7.622523     -1.942140      3.420843
  F      -5.829077     -0.710025      3.121420
  F      -8.543700     -0.222153      5.307857
  F      -6.605406     -1.179162      5.670045
  F      -7.650369     -0.589546      1.190794
  F      -7.280835      1.333273      2.178943
  F      -7.431156      2.122503      4.823414
  F      -6.709615      1.241066      6.698202
  F      -9.693507      1.289211      3.338628
  F      -9.865107      0.754529      1.242436
  F     -10.032138     -0.788744      2.769511
  O      -4.296001      0.630428      5.477538
  O      -4.908154      2.328808      4.112432
  C      -7.141622     -0.676244      3.462302
  C      -7.228960     -0.213340      4.952267
  C      -7.864930      0.125011      2.322626
  C      -6.608799      1.162213      5.332127
  C      -9.408298      0.347964      2.434662
  C      -5.106987      1.398801      4.919342
46
Coordinates from ORCA-job R4N+PFHxA-_0.15M E -1922.675975009245
  N      -2.777267      0.670604      1.038475
  C      -2.293014      0.167355     -0.324545
  C      -1.982213      1.858191      1.491758
  C      -4.215934      1.078552      0.885574
  C      -2.684971     -0.407946      2.075504
  C      -0.857960     -0.268420     -0.354592
  C       0.150087      0.642808     -0.684268
  C      -0.515591     -1.598320     -0.092741
  C       1.479971      0.236426     -0.729003
  C       0.814393     -2.004892     -0.137080
  C       1.814395     -1.087323     -0.451254
  H      -2.465139      0.995679     -1.017219
  H      -2.960262     -0.660534     -0.579925
  H      -2.039986      2.632713      0.724206
  H      -0.946763      1.555474      1.653806
  H      -2.417350      2.217188      2.427207
  H      -4.273883      1.886110      0.152513
  H      -4.570402      1.420302      1.859069
  H      -4.790738      0.214215      0.546241
  H      -1.639114     -0.687284      2.210779
  H      -3.269017     -1.268723      1.742604
  H      -3.086413     -0.012661      3.011893
  H      -0.111693      1.673174     -0.911543
  H      -1.296473     -2.317686      0.140847
  H       2.255156      0.951905     -0.987796
  H       1.069498     -3.040937      0.066414
  H       2.852316     -1.405794     -0.489879
  F      -7.615991     -1.943149      3.414183
  F      -5.825650     -0.705462      3.118351
  F      -8.540411     -0.231973      5.308013
  F      -6.599922     -1.186260      5.665704
  F      -7.648343     -0.583333      1.189316
  F      -7.282580      1.337180      2.183108
  F      -7.432777      2.116676      4.830567
  F      -6.708694      1.230609      6.702112
  F      -9.693525      1.284989      3.344183
  F      -9.866238      0.755266      1.246661
  F     -10.029048     -0.792008      2.770126
  O      -4.293899      0.630862      5.482085
  O      -4.910883      2.326414      4.114585
  C      -7.138148     -0.676169      3.460204
  C      -7.226034     -0.219167      4.951735
  C      -7.863916      0.127159      2.323509
  C      -6.608372      1.156212      5.336134
  C      -9.407537      0.346525      2.437458
  C      -5.107380      1.396644      4.922854
46
Coordinates from ORCA-job R4N+PFHxA-_0.15M E -1922.675992129773
  N      -2.779640      0.678407      1.031726
  C      -2.291497      0.170757     -0.328715
  C      -1.986556      1.868124      1.482549
  C      -4.217168      1.084898      0.873134
  C      -2.688970     -0.396268      2.072828
  C      -0.857864     -0.269546     -0.352961
  C       0.154450      0.637649     -0.680928
  C      -0.521064     -1.600176     -0.087516
  C       1.483029      0.226617     -0.720226
  C       0.807666     -2.011405     -0.126440
  C       1.811839     -1.097780     -0.438737
  H      -2.458783      0.998007     -1.023859
  H      -2.960727     -0.655505     -0.584266
  H      -2.049246      2.642675      0.715382
  H      -0.949392      1.569112      1.640618
  H      -2.418451      2.225532      2.420073
  H      -4.274367      1.884269      0.131132
  H      -4.575851      1.436733      1.841768
  H      -4.790909      0.216657      0.541846
  H      -1.643097     -0.674097      2.211461
  H      -3.272061     -1.258846      1.743107
  H      -3.091597      0.003948      3.006320
  H      -0.103580      1.668283     -0.911317
  H      -1.305224     -2.316429      0.144653
  H       2.261784      0.938712     -0.977626
  H       1.058705     -3.047903      0.079814
  H       2.848781     -1.419930     -0.473045
  F      -7.606191     -1.944785      3.403213
  F      -5.820839     -0.698647      3.111331
  F      -8.532465     -0.248074      5.309597
  F      -6.587847     -1.197645      5.657170
  F      -7.647064     -0.571909      1.186539
  F      -7.287389      1.344049      2.191070
  F      -7.434677      2.107275      4.843822
  F      -6.701863      1.212844      6.707717
  F      -9.694283      1.277425      3.355422
  F      -9.870878      0.756036      1.255800
  F     -10.024719     -0.797986      2.773206
  O      -4.288023      0.632328      5.481932
  O      -4.916076      2.326415      4.118295
  C      -7.132835     -0.676214      3.456063
  C      -7.219320     -0.228673      4.950188
  C      -7.863683      0.130909      2.325295
  C      -6.605243      1.146907      5.341532
  C      -9.407748      0.343557      2.443717
  C      -5.106778      1.394885      4.925246
46
Coordinates from ORCA-job R4N+PFHxA-_0.15M E -1922.676001533777
  N      -2.781183      0.690296      1.025997
  C      -2.292521      0.173476     -0.330819
  C      -1.987379      1.881248      1.468623
  C      -4.219789      1.097971      0.863758
  C      -2.692765     -0.378075      2.075178
  C      -0.860324     -0.271541     -0.350679
  C       0.155202      0.629725     -0.684736
  C      -0.528129     -1.601343     -0.075212
  C       1.482435      0.213890     -0.719882
  C       0.799206     -2.017327     -0.109813
  C       1.806663     -1.109346     -0.428087
  H      -2.456280      0.997413     -1.030714
  H      -2.964012     -0.651994     -0.582923
  H      -2.053911      2.653278      0.699336
  H      -0.949369      1.583249      1.623170
  H      -2.413435      2.241845      2.407196
  H      -4.277384      1.886277      0.110022
  H      -4.574196      1.464068      1.829334
  H      -4.796274      0.226516      0.545960
  H      -1.647512     -0.655600      2.219109
  H      -3.275872     -1.241832      1.748806
  H      -3.098232      0.030246      3.004337
  H      -0.099200      1.659458     -0.923052
  H      -1.314723     -2.313325      0.161727
  H       2.263784      0.921369     -0.982046
  H       1.046604     -3.053014      0.104689
  H       2.842570     -1.435133     -0.459016
  F      -7.595247     -1.948894      3.388465
  F      -5.813762     -0.695420      3.105053
  F      -8.527357     -0.265609      5.305738
  F      -6.581142     -1.214019      5.647664
  F      -7.641676     -0.560966      1.181320
  F      -7.285512      1.348695      2.198999
  F      -7.433804      2.095018      4.855547
  F      -6.701687      1.189453      6.714115
  F      -9.691665      1.270932      3.361875
  F      -9.869453      0.758248      1.260223
  F     -10.017509     -0.802793      2.770807
  O      -4.285124      0.622269      5.490202
  O      -4.915420      2.319767      4.128872
  C      -7.126002     -0.679184      3.449977
  C      -7.214230     -0.241698      4.946714
  C      -7.859241      0.133648      2.324957
  C      -6.603333      1.133017      5.347562
  C      -9.403875      0.341534      2.445734
  C      -5.105647      1.385402      4.933844
46
Coordinates from ORCA-job R4N+PFHxA-_0.15M E -1922.676009615430
  N      -2.783174      0.694909      1.022645
  C      -2.292139      0.176974     -0.333011
  C      -1.989924      1.886770      1.466345
  C      -4.219990      1.101461      0.856050
  C      -2.695714     -0.371574      2.071691
  C      -0.861078     -0.271616     -0.349238
  C       0.157926      0.627208     -0.679055
  C      -0.533457     -1.602796     -0.074757
  C       1.484015      0.207502     -0.711203
  C       0.792688     -2.022686     -0.106525
  C       1.803597     -1.117119     -0.420728
  H      -2.452067      1.001419     -1.033168
  H      -2.965026     -0.646770     -0.587026
  H      -2.056263      2.659497      0.697768
  H      -0.951590      1.590249      1.621695
  H      -2.417712      2.246109      2.405324
  H      -4.276011      1.882962      0.095132
  H      -4.578413      1.476444      1.816018
  H      -4.795583      0.227154      0.544478
  H      -1.649480     -0.645878      2.214785
  H      -3.277445     -1.236441      1.746063
  H      -3.098670      0.035756      3.002137
  H      -0.092961      1.657995     -0.916516
  H      -1.322746     -2.312904      0.158726
  H       2.268197      0.913001     -0.970159
  H       1.036498     -3.059462      0.106755
  H       2.838613     -1.445897     -0.449497
  F      -7.587779     -1.950424      3.383862
  F      -5.810099     -0.691748      3.100413
  F      -8.520435     -0.275493      5.307240
  F      -6.570376     -1.218167      5.642987
  F      -7.640669     -0.556305      1.180195
  F      -7.288376      1.351130      2.203281
  F      -7.436401      2.089663      4.861237
  F      -6.696899      1.181818      6.715685
  F      -9.692586      1.263472      3.368955
  F      -9.872421      0.755633      1.266199
  F     -10.013592     -0.809534      2.773041
  O      -4.281904      0.629990      5.487626
  O      -4.919517      2.324983      4.130186
  C      -7.121576     -0.679608      3.447863
  C      -7.208236     -0.246347      4.945547
  C      -7.858641      0.134259      2.326250
  C      -6.601161      1.129770      5.348869
  C      -9.403765      0.337021      2.449887
  C      -5.105372      1.388810      4.933879
46
Coordinates from ORCA-job R4N+PFHxA-_0.15M E -1922.676014177861
  N      -2.781713      0.696970      1.023438
  C      -2.292728      0.175181     -0.331363
  C      -1.987731      1.890054      1.461618
  C      -4.218470      1.102499      0.858203
  C      -2.693506     -0.367466      2.075771
  C      -0.861349     -0.272673     -0.348539
  C       0.156241      0.625381     -0.684765
  C      -0.532062     -1.602352     -0.068718
  C       1.482639      0.206539     -0.717933
  C       0.794337     -2.021334     -0.101376
  C       1.803932     -1.116444     -0.421998
  H      -2.454241      0.997657     -1.033531
  H      -2.965350     -0.649747     -0.582285
  H      -2.057608      2.661571      0.692096
  H      -0.948570      1.594263      1.612922
  H      -2.410568      2.250175      2.402142
  H      -4.274427      1.882976      0.096214
  H      -4.578371      1.479920      1.817018
  H      -4.794081      0.227685      0.548147
  H      -1.647695     -0.642338      2.220724
  H      -3.275607     -1.232467      1.751070
  H      -3.098408      0.042869      3.003600
  H      -0.095650      1.654997     -0.926277
  H      -1.320291     -2.312072      0.169616
  H       2.265653      0.911547     -0.981848
  H       1.039329     -3.056953      0.116191
  H       2.839174     -1.444480     -0.451473
  F      -7.590680     -1.950655      3.380395
  F      -5.811949     -0.692744      3.099817
  F      -8.523655     -0.275887      5.304762
  F      -6.575591     -1.222575      5.641180
  F      -7.642872     -0.554552      1.178398
  F      -7.287846      1.351674      2.202914
  F      -7.433792      2.087971      4.863128
  F      -6.698814      1.175917      6.717444
  F      -9.692733      1.266421      3.368096
  F      -9.872793      0.759956      1.265179
  F     -10.015668     -0.806117      2.771015
  O      -4.283486      0.618749      5.490199
  O      -4.915889      2.317382      4.135317
  C      -7.123757     -0.680303      3.445987
  C      -7.210846     -0.248593      4.944522
  C      -7.859662      0.135507      2.324927
  C      -6.601412      1.125389      5.350326
  C      -9.404686      0.340331      2.448649
  C      -5.104462      1.381363      4.937009
46
Coordinates from ORCA-job R4N+PFHxA-_0.15M E -1922.676020347661
  N      -2.777895      0.699447      1.026684
  C      -2.295039      0.172834     -0.328157
  C      -1.981988      1.893716      1.456165
  C      -4.216736      1.103893      0.867228
  C      -2.685482     -0.361046      2.083881
  C      -0.863290     -0.274066     -0.349928
  C       0.151712      0.623146     -0.696074
  C      -0.531212     -1.601830     -0.064350
  C       1.478459      0.205564     -0.733168
  C       0.795489     -2.019509     -0.100823
  C       1.802645     -1.115348     -0.431253
  H      -2.460286      0.992712     -1.032535
  H      -2.967992     -0.653555     -0.573297
  H      -2.053735      2.661368      0.682925
  H      -0.942563      1.597710      1.605180
  H      -2.400960      2.259894      2.395579
  H      -4.278066      1.882048      0.103260
  H      -4.568819      1.482954      1.828085
  H      -4.794021      0.227951      0.563714
  H      -1.638994     -0.633668      2.228021
  H      -3.266932     -1.228167      1.763609
  H      -3.090393      0.052962      3.010852
  H      -0.102096      1.651224     -0.942111
  H      -1.317525     -2.311055      0.181752
  H       2.259389      0.910024     -1.004705
  H       1.042586     -3.053609      0.121577
  H       2.838137     -1.442334     -0.463677
  F      -7.595414     -1.951662      3.378778
  F      -5.812854     -0.697130      3.107090
  F      -8.535080     -0.273332      5.298061
  F      -6.591841     -1.226412      5.644659
  F      -7.637416     -0.557555      1.176930
  F      -7.279749      1.348953      2.200055
  F      -7.433234      2.087184      4.860525
  F      -6.715014      1.173199      6.720633
  F      -9.689594      1.272127      3.357325
  F      -9.862967      0.764888      1.254193
  F     -10.016068     -0.800031      2.760351
  O      -4.293270      0.606113      5.510677
  O      -4.910669      2.302971      4.144003
  C      -7.126508     -0.682257      3.446488
  C      -7.220124     -0.250231      4.944928
  C      -7.855679      0.134815      2.321774
  C      -6.608354      1.121239      5.353923
  C      -9.400606      0.344834      2.439687
  C      -5.107663      1.370218      4.949418
46
Coordinates from ORCA-job R4N+PFHxA-_0.15M E -1922.676026132400
  N      -2.778411      0.703535      1.027505
  C      -2.297354      0.172654     -0.326307
  C      -1.982194      1.899924      1.451959
  C      -4.217629      1.106352      0.868594
  C      -2.683578     -0.353460      2.087467
  C      -0.865911     -0.275278     -0.348243
  C       0.149352      0.620104     -0.698288
  C      -0.534468     -1.602377     -0.058885
  C       1.475756      0.201435     -0.735548
  C       0.791888     -2.021123     -0.095476
  C       1.799333     -1.118746     -0.429804
  H      -2.462741      0.990528     -1.032945
  H      -2.971003     -0.654043     -0.568383
  H      -2.055739      2.665094      0.676467
  H      -0.942312      1.605107      1.600122
  H      -2.400159      2.268932      2.391218
  H      -4.281255      1.879339      0.099534
  H      -4.567802      1.492481      1.827153
  H      -4.795098      0.228090      0.572243
  H      -1.636276     -0.623318      2.230936
  H      -3.263669     -1.222484      1.770002
  H      -3.087740      0.061571      3.014099
  H      -0.103857      1.647592     -0.947376
  H      -1.321014     -2.310236      0.190319
  H       2.256863      0.904495     -1.010138
  H       1.038464     -3.054688      0.129946
  H       2.834561     -1.446549     -0.462244
  F      -7.592948     -1.952610      3.371966
  F      -5.810488     -0.697070      3.104015
  F      -8.533964     -0.278522      5.294577
  F      -6.591146     -1.232619      5.640302
  F      -7.634542     -0.553543      1.173608
  F      -7.277666      1.350792      2.201048
  F      -7.431136      2.082684      4.861459
  F      -6.714991      1.165362      6.720706
  F      -9.687887      1.270748      3.357467
  F      -9.860239      0.768372      1.253059
  F     -10.013629     -0.800072      2.755571
  O      -4.292136      0.599600      5.512482
  O      -4.907453      2.299044      4.148817
  C      -7.124313     -0.683292      3.442981
  C      -7.218821     -0.254851      4.942246
  C      -7.853299      0.136252      2.319947
  C      -6.607037      1.115576      5.354004
  C      -9.398296      0.345684      2.437802
  C      -5.105729      1.364728      4.951948
46
Coordinates from ORCA-job R4N+PFHxA-_0.15M E -1922.676033647631
  N      -2.778276      0.710398      1.029747
  C      -2.301850      0.170387     -0.321996
  C      -1.981254      1.910754      1.442832
  C      -4.217414      1.110870      0.873118
  C      -2.678043     -0.339034      2.096093
  C      -0.870598     -0.278234     -0.345776
  C       0.143911      0.614572     -0.704406
  C      -0.538809     -1.603834     -0.050076
  C       1.469978      0.195044     -0.743736
  C       0.787191     -2.023487     -0.088936
  C       1.793945     -1.123569     -0.431700
  H      -2.469038      0.983626     -1.033518
  H      -2.976507     -0.657598     -0.556607
  H      -2.059858      2.670973      0.663008
  H      -0.940367      1.617859      1.587607
  H      -2.395232      2.284796      2.382311
  H      -4.284329      1.874887      0.095373
  H      -4.564353      1.509906      1.827746
  H      -4.795519      0.228908      0.589455
  H      -1.629363     -0.604170      2.238317
  H      -3.255952     -1.211968      1.785538
  H      -3.081282      0.079678      3.020984
  H      -0.109396      1.640768     -0.958702
  H      -1.324870     -2.309876      0.205662
  H       2.250376      0.896215     -1.025049
  H       1.033910     -3.055943      0.141358
  H       2.828885     -1.452099     -0.465851
  F      -7.590451     -1.953977      3.361095
  F      -5.807031     -0.697467      3.103211
  F      -8.536493     -0.286300      5.287459
  F      -6.595469     -1.243131      5.635243
  F      -7.626268     -0.548050      1.168256
  F      -7.271142      1.353082      2.202104
  F      -7.428608      2.075432      4.862905
  F      -6.721812      1.152435      6.722964
  F      -9.684360      1.270253      3.352832
  F      -9.851115      0.775436      1.246208
  F     -10.009530     -0.798185      2.742840
  O      -4.295218      0.587477      5.526982
  O      -4.901050      2.286266      4.159930
  C      -7.121716     -0.685000      3.438344
  C      -7.220404     -0.262451      4.938925
  C      -7.847561      0.138477      2.316199
  C      -6.608207      1.105719      5.356703
  C      -9.392693      0.348316      2.430764
  C      -5.104474      1.353031      4.962172
46
Coordinates from ORCA-job R4N+PFHxA-_0.15M E -1922.676038816388
  N      -2.776853      0.716417      1.032083
  C      -2.305859      0.167988     -0.317980
  C      -1.978760      1.920252      1.433625
  C      -4.217352      1.115164      0.879704
  C      -2.671477     -0.326079      2.104785
  C      -0.874596     -0.280653     -0.344743
  C       0.138528      0.610151     -0.712231
  C      -0.541602     -1.604573     -0.042990
  C       1.464442      0.190405     -0.754461
  C       0.784245     -2.024464     -0.084819
  C       1.789655     -1.126501     -0.436519
  H      -2.475801      0.976683     -1.034040
  H      -2.981288     -0.661527     -0.544781
  H      -2.061778      2.674943      0.648912
  H      -0.937219      1.628629      1.576089
  H      -2.389330      2.300223      2.372185
  H      -4.289174      1.872085      0.095459
  H      -4.556616      1.523623      1.833100
  H      -4.796988      0.230582      0.607825
  H      -1.621823     -0.587699      2.246340
  H      -3.247583     -1.202432      1.800467
  H      -3.074753      0.096470      3.028043
  H      -0.115555      1.634943     -0.971408
  H      -1.326688     -2.309166      0.219704
  H       2.243604      0.890146     -1.042720
  H       1.031732     -3.055717      0.150028
  H       2.824446     -1.455262     -0.473021
  F      -7.591389     -1.955990      3.354514
  F      -5.804763     -0.701643      3.107066
  F      -8.543387     -0.289061      5.279737
  F      -6.606523     -1.251631      5.634611
  F      -7.617343     -0.547375      1.164605
  F      -7.261622      1.352044      2.201481
  F      -7.425598      2.070653      4.861952
  F      -6.733403      1.143760      6.725525
  F      -9.678913      1.273469      3.343839
  F      -9.839092      0.781421      1.236071
  F     -10.006623     -0.793518      2.730429
  O      -4.301254      0.572040      5.545588
  O      -4.893297      2.270727      4.171664
  C      -7.120960     -0.687868      3.436288
  C      -7.225730     -0.268090      4.937267
  C      -7.841027      0.138577      2.312539
  C      -6.611656      1.097628      5.359969
  C      -9.385988      0.351896      2.421855
  C      -5.104702      1.339525      4.974297
46
Coordinates from ORCA-job R4N+PFHxA-_0.15M E -1922.676042746418
  N      -2.773852      0.719141      1.036135
  C      -2.309043      0.165388     -0.313725
  C      -1.974136      1.924681      1.429324
  C      -4.214392      1.117599      0.889250
  C      -2.663145     -0.318864      2.112725
  C      -0.877442     -0.281894     -0.345906
  C       0.132987      0.608491     -0.721855
  C      -0.541589     -1.604257     -0.040619
  C       1.459102      0.189960     -0.768913
  C       0.784497     -2.022958     -0.087331
  C       1.787240     -1.125381     -0.447466
  H      -2.483304      0.970668     -1.032623
  H      -2.984802     -0.665757     -0.533408
  H      -2.060120      2.675440      0.641181
  H      -0.932405      1.632893      1.569815
  H      -2.381426      2.308914      2.367167
  H      -4.288964      1.872468      0.103312
  H      -4.548240      1.528865      1.843136
  H      -4.795483      0.232443      0.622684
  H      -1.612536     -0.577895      2.251914
  H      -3.237839     -1.198227      1.814237
  H      -3.065356      0.106208      3.035571
  H      -0.123390      1.631976     -0.983924
  H      -1.324664     -2.308512      0.228939
  H       2.236016      0.889471     -1.063743
  H       1.034114     -3.053045      0.150372
  H       2.822156     -1.453293     -0.487864
  F      -7.598712     -1.957856      3.356710
  F      -5.806229     -0.710155      3.117339
  F      -8.555822     -0.282999      5.273158
  F      -6.625329     -1.253489      5.641031
  F      -7.608635     -0.554759      1.164137
  F      -7.250604      1.346139      2.197604
  F      -7.422999      2.071373      4.856374
  F      -6.750258      1.145233      6.727429
  F      -9.673731      1.280045      3.328343
  F      -9.825097      0.783691      1.220991
  F     -10.006671     -0.787041      2.718167
  O      -4.312383      0.558519      5.568526
  O      -4.884693      2.254339      4.182323
  C      -7.124188     -0.691208      3.438715
  C      -7.236107     -0.268376      4.938535
  C      -7.835298      0.135201      2.309160
  C      -6.618231      1.095228      5.363077
  C      -9.379785      0.355093      2.410087
  C      -5.106923      1.327693      4.987838
46
Coordinates from ORCA-job R4N+PFHxA-_0.15M E -1922.676042980235
  N      -2.772837      0.723349      1.036311
  C      -2.311056      0.163870     -0.312227
  C      -1.972468      1.930379      1.422864
  C      -4.213202      1.122458      0.891594
  C      -2.660178     -0.310798      2.116335
  C      -0.879518     -0.283279     -0.346137
  C       0.129928      0.605833     -0.727809
  C      -0.542756     -1.604432     -0.036644
  C       1.455945      0.187271     -0.776521
  C       0.783272     -2.023192     -0.085075
  C       1.785011     -1.126835     -0.450974
  H      -2.487146      0.965921     -1.034314
  H      -2.987409     -0.668206     -0.526497
  H      -2.061509      2.678472      0.632580
  H      -0.930356      1.639048      1.561426
  H      -2.376418      2.316354      2.361382
  H      -4.287940      1.873666      0.102189
  H      -4.543623      1.540342      1.844208
  H      -4.796215      0.236906      0.630688
  H      -1.609825     -0.570180      2.256850
  H      -3.234481     -1.191315      1.820342
  H      -3.063842      0.116539      3.037070
  H      -0.127405      1.628263     -0.993040
  H      -1.325096     -2.307751      0.237458
  H       2.232041      0.885809     -1.075770
  H       1.033552     -3.052366      0.155844
  H       2.819849     -1.454833     -0.492656
  F      -7.600404     -1.959570      3.355970
  F      -5.805202     -0.714397      3.123492
  F      -8.562532     -0.281761      5.268333
  F      -6.636259     -1.257586      5.644026
  F      -7.600610     -0.556737      1.163391
  F      -7.243107      1.343732      2.197890
  F      -7.420338      2.069898      4.856269
  F      -6.760344      1.141407      6.730597
  F      -9.669666      1.283015      3.319311
  F      -9.815500      0.784028      1.212181
  F     -10.004330     -0.784339      2.710849
  O      -4.318299      0.546117      5.585797
  O      -4.877988      2.241274      4.194251
  C      -7.124313     -0.693560      3.439784
  C      -7.241462     -0.270688      4.939164
  C      -7.830165      0.133710      2.307540
  C      -6.621487      1.091148      5.367134
  C      -9.374512      0.356170      2.403182
  C      -5.107514      1.318039      4.999294
46
Coordinates from ORCA-job R4N+PFHxA-_0.15M E -1922.676046539092
  N      -2.771677      0.719430      1.038459
  C      -2.310870      0.162754     -0.311633
  C      -1.970589      1.925474      1.426998
  C      -4.212400      1.118712      0.895326
  C      -2.658352     -0.316420      2.116711
  C      -0.878884     -0.282576     -0.347737
  C       0.128942      0.608590     -0.728870
  C      -0.540012     -1.603752     -0.040639
  C       1.455484      0.191968     -0.779511
  C       0.786548     -2.020591     -0.091071
  C       1.786667     -1.122217     -0.456432
  H      -2.488742      0.965887     -1.032049
  H      -2.986665     -0.669627     -0.526449
  H      -2.057624      2.673924      0.636832
  H      -0.928766      1.633753      1.566942
  H      -2.376025      2.311875      2.364536
  H      -4.288052      1.873034      0.108995
  H      -4.542851      1.531001      1.850013
  H      -4.795274      0.234010      0.631072
  H      -1.607826     -0.576029      2.255478
  H      -3.232892     -1.196800      1.820758
  H      -3.060107      0.109892      3.039135
  H      -0.130298      1.631090     -0.991929
  H      -1.321101     -2.308646      0.232911
  H       2.230419      0.891976     -1.078284
  H       1.038610     -3.049770      0.147938
  H       2.821924     -1.448690     -0.499565
  F      -7.605149     -1.958648      3.361899
  F      -5.807747     -0.717128      3.127649
  F      -8.567108     -0.273601      5.267961
  F      -6.643275     -1.252079      5.649147
  F      -7.600358     -0.561721      1.165282
  F      -7.241479      1.340956      2.195151
  F      -7.420223      2.074745      4.852198
  F      -6.764147      1.149542      6.729548
  F      -9.669148      1.287238      3.313367
  F      -9.813746      0.781615      1.207721
  F     -10.006342     -0.781606      2.711158
  O      -4.322135      0.546792      5.587749
  O      -4.876239      2.241839      4.193703
  C      -7.127167     -0.693195      3.442647
  C      -7.245503     -0.265880      4.940730
  C      -7.830382      0.132017      2.307226
  C      -6.623706      1.095844      5.366390
  C      -9.374512      0.356988      2.400481
  C      -5.108930      1.319225      4.999990
46
Coordinates from ORCA-job R4N+PFHxA-_0.15M E -1922.676048103560
  N      -2.772091      0.718616      1.039058
  C      -2.311751      0.161864     -0.311213
  C      -1.971132      1.924819      1.427370
  C      -4.212990      1.117736      0.896460
  C      -2.657903     -0.317192      2.117227
  C      -0.879568     -0.282689     -0.347789
  C       0.127428      0.608813     -0.730340
  C      -0.539653     -1.603344     -0.039600
  C       1.454238      0.193084     -0.781169
  C       0.787187     -2.019262     -0.090133
  C       1.786495     -1.120517     -0.456841
  H      -2.490438      0.964807     -1.031620
  H      -2.987306     -0.670824     -0.525550
  H      -2.057916      2.673202      0.637108
  H      -0.929156      1.633618      1.567272
  H      -2.376683      2.311664      2.364926
  H      -4.289422      1.871596      0.109760
  H      -4.542959      1.530363      1.851247
  H      -4.795982      0.232854      0.632983
  H      -1.607130     -0.576452      2.254905
  H      -3.232471     -1.197837      1.822211
  H      -3.058299      0.109096      3.040078
  H      -0.132825      1.630828     -0.994266
  H      -1.320070     -2.308522      0.235103
  H       2.228641      0.893217     -1.081015
  H       1.040219     -3.047960      0.149900
  H       2.821972     -1.446272     -0.500072
  F      -7.606101     -1.958080      3.361790
  F      -5.807760     -0.717895      3.127956
  F      -8.567982     -0.271485      5.266710
  F      -6.645524     -1.252042      5.649342
  F      -7.599199     -0.561481      1.164826
  F      -7.239854      1.341110      2.194586
  F      -7.418091      2.075454      4.851205
  F      -6.764286      1.149725      6.729147
  F      -9.667894      1.289221      3.311427
  F      -9.812121      0.782704      1.205988
  F     -10.006138     -0.779724      2.709977
  O      -4.322640      0.543827      5.589156
  O      -4.873347      2.239268      4.194524
  C      -7.127338     -0.692949      3.442487
  C      -7.246112     -0.265266      4.940292
  C      -7.829403      0.132509      2.306514
  C      -6.623056      1.095644      5.366076
  C      -9.373520      0.358383      2.399046
  C      -5.107780      1.316962      5.000881
46
Coordinates from ORCA-job R4N+PFHxA-_0.15M E -1922.676052062219
  N      -2.773271      0.713190      1.039914
  C      -2.312542      0.160120     -0.311832
  C      -1.972719      1.917940      1.432476
  C      -4.213993      1.113207      0.897990
  C      -2.660160     -0.325613      2.115044
  C      -0.879610     -0.281642     -0.349300
  C       0.125253      0.612439     -0.731513
  C      -0.536765     -1.601807     -0.042236
  C       1.452950      0.199699     -0.783048
  C       0.791007     -2.014653     -0.093171
  C       1.788195     -1.113337     -0.459540
  H      -2.492972      0.964498     -1.030178
  H      -2.986936     -0.673048     -0.527969
  H      -2.056618      2.668490      0.643935
  H      -0.930838      1.627133      1.574041
  H      -2.380714      2.302918      2.370039
  H      -4.290167      1.869837      0.113936
  H      -4.544918      1.521464      1.854395
  H      -4.797114      0.229445      0.630850
  H      -1.609778     -0.587528      2.251016
  H      -3.236716     -1.204457      1.818745
  H      -3.057111      0.099293      3.039961
  H      -0.137906      1.633941     -0.994517
  H      -1.315458     -2.309043      0.232052
  H       2.226037      0.901411     -1.082619
  H       1.046753     -3.042848      0.146109
  H       2.824412     -1.436682     -0.503151
  F      -7.609713     -1.956141      3.368313
  F      -5.808525     -0.720431      3.133613
  F      -8.571472     -0.259966      5.265722
  F      -6.653087     -1.245736      5.655147
  F      -7.595750     -0.565573      1.166948
  F      -7.235745      1.339108      2.192363
  F      -7.413234      2.081966      4.846074
  F      -6.765857      1.158370      6.727483
  F      -9.665242      1.294937      3.304032
  F      -9.807662      0.780530      1.200429
  F     -10.006103     -0.775846      2.709818
  O      -4.324171      0.542067      5.595118
  O      -4.865959      2.235611      4.194318
  C      -7.128658     -0.691762      3.445953
  C      -7.248850     -0.259077      4.941725
  C      -7.827053      0.131675      2.306239
  C      -6.622198      1.100779      5.364789
  C      -9.371247      0.360096      2.395538
  C      -5.105488      1.316223      5.002876
46
Coordinates from ORCA-job R4N+PFHxA-_0.15M E -1922.676056467696
  N      -2.773724      0.706748      1.041026
  C      -2.313027      0.154745     -0.311268
  C      -1.975171      1.912606      1.433538
  C      -4.215535      1.104913      0.899941
  C      -2.658992     -0.332623      2.115558
  C      -0.878550     -0.281751     -0.350435
  C       0.122275      0.616137     -0.734407
  C      -0.530174     -1.600447     -0.043323
  C       1.451476      0.208581     -0.787666
  C       0.799124     -2.008117     -0.095962
  C       1.792266     -1.103024     -0.464093
  H      -2.497360      0.958448     -1.029368
  H      -2.984906     -0.680704     -0.526370
  H      -2.058820      2.662628      0.644423
  H      -0.932740      1.624237      1.576166
  H      -2.384665      2.298187      2.370312
  H      -4.293409      1.862139      0.116629
  H      -4.546269      1.511588      1.856972
  H      -4.797613      0.220689      0.632060
  H      -1.608521     -0.595528      2.249244
  H      -3.236527     -1.211084      1.820137
  H      -3.052647      0.091913      3.041871
  H      -0.145633      1.636426     -0.997325
  H      -1.305701     -2.310756      0.231985
  H       2.221634      0.912936     -1.088598
  H       1.059432     -3.035209      0.143137
  H       2.829676     -1.422324     -0.509079
  F      -7.619807     -1.953054      3.373644
  F      -5.812638     -0.725725      3.140543
  F      -8.578945     -0.246206      5.264207
  F      -6.667247     -1.241748      5.661418
  F      -7.594664     -0.567590      1.168972
  F      -7.229671      1.337919      2.191066
  F      -7.405652      2.088167      4.841622
  F      -6.769509      1.165764      6.727423
  F      -9.661273      1.307153      3.296103
  F      -9.801790      0.785903      1.194082
  F     -10.009563     -0.764339      2.708354
  O      -4.328967      0.531075      5.604502
  O      -4.854556      2.223828      4.197416
  C      -7.133528     -0.690613      3.449426
  C      -7.255393     -0.253565      4.943759
  C      -7.825778      0.133038      2.306133
  C      -6.622058      1.103593      5.365282
  C      -9.369437      0.367879      2.391446
  C      -5.103136      1.308360      5.007427
46
Coordinates from ORCA-job R4N+PFHxA-_0.15M E -1922.676063513820
  N      -2.775845      0.696741      1.040596
  C      -2.312373      0.148003     -0.312066
  C      -1.981538      1.903989      1.436099
  C      -4.218619      1.091689      0.898293
  C      -2.659978     -0.344395      2.113589
  C      -0.875704     -0.281358     -0.351595
  C       0.120527      0.621993     -0.734801
  C      -0.520708     -1.598656     -0.046202
  C       1.451718      0.221180     -0.788872
  C       0.810597     -1.999629     -0.099724
  C       1.799122     -1.089144     -0.467030
  H      -2.500562      0.951470     -1.029439
  H      -2.980079     -0.690544     -0.528172
  H      -2.064474      2.654863      0.647658
  H      -0.938641      1.618451      1.581127
  H      -2.394736      2.287611      2.371937
  H      -4.297172      1.850006      0.116082
  H      -4.551601      1.496446      1.855430
  H      -4.798081      0.206478      0.628028
  H      -1.609564     -0.609228      2.244225
  H      -3.239521     -1.221460      1.818037
  H      -3.049987      0.079464      3.041819
  H      -0.152618      1.641207     -0.996508
  H      -1.292612     -2.313258      0.228256
  H       2.218402      0.929578     -1.089236
  H       1.076200     -3.025718      0.137880
  H       2.838099     -1.403193     -0.512830
  F      -7.631946     -1.947931      3.380563
  F      -5.818112     -0.730428      3.147045
  F      -8.584838     -0.229841      5.265075
  F      -6.679632     -1.235483      5.668037
  F      -7.596620     -0.568556      1.172290
  F      -7.224470      1.338010      2.189832
  F      -7.395321      2.096486      4.836142
  F      -6.771275      1.176071      6.726924
  F      -9.657679      1.321232      3.291625
  F      -9.797257      0.795624      1.190677
  F     -10.014797     -0.750007      2.708249
  O      -4.331878      0.521927      5.616330
  O      -4.840633      2.210851      4.198074
  C      -7.139330     -0.687839      3.453661
  C      -7.260858     -0.245993      4.946601
  C      -7.825994      0.136172      2.307328
  C      -6.619876      1.108401      5.365381
  C      -9.368846      0.378417      2.389747
  C      -5.098599      1.301493      5.011772
46
Coordinates from ORCA-job R4N+PFHxA-_0.15M E -1922.676070957753
  N      -2.778382      0.686696      1.037957
  C      -2.310113      0.140366     -0.313976
  C      -1.990555      1.897555      1.434899
  C      -4.222690      1.074959      0.892564
  C      -2.659343     -0.354519      2.110870
  C      -0.871061     -0.281362     -0.352384
  C       0.121072      0.627863     -0.732338
  C      -0.509779     -1.597589     -0.049898
  C       1.454276      0.233795     -0.786221
  C       0.823551     -1.991885     -0.103375
  C       1.807897     -1.075678     -0.467523
  H      -2.501563      0.942701     -1.031763
  H      -2.972697     -0.702050     -0.530896
  H      -2.075174      2.647941      0.646144
  H      -0.946873      1.616093      1.582306
  H      -2.407704      2.279323      2.369392
  H      -4.302775      1.832455      0.109673
  H      -4.559713      1.480155      1.848057
  H      -4.797316      0.186863      0.621612
  H      -1.608473     -0.619195      2.237978
  H      -3.239890     -1.231259      1.816215
  H      -3.046875      0.068813      3.040522
  H      -0.156413      1.646447     -0.991932
  H      -1.278481     -2.316629      0.222021
  H       2.217523      0.946920     -1.084166
  H       1.093788     -3.017352      0.131720
  H       2.848443     -1.384486     -0.513392
  F      -7.645385     -1.941954      3.385865
  F      -5.824976     -0.734007      3.152586
  F      -8.590274     -0.216020      5.268058
  F      -6.690833     -1.231479      5.673524
  F      -7.602232     -0.566199      1.176238
  F      -7.220648      1.340211      2.190774
  F      -7.385084      2.103386      4.833526
  F      -6.772582      1.184013      6.728402
  F      -9.654721      1.336468      3.292809
  F      -9.794630      0.811582      1.191713
  F     -10.021974     -0.732837      2.709299
  O      -4.334795      0.511309      5.628231
  O      -4.827513      2.195754      4.198867
  C      -7.146184     -0.684372      3.457777
  C      -7.266383     -0.240000      4.950409
  C      -7.828284      0.141644      2.310242
  C      -6.617755      1.111563      5.367395
  C      -9.369790      0.392112      2.391421
  C      -5.094350      1.293078      5.016729
46
Coordinates from ORCA-job R4N+PFHxA-_0.15M E -1922.676074314551
  N      -2.779917      0.683287      1.035759
  C      -2.308171      0.138603     -0.315624
  C      -1.995489      1.895858      1.433878
  C      -4.224904      1.067492      0.887889
  C      -2.659228     -0.358074      2.108597
  C      -0.868392     -0.280897     -0.352438
  C       0.123287      0.630287     -0.728789
  C      -0.505984     -1.597360     -0.052344
  C       1.457056      0.237877     -0.781426
  C       0.827877     -1.990056     -0.104820
  C       1.811734     -1.071933     -0.465298
  H      -2.499614      0.940852     -1.033503
  H      -2.968708     -0.705056     -0.533998
  H      -2.081544      2.646017      0.645108
  H      -0.951636      1.615627      1.582301
  H      -2.414160      2.276478      2.367943
  H      -4.305562      1.824802      0.104850
  H      -4.565385      1.472205      1.842471
  H      -4.796422      0.177714      0.615946
  H      -1.608090     -0.622030      2.234624
  H      -3.239835     -1.234779      1.813827
  H      -3.047035      0.064719      3.038543
  H      -0.154426      1.649250     -0.986634
  H      -1.274352     -2.317695      0.217088
  H       2.219626      0.952899     -1.076516
  H       1.098627     -3.015796      0.128497
  H       2.852700     -1.379447     -0.510277
  F      -7.649719     -1.939722      3.387733
  F      -5.827768     -0.734569      3.152031
  F      -8.589961     -0.212790      5.270866
  F      -6.691232     -1.230402      5.674146
  F      -7.607601     -0.565019      1.178037
  F      -7.221003      1.341331      2.190879
  F      -7.381655      2.105436      4.833373
  F      -6.771234      1.186201      6.728936
  F      -9.654096      1.341081      3.297668
  F      -9.796511      0.819012      1.196041
  F     -10.025309     -0.726873      2.712154
  O      -4.333700      0.510012      5.630356
  O      -4.824267      2.192024      4.197100
  C      -7.148454     -0.682859      3.458879
  C      -7.266588     -0.238302      4.951841
  C      -7.830797      0.143954      2.312055
  C      -6.616121      1.112767      5.368021
  C      -9.371463      0.397329      2.395017
  C      -5.092286      1.291742      5.017144
46
Coordinates from ORCA-job R4N+PFHxA-_0.15M E -1922.676076232835
  N      -2.780294      0.683835      1.034670
  C      -2.307686      0.138116     -0.315983
  C      -1.997047      1.898386      1.431014
  C      -4.225559      1.065119      0.886163
  C      -2.657273     -0.355907      2.108663
  C      -0.867815     -0.281058     -0.352227
  C       0.124088      0.630124     -0.727908
  C      -0.505534     -1.597591     -0.052178
  C       1.457858      0.237533     -0.780312
  C       0.828294     -1.990455     -0.104465
  C       1.812342     -1.072401     -0.464556
  H      -2.499043      0.939478     -1.034881
  H      -2.967763     -0.706105     -0.533658
  H      -2.084940      2.647086      0.641106
  H      -0.953095      1.618806      1.579810
  H      -2.416236      2.279279      2.364764
  H      -4.307277      1.820686      0.101540
  H      -4.567535      1.471574      1.839522
  H      -4.795465      0.173731      0.616119
  H      -1.605583     -0.617631      2.234336
  H      -3.236748     -1.233824      1.815150
  H      -3.046122      0.066795      3.038159
  H      -0.153000      1.649295     -0.985599
  H      -1.274147     -2.317759      0.217008
  H       2.220283      0.952891     -1.074958
  H       1.098573     -3.016348      0.128729
  H       2.853280     -1.380054     -0.509325
  F      -7.650746     -1.939230      3.386905
  F      -5.828322     -0.734632      3.151917
  F      -8.590766     -0.213285      5.271055
  F      -6.692692     -1.232142      5.673967
  F      -7.608454     -0.563648      1.178242
  F      -7.220272      1.342178      2.191512
  F      -7.380679      2.104752      4.834700
  F      -6.772313      1.184525      6.730427
  F      -9.653267      1.342523      3.299511
  F      -9.796029      0.823030      1.197274
  F     -10.025774     -0.724523      2.711647
  O      -4.334641      0.506528      5.632948
  O      -4.823199      2.188223      4.198460
  C      -7.148921     -0.682551      3.458948
  C      -7.267404     -0.239181      4.952439
  C      -7.831015      0.145164      2.312529
  C      -6.616438      1.111378      5.369648
  C      -9.371205      0.399642      2.395785
  C      -5.092132      1.288840      5.019312
46
Coordinates from ORCA-job R4N+PFHxA-_0.15M E -1922.676077606522
  N      -2.781557      0.682577      1.032365
  C      -2.305744      0.139492     -0.318350
  C      -1.999523      1.896787      1.431587
  C      -4.227270      1.062252      0.881322
  C      -2.659312     -0.358730      2.105108
  C      -0.865928     -0.279916     -0.352346
  C       0.127227      0.631650     -0.723629
  C      -0.504855     -1.597337     -0.054571
  C       1.460964      0.238513     -0.773921
  C       0.828895     -1.990700     -0.104692
  C       1.814177     -1.072252     -0.460375
  H      -2.495348      0.942219     -1.036175
  H      -2.965427     -0.704232     -0.539101
  H      -2.087057      2.645939      0.642125
  H      -0.955966      1.616615      1.581846
  H      -2.419841      2.277095      2.365011
  H      -4.308925      1.819114      0.097945
  H      -4.572391      1.465159      1.835114
  H      -4.795378      0.170559      0.608425
  H      -1.607702     -0.620008      2.232137
  H      -3.238322     -1.236251      1.809503
  H      -3.049934      0.062737      3.034719
  H      -0.148545      1.651607     -0.979582
  H      -1.274453     -2.317604      0.211469
  H       2.224146      0.954452     -1.065132
  H       1.097988     -3.017251      0.126947
  H       2.855069     -1.380300     -0.503397
  F      -7.650486     -1.938512      3.388519
  F      -5.828880     -0.733701      3.149636
  F      -8.587660     -0.213395      5.274218
  F      -6.688186     -1.231116      5.673394
  F      -7.612514     -0.562798      1.179643
  F      -7.222981      1.343061      2.192316
  F      -7.380907      2.105634      4.836413
  F      -6.767707      1.185077      6.730497
  F      -9.653905      1.342180      3.305241
  F      -9.800514      0.823828      1.202998
  F     -10.026814     -0.724692      2.716902
  O      -4.331105      0.510607      5.627378
  O      -4.825072      2.191920      4.193691
  C      -7.148807     -0.681638      3.459542
  C      -7.264884     -0.238354      4.953217
  C      -7.833306      0.145865      2.314316
  C      -6.614605      1.112909      5.369427
  C      -9.373236      0.399894      2.400426
  C      -5.091132      1.292238      5.015804
46
Coordinates from ORCA-job R4N+PFHxA-_0.15M E -1922.676079744676
  N      -2.781694      0.686263      1.031884
  C      -2.306421      0.140719     -0.318083
  C      -1.998817      1.900966      1.428876
  C      -4.227039      1.066157      0.880656
  C      -2.659396     -0.353255      2.106050
  C      -0.867095     -0.280339     -0.351434
  C       0.127106      0.629389     -0.724333
  C      -0.507522     -1.597701     -0.051472
  C       1.460406      0.234602     -0.773865
  C       0.825743     -1.992715     -0.100893
  C       1.812110     -1.075985     -0.458047
  H      -2.495137      0.942658     -1.037023
  H      -2.967158     -0.702457     -0.537715
  H      -2.086993      2.648920      0.638388
  H      -0.955386      1.620316      1.578965
  H      -2.418394      2.282608      2.362321
  H      -4.308746      1.820552      0.094925
  H      -4.571671      1.472152      1.833393
  H      -4.795703      0.173868      0.610866
  H      -1.607570     -0.612804      2.234796
  H      -3.236885     -1.232027      1.811210
  H      -3.051706      0.068717      3.034541
  H      -0.147457      1.649225     -0.982053
  H      -1.277973     -2.316573      0.215835
  H       2.224340      0.949238     -1.066286
  H       1.093585     -3.019176      0.132569
  H       2.852637     -1.385346     -0.500466
  F      -7.648145     -1.939841      3.385195
  F      -5.827471     -0.733611      3.146755
  F      -8.585768     -0.218034      5.273316
  F      -6.685430     -1.235066      5.670324
  F      -7.612072     -0.561227      1.177991
  F      -7.223255      1.343524      2.192985
  F      -7.380865      2.102314      4.838632
  F      -6.766200      1.179337      6.731103
  F      -9.653431      1.339875      3.306965
  F      -9.801249      0.823662      1.204295
  F     -10.025494     -0.726621      2.716621
  O      -4.329625      0.508989      5.626656
  O      -4.825952      2.190174      4.193812
  C      -7.147225     -0.682679      3.457582
  C      -7.263027     -0.241608      4.951847
  C      -7.832796      0.145790      2.313626
  C      -6.613642      1.109418      5.369914
  C      -9.372835      0.398714      2.400895
  C      -5.090398      1.290114      5.015815
46
Coordinates from ORCA-job R4N+PFHxA-_0.15M E -1922.676084421823
  N      -2.782854      0.689811      1.030497
  C      -2.307820      0.140874     -0.318292
  C      -1.998796      1.905448      1.424877
  C      -4.227750      1.070270      0.878372
  C      -2.661448     -0.347460      2.106595
  C      -0.868718     -0.280811     -0.350181
  C       0.125752      0.627279     -0.726328
  C      -0.509486     -1.597209     -0.045408
  C       1.458946      0.231865     -0.774508
  C       0.823625     -1.992796     -0.093338
  C       1.810271     -1.077632     -0.453984
  H      -2.496165      0.941424     -1.038897
  H      -2.969310     -0.702125     -0.536313
  H      -2.086574      2.651352      0.632423
  H      -0.955711      1.624489      1.576578
  H      -2.419122      2.289177      2.357395
  H      -4.309230      1.820982      0.089144
  H      -4.571975      1.480353      1.829418
  H      -4.797288      0.177201      0.612903
  H      -1.609436     -0.604309      2.239400
  H      -3.235783     -1.228358      1.811986
  H      -3.057142      0.074758      3.033304
  H      -0.148741      1.646226     -0.987624
  H      -1.280174     -2.314937      0.224288
  H       2.223089      0.945213     -1.069554
  H       1.091220     -3.018489      0.143737
  H       2.850681     -1.387542     -0.495281
  F      -7.648788     -1.940886      3.382098
  F      -5.826769     -0.736614      3.144387
  F      -8.584329     -0.219895      5.271993
  F      -6.685473     -1.240293      5.667839
  F      -7.610899     -0.558723      1.176313
  F      -7.221380      1.344005      2.194768
  F      -7.376056      2.099098      4.841267
  F      -6.761927      1.172338      6.732071
  F      -9.650817      1.340930      3.307564
  F      -9.800354      0.825489      1.204835
  F     -10.024720     -0.725171      2.716462
  O      -4.327036      0.500260      5.626579
  O      -4.821816      2.181942      4.193410
  C      -7.146375     -0.684302      3.455873
  C      -7.261382     -0.244969      4.950580
  C      -7.831385      0.146285      2.313005
  C      -6.610084      1.104303      5.370776
  C      -9.371463      0.399861      2.400850
  C      -5.086719      1.282479      5.016050
46
Coordinates from ORCA-job R4N+PFHxA-_0.15M E -1922.676089678129
  N      -2.785527      0.694093      1.025621
  C      -2.307439      0.143011     -0.321386
  C      -2.000941      1.909289      1.420580
  C      -4.229526      1.076172      0.868761
  C      -2.668561     -0.341932      2.102957
  C      -0.868908     -0.280751     -0.348244
  C       0.127768      0.625132     -0.723878
  C      -0.512230     -1.596916     -0.039380
  C       1.460571      0.227869     -0.767420
  C       0.820462     -1.994317     -0.082552
  C       1.809305     -1.081255     -0.442685
  H      -2.492601      0.943323     -1.043081
  H      -2.969861     -0.698911     -0.540685
  H      -2.086546      2.654437      0.627169
  H      -0.958465      1.627482      1.574790
  H      -2.422668      2.294501      2.351933
  H      -4.308303      1.823677      0.076269
  H      -4.575996      1.489820      1.817389
  H      -4.799552      0.182752      0.605386
  H      -1.616839     -0.596443      2.242705
  H      -3.238961     -1.224505      1.805850
  H      -3.070076      0.079959      3.027228
  H      -0.145051      1.643723     -0.988309
  H      -1.284588     -2.313094      0.229647
  H       2.226548      0.939394     -1.062130
  H       1.086226     -3.019762      0.157624
  H       2.849394     -1.392693     -0.480347
  F      -7.647138     -1.942404      3.378261
  F      -5.825815     -0.737804      3.137791
  F      -8.576846     -0.226361      5.274812
  F      -6.676133     -1.246753      5.662519
  F      -7.614527     -0.553668      1.175326
  F      -7.224350      1.346046      2.199098
  F      -7.371452      2.094188      4.847037
  F      -6.750077      1.162478      6.732974
  F      -9.650439      1.338789      3.316487
  F      -9.805957      0.826728      1.213320
  F     -10.024939     -0.726524      2.722814
  O      -4.318625      0.497375      5.619503
  O      -4.819962      2.177333      4.187332
  C      -7.144448     -0.685966      3.453398
  C      -7.254690     -0.250021      4.949253
  C      -7.832933      0.147389      2.314665
  C      -6.602828      1.098473      5.371031
  C      -9.373281      0.399379      2.407223
  C      -5.080910      1.278463      5.011278
46
Coordinates from ORCA-job R4N+PFHxA-_0.15M E -1922.676096327489
  N      -2.789130      0.694465      1.020865
  C      -2.307357      0.142483     -0.324542
  C      -2.005002      1.909435      1.417457
  C      -4.232484      1.077798      0.859183
  C      -2.676745     -0.341198      2.099252
  C      -0.868456     -0.280173     -0.347037
  C       0.128032      0.625836     -0.723023
  C      -0.511067     -1.595127     -0.033947
  C       1.461371      0.230074     -0.762353
  C       0.822193     -1.991050     -0.072934
  C       1.810828     -1.077762     -0.433126
  H      -2.491335      0.942179     -1.047220
  H      -2.968842     -0.699917     -0.544872
  H      -2.086955      2.653557      0.622667
  H      -0.963208      1.627407      1.575789
  H      -2.429849      2.296302      2.346477
  H      -4.308130      1.825050      0.066189
  H      -4.581947      1.490999      1.806640
  H      -4.802297      0.184644      0.594242
  H      -1.625416     -0.593411      2.246286
  H      -3.242390     -1.225686      1.798795
  H      -3.085035      0.079913      3.021105
  H      -0.145811      1.643308     -0.990704
  H      -1.283175     -2.311595      0.235034
  H       2.227435      0.941457     -1.057206
  H       1.088880     -3.015468      0.170595
  H       2.851351     -1.388124     -0.467480
  F      -7.654162     -1.942743      3.380072
  F      -5.828470     -0.745573      3.135534
  F      -8.573174     -0.222564      5.277852
  F      -6.675459     -1.249952      5.662345
  F      -7.619495     -0.553613      1.176605
  F      -7.222208      1.344498      2.200568
  F      -7.358766      2.093617      4.847396
  F      -6.739271      1.159540      6.732614
  F      -9.646125      1.345125      3.320890
  F      -9.806905      0.832410      1.218217
  F     -10.028547     -0.719232      2.728833
  O      -4.311059      0.486063      5.618680
  O      -4.808656      2.163512      4.181265
  C      -7.146348     -0.688336      3.453801
  C      -7.251584     -0.251288      4.949739
  C      -7.834006      0.147545      2.316502
  C      -6.593699      1.094549      5.370555
  C      -9.373677      0.404336      2.411603
  C      -5.071558      1.267902      5.008726
46
Coordinates from ORCA-job R4N+PFHxA-_0.15M E -1922.676102566204
  N      -2.793884      0.695167      1.012190
  C      -2.304809      0.143187     -0.330537
  C      -2.012674      1.910851      1.412272
  C      -4.237020      1.077414      0.842387
  C      -2.686380     -0.339907      2.091778
  C      -0.865798     -0.279570     -0.345210
  C       0.132723      0.626534     -0.715705
  C      -0.510199     -1.594542     -0.030393
  C       1.466186      0.230728     -0.748294
  C       0.823261     -1.990514     -0.062584
  C       1.813777     -1.077316     -0.417643
  H      -2.484812      0.942862     -1.054234
  H      -2.964898     -0.699460     -0.554223
  H      -2.090750      2.654652      0.616718
  H      -0.971246      1.630178      1.575479
  H      -2.442471      2.297857      2.338640
  H      -4.309029      1.823287      0.047750
  H      -4.591841      1.492538      1.786888
  H      -4.804774      0.183326      0.576108
  H      -1.635400     -0.589387      2.245923
  H      -3.247220     -1.226071      1.787202
  H      -3.102517      0.080208      3.010714
  H      -0.139770      1.644037     -0.984676
  H      -1.283708     -2.311104      0.234310
  H       2.233983      0.941926     -1.039079
  H       1.088738     -3.015018      0.181949
  H       2.854440     -1.387747     -0.446825
  F      -7.657414     -1.942699      3.379845
  F      -5.830644     -0.748284      3.129597
  F      -8.564616     -0.225080      5.285137
  F      -6.666052     -1.254879      5.659159
  F      -7.629295     -0.549355      1.178779
  F      -7.225145      1.346134      2.204938
  F      -7.349063      2.090913      4.852380
  F      -6.723631      1.153116      6.733614
  F      -9.644824      1.347796      3.335191
  F      -9.813793      0.840576      1.231742
  F     -10.032725     -0.714341      2.739536
  O      -4.300169      0.480549      5.611202
  O      -4.801429      2.155976      4.173747
  C      -7.147075     -0.689433      3.453506
  C      -7.244721     -0.254600      4.950793
  C      -7.838204      0.149851      2.321051
  C      -6.583237      1.089859      5.370884
  C      -9.377132      0.408846      2.422723
  C      -5.062451      1.262133      5.003201
46
Coordinates from ORCA-job R4N+PFHxA-_0.15M E -1922.676106757789
  N      -2.797975      0.693552      1.004897
  C      -2.302165      0.144150     -0.336192
  C      -2.020049      1.909017      1.410311
  C      -4.241188      1.074481      0.828757
  C      -2.694028     -0.342618      2.084238
  C      -0.862913     -0.278273     -0.344927
  C       0.137274      0.628999     -0.708062
  C      -0.508769     -1.594020     -0.032022
  C       1.470910      0.233502     -0.735236
  C       0.824933     -1.989750     -0.058979
  C       1.817010     -1.075508     -0.406563
  H      -2.478807      0.944791     -1.059641
  H      -2.960412     -0.698817     -0.564175
  H      -2.093944      2.653698      0.615136
  H      -0.979025      1.629251      1.577781
  H      -2.454403      2.295309      2.334502
  H      -4.310252      1.822772      0.036102
  H      -4.600482      1.486596      1.772678
  H      -4.806649      0.180525      0.557292
  H      -1.643226     -0.590394      2.242030
  H      -3.251961     -1.229408      1.776054
  H      -3.115659      0.076439      3.001563
  H      -0.133839      1.647239     -0.975631
  H      -1.283404     -2.311397      0.227111
  H       2.240133      0.945477     -1.020254
  H       1.089346     -3.014905      0.183991
  H       2.857871     -1.385631     -0.431654
  F      -7.660412     -1.942389      3.383965
  F      -5.832523     -0.750704      3.128330
  F      -8.559197     -0.223601      5.292057
  F      -6.660472     -1.255027      5.660356
  F      -7.636709     -0.550322      1.182781
  F      -7.225785      1.345124      2.206417
  F      -7.341981      2.091372      4.853182
  F      -6.714088      1.154117      6.733848
  F      -9.643036      1.350328      3.345219
  F      -9.816953      0.846521      1.241327
  F     -10.035753     -0.710161      2.747692
  O      -4.292825      0.479271      5.607623
  O      -4.795373      2.153692      4.168937
  C      -7.147999     -0.690025      3.455908
  C      -7.240689     -0.254539      4.953536
  C      -7.840896      0.150190      2.325406
  C      -6.576427      1.089580      5.370850
  C      -9.378785      0.412263      2.431102
  C      -5.056138      1.260427      5.000285
46
Coordinates from ORCA-job R4N+PFHxA-_0.15M E -1922.676102055833
  N      -2.802376      0.697392      0.996874
  C      -2.302222      0.143061     -0.340203
  C      -2.028846      1.916167      1.398749
  C      -4.245750      1.075246      0.817091
  C      -2.698760     -0.334737      2.080194
  C      -0.862789     -0.279225     -0.343284
  C       0.138551      0.626983     -0.705854
  C      -0.509768     -1.594089     -0.025746
  C       1.472233      0.231415     -0.727631
  C       0.824039     -1.989953     -0.047496
  C       1.817216     -1.076737     -0.394193
  H      -2.476615      0.940553     -1.067659
  H      -2.959029     -0.701452     -0.566634
  H      -2.101990      2.657995      0.600850
  H      -0.987315      1.639668      1.568642
  H      -2.465450      2.304566      2.321299
  H      -4.313706      1.819481      0.020474
  H      -4.605443      1.496075      1.757692
  H      -4.810102      0.179355      0.549991
  H      -1.648233     -0.579547      2.243873
  H      -3.252778     -1.223301      1.769900
  H      -3.128879      0.084267      2.992529
  H      -0.131294      1.644529     -0.977295
  H      -1.285160     -2.310629      0.233369
  H       2.242431      0.942515     -1.012099
  H       1.087529     -3.014413      0.199367
  H       2.858185     -1.386793     -0.415139
  F      -7.661206     -1.942793      3.380557
  F      -5.831487     -0.753010      3.127056
  F      -8.555796     -0.227427      5.294431
  F      -6.659026     -1.263669      5.658441
  F      -7.637881     -0.546747      1.183525
  F      -7.220420      1.346029      2.209501
  F      -7.331417      2.086185      4.857046
  F      -6.708916      1.144840      6.737419
  F      -9.637356      1.353804      3.352941
  F      -9.812753      0.858916      1.247080
  F     -10.035068     -0.703287      2.747633
  O      -4.287327      0.463791      5.615373
  O      -4.785229      2.137988      4.175535
  C      -7.146777     -0.691575      3.455605
  C      -7.237976     -0.260216      4.954802
  C      -7.838765      0.152743      2.327714
  C      -6.569913      1.081146      5.374498
  C      -9.375456      0.418801      2.435307
  C      -5.048623      1.247280      5.005806
46
Coordinates from ORCA-job R4N+PFHxA-_0.15M E -1922.676109883613
  N      -2.800521      0.695551      0.999567
  C      -2.301265      0.145316     -0.339625
  C      -2.025156      1.912526      1.405685
  C      -4.243607      1.074409      0.820894
  C      -2.697386     -0.339384      2.079758
  C      -0.862264     -0.278326     -0.344282
  C       0.140111      0.628180     -0.703132
  C      -0.510632     -1.594771     -0.031605
  C       1.473372      0.231159     -0.726364
  C       0.822699     -1.992035     -0.054661
  C       1.816913     -1.078614     -0.398023
  H      -2.475144      0.945530     -1.064227
  H      -2.959110     -0.697604     -0.568954
  H      -2.097433      2.656736      0.609912
  H      -0.984115      1.634387      1.575799
  H      -2.462712      2.298761      2.328607
  H      -4.311871      1.821329      0.026835
  H      -4.603761      1.489984      1.763053
  H      -4.808132      0.179582      0.550583
  H      -1.646567     -0.585239      2.239946
  H      -3.253425     -1.226907      1.770131
  H      -3.123112      0.078917      2.995079
  H      -0.128574      1.647053     -0.970715
  H      -1.286888     -2.311434      0.224607
  H       2.244298      0.942573     -1.008103
  H       1.084956     -3.017770      0.188183
  H       2.857528     -1.389786     -0.420125
  F      -7.657357     -1.942956      3.382448
  F      -5.830956     -0.749112      3.125866
  F      -8.554468     -0.228627      5.295134
  F      -6.654093     -1.258747      5.658146
  F      -7.638757     -0.548384      1.183645
  F      -7.225761      1.346057      2.208348
  F      -7.340412      2.088040      4.856950
  F      -6.708765      1.148947      6.735596
  F      -9.641717      1.348457      3.352909
  F      -9.818066      0.850643      1.247840
  F     -10.034565     -0.710425      2.750273
  O      -4.288040      0.478937      5.604622
  O      -4.794704      2.155445      4.171423
  C      -7.145923     -0.690302      3.455697
  C      -7.236773     -0.257636      4.954245
  C      -7.840885      0.151180      2.327430
  C      -6.573058      1.086473      5.372263
  C      -9.378293      0.413080      2.435956
  C      -5.053321      1.259999      5.000316
46
Coordinates from ORCA-job R4N+PFHxA-_0.15M E -1922.676110753679
  N      -2.799889      0.693969      1.000536
  C      -2.301429      0.144090     -0.339141
  C      -2.024458      1.910882      1.406422
  C      -4.243118      1.072843      0.823029
  C      -2.695633     -0.341222      2.080840
  C      -0.862107     -0.278278     -0.344900
  C       0.139145      0.628993     -0.704924
  C      -0.508986     -1.594300     -0.031962
  C       1.472748      0.233092     -0.729256
  C       0.824646     -1.990441     -0.056140
  C       1.817756     -1.076250     -0.400822
  H      -2.476665      0.944200     -1.063544
  H      -2.958952     -0.699203     -0.568009
  H      -2.096702      2.654833      0.610425
  H      -0.983516      1.632590      1.576823
  H      -2.461910      2.297585      2.329216
  H      -4.311999      1.820631      0.029832
  H      -4.602869      1.486746      1.766227
  H      -4.807984      0.178404      0.552069
  H      -1.644701     -0.586634      2.240957
  H      -3.251626     -1.229043      1.772029
  H      -3.121517      0.077645      2.995869
  H      -0.130712      1.647559     -0.972487
  H      -1.284398     -2.311589      0.225052
  H       2.242775      0.945133     -1.011888
  H       1.088011     -3.015865      0.186812
  H       2.858625     -1.386519     -0.423689
  F      -7.659582     -1.942025      3.383782
  F      -5.832128     -0.749714      3.127683
  F      -8.557240     -0.224613      5.294103
  F      -6.658820     -1.257360      5.659807
  F      -7.638348     -0.549087      1.183808
  F      -7.225134      1.345863      2.207445
  F      -7.339307      2.089846      4.855623
  F      -6.710774      1.151270      6.735607
  F      -9.641487      1.351078      3.349693
  F      -9.817506      0.850192      1.245329
  F     -10.035289     -0.708558      2.749842
  O      -4.290605      0.475002      5.606947
  O      -4.792614      2.153570      4.172904
  C      -7.147372     -0.689622      3.456461
  C      -7.239145     -0.255788      4.954595
  C      -7.840951      0.151364      2.326821
  C      -6.573986      1.087555      5.372441
  C      -9.378298      0.414179      2.434121
  C      -5.053661      1.258186      5.001544
46
Coordinates from ORCA-job R4N+PFHxA-_0.15M E -1922.676111792980
  N      -2.800795      0.694181      0.999202
  C      -2.301423      0.144011     -0.339980
  C      -2.026156      1.911584      1.404986
  C      -4.243970      1.072426      0.821142
  C      -2.696850     -0.340526      2.079814
  C      -0.862079     -0.278276     -0.344595
  C       0.139460      0.628842     -0.704096
  C      -0.509214     -1.594249     -0.031115
  C       1.473077      0.232877     -0.727234
  C       0.824407     -1.990439     -0.054062
  C       1.817820     -1.076339     -0.398119
  H      -2.476263      0.943912     -1.064710
  H      -2.958752     -0.699341     -0.569126
  H      -2.098133      2.655085      0.608557
  H      -0.985241      1.633794      1.576329
  H      -2.464455      2.298774      2.327232
  H      -4.312821      1.820156      0.027889
  H      -4.604026      1.486292      1.764196
  H      -4.808620      0.177887      0.550091
  H      -1.645939     -0.584969      2.241384
  H      -3.251940     -1.228766      1.770589
  H      -3.124352      0.078183      2.994112
  H      -0.130089      1.647350     -0.972178
  H      -1.284850     -2.311404      0.225570
  H       2.243309      0.944848     -1.009459
  H       1.087497     -3.015800      0.189433
  H       2.858700     -1.386627     -0.420068
  F      -7.659457     -1.941941      3.383055
  F      -5.831902     -0.749840      3.126792
  F      -8.555879     -0.225258      5.294708
  F      -6.657533     -1.258708      5.658884
  F      -7.638866     -0.547946      1.183771
  F      -7.224648      1.346371      2.208175
  F      -7.337679      2.088957      4.856536
  F      -6.708293      1.149482      6.735840
  F      -9.640592      1.351543      3.351552
  F      -9.817735      0.852011      1.246985
  F     -10.035106     -0.707661      2.750567
  O      -4.288758      0.473081      5.605028
  O      -4.791527      2.153418      4.173589
  C      -7.146975     -0.689654      3.456171
  C      -7.237942     -0.256597      4.954501
  C      -7.840809      0.152025      2.327153
  C      -6.572262      1.086369      5.372560
  C      -9.378035      0.415169      2.435234
  C      -5.052015      1.256905      5.001046
46
Coordinates from ORCA-job R4N+PFHxA-_0.15M E -1922.676113081739
  N      -2.802884      0.693229      0.995749
  C      -2.300797      0.142877     -0.342276
  C      -2.030634      1.912177      1.402085
  C      -4.246023      1.069530      0.815819
  C      -2.699318     -0.340392      2.077249
  C      -0.861168     -0.278383     -0.343894
  C       0.140628      0.629188     -0.701404
  C      -0.508205     -1.594112     -0.029391
  C       1.474514      0.233874     -0.721597
  C       0.825637     -1.989626     -0.049343
  C       1.819304     -1.075046     -0.391483
  H      -2.474991      0.942363     -1.067631
  H      -2.957143     -0.700988     -0.572343
  H      -2.101434      2.654860      0.604774
  H      -0.989828      1.635990      1.576564
  H      -2.472282      2.299899      2.322687
  H      -4.314824      1.816983      0.022304
  H      -4.607434      1.483477      1.758289
  H      -4.809661      0.174449      0.544463
  H      -1.648324     -0.582231      2.241925
  H      -3.252027     -1.229964      1.767583
  H      -3.130551      0.078279      2.989654
  H      -0.128763      1.647533     -0.970249
  H      -1.284033     -2.311586      0.225822
  H       2.244910      0.946265     -1.002311
  H       1.088647     -3.014821      0.194925
  H       2.860394     -1.384772     -0.411177
  F      -7.661150     -1.940998      3.381465
  F      -5.833097     -0.750169      3.123149
  F      -8.552225     -0.225878      5.296976
  F      -6.654114     -1.261551      5.656028
  F      -7.643295     -0.544201      1.183793
  F      -7.225310      1.348325      2.209991
  F      -7.333321      2.087444      4.858986
  F      -6.700481      1.145429      6.735930
  F      -9.639330      1.354239      3.357714
  F      -9.820961      0.857653      1.252851
  F     -10.036721     -0.703863      2.754705
  O      -4.284199      0.467428      5.597661
  O      -4.787991      2.153968      4.174337
  C      -7.147417     -0.689219      3.455158
  C      -7.234950     -0.257981      4.954038
  C      -7.842527      0.154475      2.328367
  C      -6.567353      1.083935      5.372242
  C      -9.379328      0.418870      2.439571
  C      -5.047651      1.254234      4.998174
46
Coordinates from ORCA-job R4N+PFHxA-_0.15M E -1922.676113551293
  N      -2.803544      0.692064      0.995191
  C      -2.300906      0.141500     -0.342539
  C      -2.032241      1.911620      1.401043
  C      -4.246869      1.067487      0.815078
  C      -2.699618     -0.340954      2.077054
  C      -0.860957     -0.278595     -0.343733
  C       0.140151      0.629532     -0.701729
  C      -0.506968     -1.593818     -0.028263
  C       1.474356      0.235274     -0.721471
  C       0.827193     -1.988263     -0.047733
  C       1.820167     -1.073121     -0.390374
  H      -2.475716      0.940528     -1.068243
  H      -2.956569     -0.702977     -0.572275
  H      -2.103452      2.653793      0.603304
  H      -0.991320      1.636141      1.575914
  H      -2.474268      2.299779      2.321275
  H      -4.316111      1.815441      0.022088
  H      -4.608642      1.480291      1.757917
  H      -4.809841      0.172209      0.542972
  H      -1.648515     -0.582021      2.242155
  H      -3.251734     -1.230964      1.767611
  H      -3.131310      0.077784      2.989191
  H      -0.130031      1.647463     -0.971335
  H      -1.282264     -2.311706      0.227383
  H       2.244183      0.948107     -1.002603
  H       1.090998     -3.013058      0.197338
  H       2.861502     -1.382036     -0.409689
  F      -7.663190     -1.940157      3.380809
  F      -5.833945     -0.751098      3.122797
  F      -8.552197     -0.224902      5.297157
  F      -6.654965     -1.262355      5.655624
  F      -7.643768     -0.542198      1.183669
  F      -7.224333      1.349372      2.211060
  F      -7.331276      2.087445      4.859416
  F      -6.698821      1.144548      6.736013
  F      -9.638506      1.356566      3.358519
  F      -9.820351      0.861217      1.253382
  F     -10.037466     -0.700891      2.754400
  O      -4.283627      0.463756      5.596380
  O      -4.785829      2.152738      4.175404
  C      -7.148125     -0.688941      3.454954
  C      -7.234975     -0.258105      4.953959
  C      -7.842530      0.155937      2.328644
  C      -6.566065      1.083164      5.372282
  C      -9.379172      0.421473      2.439890
  C      -5.046245      1.252124      4.998045
46
Coordinates from ORCA-job R4N+PFHxA-_0.15M E -1922.676114276676
  N      -2.804710      0.689079      0.994504
  C      -2.300904      0.138277     -0.342718
  C      -2.035281      1.910054      1.399778
  C      -4.248450      1.062503      0.813685
  C      -2.699692     -0.342789      2.077284
  C      -0.860211     -0.279176     -0.343284
  C       0.139245      0.630461     -0.702103
  C      -0.503815     -1.593410     -0.026435
  C       1.474192      0.238711     -0.721225
  C       0.831099     -1.985339     -0.045279
  C       1.822408     -1.068679     -0.388675
  H      -2.477112      0.936425     -1.069047
  H      -2.955008     -0.707592     -0.571791
  H      -2.107176      2.651466      0.601401
  H      -0.994148      1.636026      1.575620
  H      -2.478550      2.298295      2.319368
  H      -4.318504      1.811000      0.021296
  H      -4.611468      1.473634      1.756760
  H      -4.809737      0.166476      0.540499
  H      -1.648243     -0.582267      2.242563
  H      -3.250610     -1.233880      1.768830
  H      -3.131750      0.076454      2.989005
  H      -0.132854      1.647592     -0.972793
  H      -1.277827     -2.312473      0.229802
  H       2.242690      0.952729     -1.002992
  H       1.096831     -3.009373      0.200891
  H       2.864311     -1.375701     -0.407487
  F      -7.668080     -1.938204      3.379447
  F      -5.836403     -0.753037      3.120899
  F      -8.551872     -0.222743      5.297578
  F      -6.656196     -1.263660      5.654094
  F      -7.646368     -0.537891      1.183198
  F      -7.223451      1.351733      2.212805
  F      -7.327651      2.087858      4.860828
  F      -6.694727      1.142424      6.735905
  F      -9.637253      1.361781      3.360839
  F      -9.820519      0.868889      1.255231
  F     -10.039993     -0.694308      2.754762
  O      -4.282162      0.457303      5.591965
  O      -4.782198      2.151541      4.176546
  C      -7.150136     -0.688193      3.454079
  C      -7.234912     -0.258059      4.953366
  C      -7.843588      0.159138      2.329120
  C      -6.563428      1.081942      5.371965
  C      -9.379824      0.427162      2.441191
  C      -5.043676      1.249015      4.996657
46
Coordinates from ORCA-job R4N+PFHxA-_0.15M E -1922.676114741242
  N      -2.804907      0.687123      0.994652
  C      -2.301018      0.135574     -0.342233
  C      -2.036417      1.909062      1.398669
  C      -4.249060      1.059181      0.813924
  C      -2.698736     -0.343579      2.078320
  C      -0.859771     -0.279919     -0.343020
  C       0.138203      0.630736     -0.703454
  C      -0.501342     -1.593204     -0.024587
  C       1.473699      0.240912     -0.722793
  C       0.834143     -1.983209     -0.043656
  C       1.823942     -1.065589     -0.388813
  H      -2.478621      0.932753     -1.069284
  H      -2.954073     -0.711443     -0.570058
  H      -2.109495      2.649870      0.599845
  H      -0.994957      1.636069      1.574194
  H      -2.479623      2.297303      2.318291
  H      -4.319968      1.807975      0.021912
  H      -4.612593      1.469233      1.757319
  H      -4.809105      0.162504      0.540309
  H      -1.647025     -0.582394      2.243006
  H      -3.249281     -1.235298      1.771034
  H      -3.130118      0.076390      2.990011
  H      -0.135589      1.647118     -0.975248
  H      -1.274190     -2.313069      0.232907
  H       2.241034      0.955662     -1.005869
  H       1.101546     -3.006539      0.203634
  H       2.866264     -1.371176     -0.407786
  F      -7.671541     -1.936683      3.377677
  F      -5.838235     -0.754006      3.119478
  F      -8.552485     -0.221840      5.297233
  F      -6.657816     -1.264919      5.652678
  F      -7.647704     -0.533950      1.182422
  F      -7.223149      1.354030      2.214431
  F      -7.326454      2.087896      4.862602
  F      -6.693031      1.140080      6.736252
  F      -9.636975      1.365207      3.361988
  F      -9.820479      0.874496      1.255872
  F     -10.041727     -0.689852      2.753954
  O      -4.282298      0.453163      5.589627
  O      -4.780810      2.150526      4.177574
  C      -7.151755     -0.687492      3.453117
  C      -7.235622     -0.258299      4.952740
  C      -7.844360      0.161818      2.329237
  C      -6.562721      1.080797      5.372143
  C      -9.380390      0.431191      2.441523
  C      -5.043100      1.246985      4.996159
46
Coordinates from ORCA-job R4N+PFHxA-_0.15M E -1922.676115045409
  N      -2.805225      0.685518      0.994788
  C      -2.301167      0.133192     -0.341707
  C      -2.037669      1.908484      1.397678
  C      -4.249791      1.056077      0.813908
  C      -2.697927     -0.344106      2.079471
  C      -0.859422     -0.280620     -0.342661
  C       0.137298      0.630884     -0.704464
  C      -0.499309     -1.593177     -0.023188
  C       1.473244      0.242662     -0.724066
  C       0.836644     -1.981589     -0.042532
  C       1.825182     -1.063114     -0.388998
  H      -2.479893      0.929443     -1.069508
  H      -2.953277     -0.714845     -0.568444
  H      -2.111613      2.648711      0.598400
  H      -0.995908      1.636542      1.573074
  H      -2.480962      2.296641      2.317312
  H      -4.321408      1.804757      0.021859
  H      -4.613966      1.465625      1.757236
  H      -4.808616      0.158634      0.540318
  H      -1.645957     -0.582078      2.243786
  H      -3.247944     -1.236524      1.773283
  H      -3.128917      0.076699      2.990979
  H      -0.137905      1.646658     -0.977113
  H      -1.271168     -2.313741      0.235317
  H       2.239625      0.958026     -1.008186
  H       1.105436     -3.004361      0.205571
  H       2.867858     -1.367485     -0.408176
  F      -7.674189     -1.935297      3.375908
  F      -5.839494     -0.754680      3.118409
  F      -8.552991     -0.221265      5.296839
  F      -6.659134     -1.266191      5.651300
  F      -7.648202     -0.530114      1.181638
  F      -7.222675      1.356321      2.216139
  F      -7.325659      2.087871      4.864820
  F      -6.691605      1.137438      6.736921
  F      -9.636610      1.367912      3.362971
  F      -9.820010      0.879654      1.256275
  F     -10.042819     -0.686144      2.752617
  O      -4.282017      0.450230      5.587872
  O      -4.780281      2.149749      4.178338
  C      -7.152911     -0.686790      3.452253
  C      -7.236206     -0.258582      4.952219
  C      -7.844665      0.164347      2.329294
  C      -6.562215      1.079685      5.372639
  C      -9.380530      0.434700      2.441588
  C      -5.042742      1.245434      4.995953
46
Coordinates from ORCA-job R4N+PFHxA-_0.15M E -1922.676115270782
  N      -2.805173      0.685207      0.994807
  C      -2.301295      0.131955     -0.341325
  C      -2.037940      1.908675      1.396614
  C      -4.249942      1.055002      0.814021
  C      -2.697204     -0.343474      2.080312
  C      -0.859335     -0.281173     -0.342419
  C       0.136846      0.630523     -0.705231
  C      -0.498515     -1.593303     -0.022008
  C       1.472963      0.242910     -0.724974
  C       0.837614     -1.981119     -0.041513
  C       1.825606     -1.062462     -0.389043
  H      -2.480550      0.927463     -1.069816
  H      -2.953025     -0.716610     -0.567150
  H      -2.112442      2.648519      0.597034
  H      -0.995960      1.637262      1.571575
  H      -2.480837      2.296988      2.316409
  H      -4.321943      1.803329      0.021678
  H      -4.614209      1.464763      1.757250
  H      -4.808223      0.157088      0.540915
  H      -1.645103     -0.581066      2.244369
  H      -3.247111     -1.236270      1.775039
  H      -3.127818      0.078143      2.991611
  H      -0.138941      1.645954     -0.978566
  H      -1.269936     -2.314042      0.237316
  H       2.238956      0.958369     -1.009896
  H       1.106973     -3.003579      0.207262
  H       2.868420     -1.366354     -0.408370
  F      -7.674948     -1.934659      3.374108
  F      -5.839936     -0.754463      3.117296
  F      -8.553121     -0.222190      5.296489
  F      -6.659288     -1.267587      5.649834
  F      -7.648402     -0.527303      1.180871
  F      -7.222892      1.358026      2.217433
  F      -7.326079      2.087172      4.866794
  F      -6.691033      1.134814      6.737602
  F      -9.636795      1.368618      3.364011
  F      -9.820220      0.882368      1.256854
  F     -10.043112     -0.684835      2.751725
  O      -4.281983      0.449389      5.587226
  O      -4.780997      2.149346      4.178556
  C      -7.153319     -0.686370      3.451387
  C      -7.236404     -0.259341      4.951709
  C      -7.844916      0.165955      2.329248
  C      -6.562317      1.078533      5.373184
  C      -9.380751      0.436264      2.441769
  C      -5.043071      1.244759      4.995934
46
Coordinates from ORCA-job R4N+PFHxA-_0.15M E -1922.676115561382
  N      -2.805220      0.685241      0.994612
  C      -2.301509      0.130662     -0.340953
  C      -2.038305      1.909395      1.395003
  C      -4.250247      1.054141      0.813826
  C      -2.696603     -0.342191      2.081289
  C      -0.859318     -0.281775     -0.342070
  C       0.136370      0.629989     -0.706050
  C      -0.497846     -1.593451     -0.020543
  C       1.472638      0.242903     -0.725839
  C       0.838434     -1.980753     -0.040102
  C       1.825934     -1.062010     -0.388803
  H      -2.481279      0.925169     -1.070428
  H      -2.952831     -0.718508     -0.565645
  H      -2.113041      2.648556      0.594810
  H      -0.996149      1.638565      1.569874
  H      -2.480976      2.298276      2.314699
  H      -4.322623      1.801818      0.020902
  H      -4.614459      1.464549      1.756757
  H      -4.808078      0.155701      0.541594
  H      -1.644385     -0.579184      2.245456
  H      -3.246222     -1.235530      1.777091
  H      -3.127182      0.080459      2.992124
  H      -0.139908      1.645044     -0.980290
  H      -1.268863     -2.314280      0.239738
  H       2.238285      0.958374     -1.011667
  H       1.108271     -3.002872      0.209549
  H       2.868880     -1.365443     -0.408202
  F      -7.675808     -1.934175      3.372090
  F      -5.840319     -0.754594      3.116246
  F      -8.553270     -0.223359      5.296115
  F      -6.659593     -1.269530      5.648254
  F      -7.648443     -0.524405      1.180049
  F      -7.222671      1.359626      2.218914
  F      -7.326195      2.086134      4.869079
  F      -6.690401      1.131517      6.738508
  F      -9.636584      1.369477      3.365144
  F      -9.820118      0.885517      1.257480
  F     -10.043305     -0.683255      2.750662
  O      -4.281709      0.447881      5.586810
  O      -4.781562      2.148253      4.178924
  C      -7.153709     -0.686173      3.450487
  C      -7.236616     -0.260460      4.951214
  C      -7.844950      0.167564      2.329186
  C      -6.562288      1.076889      5.373960
  C      -9.380703      0.438064      2.441913
  C      -5.043238      1.243375      4.996165
46
Coordinates from ORCA-job R4N+PFHxA-_0.15M E -1922.676115930714
  N      -2.805279      0.686224      0.994250
  C      -2.301895      0.129941     -0.340631
  C      -2.038332      1.910831      1.393037
  C      -4.250380      1.054704      0.813414
  C      -2.696260     -0.339710      2.082290
  C      -0.859638     -0.282370     -0.341621
  C       0.135969      0.628983     -0.706817
  C      -0.498074     -1.593693     -0.018744
  C       1.472226      0.241843     -0.726474
  C       0.838187     -1.981065     -0.038195
  C       1.825615     -1.062701     -0.388116
  H      -2.481868      0.923385     -1.071227
  H      -2.953136     -0.719602     -0.564110
  H      -2.112938      2.649204      0.592105
  H      -0.996126      1.640179      1.567936
  H      -2.480602      2.300756      2.312507
  H      -4.322861      1.801404      0.019573
  H      -4.614272      1.466419      1.755890
  H      -4.808224      0.155897      0.542486
  H      -1.643952     -0.576131      2.246675
  H      -3.245744     -1.233605      1.779492
  H      -3.126840      0.084252      2.992505
  H      -0.140298      1.643753     -0.982121
  H      -1.269018     -2.314240      0.242538
  H       2.237835      0.956979     -1.013242
  H       1.108011     -3.002928      0.212514
  H       2.868572     -1.366102     -0.407449
  F      -7.675585     -1.934239      3.369643
  F      -5.840098     -0.754479      3.114979
  F      -8.552933     -0.225733      5.295668
  F      -6.659010     -1.272021      5.646342
  F      -7.648093     -0.521810      1.179060
  F      -7.222491      1.360930      2.220364
  F      -7.326551      2.084416      4.871339
  F      -6.689916      1.127624      6.739385
  F      -9.636390      1.369243      3.366410
  F      -9.820082      0.887654      1.258222
  F     -10.042918     -0.682855      2.749621
  O      -4.281282      0.446751      5.586715
  O      -4.782393      2.147225      4.179405
  C      -7.153509     -0.686332      3.449377
  C      -7.236333     -0.262231      4.950556
  C      -7.844716      0.168712      2.329014
  C      -6.562233      1.074787      5.374734
  C      -9.380467      0.438924      2.442068
  C      -5.043390      1.242021      4.996564
46
Coordinates from ORCA-job R4N+PFHxA-_0.15M E -1922.676116496871
  N      -2.805620      0.688030      0.993078
  C      -2.302304      0.129223     -0.340665
  C      -2.038645      1.913401      1.389565
  C      -4.250812      1.056031      0.811756
  C      -2.696528     -0.335705      2.083175
  C      -0.860025     -0.283096     -0.340935
  C       0.135710      0.627510     -0.707602
  C      -0.498594     -1.593912     -0.015826
  C       1.471921      0.240142     -0.726496
  C       0.837609     -1.981522     -0.034533
  C       1.825172     -1.063862     -0.385932
  H      -2.482297      0.921173     -1.072894
  H      -2.953491     -0.720767     -0.562565
  H      -2.112728      2.650305      0.587232
  H      -0.996494      1.642983      1.565191
  H      -2.480909      2.305225      2.308213
  H      -4.323322      1.801187      0.016458
  H      -4.614329      1.469807      1.753440
  H      -4.808803      0.156763      0.542733
  H      -1.644212     -0.571425      2.248457
  H      -3.245732     -1.230369      1.782132
  H      -3.127629      0.090058      2.992307
  H      -0.140289      1.641876     -0.984660
  H      -1.269635     -2.313906      0.246703
  H       2.237625      0.954718     -1.014406
  H       1.107185     -3.003008      0.217963
  H       2.868114     -1.367347     -0.404707
  F      -7.675585     -1.934661      3.366476
  F      -5.839934     -0.754926      3.113078
  F      -8.552053     -0.229087      5.295432
  F      -6.658000     -1.275959      5.643804
  F      -7.648288     -0.518762      1.177965
  F      -7.221981      1.362170      2.222266
  F      -7.325872      2.081702      4.874271
  F      -6.688470      1.122001      6.740543
  F      -9.635635      1.369267      3.368741
  F      -9.820150      0.890809      1.259911
  F     -10.042696     -0.681868      2.749063
  O      -4.280166      0.443447      5.586178
  O      -4.782216      2.144995      4.180490
  C      -7.153273     -0.686984      3.447959
  C      -7.235572     -0.265082      4.949783
  C      -7.844519      0.169955      2.329027
  C      -6.561351      1.071333      5.375773
  C      -9.380169      0.440298      2.442886
  C      -5.042720      1.239032      4.997101
46
Coordinates from ORCA-job R4N+PFHxA-_0.15M E -1922.676117337209
  N      -2.806354      0.691310      0.991351
  C      -2.303032      0.129065     -0.340879
  C      -2.039004      1.917357      1.384977
  C      -4.251358      1.059365      0.808962
  C      -2.697691     -0.329542      2.084129
  C      -0.860952     -0.283965     -0.339842
  C       0.135423      0.625189     -0.708334
  C      -0.500343     -1.594252     -0.011662
  C       1.471406      0.236937     -0.725979
  C       0.835619     -1.982742     -0.029127
  C       1.823830     -1.066477     -0.382348
  H      -2.482561      0.919267     -1.075120
  H      -2.954567     -0.721145     -0.560904
  H      -2.112070      2.652256      0.580720
  H      -0.997123      1.646732      1.561892
  H      -2.481368      2.311994      2.302342
  H      -4.323461      1.802245      0.011493
  H      -4.614597      1.476282      1.749356
  H      -4.809911      0.159685      0.542538
  H      -1.645413     -0.564652      2.250469
  H      -3.246853     -1.225063      1.785569
  H      -3.129222      0.098773      2.991849
  H      -0.139735      1.639117     -0.987815
  H      -1.271905     -2.313156      0.252328
  H       2.237564      0.950455     -1.015308
  H       1.104387     -3.003832      0.225818
  H       2.866612     -1.370566     -0.400145
  F      -7.674334     -1.935847      3.362248
  F      -5.838875     -0.755431      3.110581
  F      -8.550155     -0.234334      5.295054
  F      -6.655652     -1.281372      5.640501
  F      -7.647856     -0.515502      1.176537
  F      -7.221145      1.363255      2.224598
  F      -7.324697      2.077659      4.877645
  F      -6.686394      1.114572      6.741810
  F      -9.634538      1.368109      3.371696
  F      -9.819841      0.893612      1.262027
  F     -10.041710     -0.681874      2.748300
  O      -4.278294      0.439010      5.585337
  O      -4.781472      2.142718      4.182688
  C      -7.152104     -0.688295      3.446046
  C      -7.233794     -0.269316      4.948687
  C      -7.843741      0.170857      2.329033
  C      -6.559751      1.066530      5.376934
  C      -9.379375      0.440936      2.443915
  C      -5.041305      1.235268      4.997964
46
Coordinates from ORCA-job R4N+PFHxA-_0.15M E -1922.676118407801
  N      -2.807703      0.695707      0.988196
  C      -2.303533      0.129404     -0.342020
  C      -2.039986      1.922564      1.378748
  C      -4.252379      1.064065      0.803579
  C      -2.700621     -0.321907      2.084117
  C      -0.861834     -0.284857     -0.338390
  C       0.135739      0.622377     -0.708373
  C      -0.502699     -1.594541     -0.006170
  C       1.471404      0.232888     -0.723478
  C       0.832936     -1.984254     -0.021114
  C       1.822337     -1.069853     -0.375819
  H      -2.481842      0.917759     -1.078546
  H      -2.955608     -0.720842     -0.560315
  H      -2.111551      2.654778      0.571918
  H      -0.998575      1.651716      1.558043
  H      -2.483335      2.320697      2.294041
  H      -4.323578      1.804232      0.003508
  H      -4.616041      1.484577      1.742220
  H      -4.811520      0.163959      0.539836
  H      -1.648661     -0.556966      2.252490
  H      -3.249866     -1.218096      1.787715
  H      -3.133169      0.109368      2.989955
  H      -0.138090      1.635790     -0.991007
  H      -1.275218     -2.311969      0.259038
  H       2.238414      0.945009     -1.013993
  H       1.100440     -3.004871      0.237028
  H       2.864870     -1.374901     -0.391628
  F      -7.672914     -1.937593      3.357601
  F      -5.837713     -0.756474      3.106936
  F      -8.546741     -0.240790      5.295390
  F      -6.651742     -1.288299      5.636498
  F      -7.648664     -0.512112      1.175317
  F      -7.220469      1.364085      2.227363
  F      -7.321877      2.072417      4.881740
  F      -6.681917      1.105354      6.743202
  F      -9.632956      1.366763      3.376704
  F      -9.820227      0.897041      1.266116
  F     -10.040990     -0.681726      2.749090
  O      -4.274779      0.431989      5.582552
  O      -4.779071      2.140156      4.185764
  C      -7.150577     -0.690244      3.443873
  C      -7.230680     -0.274794      4.947553
  C      -7.843276      0.171582      2.329616
  C      -6.556401      1.060239      5.378142
  C      -9.378788      0.441674      2.446557
  C      -5.038260      1.230091      4.998336
46
Coordinates from ORCA-job R4N+PFHxA-_0.15M E -1922.676119194620
  N      -2.808244      0.699598      0.987084
  C      -2.304345      0.130220     -0.342088
  C      -2.039411      1.926506      1.375290
  C      -4.252385      1.069090      0.801168
  C      -2.702293     -0.315866      2.085079
  C      -0.863140     -0.285595     -0.337344
  C       0.135400      0.619905     -0.709014
  C      -0.505372     -1.594993     -0.002529
  C       1.470684      0.229089     -0.723176
  C       0.829888     -1.986009     -0.016505
  C       1.820252     -1.073302     -0.372852
  H      -2.481793      0.917516     -1.079949
  H      -2.957409     -0.719666     -0.558835
  H      -2.110081      2.656755      0.566610
  H      -0.998461      1.654848      1.555963
  H      -2.483049      2.327476      2.289202
  H      -4.322820      1.807371     -0.000699
  H      -4.616322      1.491977      1.738649
  H      -4.812366      0.168946      0.539295
  H      -1.650467     -0.551838      2.253048
  H      -3.252807     -1.212129      1.791300
  H      -3.133359      0.118237      2.990299
  H      -0.137411      1.633006     -0.993740
  H      -1.278688     -2.311105      0.263908
  H       2.238376      0.939928     -1.015021
  H       1.096382     -3.006371      0.243688
  H       2.862462     -1.379487     -0.387856
  F      -7.670422     -1.939489      3.354358
  F      -5.835895     -0.756884      3.105220
  F      -8.544874     -0.245757      5.294591
  F      -6.649365     -1.292739      5.634241
  F      -7.647394     -0.511068      1.174229
  F      -7.219723      1.363931      2.228644
  F      -7.321118      2.068587      4.883629
  F      -6.680653      1.099635      6.743904
  F      -9.632209      1.364190      3.378270
  F      -9.819222      0.897136      1.267049
  F     -10.039504     -0.683591      2.748021
  O      -4.273482      0.428050      5.581251
  O      -4.777846      2.140600      4.189800
  C      -7.148692     -0.691979      3.442361
  C      -7.228782     -0.278683      4.946599
  C      -7.842050      0.171030      2.329508
  C      -6.555088      1.056144      5.378799
  C      -9.377707      0.440394      2.446952
  C      -5.036907      1.227579      4.999530
46
Coordinates from ORCA-job R4N+PFHxA-_0.15M E -1922.676119365016
  N      -2.809856      0.703210      0.983553
  C      -2.303843      0.132435     -0.344391
  C      -2.040798      1.929781      1.371947
  C      -4.253357      1.073838      0.794471
  C      -2.707182     -0.311677      2.082468
  C      -0.863309     -0.285507     -0.336208
  C       0.137291      0.618359     -0.706371
  C      -0.508121     -1.595168      0.000315
  C       1.472067      0.225723     -0.717441
  C       0.826632     -1.987991     -0.010572
  C       1.819019     -1.076925     -0.365472
  H      -2.478598      0.919792     -1.082827
  H      -2.957778     -0.716559     -0.562039
  H      -2.109766      2.658990      0.562179
  H      -1.000446      1.657556      1.555092
  H      -2.486219      2.332050      2.284331
  H      -4.321811      1.811012     -0.008569
  H      -4.619292      1.498111      1.730609
  H      -4.813656      0.173813      0.532771
  H      -1.656127     -0.548927      2.253463
  H      -3.257801     -1.207363      1.787146
  H      -3.140330      0.123430      2.986278
  H      -0.133625      1.631602     -0.992405
  H      -1.283017     -2.310028      0.265516
  H       2.241361      0.935292     -1.008151
  H       1.091280     -3.008525      0.250838
  H       2.860802     -1.384677     -0.378001
  F      -7.667589     -1.941295      3.352960
  F      -5.834327     -0.756996      3.102189
  F      -8.540017     -0.250378      5.296505
  F      -6.643251     -1.296381      5.631977
  F      -7.649289     -0.510588      1.174536
  F      -7.220942      1.363616      2.230105
  F      -7.318744      2.065211      4.886059
  F      -6.674457      1.094773      6.744272
  F      -9.631714      1.361174      3.383742
  F      -9.821395      0.896569      1.272196
  F     -10.038782     -0.686039      2.751639
  O      -4.268397      0.425506      5.576316
  O      -4.776316      2.141747      4.190520
  C      -7.146574     -0.693505      3.441528
  C      -7.224469     -0.282002      4.946359
  C      -7.842396      0.170243      2.330880
  C      -6.551039      1.052817      5.378895
  C      -9.378028      0.438617      2.451033
  C      -5.033509      1.226456      4.997690
46
Coordinates from ORCA-job R4N+PFHxA-_0.15M E -1922.676119874533
  N      -2.808359      0.701721      0.986215
  C      -2.304030      0.132052     -0.342850
  C      -2.038823      1.927960      1.374845
  C      -4.252135      1.072432      0.799193
  C      -2.704241     -0.314214      2.084026
  C      -0.863334     -0.285422     -0.337034
  C       0.136417      0.619143     -0.707793
  C      -0.507221     -1.595259     -0.002200
  C       1.471318      0.227036     -0.721054
  C       0.827664     -1.987571     -0.015297
  C       1.819220     -1.075806     -0.370727
  H      -2.479964      0.919893     -1.080487
  H      -2.957997     -0.716977     -0.560214
  H      -2.108986      2.657976      0.565902
  H      -0.998177      1.655706      1.556278
  H      -2.483106      2.329310      2.288284
  H      -4.321629      1.810580     -0.002857
  H      -4.616864      1.495373      1.736373
  H      -4.812513      0.172586      0.537063
  H      -1.652886     -0.551912      2.252593
  H      -3.255611     -1.209550      1.789049
  H      -3.135203      0.120251      2.989182
  H      -0.135375      1.632517     -0.992529
  H      -1.281452     -2.310664      0.263470
  H       2.239999      0.937088     -1.012203
  H       1.093131     -3.008227      0.244802
  H       2.861091     -1.383185     -0.385009
  F      -7.668092     -1.940816      3.354678
  F      -5.834740     -0.756550      3.104576
  F      -8.543104     -0.247620      5.295148
  F      -6.646776     -1.293312      5.634100
  F      -7.647764     -0.512735      1.174624
  F      -7.220812      1.362841      2.228317
  F      -7.321382      2.067381      4.883742
  F      -6.679119      1.099014      6.743782
  F      -9.632640      1.361489      3.379518
  F      -9.820194      0.894259      1.268380
  F     -10.038841     -0.686565      2.749534
  O      -4.271962      0.428727      5.579260
  O      -4.778121      2.143175      4.190618
  C      -7.147390     -0.692841      3.442376
  C      -7.227160     -0.279650      4.946678
  C      -7.842139      0.169489      2.329936
  C      -6.554211      1.055571      5.378568
  C      -9.377909      0.437793      2.448240
  C      -5.036289      1.228710      4.998836
46
Coordinates from ORCA-job R4N+PFHxA-_0.15M E -1922.676120111984
  N      -2.807679      0.701929      0.987511
  C      -2.304462      0.132016     -0.341875
  C      -2.037599      1.927991      1.375642
  C      -4.251453      1.072971      0.801437
  C      -2.702940     -0.314071      2.085181
  C      -0.863785     -0.285590     -0.337173
  C       0.135747      0.618919     -0.708672
  C      -0.507529     -1.595476     -0.002705
  C       1.470600      0.226725     -0.723017
  C       0.827317     -1.987885     -0.016878
  C       1.818659     -1.076173     -0.373038
  H      -2.480807      0.919781     -1.079494
  H      -2.958685     -0.716961     -0.558624
  H      -2.108241      2.658111      0.566832
  H      -0.996868      1.655548      1.556297
  H      -2.481197      2.329293      2.289487
  H      -4.321233      1.811106     -0.000598
  H      -4.615530      1.496086      1.738809
  H      -4.812108      0.173182      0.539715
  H      -1.651485     -0.552313      2.252373
  H      -3.255082     -1.209106      1.790750
  H      -3.132407      0.120578      2.990890
  H      -0.136284      1.632302     -0.993153
  H      -1.281575     -2.310866      0.263544
  H       2.239157      0.936676     -1.014734
  H       1.092987     -3.008562      0.242926
  H       2.860489     -1.383653     -0.388166
  F      -7.667348     -1.940970      3.354682
  F      -5.834244     -0.756151      3.105498
  F      -8.544296     -0.247466      5.294081
  F      -6.647976     -1.292668      5.634617
  F      -7.646192     -0.513474      1.174291
  F      -7.220537      1.362551      2.227725
  F      -7.322927      2.067622      4.883046
  F      -6.681451      1.099883      6.743723
  F      -9.632994      1.360734      3.377443
  F      -9.819165      0.892823      1.266345
  F     -10.038159     -0.687646      2.747824
  O      -4.273516      0.429980      5.580786
  O      -4.779315      2.143891      4.191438
  C      -7.147150     -0.692795      3.442403
  C      -7.228126     -0.279270      4.946565
  C      -7.841489      0.169016      2.329291
  C      -6.555762      1.056164      5.378569
  C      -9.377403      0.436829      2.446627
  C      -5.037672      1.229583      4.999708
46
Coordinates from ORCA-job R4N+PFHxA-_0.15M E -1922.676120455001
  N      -2.806213      0.702538      0.989846
  C      -2.305039      0.132489     -0.340251
  C      -2.034836      1.927892      1.377378
  C      -4.249978      1.074602      0.805531
  C      -2.700855     -0.313959      2.087058
  C      -0.864498     -0.285682     -0.337588
  C       0.134885      0.618593     -0.710074
  C      -0.508315     -1.595813     -0.004028
  C       1.469570      0.225947     -0.726274
  C       0.826370     -1.988698     -0.020070
  C       1.817578     -1.077211     -0.377189
  H      -2.481922      0.920366     -1.077624
  H      -2.959896     -0.716191     -0.556172
  H      -2.105987      2.658256      0.568833
  H      -0.994083      1.654762      1.556834
  H      -2.477248      2.329252      2.291776
  H      -4.320099      1.813318      0.004070
  H      -4.612902      1.497156      1.743621
  H      -4.811345      0.175252      0.543828
  H      -1.649437     -0.553982      2.251968
  H      -3.254941     -1.207964      1.793163
  H      -3.127586      0.121116      2.993863
  H      -0.137301      1.632133     -0.993851
  H      -1.282217     -2.311058      0.263022
  H       2.238101      0.935621     -1.018720
  H       1.092148     -3.009531      0.239009
  H       2.859266     -1.385101     -0.393762
  F      -7.665704     -1.941603      3.355276
  F      -5.833371     -0.755388      3.107214
  F      -8.546293     -0.247191      5.292442
  F      -6.649776     -1.291094      5.635825
  F      -7.643905     -0.515912      1.173940
  F      -7.220433      1.361343      2.226067
  F      -7.326055      2.068192      4.881330
  F      -6.685678      1.102149      6.743349
  F      -9.633836      1.358878      3.373731
  F      -9.817908      0.889032      1.262898
  F     -10.037028     -0.690348      2.745532
  O      -4.276216      0.432873      5.582981
  O      -4.781815      2.146180      4.192696
  C      -7.146706     -0.692917      3.442656
  C      -7.229755     -0.278427      4.946479
  C      -7.840633      0.167485      2.328160
  C      -6.558683      1.057632      5.378299
  C      -9.376789      0.434331      2.443990
  C      -5.040351      1.231877      5.000868
46
Coordinates from ORCA-job R4N+PFHxA-_0.15M E -1922.676120701366
  N      -2.805491      0.703830      0.990865
  C      -2.305565      0.132828     -0.339264
  C      -2.033112      1.928877      1.377328
  C      -4.249121      1.076674      0.807305
  C      -2.700016     -0.312254      2.088455
  C      -0.865177     -0.285905     -0.337507
  C       0.134318      0.617823     -0.711025
  C      -0.509299     -1.596070     -0.003761
  C       1.468818      0.224600     -0.728068
  C       0.825205     -1.989542     -0.020656
  C       1.816534     -1.078593     -0.378811
  H      -2.482681      0.920323     -1.076992
  H      -2.960913     -0.715716     -0.554204
  H      -2.103914      2.658779      0.568333
  H      -0.992511      1.655133      1.556726
  H      -2.475058      2.331207      2.291512
  H      -4.319194      1.815331      0.005786
  H      -4.611417      1.499535      1.745511
  H      -4.811124      0.177604      0.546003
  H      -1.648702     -0.553537      2.252187
  H      -3.255608     -1.205657      1.795584
  H      -3.124971      0.123779      2.995636
  H      -0.137660      1.631378     -0.994948
  H      -1.283292     -2.310917      0.264096
  H       2.237462      0.933825     -1.021306
  H       1.090758     -3.010398      0.238560
  H       2.858079     -1.386924     -0.396043
  F      -7.664374     -1.942401      3.354657
  F      -5.832623     -0.755076      3.107571
  F      -8.546921     -0.248398      5.291443
  F      -6.650109     -1.291430      5.635747
  F      -7.642601     -0.516860      1.173397
  F      -7.220243      1.360672      2.225470
  F      -7.327529      2.067527      4.880841
  F      -6.687682      1.101873      6.743255
  F      -9.634107      1.357344      3.372246
  F      -9.817245      0.887159      1.261413
  F     -10.036166     -0.692144      2.744164
  O      -4.277315      0.433472      5.584043
  O      -4.782961      2.146825      4.193827
  C      -7.146160     -0.693414      3.442333
  C      -7.230205     -0.279008      4.946130
  C      -7.840026      0.166592      2.327461
  C      -6.559964      1.057357      5.378268
  C      -9.376320      0.432802      2.442707
  C      -5.041512      1.232288      5.001654
46
Coordinates from ORCA-job R4N+PFHxA-_0.15M E -1922.676121086705
  N      -2.804780      0.706262      0.991563
  C      -2.306250      0.133468     -0.338264
  C      -2.030945      1.930904      1.376308
  C      -4.248146      1.080328      0.808531
  C      -2.699588     -0.308813      2.090129
  C      -0.866147     -0.286264     -0.337173
  C       0.133800      0.616388     -0.712073
  C      -0.511037     -1.596432     -0.002613
  C       1.467976      0.222088     -0.729664
  C       0.823143     -1.990987     -0.020075
  C       1.814941     -1.081091     -0.379608
  H      -2.483445      0.920204     -1.076788
  H      -2.962311     -0.714885     -0.551782
  H      -2.100251      2.659616      0.566107
  H      -0.990794      1.656056      1.556638
  H      -2.472764      2.335495      2.289505
  H      -4.317816      1.818961      0.006953
  H      -4.609839      1.503569      1.746814
  H      -4.811105      0.181774      0.547504
  H      -1.648536     -0.552014      2.252689
  H      -3.257482     -1.201361      1.799050
  H      -3.122286      0.129077      2.997506
  H      -0.137493      1.629946     -0.996637
  H      -1.285415     -2.310457      0.266334
  H       2.236971      0.930496     -1.023963
  H       1.088009     -3.011854      0.239794
  H       2.856247     -1.390202     -0.397286
  F      -7.662277     -1.943803      3.353091
  F      -5.831491     -0.754700      3.107202
  F      -8.546851     -0.251373      5.290490
  F      -6.649277     -1.292962      5.634835
  F      -7.641346     -0.517545      1.172525
  F      -7.220221      1.359925      2.225171
  F      -7.329123      2.065780      4.880930
  F      -6.689265      1.100014      6.743256
  F      -9.634378      1.354825      3.371545
  F      -9.816927      0.885035      1.260570
  F     -10.034991     -0.694778      2.742911
  O      -4.277854      0.433713      5.584601
  O      -4.784402      2.147421      4.195142
  C      -7.145189     -0.694404      3.441529
  C      -7.230015     -0.280745      4.945474
  C      -7.839389      0.165475      2.326727
  C      -6.560984      1.056037      5.378329
  C      -9.375858      0.430704      2.441761
  C      -5.042530      1.232300      5.002342
46
Coordinates from ORCA-job R4N+PFHxA-_0.15M E -1922.676121309434
  N      -2.804724      0.707311      0.991270
  C      -2.306384      0.133603     -0.338208
  C      -2.030383      1.931884      1.375280
  C      -4.247928      1.081862      0.808043
  C      -2.699969     -0.307123      2.090436
  C      -0.866381     -0.286449     -0.336929
  C       0.133828      0.615756     -0.712188
  C      -0.511625     -1.596573     -0.001801
  C       1.467893      0.221043     -0.729570
  C       0.822439     -1.991538     -0.019071
  C       1.814504     -1.082082     -0.378965
  H      -2.483544      0.919897     -1.077215
  H      -2.962608     -0.714765     -0.551183
  H      -2.098081      2.659627      0.564072
  H      -0.990643      1.656453      1.557110
  H      -2.472894      2.338054      2.287403
  H      -4.317154      1.820792      0.006698
  H      -4.609762      1.504892      1.746373
  H      -4.811176      0.183624      0.546541
  H      -1.649130     -0.551378      2.252769
  H      -3.259052     -1.199216      1.800247
  H      -3.121786      0.131787      2.997752
  H      -0.137046      1.629295     -0.997208
  H      -1.286247     -2.310234      0.267417
  H       2.237050      0.929156     -1.024157
  H       1.086901     -3.012393      0.241257
  H       2.855736     -1.391452     -0.396498
  F      -7.661552     -1.944340      3.352158
  F      -5.831175     -0.754511      3.106538
  F      -8.546295     -0.253121      5.290533
  F      -6.648238     -1.294093      5.634050
  F      -7.641439     -0.517222      1.172228
  F      -7.220494      1.359928      2.225489
  F      -7.329356      2.064749      4.881552
  F      -6.689063      1.098485      6.743427
  F      -9.634488      1.353876      3.372326
  F      -9.817341      0.884822      1.261204
  F     -10.034756     -0.695582      2.743008
  O      -4.277403      0.433474      5.584480
  O      -4.784825      2.147135      4.195270
  C      -7.144842     -0.694813      3.441084
  C      -7.229502     -0.281851      4.945207
  C      -7.839437      0.165318      2.326717
  C      -6.560872      1.055036      5.378508
  C      -9.375950      0.430178      2.442094
  C      -5.042518      1.231893      5.002382
46
Coordinates from ORCA-job R4N+PFHxA-_0.15M E -1922.676121446410
  N      -2.805000      0.707487      0.990625
  C      -2.306293      0.133428     -0.338577
  C      -2.030653      1.932114      1.374492
  C      -4.248132      1.082139      0.806908
  C      -2.700642     -0.306629      2.090118
  C      -0.866287     -0.286578     -0.336775
  C       0.134025      0.615563     -0.711896
  C      -0.511605     -1.596628     -0.001268
  C       1.468109      0.220859     -0.728751
  C       0.822471     -1.991575     -0.018016
  C       1.814641     -1.082181     -0.377764
  H      -2.483369      0.919534     -1.077806
  H      -2.962416     -0.715037     -0.551498
  H      -2.096979      2.659134      0.562526
  H      -0.991255      1.656382      1.557836
  H      -2.474084      2.339327      2.285691
  H      -4.316989      1.821531      0.005954
  H      -4.610401      1.504620      1.745327
  H      -4.811292      0.184082      0.544583
  H      -1.649929     -0.551381      2.252502
  H      -3.260228     -1.198543      1.800349
  H      -3.122195      0.132836      2.997288
  H      -0.136677      1.629058     -0.997226
  H      -1.286340     -2.310211      0.267838
  H       2.237298      0.928981     -1.023239
  H       1.086781     -3.012389      0.242628
  H       2.855891     -1.391513     -0.394895
  F      -7.661388     -1.944332      3.351505
  F      -5.831155     -0.754286      3.105748
  F      -8.545536     -0.254133      5.290933
  F      -6.647148     -1.294890      5.633320
  F      -7.641998     -0.516243      1.172166
  F      -7.220912      1.360468      2.226145
  F      -7.329112      2.064177      4.882510
  F      -6.687998      1.097195      6.743699
  F      -9.634571      1.353702      3.373686
  F      -9.817989      0.885561      1.262402
  F     -10.034876     -0.695502      2.743577
  O      -4.276555      0.433321      5.583770
  O      -4.784976      2.146927      4.194883
  C      -7.144718     -0.694807      3.440782
  C      -7.228849     -0.282495      4.945099
  C      -7.839726      0.165751      2.327026
  C      -6.560288      1.054339      5.378737
  C      -9.376245      0.430440      2.442946
  C      -5.042120      1.231592      5.002041
46
Coordinates from ORCA-job R4N+PFHxA-_0.15M E -1922.676121560566
  N      -2.805370      0.706423      0.990017
  C      -2.305876      0.133166     -0.339268
  C      -2.031415      1.931014      1.374863
  C      -4.248470      1.080959      0.805810
  C      -2.701392     -0.308239      2.089017
  C      -0.865759     -0.286428     -0.336943
  C       0.134481      0.616210     -0.711042
  C      -0.510864     -1.596558     -0.001956
  C       1.468699      0.221910     -0.727405
  C       0.823339     -1.991090     -0.018207
  C       1.815432     -1.081214     -0.376938
  H      -2.482862      0.919640     -1.078123
  H      -2.961652     -0.715384     -0.552931
  H      -2.096568      2.657963      0.562744
  H      -0.992291      1.655157      1.559587
  H      -2.476016      2.338285      2.285473
  H      -4.316970      1.821333      0.005729
  H      -4.611417      1.502211      1.744519
  H      -4.811254      0.183107      0.541970
  H      -1.650761     -0.553251      2.251536
  H      -3.261013     -1.199951      1.798684
  H      -3.123128      0.130815      2.996292
  H      -0.136317      1.629791     -0.995969
  H      -1.285559     -2.310489      0.266340
  H       2.237792      0.930462     -1.021111
  H       1.087766     -3.011978      0.242033
  H       2.856785     -1.390224     -0.393683
  F      -7.661711     -1.943743      3.352092
  F      -5.831486     -0.753843      3.105578
  F      -8.545059     -0.253496      5.291729
  F      -6.646509     -1.294207      5.633475
  F      -7.642905     -0.515720      1.172654
  F      -7.221581      1.361030      2.226464
  F      -7.328760      2.064833      4.882820
  F      -6.687006      1.097871      6.743791
  F      -9.634857      1.354208      3.374766
  F      -9.818869      0.886085      1.263526
  F     -10.035351     -0.694986      2.744745
  O      -4.275844      0.434397      5.583478
  O      -4.785060      2.146862      4.193478
  C      -7.144934     -0.694239      3.441101
  C      -7.228487     -0.281860      4.945427
  C      -7.840299      0.166288      2.327573
  C      -6.559772      1.054976      5.378798
  C      -9.376806      0.430949      2.443945
  C      -5.041757      1.232149      5.001451
46
Coordinates from ORCA-job R4N+PFHxA-_0.15M E -1922.676121626042
  N      -2.805754      0.705485      0.989556
  C      -2.305587      0.132947     -0.339825
  C      -2.032151      1.930050      1.375313
  C      -4.248839      1.079905      0.804932
  C      -2.702042     -0.309718      2.088103
  C      -0.865378     -0.286312     -0.337055
  C       0.134797      0.616757     -0.710282
  C      -0.510303     -1.596507     -0.002514
  C       1.469130      0.222822     -0.726220
  C       0.824012     -1.990671     -0.018336
  C       1.816034     -1.080371     -0.376190
  H      -2.482442      0.919775     -1.078330
  H      -2.961094     -0.715643     -0.554147
  H      -2.096653      2.657096      0.563232
  H      -0.993190      1.654158      1.560900
  H      -2.477597      2.337166      2.285604
  H      -4.317097      1.820948      0.005446
  H      -4.612271      1.500315      1.743841
  H      -4.811308      0.182165      0.540038
  H      -1.651406     -0.554668      2.250700
  H      -3.261415     -1.201423      1.797259
  H      -3.124044      0.128882      2.995436
  H      -0.136147      1.630399     -0.994854
  H      -1.284942     -2.310756      0.265098
  H       2.238159      0.931724     -1.019247
  H       1.088598     -3.011608      0.241554
  H       2.857470     -1.389119     -0.392591
  F      -7.661894     -1.943212      3.352524
  F      -5.831675     -0.753461      3.105328
  F      -8.544550     -0.252903      5.292323
  F      -6.645890     -1.293628      5.633517
  F      -7.643619     -0.515228      1.172996
  F      -7.222091      1.361547      2.226687
  F      -7.328405      2.065382      4.883066
  F      -6.685990      1.098422      6.743817
  F      -9.635033      1.354661      3.375632
  F      -9.819557      0.886538      1.264435
  F     -10.035664     -0.694535      2.745707
  O      -4.275213      0.435355      5.582894
  O      -4.785068      2.147078      4.192305
  C      -7.145018     -0.693731      3.441288
  C      -7.228080     -0.281286      4.945634
  C      -7.840708      0.166781      2.327976
  C      -6.559230      1.055528      5.378773
  C      -9.377204      0.431396      2.444769
  C      -5.041365      1.232689      5.000838
46
Coordinates from ORCA-job R4N+PFHxA-_0.15M E -1922.676121643598
  N      -2.805750      0.704789      0.989710
  C      -2.305403      0.133080     -0.339959
  C      -2.032261      1.929157      1.376331
  C      -4.248824      1.079250      0.805158
  C      -2.702096     -0.311124      2.087607
  C      -0.865160     -0.286073     -0.337282
  C       0.134981      0.617300     -0.709868
  C      -0.510022     -1.596439     -0.003481
  C       1.469345      0.223486     -0.725911
  C       0.824326     -1.990484     -0.019397
  C       1.816310     -1.079890     -0.376617
  H      -2.482193      0.920337     -1.078022
  H      -2.960836     -0.715422     -0.554855
  H      -2.096819      2.656732      0.564726
  H      -0.993286      1.653243      1.561791
  H      -2.477834      2.335638      2.286858
  H      -4.317009      1.820733      0.006073
  H      -4.612339      1.499148      1.744258
  H      -4.811225      0.181624      0.539735
  H      -1.651444     -0.556003      2.250201
  H      -3.261244     -1.202729      1.796023
  H      -3.124337      0.126758      2.995163
  H      -0.136068      1.631079     -0.993854
  H      -1.284615     -2.310924      0.263633
  H       2.238372      0.932596     -1.018436
  H       1.089014     -3.011544      0.239906
  H       2.857767     -1.388562     -0.393092
  F      -7.661904     -1.942952      3.353459
  F      -5.831759     -0.753194      3.105813
  F      -8.544699     -0.251874      5.292568
  F      -6.646036     -1.292461      5.634188
  F      -7.643740     -0.515882      1.173359
  F      -7.222330      1.361368      2.226243
  F      -7.328545      2.066244      4.882396
  F      -6.686222      1.100027      6.743581
  F      -9.635248      1.354784      3.375247
  F      -9.819764      0.885815      1.264240
  F     -10.035744     -0.694692      2.746133
  O      -4.275360      0.436633      5.583183
  O      -4.785241      2.147451      4.191498
  C      -7.145111     -0.693404      3.441726
  C      -7.228232     -0.280369      4.945920
  C      -7.840855      0.166610      2.328049
  C      -6.559400      1.056597      5.378554
  C      -9.377360      0.431162      2.444764
  C      -5.041514      1.233575      5.000609
46
Coordinates from ORCA-job R4N+PFHxA-_0.15M E -1922.676121647777
  N      -2.805711      0.704890      0.989793
  C      -2.305447      0.133142     -0.339879
  C      -2.032143      1.929224      1.376401
  C      -4.248770      1.079424      0.805291
  C      -2.702064     -0.311037      2.087687
  C      -0.865217     -0.286071     -0.337268
  C       0.134948      0.617261     -0.709896
  C      -0.510127     -1.596453     -0.003487
  C       1.469291      0.223389     -0.725996
  C       0.824202     -1.990561     -0.019464
  C       1.816210     -1.080006     -0.376721
  H      -2.482219      0.920384     -1.077964
  H      -2.960925     -0.715334     -0.554732
  H      -2.096792      2.656851      0.564848
  H      -0.993153      1.653292      1.561740
  H      -2.477651      2.335682      2.286970
  H      -4.316945      1.820860      0.006162
  H      -4.612217      1.499397      1.744386
  H      -4.811237      0.181808      0.539970
  H      -1.651404     -0.555910      2.250244
  H      -3.261219     -1.202638      1.796106
  H      -3.124274      0.126840      2.995256
  H      -0.136098      1.631046     -0.993860
  H      -1.284729     -2.310914      0.263664
  H       2.238356      0.932446     -1.018546
  H       1.088883     -3.011628      0.239819
  H       2.857651     -1.388731     -0.393241
  F      -7.661793     -1.943028      3.353463
  F      -5.831699     -0.753188      3.105829
  F      -8.544709     -0.251910      5.292513
  F      -6.646030     -1.292443      5.634196
  F      -7.643684     -0.516052      1.173323
  F      -7.222302      1.361254      2.226117
  F      -7.328605      2.066219      4.882282
  F      -6.686311      1.100089      6.743526
  F      -9.635236      1.354675      3.375115
  F      -9.819740      0.885606      1.264130
  F     -10.035674     -0.694841      2.746097
  O      -4.275423      0.436678      5.583158
  O      -4.785270      2.147554      4.191540
  C      -7.145060     -0.693454      3.441707
  C      -7.228237     -0.280378      4.945893
  C      -7.840814      0.166496      2.327975
  C      -6.559451      1.056617      5.378499
  C      -9.377320      0.431019      2.444678
  C      -5.041555      1.233625      5.000606
