46
XYZ file generated by Avogadro.
N     -2.2693637737   -0.0263980638    0.2250009260
C     -1.2692695339   -0.0333913941   -0.9526382691
C     -2.1008864447    1.2271994448    1.0721528200
C     -3.6814027784   -0.0463943445   -0.3493783588
C     -2.0792275769   -1.2537679595    1.1053569939
C      0.1840617516   -0.0179986584   -0.5855491248
C      0.9045109856    1.2513090980   -0.4694973977
C      0.9238488622   -1.2732394069   -0.4412989968
C      2.2994752517    1.2636421432   -0.0534400164
C      2.3188523074   -1.2549377186   -0.0256121014
C      3.0065048486    0.0119518341    0.1625710986
H     -1.5158542169    0.8386059832   -1.5720170792
H     -1.5025442091   -0.9241222099   -1.5501330885
H     -2.1799713434    2.1011513523    0.4189982331
H     -1.1274820328    1.1973422726    1.5684317589
H     -2.8957267031    1.2434701322    1.8244547686
H     -3.8154845936    0.8433221966   -0.9719410833
H     -4.3956718616   -0.0413373161    0.4795329909
H     -3.7999620614   -0.9548659206   -0.9475317395
H     -1.1066203760   -1.1936218134    1.6004768725
H     -2.1428598537   -2.1461184764    0.4758228332
H     -2.8738556433   -1.2637743206    1.8579895553
H      0.4723912608    2.1747915289   -0.8389523932
H      0.5059349678   -2.2112572716   -0.7899251861
H      2.8618508848    2.1911137218   -0.0766475464
H      2.8954839440   -2.1739002094   -0.0288383747
H      4.0817065248    0.0217966384    0.3056932545
F     -9.8533372379   -1.1535868676    3.7845838488
F     -8.0454793523   -0.6366544091    2.7424211675
F     -9.0362000014   -0.2639951020    6.1083704358
F     -7.6810911370   -1.6907605930    5.2276951277
F    -10.1057772364    1.0121358940    2.2572384255
F     -8.5423177389    2.1085909770    3.2793545506
F     -7.4079537645    1.8466809820    5.4226826866
F     -6.4713499632    0.3323907901    6.6760812655
F     -9.9256418456    1.8476567079    5.7068553928
F    -11.1280182532    2.6773939479    4.1100085818
F    -11.4250457518    0.6161974581    4.7217284808
O     -4.9112104018   -0.4095592799    4.6542236024
O     -6.0580702575    0.9920048763    3.2804650334
C     -8.8237067344   -0.2261284348    3.7836688215
C     -8.0917108944   -0.3881979500    5.1109020477
C     -9.4515354181    1.1214779436    3.4667895524
C     -6.9608339166    0.5557158684    5.4191779559
C    -10.4706274347    1.5534836059    4.5073844276
C     -5.8662435872    0.3657755183    4.3652179151
