46
Coordinates from ORCA-job R4N+PFHxA-_wb E -1923.134791849448
  N      -2.805711      0.704890      0.989793
  C      -2.305447      0.133142     -0.339879
  C      -2.032143      1.929224      1.376401
  C      -4.248770      1.079424      0.805291
  C      -2.702064     -0.311037      2.087687
  C      -0.865217     -0.286071     -0.337268
  C       0.134948      0.617261     -0.709896
  C      -0.510127     -1.596453     -0.003487
  C       1.469291      0.223389     -0.725996
  C       0.824202     -1.990561     -0.019464
  C       1.816210     -1.080006     -0.376721
  H      -2.482219      0.920384     -1.077964
  H      -2.960925     -0.715334     -0.554732
  H      -2.096792      2.656851      0.564848
  H      -0.993153      1.653292      1.561740
  H      -2.477651      2.335682      2.286970
  H      -4.316945      1.820860      0.006162
  H      -4.612217      1.499397      1.744386
  H      -4.811237      0.181808      0.539970
  H      -1.651404     -0.555910      2.250244
  H      -3.261219     -1.202638      1.796106
  H      -3.124274      0.126840      2.995256
  H      -0.136098      1.631046     -0.993860
  H      -1.284729     -2.310914      0.263664
  H       2.238356      0.932446     -1.018546
  H       1.088883     -3.011628      0.239819
  H       2.857651     -1.388731     -0.393241
  F      -7.661793     -1.943028      3.353463
  F      -5.831699     -0.753188      3.105829
  F      -8.544709     -0.251910      5.292513
  F      -6.646030     -1.292443      5.634196
  F      -7.643684     -0.516052      1.173323
  F      -7.222302      1.361254      2.226117
  F      -7.328605      2.066219      4.882282
  F      -6.686311      1.100089      6.743526
  F      -9.635236      1.354675      3.375115
  F      -9.819740      0.885606      1.264130
  F     -10.035674     -0.694841      2.746097
  O      -4.275423      0.436678      5.583158
  O      -4.785270      2.147554      4.191540
  C      -7.145060     -0.693454      3.441707
  C      -7.228237     -0.280378      4.945893
  C      -7.840814      0.166496      2.327975
  C      -6.559451      1.056617      5.378499
  C      -9.377320      0.431019      2.444678
  C      -5.041555      1.233625      5.000606
46
Coordinates from ORCA-job R4N+PFHxA-_wb E -1923.137110977618
  N      -2.804885      0.707530      1.003512
  C      -2.311543      0.140534     -0.316200
  C      -2.039831      1.926226      1.388002
  C      -4.238658      1.077590      0.815473
  C      -2.701917     -0.300868      2.096417
  C      -0.872694     -0.283942     -0.326870
  C       0.124753      0.611932     -0.706782
  C      -0.520421     -1.591723     -0.000244
  C       1.453554      0.214198     -0.736218
  C       0.808002     -1.990853     -0.029269
  C       1.797389     -1.086971     -0.393353
  H      -2.491244      0.925417     -1.049142
  H      -2.968408     -0.701666     -0.527897
  H      -2.104951      2.649511      0.578178
  H      -1.004675      1.653652      1.574898
  H      -2.484973      2.332352      2.294197
  H      -4.304020      1.814660      0.017905
  H      -4.605967      1.496890      1.749025
  H      -4.796787      0.181824      0.550517
  H      -1.655156     -0.541996      2.260872
  H      -3.256527     -1.191134      1.805731
  H      -3.124885      0.135294      2.999609
  H      -0.143738      1.624711     -0.985500
  H      -1.293145     -2.301451      0.272978
  H       2.220659      0.919135     -1.033133
  H       1.069969     -3.010429      0.226463
  H       2.834639     -1.398883     -0.419100
  F      -7.641597     -1.932500      3.350660
  F      -5.829357     -0.747865      3.105897
  F      -8.526845     -0.246196      5.279244
  F      -6.646550     -1.280705      5.621820
  F      -7.623829     -0.516894      1.176949
  F      -7.219164      1.351174      2.219402
  F      -7.318040      2.061729      4.881345
  F      -6.687110      1.099612      6.727123
  F      -9.630524      1.330619      3.352330
  F      -9.794983      0.872176      1.255009
  F     -10.015409     -0.701705      2.717268
  O      -4.279110      0.449974      5.581155
  O      -4.788171      2.146582      4.194832
  C      -7.134372     -0.689152      3.436692
  C      -7.220159     -0.274763      4.935767
  C      -7.827965      0.161668      2.321762
  C      -6.555549      1.058458      5.372734
  C      -9.361255      0.418228      2.427784
  C      -5.042267      1.239211      5.000088
46
Coordinates from ORCA-job R4N+PFHxA-_wb E -1923.137210948098
  N      -2.804507      0.706937      1.006531
  C      -2.310602      0.141083     -0.310062
  C      -2.042485      1.924864      1.391269
  C      -4.236136      1.075976      0.818215
  C      -2.702041     -0.298397      2.098890
  C      -0.871203     -0.284383     -0.324873
  C       0.125296      0.610729     -0.705074
  C      -0.518742     -1.591871     -0.001815
  C       1.453021      0.212549     -0.739649
  C       0.808410     -1.992094     -0.035968
  C       1.796758     -1.088858     -0.401178
  H      -2.490150      0.924553     -1.044451
  H      -2.966422     -0.701240     -0.524393
  H      -2.106920      2.648550      0.581847
  H      -1.007144      1.654770      1.580830
  H      -2.489133      2.330998      2.296189
  H      -4.301471      1.812702      0.020518
  H      -4.604655      1.495717      1.750565
  H      -4.794100      0.180748      0.553230
  H      -1.655354     -0.538328      2.265242
  H      -3.255209     -1.189160      1.809377
  H      -3.125782      0.137831      3.001158
  H      -0.142962      1.624563     -0.980368
  H      -1.290896     -2.301834      0.272567
  H       2.219605      0.917851     -1.036987
  H       1.070207     -3.012352      0.217121
  H       2.833709     -1.401456     -0.430752
  F      -7.640655     -1.931955      3.350776
  F      -5.830389     -0.749225      3.105484
  F      -8.525842     -0.246268      5.277085
  F      -6.646281     -1.277357      5.621011
  F      -7.621500     -0.517160      1.177348
  F      -7.219105      1.348570      2.218602
  F      -7.320200      2.061318      4.874375
  F      -6.693730      1.104123      6.721759
  F      -9.626276      1.323515      3.357543
  F      -9.791717      0.877376      1.259021
  F     -10.013538     -0.702889      2.711953
  O      -4.282095      0.456645      5.582305
  O      -4.791027      2.147670      4.194272
  C      -7.133309     -0.690759      3.435232
  C      -7.221272     -0.274983      4.934551
  C      -7.826281      0.160394      2.320104
  C      -6.560023      1.061683      5.370331
  C      -9.360233      0.417117      2.428229
  C      -5.045331      1.242930      4.999973
46
Coordinates from ORCA-job R4N+PFHxA-_wb E -1923.137221930434
  N      -2.804475      0.706985      1.006069
  C      -2.310079      0.141799     -0.309312
  C      -2.043026      1.924912      1.391331
  C      -4.235857      1.076010      0.818587
  C      -2.702004     -0.298006      2.098167
  C      -0.870461     -0.284192     -0.324373
  C       0.126341      0.610625     -0.704050
  C      -0.518352     -1.591834     -0.002050
  C       1.453850      0.211921     -0.739683
  C       0.808519     -1.992816     -0.037124
  C       1.797103     -1.089902     -0.402426
  H      -2.488591      0.924371     -1.045106
  H      -2.964987     -0.700843     -0.525874
  H      -2.107144      2.649593      0.582679
  H      -1.007407      1.656155      1.581838
  H      -2.490255      2.330632      2.296200
  H      -4.301952      1.813154      0.021210
  H      -4.604302      1.495819      1.750951
  H      -4.794511      0.181197      0.553500
  H      -1.655303     -0.538020      2.265099
  H      -3.255172     -1.188993      1.809345
  H      -3.125420      0.138075      3.000658
  H      -0.141312      1.624971     -0.978333
  H      -1.290543     -2.301718      0.272756
  H       2.220567      0.917225     -1.036831
  H       1.069840     -3.013379      0.215404
  H       2.833927     -1.403035     -0.432883
  F      -7.642585     -1.932161      3.351882
  F      -5.831850     -0.750758      3.104675
  F      -8.524339     -0.248587      5.280872
  F      -6.642764     -1.277036      5.620411
  F      -7.621956     -0.517172      1.177253
  F      -7.220535      1.348488      2.218316
  F      -7.319995      2.061895      4.874546
  F      -6.694054      1.104679      6.722186
  F      -9.628594      1.324497      3.355004
  F      -9.792490      0.875435      1.257002
  F     -10.015255     -0.702831      2.712210
  O      -4.281234      0.458870      5.583654
  O      -4.790835      2.148248      4.194433
  C      -7.134078     -0.691548      3.435272
  C      -7.220889     -0.275713      4.935594
  C      -7.827222      0.160332      2.319578
  C      -6.560659      1.062818      5.371262
  C      -9.362219      0.416815      2.427145
  C      -5.045154      1.244213      5.000887
46
Coordinates from ORCA-job R4N+PFHxA-_wb E -1923.137224000333
  N      -2.803848      0.706569      1.005684
  C      -2.309027      0.142008     -0.308808
  C      -2.042912      1.924774      1.391530
  C      -4.235294      1.075524      0.818877
  C      -2.701557     -0.298342      2.097924
  C      -0.869110     -0.284029     -0.323918
  C       0.127805      0.610948     -0.703060
  C      -0.517019     -1.592082     -0.003063
  C       1.455294      0.211980     -0.740009
  C       0.809798     -1.993451     -0.039276
  C       1.798459     -1.090366     -0.404318
  H      -2.486751      0.923712     -1.045869
  H      -2.962896     -0.701077     -0.527314
  H      -2.106513      2.650229      0.583469
  H      -1.007116      1.657309      1.583147
  H      -2.491074      2.330166      2.296174
  H      -4.302345      1.813045      0.021810
  H      -4.603682      1.495461      1.751267
  H      -4.794799      0.181196      0.553689
  H      -1.654997     -0.538623      2.265782
  H      -3.254763     -1.189591      1.809869
  H      -3.124921      0.137738      3.000512
  H      -0.139501      1.625751     -0.976139
  H      -1.289035     -2.302267      0.271619
  H       2.221917      0.917532     -1.036893
  H       1.070896     -3.014378      0.212108
  H       2.835202     -1.403767     -0.435896
  F      -7.645600     -1.932334      3.353182
  F      -5.833525     -0.752812      3.103643
  F      -8.525390     -0.247244      5.280644
  F      -6.643511     -1.276109      5.620581
  F      -7.623411     -0.517771      1.176923
  F      -7.222051      1.348215      2.218099
  F      -7.320244      2.063204      4.872994
  F      -6.696275      1.106329      6.721791
  F      -9.628969      1.321907      3.358810
  F      -9.794850      0.876958      1.259543
  F     -10.016577     -0.704117      2.712340
  O      -4.281262      0.461535      5.585606
  O      -4.791047      2.148800      4.193853
  C      -7.135306     -0.692197      3.435080
  C      -7.221998     -0.275120      4.935508
  C      -7.828411      0.159881      2.319219
  C      -6.562003      1.064412      5.371097
  C      -9.363789      0.416036      2.428617
  C      -5.045705      1.245655      5.001503
46
Coordinates from ORCA-job R4N+PFHxA-_wb E -1923.137229464486
  N      -2.803267      0.706232      1.005568
  C      -2.308662      0.142125     -0.308794
  C      -2.042444      1.924470      1.391911
  C      -4.234797      1.075288      0.819326
  C      -2.701084     -0.298997      2.097727
  C      -0.868608     -0.283841     -0.324060
  C       0.128274      0.611193     -0.703373
  C      -0.516390     -1.591946     -0.003317
  C       1.455836      0.212261     -0.740561
  C       0.810486     -1.993332     -0.039882
  C       1.799114     -1.090164     -0.405043
  H      -2.486246      0.923550     -1.046212
  H      -2.962139     -0.701122     -0.527937
  H      -2.105680      2.650272      0.584131
  H      -1.006644      1.657377      1.583971
  H      -2.491162      2.329585      2.296439
  H      -4.302551      1.813159      0.022608
  H      -4.603029      1.495136      1.751845
  H      -4.795002      0.181431      0.553983
  H      -1.654698     -0.539755      2.265991
  H      -3.254499     -1.190236      1.809965
  H      -3.124344      0.136953      3.000460
  H      -0.138935      1.626053     -0.976325
  H      -1.288209     -2.302255      0.271583
  H       2.222327      0.917907     -1.037549
  H       1.071586     -3.014283      0.211386
  H       2.835850     -1.403555     -0.436912
  F      -7.648067     -1.932189      3.354258
  F      -5.835058     -0.754539      3.102679
  F      -8.525072     -0.247414      5.281793
  F      -6.642367     -1.275565      5.620185
  F      -7.624763     -0.518047      1.176816
  F      -7.223265      1.348184      2.217863
  F      -7.320213      2.063728      4.872780
  F      -6.696995      1.106643      6.721843
  F      -9.629989      1.322978      3.357807
  F      -9.796132      0.875925      1.258944
  F     -10.017967     -0.703693      2.713396
  O      -4.281140      0.463059      5.587468
  O      -4.790940      2.148705      4.193631
  C      -7.136515     -0.692291      3.435127
  C      -7.221892     -0.274738      4.935508
  C      -7.829587      0.159763      2.319162
  C      -6.562161      1.064929      5.371077
  C      -9.364879      0.416031      2.428484
  C      -5.045791      1.246221      5.002181
46
Coordinates from ORCA-job R4N+PFHxA-_wb E -1923.137232737529
  N      -2.801994      0.705009      1.005813
  C      -2.307946      0.141534     -0.308645
  C      -2.041287      1.923199      1.392741
  C      -4.233562      1.074207      0.820442
  C      -2.699985     -0.300604      2.097810
  C      -0.867598     -0.283778     -0.324362
  C       0.128825      0.612044     -0.703147
  C      -0.514714     -1.592088     -0.005022
  C       1.456616      0.213746     -0.740926
  C       0.812394     -1.992848     -0.042323
  C       1.800583     -1.088896     -0.406838
  H      -2.485903      0.922826     -1.046093
  H      -2.960936     -0.701995     -0.528092
  H      -2.103824      2.649060      0.584969
  H      -1.005604      1.656243      1.585497
  H      -2.490995      2.328133      2.296837
  H      -4.302512      1.812501      0.024199
  H      -4.601498      1.493963      1.753128
  H      -4.794969      0.181178      0.554948
  H      -1.653922     -0.542297      2.266615
  H      -3.253791     -1.191733      1.810453
  H      -3.123189      0.135216      3.000657
  H      -0.138684      1.627070     -0.975128
  H      -1.285995     -2.303161      0.269351
  H       2.222635      0.920093     -1.037427
  H       1.073907     -3.013954      0.207839
  H       2.837440     -1.401789     -0.439271
  F      -7.653012     -1.931642      3.356652
  F      -5.838117     -0.758125      3.100863
  F      -8.525058     -0.246244      5.282589
  F      -6.641638     -1.273827      5.619891
  F      -7.627810     -0.519065      1.176960
  F      -7.225344      1.347660      2.217152
  F      -7.320294      2.064989      4.871121
  F      -6.698880      1.108527      6.721083
  F      -9.631076      1.323966      3.357945
  F      -9.798540      0.875900      1.259368
  F     -10.020736     -0.702781      2.714647
  O      -4.281428      0.466765      5.591339
  O      -4.790930      2.148359      4.192474
  C      -7.138947     -0.692338      3.435251
  C      -7.222010     -0.273291      4.935110
  C      -7.831917      0.159302      2.319235
  C      -6.562536      1.066290      5.370215
  C      -9.366757      0.416248      2.428960
  C      -5.046175      1.247624      5.003050
46
Coordinates from ORCA-job R4N+PFHxA-_wb E -1923.137235521479
  N      -2.801050      0.704604      1.005967
  C      -2.307665      0.141460     -0.309042
  C      -2.040186      1.922549      1.393331
  C      -4.232549      1.073950      0.821420
  C      -2.698945     -0.301524      2.097382
  C      -0.867314     -0.283622     -0.325240
  C       0.128849      0.612285     -0.704465
  C      -0.514115     -1.591574     -0.004918
  C       1.456724      0.214305     -0.741895
  C       0.813104     -1.991940     -0.041875
  C       1.801054     -1.087981     -0.406895
  H      -2.486185      0.923049     -1.045995
  H      -2.960836     -0.702031     -0.527943
  H      -2.102350      2.648328      0.585469
  H      -1.004676      1.655118      1.586233
  H      -2.490340      2.327306      2.297230
  H      -4.302278      1.812659      0.025634
  H      -4.600135      1.493270      1.754436
  H      -4.794615      0.181448      0.555665
  H      -1.653020     -0.543921      2.265957
  H      -3.253071     -1.192343      1.809801
  H      -3.122070      0.133866      3.000448
  H      -0.138885      1.627064     -0.977101
  H      -1.285179     -2.302642      0.270044
  H       2.222545      0.920697     -1.038775
  H       1.074875     -3.012790      0.209042
  H       2.838000     -1.400584     -0.438989
  F      -7.656503     -1.931390      3.357807
  F      -5.840244     -0.761091      3.098999
  F      -8.524650     -0.246048      5.282874
  F      -6.640875     -1.273345      5.619218
  F      -7.630313     -0.519682      1.177037
  F      -7.226524      1.347086      2.216600
  F      -7.320057      2.065087      4.869752
  F      -6.699685      1.109210      6.720231
  F      -9.631606      1.324249      3.358876
  F      -9.799992      0.877102      1.260225
  F     -10.022764     -0.701962      2.714826
  O      -4.281310      0.468995      5.594079
  O      -4.790621      2.147421      4.191418
  C      -7.140551     -0.692688      3.434983
  C      -7.221715     -0.272915      4.934549
  C      -7.833572      0.158967      2.319300
  C      -6.562339      1.066458      5.369332
  C      -9.368076      0.416706      2.429485
  C      -5.046002      1.248028      5.003412
46
Coordinates from ORCA-job R4N+PFHxA-_wb E -1923.137238435668
  N      -2.799938      0.704209      1.007009
  C      -2.307171      0.141255     -0.308799
  C      -2.038724      1.921890      1.394439
  C      -4.231286      1.073663      0.823059
  C      -2.697769     -0.302284      2.097899
  C      -0.866871     -0.283496     -0.325822
  C       0.128773      0.612526     -0.705977
  C      -0.513193     -1.591193     -0.005174
  C       1.456702      0.214916     -0.743803
  C       0.814109     -1.991101     -0.042385
  C       1.801581     -1.087040     -0.408261
  H      -2.486567      0.923439     -1.044867
  H      -2.960775     -0.702110     -0.526746
  H      -2.100512      2.647296      0.586221
  H      -1.003450      1.653659      1.587488
  H      -2.489180      2.326806      2.298061
  H      -4.301493      1.812631      0.027563
  H      -4.598578      1.492476      1.756406
  H      -4.793599      0.181403      0.557079
  H      -1.651916     -0.545193      2.266039
  H      -3.252156     -1.192722      1.809801
  H      -3.121020      0.132661      3.001078
  H      -0.139493      1.627056     -0.978983
  H      -1.284008     -2.302356      0.270178
  H       2.222202      0.921383     -1.041344
  H       1.076334     -3.011749      0.208885
  H       2.838611     -1.399315     -0.440580
  F      -7.660191     -1.931315      3.359202
  F      -5.842526     -0.764292      3.097562
  F      -8.524796     -0.245712      5.283074
  F      -6.640759     -1.272596      5.618996
  F      -7.632894     -0.521054      1.177223
  F      -7.227317      1.345917      2.215516
  F      -7.320276      2.065183      4.867355
  F      -6.701262      1.110842      6.718955
  F      -9.632162      1.324463      3.359551
  F      -9.800962      0.878712      1.260712
  F     -10.024994     -0.700985      2.714306
  O      -4.281754      0.471729      5.597346
  O      -4.790550      2.146329      4.190008
  C      -7.142342     -0.693326      3.434839
  C      -7.221972     -0.272552      4.934145
  C      -7.835192      0.158306      2.319180
  C      -6.562753      1.066892      5.368182
  C      -9.369465      0.417300      2.429651
  C      -5.046162      1.248640      5.003664
46
Coordinates from ORCA-job R4N+PFHxA-_wb E -1923.137239864176
  N      -2.799256      0.703053      1.008007
  C      -2.306885      0.140106     -0.308400
  C      -2.037330      1.920393      1.395126
  C      -4.230442      1.072895      0.824493
  C      -2.697146     -0.303696      2.098522
  C      -0.866457     -0.283678     -0.326119
  C       0.128230      0.613212     -0.706633
  C      -0.511573     -1.591065     -0.005588
  C       1.456425      0.216716     -0.745114
  C       0.816019     -1.989823     -0.043413
  C       1.802541     -1.084896     -0.409638
  H      -2.487305      0.922688     -1.043756
  H      -2.960591     -0.703396     -0.525435
  H      -2.098774      2.645403      0.586530
  H      -1.002302      1.651223      1.588210
  H      -2.487632      2.325828      2.298564
  H      -4.300664      1.811994      0.029132
  H      -4.597275      1.491306      1.758198
  H      -4.792788      0.180681      0.558453
  H      -1.651297     -0.547026      2.266075
  H      -3.251945     -1.193652      1.809821
  H      -3.120457      0.130975      3.001791
  H      -0.141197      1.627483     -0.979477
  H      -1.281794     -2.302813      0.269932
  H       2.221242      0.923769     -1.043028
  H       1.079292     -3.010233      0.207735
  H       2.839833     -1.396272     -0.442339
  F      -7.663907     -1.931119      3.360563
  F      -5.844812     -0.767061      3.096772
  F      -8.525383     -0.244686      5.283441
  F      -6.641447     -1.271785      5.619149
  F      -7.635780     -0.522559      1.177499
  F      -7.227356      1.344649      2.214078
  F      -7.320089      2.065576      4.864729
  F      -6.702474      1.112924      6.717625
  F      -9.632025      1.325945      3.360317
  F      -9.801617      0.881339      1.261344
  F     -10.027355     -0.698700      2.714313
  O      -4.282261      0.473498      5.599851
  O      -4.790093      2.144783      4.188212
  C      -7.144241     -0.693876      3.434859
  C      -7.222717     -0.272072      4.934025
  C      -7.836640      0.157925      2.318993
  C      -6.563188      1.067511      5.367061
  C      -9.370656      0.418947      2.430010
  C      -5.046143      1.248781      5.003440
46
Coordinates from ORCA-job R4N+PFHxA-_wb E -1923.137240720748
  N      -2.798825      0.702859      1.008910
  C      -2.306733      0.139940     -0.307904
  C      -2.036367      1.919953      1.395851
  C      -4.230010      1.072908      0.825773
  C      -2.696638     -0.304268      2.099049
  C      -0.866316     -0.283571     -0.326210
  C       0.127918      0.613446     -0.707661
  C      -0.510907     -1.590725     -0.005313
  C       1.456198      0.217369     -0.746611
  C       0.816786     -1.989072     -0.043568
  C       1.802829     -1.084006     -0.410750
  H      -2.487690      0.922739     -1.042908
  H      -2.960594     -0.703569     -0.524454
  H      -2.097682      2.644876      0.587166
  H      -1.001485      1.650218      1.588908
  H      -2.486302      2.325771      2.299305
  H      -4.300128      1.812200      0.030591
  H      -4.596401      1.490717      1.759928
  H      -4.791902      0.180414      0.559657
  H      -1.650694     -0.547611      2.266016
  H      -3.251656     -1.193829      1.809623
  H      -3.120075      0.129969      3.002473
  H      -0.142132      1.627474     -0.980795
  H      -1.280891     -2.302459      0.270938
  H       2.220716      0.924451     -1.045235
  H       1.080582     -3.009260      0.207946
  H       2.840201     -1.395095     -0.443822
  F      -7.666191     -1.931333      3.361457
  F      -5.846195     -0.768954      3.096539
  F      -8.525951     -0.243921      5.283673
  F      -6.642234     -1.271442      5.619360
  F      -7.637865     -0.524454      1.177599
  F      -7.226891      1.343120      2.212401
  F      -7.319627      2.065758      4.862668
  F      -6.703140      1.114312      6.716586
  F      -9.631757      1.326766      3.360536
  F      -9.801822      0.882851      1.261463
  F     -10.028814     -0.697367      2.714140
  O      -4.282532      0.474146      5.601364
  O      -4.789500      2.143123      4.186591
  C      -7.145443     -0.694550      3.434864
  C      -7.223420     -0.271954      4.933984
  C      -7.837437      0.157238      2.318583
  C      -6.563452      1.067783      5.366225
  C      -9.371292      0.419847      2.430004
  C      -5.045951      1.248387      5.002992
46
Coordinates from ORCA-job R4N+PFHxA-_wb E -1923.137242978765
  N      -2.798210      0.702558      1.010546
  C      -2.306492      0.139873     -0.306576
  C      -2.035164      1.919334      1.397305
  C      -4.229545      1.072798      0.827909
  C      -2.695967     -0.305123      2.100299
  C      -0.866003     -0.283237     -0.325831
  C       0.127575      0.614067     -0.708427
  C      -0.509841     -1.590291     -0.005229
  C       1.455923      0.218398     -0.748908
  C       0.817927     -1.988252     -0.044995
  C       1.803264     -1.082908     -0.413430
  H      -2.488001      0.922737     -1.041385
  H      -2.960284     -0.703744     -0.522966
  H      -2.096263      2.644309      0.588643
  H      -1.000403      1.649145      1.590425
  H      -2.484565      2.325741      2.300795
  H      -4.299510      1.812387      0.033015
  H      -4.595251      1.489700      1.762737
  H      -4.790555      0.179738      0.561782
  H      -1.649900     -0.548235      2.266782
  H      -3.251184     -1.194254      1.809919
  H      -3.119730      0.128504      3.003885
  H      -0.143282      1.627965     -0.981284
  H      -1.279419     -2.302152      0.271864
  H       2.219970      0.925600     -1.048457
  H       1.082401     -3.008341      0.206210
  H       2.840680     -1.393742     -0.447748
  F      -7.669293     -1.931796      3.363230
  F      -5.848096     -0.771473      3.096941
  F      -8.527127     -0.242136      5.284039
  F      -6.643837     -1.270390      5.620145
  F      -7.640795     -0.528214      1.177811
  F      -7.225881      1.340309      2.209270
  F      -7.318820      2.066519      4.859228
  F      -6.704326      1.117061      6.714916
  F      -9.631007      1.328671      3.359620
  F      -9.801916      0.883922      1.260785
  F     -10.030877     -0.695270      2.714429
  O      -4.283214      0.474777      5.603298
  O      -4.788511      2.140388      4.183826
  C      -7.147226     -0.695502      3.435170
  C      -7.224772     -0.271320      4.934040
  C      -7.838430      0.155782      2.317788
  C      -6.563978      1.068648      5.364839
  C      -9.371936      0.420964      2.429554
  C      -5.045837      1.247679      5.002120
46
Coordinates from ORCA-job R4N+PFHxA-_wb E -1923.137244187611
  N      -2.798042      0.702979      1.011041
  C      -2.306679      0.140791     -0.306164
  C      -2.034834      1.919558      1.397890
  C      -4.229712      1.073124      0.829153
  C      -2.695462     -0.305283      2.100420
  C      -0.866226     -0.282651     -0.325809
  C       0.127535      0.614476     -0.708446
  C      -0.510299     -1.589833     -0.005422
  C       1.455831      0.218577     -0.748972
  C       0.817381     -1.988109     -0.045401
  C       1.802898     -1.082886     -0.413716
  H      -2.488012      0.923671     -1.041021
  H      -2.960421     -0.702746     -0.523110
  H      -2.096022      2.644893      0.589550
  H      -0.999999      1.649448      1.590785
  H      -2.483705      2.326104      2.301620
  H      -4.299892      1.813110      0.034672
  H      -4.594699      1.489128      1.764666
  H      -4.789919      0.179538      0.563094
  H      -1.649254     -0.547918      2.266679
  H      -3.250596     -1.194273      1.809438
  H      -3.119428      0.127694      3.004235
  H      -0.143168      1.628496     -0.981012
  H      -1.280001     -2.301518      0.271782
  H       2.220048      0.925646     -1.048399
  H       1.081687     -3.008287      0.205630
  H       2.840241     -1.393956     -0.448182
  F      -7.670455     -1.932495      3.364653
  F      -5.848753     -0.772948      3.097524
  F      -8.527515     -0.240633      5.284272
  F      -6.644691     -1.269664      5.620892
  F      -7.642698     -0.531774      1.178058
  F      -7.224805      1.337729      2.206551
  F      -7.317448      2.067089      4.856850
  F      -6.704174      1.118915      6.713669
  F      -9.629734      1.330037      3.358681
  F      -9.801998      0.883330      1.260359
  F     -10.031776     -0.694222      2.715737
  O      -4.283099      0.474272      5.603580
  O      -4.787192      2.137864      4.181251
  C      -7.147909     -0.696307      3.435510
  C      -7.225271     -0.270834      4.934067
  C      -7.838753      0.154179      2.317198
  C      -6.563604      1.069153      5.363704
  C      -9.371887      0.421137      2.429434
  C      -5.045202      1.246590      5.000940
46
Coordinates from ORCA-job R4N+PFHxA-_wb E -1923.137246173582
  N      -2.797559      0.703071      1.012400
  C      -2.306736      0.141819     -0.304912
  C      -2.034528      1.919508      1.399663
  C      -4.229682      1.072958      0.831472
  C      -2.694688     -0.305854      2.101376
  C      -0.866180     -0.281834     -0.325465
  C       0.127602      0.615429     -0.707751
  C      -0.510354     -1.589441     -0.006713
  C       1.455789      0.219212     -0.749672
  C       0.817216     -1.988054     -0.047988
  C       1.802751     -1.082711     -0.416038
  H      -2.487978      0.924719     -1.039783
  H      -2.960206     -0.701696     -0.522838
  H      -2.095692      2.645339      0.591752
  H      -0.999557      1.649810      1.592422
  H      -2.483114      2.326056      2.303564
  H      -4.300384      1.813481      0.037563
  H      -4.593802      1.487925      1.767781
  H      -4.789089      0.178839      0.565572
  H      -1.648406     -0.547869      2.267989
  H      -3.249488     -1.194899      1.809868
  H      -3.119135      0.126393      3.005340
  H      -0.142938      1.629807     -0.979140
  H      -1.279984     -2.301331      0.270138
  H       2.219971      0.926410     -1.048881
  H       1.081382     -3.008592      0.201713
  H       2.839977     -1.394037     -0.451598
  F      -7.672153     -1.933191      3.367361
  F      -5.849749     -0.774839      3.098997
  F      -8.528681     -0.237314      5.284221
  F      -6.646828     -1.267578      5.622639
  F      -7.644819     -0.537319      1.178603
  F      -7.223453      1.333982      2.202392
  F      -7.315738      2.068759      4.853193
  F      -6.704728      1.122682      6.711872
  F      -9.628057      1.332488      3.355749
  F      -9.801918      0.881122      1.258557
  F     -10.033057     -0.692800      2.717629
  O      -4.283635      0.473783      5.604292
  O      -4.785426      2.134381      4.177688
  C      -7.149042     -0.697060      3.436354
  C      -7.226444     -0.269183      4.934166
  C      -7.839188      0.151680      2.316273
  C      -6.563440      1.070687      5.362015
  C      -9.371748      0.421027      2.428519
  C      -5.044794      1.245427      4.999577
46
Coordinates from ORCA-job R4N+PFHxA-_wb E -1923.137247459263
  N      -2.797347      0.703250      1.012883
  C      -2.306963      0.142815     -0.304616
  C      -2.034658      1.919683      1.400629
  C      -4.229757      1.072802      0.832790
  C      -2.694091     -0.306090      2.101458
  C      -0.866444     -0.281220     -0.325631
  C       0.127682      0.616059     -0.706931
  C      -0.511096     -1.589250     -0.008121
  C       1.455753      0.219413     -0.749060
  C       0.816343     -1.988281     -0.049606
  C       1.802252     -1.082946     -0.416648
  H      -2.488042      0.925980     -1.039258
  H      -2.960408     -0.700547     -0.523203
  H      -2.095948      2.645871      0.593039
  H      -0.999529      1.650374      1.593105
  H      -2.483279      2.325832      2.304683
  H      -4.301197      1.813709      0.039316
  H      -4.593348      1.487217      1.769541
  H      -4.789039      0.178589      0.567004
  H      -1.647788     -0.547751      2.268474
  H      -3.248435     -1.195388      1.809850
  H      -3.118818      0.125713      3.005518
  H      -0.142305      1.630841     -0.977342
  H      -1.280884     -2.301225      0.268066
  H       2.220159      0.926696     -1.047483
  H       1.080055     -3.009157      0.199182
  H       2.839374     -1.394588     -0.452370
  F      -7.672375     -1.933554      3.369213
  F      -5.849801     -0.775613      3.100091
  F      -8.529178     -0.234798      5.283912
  F      -6.648184     -1.266042      5.624059
  F      -7.645195     -0.540694      1.179092
  F      -7.222754      1.331870      2.200041
  F      -7.314387      2.069989      4.851281
  F      -6.704571      1.125108      6.710949
  F      -9.627044      1.333542      3.353476
  F      -9.801661      0.878642      1.257122
  F     -10.033300     -0.692659      2.718839
  O      -4.283721      0.473079      5.604194
  O      -4.784037      2.132330      4.175618
  C      -7.149224     -0.697338      3.437038
  C      -7.226830     -0.267872      4.934294
  C      -7.839096      0.150023      2.315822
  C      -6.562906      1.071768      5.361092
  C      -9.371400      0.420286      2.427761
  C      -5.044287      1.244726      4.998765
46
Coordinates from ORCA-job R4N+PFHxA-_wb E -1923.137247745374
  N      -2.796937      0.703042      1.013967
  C      -2.307101      0.143604     -0.304016
  C      -2.034612      1.919455      1.402445
  C      -4.229533      1.072305      0.834894
  C      -2.693302     -0.306796      2.101933
  C      -0.866593     -0.280546     -0.325806
  C       0.127543      0.616825     -0.706743
  C      -0.511377     -1.588852     -0.009358
  C       1.455510      0.219922     -0.749739
  C       0.815975     -1.988094     -0.051653
  C       1.801921     -1.082742     -0.418510
  H      -2.488379      0.927253     -1.038074
  H      -2.960582     -0.699620     -0.522971
  H      -2.095982      2.646001      0.595177
  H      -0.999363      1.650370      1.594592
  H      -2.483527      2.324917      2.306640
  H      -4.301960      1.813690      0.041955
  H      -4.592602      1.486169      1.772092
  H      -4.789115      0.178303      0.569105
  H      -1.647040     -0.548260      2.269523
  H      -3.247004     -1.196443      1.810155
  H      -3.118461      0.124494      3.006024
  H      -0.142146      1.631882     -0.976405
  H      -1.281076     -2.300997      0.266622
  H       2.219846      0.927353     -1.047989
  H       1.079490     -3.009226      0.196297
  H       2.838962     -1.394554     -0.454915
  F      -7.672997     -1.933712      3.371401
  F      -5.850039     -0.776589      3.101534
  F      -8.530271     -0.231425      5.283183
  F      -6.650529     -1.264009      5.625948
  F      -7.645053     -0.544287      1.179657
  F      -7.221978      1.329754      2.197484
  F      -7.313056      2.071615      4.848779
  F      -6.705044      1.128359      6.709847
  F      -9.626030      1.334975      3.350271
  F      -9.800945      0.875981      1.254860
  F     -10.033645     -0.692245      2.719566
  O      -4.284422      0.472020      5.604474
  O      -4.782403      2.129801      4.173535
  C      -7.149618     -0.697512      3.437871
  C      -7.227697     -0.266113      4.934463
  C      -7.838893      0.148329      2.315228
  C      -6.562674      1.073234      5.360048
  C      -9.370990      0.419642      2.426381
  C      -5.043985      1.243920      4.998158
46
Coordinates from ORCA-job R4N+PFHxA-_wb E -1923.137248993489
  N      -2.796767      0.702445      1.014609
  C      -2.307343      0.143643     -0.303923
  C      -2.034421      1.918777      1.403474
  C      -4.229340      1.071708      0.836356
  C      -2.692811     -0.307735      2.102084
  C      -0.866825     -0.280257     -0.326191
  C       0.127072      0.617432     -0.706913
  C      -0.511334     -1.588563     -0.010068
  C       1.455097      0.220772     -0.750174
  C       0.816073     -1.987569     -0.052794
  C       1.801815     -1.081906     -0.419385
  H      -2.489028      0.927790     -1.037327
  H      -2.960931     -0.699514     -0.522780
  H      -2.095931      2.645500      0.596376
  H      -0.999148      1.649520      1.595237
  H      -2.483468      2.323690      2.307833
  H      -4.302485      1.813396      0.043750
  H      -4.592039      1.485321      1.773823
  H      -4.789534      0.178116      0.570486
  H      -1.646581     -0.549257      2.269843
  H      -3.246110     -1.197585      1.810141
  H      -3.118201      0.123242      3.006206
  H      -0.142740      1.632560     -0.976183
  H      -1.280828     -2.300961      0.265813
  H       2.219221      0.928497     -1.048267
  H       1.079757     -3.008744      0.194798
  H       2.838912     -1.393504     -0.456016
  F      -7.673556     -1.933519      3.372777
  F      -5.850205     -0.777163      3.102555
  F      -8.531121     -0.228886      5.282634
  F      -6.652422     -1.262635      5.627299
  F      -7.644497     -0.546052      1.180036
  F      -7.221462      1.328857      2.196173
  F      -7.312043      2.072836      4.847298
  F      -6.705276      1.130584      6.709277
  F      -9.625523      1.335905      3.348245
  F      -9.800153      0.874786      1.253293
  F     -10.033780     -0.691812      2.719519
  O      -4.284991      0.470951      5.604712
  O      -4.781078      2.128082      4.172426
  C      -7.149862     -0.697443      3.438450
  C      -7.228366     -0.264851      4.934692
  C      -7.838611      0.147616      2.314887
  C      -6.562503      1.074285      5.359568
  C      -9.370675      0.419502      2.425354
  C      -5.043670      1.243336      4.997927
46
Coordinates from ORCA-job R4N+PFHxA-_wb E -1923.137249242491
  N      -2.796567      0.701879      1.015511
  C      -2.307592      0.143619     -0.303690
  C      -2.034054      1.918154      1.404582
  C      -4.229072      1.071186      0.838083
  C      -2.692186     -0.308651      2.102528
  C      -0.867094     -0.280041     -0.326626
  C       0.126489      0.617940     -0.707452
  C      -0.511269     -1.588354     -0.010942
  C       1.454595      0.221580     -0.751054
  C       0.816222     -1.987017     -0.053923
  C       1.801682     -1.081060     -0.420540
  H      -2.489817      0.928313     -1.036360
  H      -2.961406     -0.699422     -0.522290
  H      -2.095837      2.645017      0.597637
  H      -0.998788      1.648627      1.595959
  H      -2.483078      2.322606      2.309152
  H      -4.302866      1.813122      0.045754
  H      -4.591428      1.484512      1.775821
  H      -4.789829      0.177976      0.572065
  H      -1.645926     -0.550117      2.270197
  H      -3.245083     -1.198651      1.810234
  H      -3.117873      0.121933      3.006688
  H      -0.143633      1.633057     -0.976444
  H      -1.280586     -2.300965      0.264882
  H       2.218495      0.929546     -1.049162
  H       1.080179     -3.008186      0.193398
  H       2.838846     -1.392412     -0.457433
  F      -7.674230     -1.933384      3.374158
  F      -5.850382     -0.777848      3.103772
  F      -8.532144     -0.226493      5.282179
  F      -6.654414     -1.261292      5.628736
  F      -7.643649     -0.547798      1.180385
  F      -7.220746      1.327955      2.194955
  F      -7.311248      2.074001      4.845634
  F      -6.705885      1.132936      6.708695
  F      -9.625170      1.336654      3.346082
  F      -9.798965      0.873868      1.251432
  F     -10.033844     -0.691425      2.718857
  O      -4.285818      0.470053      5.605371
  O      -4.779851      2.126391      4.171435
  C      -7.150124     -0.697484      3.439085
  C      -7.229223     -0.263700      4.935039
  C      -7.838143      0.146930      2.314495
  C      -6.562644      1.075384      5.359162
  C      -9.370261      0.419419      2.424061
  C      -5.043493      1.242837      4.997823
46
Coordinates from ORCA-job R4N+PFHxA-_wb E -1923.137249715774
  N      -2.796499      0.701501      1.016034
  C      -2.307772      0.143384     -0.303457
  C      -2.033750      1.917727      1.405005
  C      -4.228935      1.070919      0.838972
  C      -2.691837     -0.309171      2.102894
  C      -0.867276     -0.280081     -0.326748
  C       0.126056      0.618194     -0.707582
  C      -0.511121     -1.588378     -0.011343
  C       1.454227      0.222110     -0.751574
  C       0.816437     -1.986766     -0.054687
  C       1.801625     -1.080533     -0.421378
  H      -2.490295      0.928293     -1.035821
  H      -2.961703     -0.699613     -0.521886
  H      -2.095773      2.644644      0.598133
  H      -0.998500      1.647990      1.596166
  H      -2.482561      2.322077      2.309737
  H      -4.302939      1.812912      0.046702
  H      -4.591158      1.484150      1.776806
  H      -4.789975      0.177906      0.572835
  H      -1.645502     -0.550512      2.270301
  H      -3.244585     -1.199191      1.810342
  H      -3.117676      0.121191      3.007086
  H      -0.144429      1.633286     -0.976311
  H      -1.280307     -2.301137      0.264474
  H       2.217948      0.930248     -1.049736
  H       1.080693     -3.007916      0.192404
  H       2.838843     -1.391673     -0.458545
  F      -7.674591     -1.933232      3.374758
  F      -5.850434     -0.778121      3.104521
  F      -8.532785     -0.225382      5.281952
  F      -6.655485     -1.260638      5.629445
  F      -7.642920     -0.548388      1.180501
  F      -7.220302      1.327707      2.194580
  F      -7.311039      2.074623      4.844907
  F      -6.706441      1.134092      6.708511
  F      -9.625146      1.336827      3.344992
  F      -9.798126      0.873612      1.250364
  F     -10.033702     -0.691352      2.718087
  O      -4.286408      0.469811      5.606014
  O      -4.779368      2.125758      4.171189
  C      -7.150232     -0.697442      3.439415
  C      -7.229778     -0.263144      4.935264
  C      -7.837760      0.146764      2.314289
  C      -6.562941      1.075998      5.359104
  C      -9.369948      0.419400      2.423272
  C      -5.043540      1.242740      4.997938
46
Coordinates from ORCA-job R4N+PFHxA-_wb E -1923.137250010462
  N      -2.796336      0.701325      1.016808
  C      -2.307890      0.143249     -0.302889
  C      -2.033327      1.917480      1.405648
  C      -4.228706      1.070891      0.840038
  C      -2.691344     -0.309542      2.103524
  C      -0.867406     -0.280103     -0.326680
  C       0.125604      0.618172     -0.708460
  C      -0.510888     -1.588283     -0.011128
  C       1.453789      0.222263     -0.753151
  C       0.816690     -1.986515     -0.055168
  C       1.801525     -1.080246     -0.422751
  H      -2.490726      0.928201     -1.035134
  H      -2.961919     -0.699730     -0.521110
  H      -2.095665      2.644525      0.598923
  H      -0.998091      1.647564      1.596604
  H      -2.481785      2.321763      2.310606
  H      -4.302796      1.812970      0.047845
  H      -4.590899      1.483959      1.777956
  H      -4.789951      0.178071      0.573625
  H      -1.644882     -0.550573      2.270550
  H      -3.243931     -1.199544      1.810562
  H      -3.117412      0.120447      3.007784
  H      -0.145329      1.633092     -0.977395
  H      -1.279910     -2.300977      0.265339
  H       2.217283      0.930334     -1.052049
  H       1.081298     -3.007540      0.192065
  H       2.838758     -1.391281     -0.460469
  F      -7.674970     -1.933146      3.374989
  F      -5.850453     -0.778447      3.105276
  F      -8.533587     -0.224806      5.281572
  F      -6.656527     -1.260232      5.629927
  F      -7.641904     -0.548659      1.180381
  F      -7.219761      1.327609      2.194428
  F      -7.311294      2.075011      4.844286
  F      -6.707595      1.134868      6.708401
  F      -9.625132      1.336822      3.343863
  F      -9.797104      0.873553      1.249151
  F     -10.033405     -0.691365      2.716878
  O      -4.287350      0.469811      5.607196
  O      -4.779234      2.125291      4.171372
  C      -7.150346     -0.697462      3.439584
  C      -7.230476     -0.262842      4.935367
  C      -7.837241      0.146702      2.313965
  C      -6.563648      1.076425      5.359134
  C      -9.369494      0.419386      2.422300
  C      -5.043948      1.242703      4.998369
46
Coordinates from ORCA-job R4N+PFHxA-_wb E -1923.137249758356
  N      -2.796350      0.701094      1.017160
  C      -2.308216      0.143160     -0.302688
  C      -2.033134      1.917198      1.405776
  C      -4.228726      1.070748      0.840819
  C      -2.690850     -0.309958      2.103768
  C      -0.867732     -0.280164     -0.326830
  C       0.125184      0.618361     -0.708343
  C      -0.511061     -1.588437     -0.011802
  C       1.453409      0.222640     -0.753217
  C       0.816562     -1.986510     -0.056046
  C       1.801271     -1.079975     -0.423332
  H      -2.491165      0.928159     -1.034854
  H      -2.962281     -0.699779     -0.520970
  H      -2.095954      2.644409      0.599244
  H      -0.997828      1.647239      1.596293
  H      -2.481027      2.321421      2.311055
  H      -4.302967      1.812899      0.048698
  H      -4.590786      1.483683      1.778842
  H      -4.790136      0.178067      0.574236
  H      -1.644215     -0.550500      2.270344
  H      -3.243245     -1.199990      1.810534
  H      -3.117043      0.119613      3.008167
  H      -0.145987      1.633349     -0.976792
  H      -1.280055     -2.301244      0.264454
  H       2.216868      0.930864     -1.051843
  H       1.081355     -3.007586      0.190778
  H       2.838535     -1.390892     -0.461204
  F      -7.675070     -1.933075      3.375563
  F      -5.850258     -0.778720      3.106251
  F      -8.534143     -0.223996      5.281371
  F      -6.657334     -1.259577      5.630654
  F      -7.640766     -0.549169      1.180469
  F      -7.219129      1.327372      2.194281
  F      -7.311290      2.075582      4.843765
  F      -6.708370      1.135881      6.708352
  F      -9.624969      1.336876      3.342587
  F      -9.796040      0.872985      1.247930
  F     -10.032954     -0.691499      2.716053
  O      -4.287988      0.470029      5.608297
  O      -4.778935      2.124921      4.171417
  C      -7.150276     -0.697432      3.439970
  C      -7.230930     -0.262323      4.935601
  C      -7.836603      0.146485      2.313797
  C      -6.564040      1.077017      5.359178
  C      -9.368899      0.419173      2.421414
  C      -5.044143      1.242792      4.998735
46
Coordinates from ORCA-job R4N+PFHxA-_wb E -1923.137250172061
  N      -2.796313      0.700658      1.017774
  C      -2.308855      0.143059     -0.302369
  C      -2.032762      1.916561      1.406295
  C      -4.228689      1.070595      0.842186
  C      -2.690046     -0.310922      2.103994
  C      -0.868321     -0.280177     -0.327325
  C       0.124245      0.618446     -0.709578
  C      -0.511200     -1.588202     -0.011767
  C       1.452548      0.223088     -0.754787
  C       0.816533     -1.985905     -0.056173
  C       1.800843     -1.079280     -0.424340
  H      -2.492121      0.928031     -1.034490
  H      -2.962907     -0.699884     -0.520684
  H      -2.096389      2.644263      0.600278
  H      -0.997296      1.646554      1.595861
  H      -2.479599      2.320464      2.312252
  H      -4.303040      1.813059      0.050354
  H      -4.590517      1.483202      1.780433
  H      -4.790448      0.178259      0.575138
  H      -1.643130     -0.550664      2.269857
  H      -3.242148     -1.200953      1.810224
  H      -3.116368      0.117728      3.008769
  H      -0.147417      1.633230     -0.978306
  H      -1.279956     -2.300983      0.265217
  H       2.215775      0.931314     -1.053994
  H       1.081780     -3.006747      0.191125
  H       2.838178     -1.389942     -0.462395
  F      -7.675377     -1.932842      3.376074
  F      -5.849932     -0.779239      3.107797
  F      -8.535270     -0.222742      5.280647
  F      -6.659072     -1.258871      5.631634
  F      -7.638618     -0.549448      1.180432
  F      -7.217911      1.327277      2.194348
  F      -7.311234      2.076320      4.843349
  F      -6.709839      1.136838      6.708508
  F      -9.624618      1.337093      3.340426
  F      -9.794006      0.872656      1.245745
  F     -10.032237     -0.691420      2.714081
  O      -4.289113      0.469929      5.610491
  O      -4.778368      2.124100      4.172167
  C      -7.150207     -0.697316      3.440433
  C      -7.231821     -0.261625      4.935808
  C      -7.835446      0.146394      2.313481
  C      -6.564699      1.077575      5.359433
  C      -9.367807      0.419117      2.419715
  C      -5.044516      1.242546      4.999808
46
Coordinates from ORCA-job R4N+PFHxA-_wb E -1923.137249415733
  N      -2.795912      0.700117      1.019354
  C      -2.309206      0.143185     -0.301202
  C      -2.032315      1.915889      1.408016
  C      -4.228375      1.070089      0.844546
  C      -2.688895     -0.312042      2.105073
  C      -0.868579     -0.279890     -0.327427
  C       0.123517      0.618885     -0.710540
  C      -0.511041     -1.587954     -0.012567
  C       1.451801      0.223640     -0.757260
  C       0.816664     -1.985578     -0.058572
  C       1.800527     -1.078785     -0.427495
  H      -2.492963      0.928282     -1.033070
  H      -2.963188     -0.699787     -0.519635
  H      -2.096683      2.644114      0.602528
  H      -0.996620      1.646065      1.596582
  H      -2.478317      2.319317      2.314597
  H      -4.302977      1.812950      0.053108
  H      -4.589937      1.482268      1.783063
  H      -4.790299      0.177984      0.577086
  H      -1.641722     -0.550792      2.270673
  H      -3.240397     -1.202267      1.810783
  H      -3.115587      0.115530      3.010192
  H      -0.148522      1.633698     -0.978783
  H      -1.279436     -2.300912      0.264935
  H       2.214674      0.931966     -1.057127
  H       1.082250     -3.006476      0.188116
  H       2.837836     -1.389384     -0.466752
  F      -7.676176     -1.932700      3.377668
  F      -5.849892     -0.780308      3.110124
  F      -8.537149     -0.220314      5.279642
  F      -6.661815     -1.257026      5.633552
  F      -7.636350     -0.551391      1.180657
  F      -7.216411      1.326169      2.193370
  F      -7.311387      2.077760      4.841552
  F      -6.712515      1.139573      6.708146
  F      -9.624112      1.337774      3.336607
  F      -9.791560      0.871039      1.242285
  F     -10.031763     -0.691317      2.712066
  O      -4.291003      0.470582      5.613704
  O      -4.777793      2.122900      4.172470
  C      -7.150495     -0.697326      3.441332
  C      -7.233364     -0.260127      4.936147
  C      -7.834277      0.145469      2.312886
  C      -6.565930      1.079010      5.359237
  C      -9.366655      0.418653      2.417180
  C      -5.045363      1.242662      5.001086
46
Coordinates from ORCA-job R4N+PFHxA-_wb E -1923.137251293966
  N      -2.795680      0.699921      1.020250
  C      -2.309293      0.143639     -0.300592
  C      -2.032294      1.915660      1.409211
  C      -4.228290      1.069668      0.845878
  C      -2.688146     -0.312631      2.105497
  C      -0.868658     -0.279511     -0.327459
  C       0.123390      0.619292     -0.710527
  C      -0.511208     -1.587844     -0.013645
  C       1.451572      0.223776     -0.758241
  C       0.816380     -1.985729     -0.060737
  C       1.800238     -1.078948     -0.429617
  H      -2.493187      0.929035     -1.032107
  H      -2.963245     -0.699281     -0.519290
  H      -2.097172      2.644287      0.604115
  H      -0.996348      1.646147      1.596896
  H      -2.477867      2.318526      2.316236
  H      -4.303091      1.812819      0.054736
  H      -4.589666      1.481600      1.784562
  H      -4.790118      0.177560      0.578265
  H      -1.640819     -0.550676      2.271164
  H      -3.239062     -1.203143      1.811031
  H      -3.115009      0.114158      3.010920
  H      -0.148460      1.634361     -0.977991
  H      -1.279490     -2.300948      0.263790
  H       2.214380      0.932187     -1.058064
  H       1.081827     -3.006868      0.185103
  H       2.837453     -1.389744     -0.469700
  F      -7.676431     -1.932753      3.379039
  F      -5.849693     -0.781091      3.111808
  F      -8.538302     -0.218719      5.278933
  F      -6.663438     -1.255515      5.635068
  F      -7.634751     -0.553119      1.180973
  F      -7.215408      1.325144      2.192610
  F      -7.311684      2.078740      4.840024
  F      -6.714552      1.141818      6.707794
  F      -9.623597      1.338029      3.334115
  F      -9.789976      0.869414      1.240141
  F     -10.031321     -0.691547      2.711133
  O      -4.292233      0.471633      5.616055
  O      -4.777551      2.122490      4.172767
  C      -7.150522     -0.697443      3.442064
  C      -7.234270     -0.259034      4.936419
  C      -7.833440      0.144522      2.312569
  C      -6.566817      1.080164      5.358986
  C      -9.365835      0.417990      2.415652
  C      -5.046028      1.243162      5.002096
46
Coordinates from ORCA-job R4N+PFHxA-_wb E -1923.137251666340
  N      -2.795474      0.698543      1.021582
  C      -2.309425      0.143287     -0.299851
  C      -2.032161      1.914084      1.411143
  C      -4.228205      1.068283      0.847821
  C      -2.687464     -0.314699      2.105983
  C      -0.868592     -0.279169     -0.327718
  C       0.122783      0.620352     -0.710723
  C      -0.510421     -1.587656     -0.015404
  C       1.451070      0.225342     -0.759907
  C       0.817272     -1.985011     -0.064076
  C       1.800523     -1.077562     -0.432910
  H      -2.493966      0.929168     -1.030660
  H      -2.963086     -0.699802     -0.518718
  H      -2.097671      2.643363      0.606673
  H      -0.995919      1.644729      1.597455
  H      -2.477094      2.316006      2.318872
  H      -4.303078      1.811865      0.057097
  H      -4.589112      1.479984      1.786780
  H      -4.790058      0.176259      0.580076
  H      -1.640006     -0.552195      2.271730
  H      -3.237733     -1.205489      1.811201
  H      -3.114362      0.111028      3.011908
  H      -0.149462      1.635600     -0.977078
  H      -1.278057     -2.301445      0.262037
  H       2.213285      0.934405     -1.059703
  H       1.083191     -3.006323      0.180545
  H       2.837808     -1.387949     -0.474240
  F      -7.677799     -1.932338      3.381439
  F      -5.849983     -0.782410      3.114511
  F      -8.540391     -0.215308      5.278082
  F      -6.666658     -1.252947      5.637614
  F      -7.632907     -0.555501      1.181643
  F      -7.213730      1.323796      2.191333
  F      -7.311644      2.080685      4.837690
  F      -6.717482      1.145667      6.707335
  F      -9.622812      1.339478      3.330394
  F      -9.787514      0.868209      1.236906
  F     -10.031262     -0.690646      2.709646
  O      -4.294177      0.472747      5.619744
  O      -4.776694      2.121527      4.173277
  C      -7.151097     -0.697324      3.443366
  C      -7.236014     -0.256951      4.937055
  C      -7.832446      0.143571      2.312172
  C      -6.568063      1.082185      5.358730
  C      -9.364813      0.418042      2.413366
  C      -5.046811      1.243715      5.003715
46
Coordinates from ORCA-job R4N+PFHxA-_wb E -1923.137251485109
  N      -2.795543      0.698307      1.021765
  C      -2.309534      0.143827     -0.300134
  C      -2.032408      1.913772      1.411956
  C      -4.228383      1.067858      0.848372
  C      -2.687181     -0.315507      2.105457
  C      -0.868765     -0.278729     -0.328235
  C       0.122743      0.620757     -0.710945
  C      -0.510780     -1.587309     -0.016153
  C       1.450975      0.225519     -0.760214
  C       0.816860     -1.984837     -0.064812
  C       1.800269     -1.077478     -0.433451
  H      -2.494109      0.930262     -1.030319
  H      -2.963303     -0.699100     -0.519286
  H      -2.098469      2.643616      0.608037
  H      -0.995965      1.644572      1.597369
  H      -2.477073      2.314740      2.320232
  H      -4.303384      1.811705      0.057916
  H      -4.588971      1.479346      1.787545
  H      -4.790045      0.175718      0.580615
  H      -1.639659     -0.552878      2.271106
  H      -3.237039     -1.206450      1.810407
  H      -3.113918      0.109500      3.011804
  H      -0.149227      1.636138     -0.977068
  H      -1.278458     -2.301087      0.261194
  H       2.213245      0.934599     -1.059845
  H       1.082555     -3.006244      0.179662
  H       2.837513     -1.387994     -0.474823
  F      -7.677855     -1.932336      3.382628
  F      -5.849697     -0.782931      3.115903
  F      -8.541075     -0.213948      5.277794
  F      -6.667812     -1.251875      5.638929
  F      -7.631665     -0.556856      1.182046
  F      -7.212745      1.323005      2.190736
  F      -7.311467      2.081426      4.836628
  F      -6.718666      1.147415      6.707225
  F      -9.622320      1.339606      3.328836
  F      -9.786086      0.867312      1.235507
  F     -10.030780     -0.690760      2.708917
  O      -4.294862      0.473140      5.621443
  O      -4.776060      2.121266      4.173823
  C      -7.150943     -0.697410      3.444072
  C      -7.236535     -0.256161      4.937503
  C      -7.831645      0.142923      2.312044
  C      -6.568464      1.083061      5.358751
  C      -9.364053      0.417678      2.412382
  C      -5.046929      1.244015      5.004611
46
Coordinates from ORCA-job R4N+PFHxA-_wb E -1923.137252037075
  N      -2.795814      0.696983      1.021679
  C      -2.309663      0.143603     -0.300848
  C      -2.032808      1.912273      1.412829
  C      -4.228729      1.066501      0.848631
  C      -2.687285     -0.317613      2.104451
  C      -0.868840     -0.278522     -0.329167
  C       0.122427      0.621712     -0.710679
  C      -0.510400     -1.587228     -0.018106
  C       1.450874      0.227137     -0.759633
  C       0.817470     -1.984060     -0.066314
  C       1.800651     -1.075936     -0.433731
  H      -2.494461      0.930785     -1.030154
  H      -2.963374     -0.699247     -0.520472
  H      -2.099564      2.642956      0.609727
  H      -0.996169      1.643139      1.597222
  H      -2.477176      2.311890      2.321843
  H      -4.303742      1.810534      0.058353
  H      -4.588761      1.477935      1.788046
  H      -4.790219      0.174190      0.581092
  H      -1.639782     -0.555365      2.269820
  H      -3.236965     -1.208552      1.809023
  H      -3.113546      0.106642      3.011384
  H      -0.149790      1.637234     -0.976005
  H      -1.277845     -2.301620      0.258301
  H       2.212891      0.936897     -1.058302
  H       1.083465     -3.005544      0.177522
  H       2.838072     -1.385902     -0.474802
  F      -7.678603     -1.931897      3.384617
  F      -5.849754     -0.783577      3.117888
  F      -8.542049     -0.211532      5.277893
  F      -6.669466     -1.250050      5.640861
  F      -7.630752     -0.558510      1.182874
  F      -7.211373      1.322128      2.189888
  F      -7.310961      2.082882      4.835108
  F      -6.720092      1.150352      6.707103
  F      -9.621487      1.340797      3.327195
  F      -9.784405      0.867064      1.234126
  F     -10.030584     -0.689825      2.708596
  O      -4.295819      0.473619      5.623714
  O      -4.774897      2.121006      4.174520
  C      -7.151105     -0.697196      3.445258
  C      -7.237360     -0.254691      4.938356
  C      -7.830863      0.142485      2.312094
  C      -6.568934      1.084670      5.358843
  C      -9.363208      0.418102      2.411542
  C      -5.046920      1.244544      5.005744
46
Coordinates from ORCA-job R4N+PFHxA-_wb E -1923.137252318097
  N      -2.795839      0.696159      1.021929
  C      -2.309707      0.143468     -0.300939
  C      -2.032883      1.911319      1.413707
  C      -4.228778      1.065720      0.849127
  C      -2.687213     -0.319015      2.104157
  C      -0.868837     -0.278359     -0.329554
  C       0.122138      0.622232     -0.711053
  C      -0.509956     -1.587008     -0.018722
  C       1.450704      0.228104     -0.760206
  C       0.818022     -1.983451     -0.067227
  C       1.800883     -1.074925     -0.434547
  H      -2.494733      0.930967     -1.029854
  H      -2.963363     -0.699356     -0.520862
  H      -2.100161      2.642623      0.611222
  H      -0.996168      1.642211      1.597687
  H      -2.477065      2.310061      2.323213
  H      -4.303877      1.809817      0.058915
  H      -4.588527      1.477050      1.788693
  H      -4.790229      0.173365      0.581646
  H      -1.639713     -0.557067      2.269139
  H      -3.236926     -1.209782      1.808242
  H      -3.113282      0.104727      3.011428
  H      -0.150500      1.637684     -0.976233
  H      -1.277228     -2.301628      0.257599
  H       2.212484      0.938118     -1.058875
  H       1.084382     -3.004898      0.176367
  H       2.838397     -1.384568     -0.475752
  F      -7.679132     -1.931596      3.385802
  F      -5.849825     -0.783884      3.119301
  F      -8.542940     -0.209861      5.277814
  F      -6.670908     -1.248900      5.642094
  F      -7.630051     -0.559580      1.183319
  F      -7.210453      1.321591      2.189260
  F      -7.310681      2.083904      4.834187
  F      -6.721222      1.152195      6.707047
  F      -9.621129      1.341488      3.325832
  F      -9.783187      0.866973      1.232871
  F     -10.030484     -0.689272      2.707875
  O      -4.296752      0.473611      5.625267
  O      -4.774134      2.120638      4.175029
  C      -7.151293     -0.696998      3.446002
  C      -7.238129     -0.253695      4.938862
  C      -7.830324      0.142246      2.312010
  C      -6.569408      1.085709      5.358950
  C      -9.362640      0.418372      2.410685
  C      -5.047048      1.244684      5.006475
46
Coordinates from ORCA-job R4N+PFHxA-_wb E -1923.137252957447
  N      -2.795970      0.696132      1.021216
  C      -2.309400      0.143697     -0.301536
  C      -2.033275      1.911316      1.413547
  C      -4.228917      1.065596      0.848130
  C      -2.687665     -0.319248      2.103365
  C      -0.868580     -0.278272     -0.329599
  C       0.122633      0.622245     -0.710808
  C      -0.509874     -1.586936     -0.018586
  C       1.451193      0.228065     -0.759490
  C       0.818080     -1.983493     -0.066686
  C       1.801106     -1.075008     -0.433682
  H      -2.494086      0.931246     -1.030496
  H      -2.963079     -0.698991     -0.521978
  H      -2.100768      2.643017      0.611458
  H      -0.996615      1.642321      1.597973
  H      -2.477828      2.309437      2.323168
  H      -4.304104      1.809380      0.057634
  H      -4.588762      1.477063      1.787590
  H      -4.790201      0.173048      0.580926
  H      -1.640292     -0.558126      2.267938
  H      -3.237942     -1.209617      1.807157
  H      -3.113393      0.104648      3.010716
  H      -0.150036      1.637649     -0.976158
  H      -1.277442     -2.301379      0.257398
  H       2.213190      0.937933     -1.057941
  H       1.084370     -3.004943      0.176962
  H       2.838611     -1.384746     -0.474502
  F      -7.678612     -1.931523      3.385752
  F      -5.849650     -0.783129      3.119315
  F      -8.542602     -0.210235      5.278333
  F      -6.670322     -1.249031      5.642024
  F      -7.630464     -0.559314      1.183542
  F      -7.210735      1.321868      2.189457
  F      -7.310735      2.083880      4.834687
  F      -6.720887      1.152024      6.707362
  F      -9.621416      1.341206      3.326691
  F      -9.783643      0.867150      1.233630
  F     -10.030391     -0.689516      2.708344
  O      -4.296696      0.473363      5.624806
  O      -4.774081      2.121420      4.175632
  C      -7.151099     -0.696761      3.446141
  C      -7.237846     -0.253779      4.939104
  C      -7.830467      0.142513      2.312318
  C      -6.569305      1.085756      5.359281
  C      -9.362790      0.418375      2.411326
  C      -5.046925      1.244892      5.006472
46
Coordinates from ORCA-job R4N+PFHxA-_wb E -1923.137252438765
  N      -2.795861      0.695874      1.021277
  C      -2.309265      0.143947     -0.301590
  C      -2.033370      1.911028      1.414043
  C      -4.228867      1.065195      0.848352
  C      -2.687515     -0.319839      2.103156
  C      -0.868441     -0.278070     -0.329796
  C       0.122820      0.622588     -0.710555
  C      -0.509818     -1.586907     -0.019431
  C       1.451360      0.228371     -0.759386
  C       0.818119     -1.983490     -0.067610
  C       1.801186     -1.074883     -0.434170
  H      -2.493870      0.931709     -1.030335
  H      -2.962930     -0.698638     -0.522489
  H      -2.101181      2.643111      0.612335
  H      -0.996645      1.642186      1.598325
  H      -2.477948      2.308566      2.323910
  H      -4.304353      1.808919      0.057834
  H      -4.588660      1.476597      1.787856
  H      -4.790099      0.172585      0.581255
  H      -1.640164     -0.558943      2.267498
  H      -3.237976     -1.209994      1.806662
  H      -3.113148      0.103829      3.010654
  H      -0.149859      1.638126     -0.975379
  H      -1.277458     -2.301403      0.256199
  H       2.213435      0.938321     -1.057439
  H       1.084390     -3.005053      0.175576
  H       2.838674     -1.384662     -0.475101
  F      -7.678635     -1.931477      3.386618
  F      -5.849634     -0.783153      3.120132
  F      -8.543039     -0.209304      5.278299
  F      -6.670990     -1.248192      5.642858
  F      -7.630263     -0.560260      1.183928
  F      -7.210512      1.321378      2.188997
  F      -7.310718      2.084477      4.834004
  F      -6.721535      1.153313      6.707226
  F      -9.621291      1.341483      3.325871
  F      -9.783318      0.866330      1.233049
  F     -10.030349     -0.689546      2.708533
  O      -4.297230      0.473618      5.625547
  O      -4.773779      2.121415      4.175809
  C      -7.151164     -0.696669      3.446652
  C      -7.238197     -0.253122      4.939391
  C      -7.830336      0.142115      2.312364
  C      -6.569563      1.086445      5.359203
  C      -9.362626      0.418134      2.411033
  C      -5.047090      1.245141      5.006765
46
Coordinates from ORCA-job R4N+PFHxA-_wb E -1923.137252160334
  N      -2.795436      0.695034      1.021915
  C      -2.308961      0.144039     -0.301199
  C      -2.033147      1.910018      1.415446
  C      -4.228512      1.064235      0.849397
  C      -2.687091     -0.321370      2.103206
  C      -0.868010     -0.277711     -0.330041
  C       0.122910      0.623362     -0.710622
  C      -0.509049     -1.586668     -0.020575
  C       1.451465      0.229345     -0.760440
  C       0.818924     -1.983015     -0.069636
  C       1.801651     -1.074056     -0.436169
  H      -2.493754      0.932129     -1.029542
  H      -2.962430     -0.698536     -0.522726
  H      -2.101381      2.642759      0.614376
  H      -0.996303      1.641321      1.599298
  H      -2.477642      2.306630      2.325753
  H      -4.304536      1.807974      0.058952
  H      -4.588195      1.475420      1.789025
  H      -4.789772      0.171628      0.582366
  H      -1.639781     -0.560826      2.267241
  H      -3.237989     -1.211037      1.806110
  H      -3.112647      0.101833      3.010950
  H      -0.150123      1.639025     -0.974600
  H      -1.276450     -2.301419      0.255034
  H       2.213335      0.939554     -1.058398
  H       1.085525     -3.004665      0.172820
  H       2.839154     -1.383679     -0.477851
  F      -7.679461     -1.931283      3.388348
  F      -5.850114     -0.783591      3.121704
  F      -8.544413     -0.206968      5.277965
  F      -6.673078     -1.246401      5.644529
  F      -7.630271     -0.562251      1.184587
  F      -7.210072      1.320265      2.187815
  F      -7.310643      2.085802      4.832268
  F      -6.723198      1.156085      6.706730
  F      -9.620975      1.342597      3.323997
  F      -9.782759      0.865216      1.231687
  F     -10.030812     -0.688938      2.708743
  O      -4.298563      0.474018      5.627377
  O      -4.773136      2.120862      4.175973
  C      -7.151805     -0.696515      3.447563
  C      -7.239382     -0.251651      4.939815
  C      -7.830380      0.141327      2.312274
  C      -6.570284      1.087826      5.358830
  C      -9.362537      0.418096      2.410238
  C      -5.047584      1.245371      5.007399
46
Coordinates from ORCA-job R4N+PFHxA-_wb E -1923.137252506025
  N      -2.795401      0.695190      1.021771
  C      -2.308871      0.144103     -0.301316
  C      -2.033083      1.910168      1.415281
  C      -4.228457      1.064370      0.849196
  C      -2.687142     -0.321180      2.103094
  C      -0.867944     -0.277715     -0.330034
  C       0.123039      0.623253     -0.710676
  C      -0.509104     -1.586672     -0.020440
  C       1.451585      0.229175     -0.760245
  C       0.818849     -1.983096     -0.069350
  C       1.801672     -1.074214     -0.435841
  H      -2.493586      0.932185     -1.029687
  H      -2.962361     -0.698470     -0.522783
  H      -2.101212      2.642838      0.614135
  H      -0.996248      1.641425      1.599114
  H      -2.477593      2.306854      2.325543
  H      -4.304510      1.808086      0.058730
  H      -4.588237      1.475569      1.788784
  H      -4.789698      0.171750      0.582166
  H      -1.639860     -0.560723      2.267164
  H      -3.238219     -1.210755      1.806048
  H      -3.112654      0.102179      3.010791
  H      -0.149888      1.638910     -0.974787
  H      -1.276553     -2.301382      0.255151
  H       2.213517      0.939318     -1.058204
  H       1.085359     -3.004743      0.173221
  H       2.839166     -1.383886     -0.477384
  F      -7.679317     -1.931346      3.388129
  F      -5.850146     -0.783389      3.121427
  F      -8.544246     -0.207293      5.278062
  F      -6.672813     -1.246649      5.644309
  F      -7.630577     -0.562014      1.184563
  F      -7.210394      1.320393      2.187957
  F      -7.310699      2.085587      4.832484
  F      -6.722935      1.155726      6.706775
  F      -9.621201      1.342401      3.324426
  F      -9.783180      0.865255      1.232083
  F     -10.030939     -0.689092      2.708980
  O      -4.298354      0.473981      5.627012
  O      -4.773265      2.121087      4.176042
  C      -7.151813     -0.696537      3.447448
  C      -7.239254     -0.251863      4.939771
  C      -7.830614      0.141392      2.312355
  C      -6.570189      1.087611      5.358842
  C      -9.362800      0.418030      2.410525
  C      -5.047542      1.245378      5.007300
