28
Coordinates from ORCA-job R4N+Cl-_0.15M E -905.517886846123
  N          -2.23577078518096     -0.02489977410864      0.25807808321188
  C          -1.29172104930335     -0.03087303915599     -0.94920209445743
  C          -2.04353544532155      1.20898266711615      1.08622796636562
  C          -3.64003679133830     -0.04168445604462     -0.27434760640340
  C          -2.02415052088749     -1.23681398297215      1.11357630124702
  C           0.16647738419016     -0.01631221629123     -0.59945201244805
  C           0.85166643276811      1.19566926124404     -0.46941751764251
  C           0.86928880480355     -1.21533792990701     -0.44542255323321
  C           2.20965547343258      1.20880705536796     -0.16640624299926
  C           2.22727620319911     -1.20274255550363     -0.14244484261935
  C           2.89849232055180      0.00955597790043      0.00200184227759
  H          -1.56775589535200      0.84727545981864     -1.53874703923959
  H          -1.55453758634751     -0.92523312916754     -1.52005322112226
  H          -2.18276338567182      2.08444441377272      0.44875995261655
  H          -1.03981152738159      1.20258061793121      1.51315892452910
  H          -2.78784477051367      1.20007011996431      1.88546150257672
  H          -3.79024216576823      0.84629893734845     -0.89115491397292
  H          -4.32973014960279     -0.03745710939364      0.57190465321437
  H          -3.77669012262983     -0.94538628225562     -0.87100142443688
  H          -1.02058520981393     -1.20485074625655      1.53984315170972
  H          -2.14953323434430     -2.12848149201479      0.49601613123023
  H          -2.76847367523968     -1.22157165964113      1.91269112776880
  H           0.31770788016310      2.13170721021908     -0.61287868641228
  H           0.34888197586301     -2.16165617336047     -0.57008032453301
  H           2.73235517859908      2.15605854935792     -0.06948478582594
  H           2.76364409984622     -2.14019765738468     -0.02677896522301
  H           3.95963394085550      0.01963989024089      0.23454336564273
  Cl         -2.79702937967518     -0.11602695682412     -4.33818577172123
