28
Coordinates from ORCA-job R4N+Cl-_wb E -905.727514398473
  N      -2.235771     -0.024900      0.258078
  C      -1.291721     -0.030873     -0.949202
  C      -2.043535      1.208983      1.086228
  C      -3.640037     -0.041684     -0.274348
  C      -2.024151     -1.236814      1.113576
  C       0.166477     -0.016312     -0.599452
  C       0.851666      1.195669     -0.469418
  C       0.869289     -1.215338     -0.445423
  C       2.209655      1.208807     -0.166406
  C       2.227276     -1.202743     -0.142445
  C       2.898492      0.009556      0.002002
  H      -1.567756      0.847275     -1.538747
  H      -1.554538     -0.925233     -1.520053
  H      -2.182763      2.084444      0.448760
  H      -1.039812      1.202581      1.513159
  H      -2.787845      1.200070      1.885462
  H      -3.790242      0.846299     -0.891155
  H      -4.329730     -0.037457      0.571905
  H      -3.776690     -0.945386     -0.871001
  H      -1.020585     -1.204851      1.539843
  H      -2.149533     -2.128481      0.496016
  H      -2.768474     -1.221572      1.912691
  H       0.317708      2.131707     -0.612879
  H       0.348882     -2.161656     -0.570080
  H       2.732355      2.156059     -0.069485
  H       2.763644     -2.140198     -0.026779
  H       3.959634      0.019640      0.234543
  Cl     -2.797029     -0.116027     -4.338186
28
Coordinates from ORCA-job R4N+Cl-_wb E -905.728208146497
  N      -2.231603     -0.024750      0.259099
  C      -1.292776     -0.030563     -0.937488
  C      -2.047788      1.200644      1.083258
  C      -3.623889     -0.041755     -0.274323
  C      -2.028230     -1.228205      1.110656
  C       0.166995     -0.016138     -0.593309
  C       0.851167      1.191153     -0.466586
  C       0.868605     -1.210697     -0.443306
  C       2.206552      1.204639     -0.170491
  C       2.223992     -1.198961     -0.147331
  C       2.894019      0.009229     -0.006132
  H      -1.568804      0.844024     -1.524896
  H      -1.555683     -0.921293     -1.506263
  H      -2.184189      2.072374      0.447153
  H      -1.051075      1.195414      1.515895
  H      -2.795055      1.189386      1.873924
  H      -3.771594      0.843316     -0.889310
  H      -4.312959     -0.037377      0.567037
  H      -3.757831     -0.942936     -0.868592
  H      -1.031770     -1.196958      1.542873
  H      -2.150353     -2.116225      0.494510
  H      -2.775711     -1.211034      1.901006
  H       0.318139      2.124875     -0.606220
  H       0.349004     -2.154488     -0.564728
  H       2.727861      2.149421     -0.074629
  H       2.758838     -2.134120     -0.033393
  H       3.953071      0.019128      0.222159
  Cl     -2.794066     -0.116539     -4.333366
28
Coordinates from ORCA-job R4N+Cl-_wb E -905.728240996189
  N      -2.231920     -0.024616      0.260039
  C      -1.293064     -0.030099     -0.931369
  C      -2.051493      1.199898      1.084052
  C      -3.621180     -0.042291     -0.276898
  C      -2.030835     -1.226913      1.111640
  C       0.168366     -0.015908     -0.590367
  C       0.852806      1.190134     -0.465050
  C       0.869753     -1.209545     -0.441996
  C       2.208341      1.203558     -0.173315
  C       2.225282     -1.198481     -0.150382
  C       2.895705      0.008752     -0.011464
  H      -1.567631      0.843930     -1.519553
  H      -1.554589     -0.920003     -1.501343
  H      -2.186138      2.072133      0.448404
  H      -1.056754      1.196359      1.521110
  H      -2.800991      1.189372      1.872461
  H      -3.768070      0.841976     -0.892606
  H      -4.313886     -0.037960      0.561353
  H      -3.753622     -0.943158     -0.871315
  H      -1.036435     -1.196153      1.548533
  H      -2.150109     -2.115629      0.496067
  H      -2.780733     -1.211234      1.899578
  H       0.319778      2.124206     -0.602669
  H       0.349754     -2.153410     -0.561556
  H       2.729924      2.148298     -0.078722
  H       2.760009     -2.133868     -0.037916
  H       3.955468      0.018387      0.213551
  Cl     -2.792867     -0.116170     -4.333062
28
Coordinates from ORCA-job R4N+Cl-_wb E -905.728247313218
  N      -2.232618     -0.024455      0.260384
  C      -1.293116     -0.029809     -0.928139
  C      -2.053783      1.200150      1.084421
  C      -3.621050     -0.042842     -0.278526
  C      -2.032124     -1.226193      1.112739
  C       0.169214     -0.015843     -0.588646
  C       0.853904      1.189869     -0.463446
  C       0.870696     -1.209404     -0.441662
  C       2.209926      1.203170     -0.174183
  C       2.226712     -1.198779     -0.152541
  C       2.897497      0.008274     -0.014318
  H      -1.565760      0.844083     -1.517535
  H      -1.552850     -0.919355     -1.499608
  H      -2.187510      2.072838      0.449043
  H      -1.059932      1.197738      1.523805
  H      -2.804250      1.190533      1.872043
  H      -3.767829      0.840802     -0.895289
  H      -4.316045     -0.038279      0.557951
  H      -3.752844     -0.943854     -0.872996
  H      -1.038770     -1.195212      1.552289
  H      -2.149328     -2.115816      0.497913
  H      -2.783255     -1.211816      1.899652
  H       0.320841      2.124313     -0.599211
  H       0.350548     -2.153403     -0.560421
  H       2.731612      2.147946     -0.079819
  H       2.761412     -2.134403     -0.041349
  H       3.957757      0.017708      0.208725
  Cl     -2.794186     -0.116398     -4.334069
28
Coordinates from ORCA-job R4N+Cl-_wb E -905.728250108014
  N      -2.232954     -0.024257      0.260355
  C      -1.293051     -0.029509     -0.927163
  C      -2.054861      1.200607      1.084315
  C      -3.621316     -0.043329     -0.279051
  C      -2.032204     -1.225672      1.113241
  C       0.169516     -0.015765     -0.587832
  C       0.854404      1.189898     -0.462189
  C       0.871035     -1.209530     -0.441777
  C       2.210730      1.202958     -0.173746
  C       2.227351     -1.199213     -0.153478
  C       2.898387      0.007819     -0.015030
  H      -1.564377      0.844391     -1.517342
  H      -1.551575     -0.918922     -1.499568
  H      -2.188528      2.073387      0.448963
  H      -1.061238      1.198818      1.524341
  H      -2.805522      1.191283      1.871821
  H      -3.768271      0.839840     -0.896613
  H      -4.316946     -0.038492      0.556939
  H      -3.752804     -0.944627     -0.873313
  H      -1.039222     -1.194055      1.553718
  H      -2.148225     -2.115794      0.498822
  H      -2.783784     -1.212027      1.899804
  H       0.321466      2.124592     -0.596934
  H       0.350854     -2.153546     -0.560529
  H       2.732478      2.147698     -0.079127
  H       2.761972     -2.134999     -0.043092
  H       3.958830      0.017050      0.207276
  Cl     -2.797277     -0.117038     -4.335607
28
Coordinates from ORCA-job R4N+Cl-_wb E -905.728250984959
  N      -2.232984     -0.024040      0.260188
  C      -1.292920     -0.029166     -0.927010
  C      -2.055384      1.201093      1.083976
  C      -3.621421     -0.043774     -0.279212
  C      -2.031733     -1.225215      1.113414
  C       0.169679     -0.015642     -0.587413
  C       0.854712      1.189961     -0.461085
  C       0.871139     -1.209618     -0.442067
  C       2.211150      1.202720     -0.172733
  C       2.227563     -1.199590     -0.153865
  C       2.898768      0.007367     -0.014787
  H      -1.563442      0.844801     -1.517568
  H      -1.550725     -0.918501     -1.499955
  H      -2.189373      2.073770      0.448526
  H      -1.061751      1.199772      1.524012
  H      -2.805983      1.191698      1.871557
  H      -3.768570      0.838935     -0.897459
  H      -4.317058     -0.038592      0.556770
  H      -3.752684     -0.945421     -0.873064
  H      -1.038904     -1.192847      1.554214
  H      -2.146922     -2.115596      0.499188
  H      -2.783543     -1.212020      1.899783
  H       0.321971      2.124858     -0.595194
  H       0.350954     -2.153585     -0.561198
  H       2.732948      2.147384     -0.077614
  H       2.762059     -2.135518     -0.044052
  H       3.959245      0.016377      0.207376
  Cl     -2.801920     -0.118045     -4.337525
28
Coordinates from ORCA-job R4N+Cl-_wb E -905.728251110951
  N      -2.232780     -0.023632      0.259855
  C      -1.292514     -0.028480     -0.927075
  C      -2.056060      1.201943      1.083326
  C      -3.621313     -0.044498     -0.279480
  C      -2.030695     -1.224443      1.113552
  C       0.170060     -0.015359     -0.586874
  C       0.855307      1.190057     -0.459182
  C       0.871332     -1.209670     -0.442696
  C       2.211783      1.202242     -0.170593
  C       2.227794     -1.200166     -0.154289
  C       2.899230      0.006570     -0.013828
  H      -1.562125      0.845687     -1.517863
  H      -1.549542     -0.917698     -1.500628
  H      -2.190797      2.074323      0.447626
  H      -1.062357      1.201410      1.523192
  H      -2.806542      1.192132      1.871012
  H      -3.768691      0.837389     -0.898896
  H      -4.316772     -0.038597      0.556621
  H      -3.752169     -0.946829     -0.872419
  H      -1.038117     -1.190757      1.554812
  H      -2.144533     -2.115106      0.499481
  H      -2.782970     -1.211854      1.899485
  H       0.322945      2.125287     -0.592378
  H       0.351131     -2.153497     -0.562781
  H       2.733672      2.146744     -0.074423
  H       2.762049     -2.136338     -0.045417
  H       3.959684      0.015166      0.208440
  Cl     -2.812144     -0.120463     -4.341376
28
Coordinates from ORCA-job R4N+Cl-_wb E -905.728252472812
  N      -2.232241     -0.023108      0.259367
  C      -1.291766     -0.027454     -0.927417
  C      -2.056641      1.202875      1.082586
  C      -3.620825     -0.045278     -0.279951
  C      -2.029221     -1.223600      1.113416
  C       0.170718     -0.014874     -0.586482
  C       0.856223      1.190215     -0.457034
  C       0.871602     -1.209560     -0.443438
  C       2.212585      1.201639     -0.167752
  C       2.227941     -1.200765     -0.154350
  C       2.899663      0.005606     -0.012097
  H      -1.560804      0.847112     -1.517925
  H      -1.548367     -0.916521     -1.501405
  H      -2.192438      2.074889      0.446636
  H      -1.062825      1.203300      1.522156
  H      -2.806981      1.192244      1.870375
  H      -3.768385      0.835625     -0.900720
  H      -4.316053     -0.038427      0.556304
  H      -3.751194     -0.948502     -0.871617
  H      -1.036967     -1.188419      1.555253
  H      -2.141478     -2.114420      0.499301
  H      -2.782151     -1.211708      1.898712
  H       0.324360      2.125830     -0.589411
  H       0.351292     -2.153147     -0.564841
  H       2.734632      2.145911     -0.070219
  H       2.761823     -2.137248     -0.046380
  H       3.960005      0.013646      0.210691
  Cl     -2.827638     -0.124296     -4.346552
28
Coordinates from ORCA-job R4N+Cl-_wb E -905.728253964466
  N      -2.231534     -0.022653      0.258876
  C      -1.290730     -0.026417     -0.927817
  C      -2.056876      1.203450      1.082131
  C      -3.620004     -0.045625     -0.280721
  C      -2.028118     -1.223069      1.112971
  C       0.171590     -0.014334     -0.586249
  C       0.857278      1.190416     -0.455287
  C       0.872074     -1.209290     -0.443969
  C       2.213416      1.201206     -0.165137
  C       2.228187     -1.201100     -0.154048
  C       2.900095      0.004916     -0.010188
  H      -1.559745      0.848709     -1.517471
  H      -1.547467     -0.915332     -1.501924
  H      -2.193500      2.075261      0.446111
  H      -1.063015      1.204571      1.521550
  H      -2.807196      1.191926      1.869899
  H      -3.767451      0.834523     -0.902540
  H      -4.315237     -0.037831      0.555504
  H      -3.750064     -0.949636     -0.871185
  H      -1.036243     -1.186961      1.555533
  H      -2.139131     -2.113822      0.498565
  H      -2.781799     -1.211716      1.897532
  H       0.325782      2.126301     -0.587187
  H       0.351610     -2.152618     -0.566651
  H       2.735614      2.145262     -0.066399
  H       2.761756     -2.137830     -0.046693
  H       3.960285      0.012484      0.213304
  Cl     -2.844711     -0.129226     -4.351304
28
Coordinates from ORCA-job R4N+Cl-_wb E -905.728254898865
  N      -2.230868     -0.022365      0.258403
  C      -1.289682     -0.025534     -0.928218
  C      -2.056641      1.203440      1.082108
  C      -3.619120     -0.045365     -0.281628
  C      -2.027616     -1.223047      1.112089
  C       0.172439     -0.013834     -0.586254
  C       0.858217      1.190681     -0.454436
  C       0.872568     -1.208923     -0.443996
  C       2.214110      1.201118     -0.163483
  C       2.228425     -1.201096     -0.153244
  C       2.900427      0.004696     -0.008531
  H      -1.558998      0.850229     -1.516700
  H      -1.546932     -0.914266     -1.502308
  H      -2.193627      2.075395      0.446380
  H      -1.062791      1.204770      1.521532
  H      -2.806991      1.191214      1.869820
  H      -3.766294      0.834533     -0.903804
  H      -4.314605     -0.037025      0.554389
  H      -3.749190     -0.949764     -0.871427
  H      -1.036020     -1.186913      1.555254
  H      -2.138108     -2.113519      0.497199
  H      -2.781812     -1.212091      1.896146
  H       0.326867      2.126651     -0.586342
  H       0.351897     -2.152040     -0.567429
  H       2.736448      2.145025     -0.064060
  H       2.761784     -2.137944     -0.045893
  H       3.960466      0.011984      0.215676
  Cl     -2.859482     -0.134444     -4.354038
28
Coordinates from ORCA-job R4N+Cl-_wb E -905.728256076384
  N      -2.230199     -0.022068      0.257790
  C      -1.288459     -0.024510     -0.928626
  C      -2.056155      1.203130      1.082309
  C      -3.618141     -0.044612     -0.282841
  C      -2.027480     -1.223282      1.110738
  C       0.173429     -0.013251     -0.586205
  C       0.859283      1.191074     -0.453666
  C       0.873234     -1.208461     -0.443803
  C       2.214930      1.201242     -0.161856
  C       2.228839     -1.200931     -0.152190
  C       2.900898      0.004696     -0.006753
  H      -1.557896      0.852062     -1.515771
  H      -1.546217     -0.912923     -1.502940
  H      -2.193191      2.075524      0.447192
  H      -1.062372      1.204365      1.521890
  H      -2.806577      1.190307      1.869940
  H      -3.764912      0.835317     -0.905026
  H      -4.314087     -0.035928      0.552812
  H      -3.748424     -0.949165     -0.872311
  H      -1.036164     -1.187648      1.554563
  H      -2.137751     -2.113344      0.495218
  H      -2.782108     -1.212802      1.894387
  H       0.327980      2.127064     -0.585672
  H       0.352339     -2.151372     -0.567902
  H       2.737411      2.145006     -0.061836
  H       2.762042     -2.137852     -0.044700
  H       3.960788      0.011750      0.218175
  Cl     -2.876173     -0.141821     -4.355711
28
Coordinates from ORCA-job R4N+Cl-_wb E -905.728259791084
  N      -2.227594     -0.020663      0.255037
  C      -1.283704     -0.020052     -0.930357
  C      -2.054379      1.202195      1.082815
  C      -3.614453     -0.041662     -0.287732
  C      -2.026631     -1.223975      1.105084
  C       0.177329     -0.010770     -0.585728
  C       0.863602      1.192776     -0.449734
  C       0.875826     -1.206628     -0.443340
  C       2.218353      1.201638     -0.154501
  C       2.230520     -1.200488     -0.148308
  C       2.902908      0.004425      0.000622
  H      -1.552638      0.859708     -1.512759
  H      -1.542757     -0.906932     -1.506414
  H      -2.191640      2.076360      0.450168
  H      -1.060848      1.203066      1.522988
  H      -2.805048      1.187029      1.870163
  H      -3.759827      0.838297     -0.910102
  H      -4.312011     -0.031778      0.546648
  H      -3.745462     -0.946762     -0.876060
  H      -1.036391     -1.189977      1.551428
  H      -2.135748     -2.112484      0.487110
  H      -2.782892     -1.215681      1.887193
  H       0.332680      2.129017     -0.581662
  H       0.354125     -2.148711     -0.570424
  H       2.741416      2.144776     -0.051651
  H       2.763017     -2.137803     -0.040750
  H       3.962206      0.010380      0.228397
  Cl     -2.945089     -0.173733     -4.360928
28
Coordinates from ORCA-job R4N+Cl-_wb E -905.728261347749
  N      -2.225737     -0.019559      0.252850
  C      -1.280484     -0.016682     -0.931729
  C      -2.053051      1.201615      1.083061
  C      -3.611939     -0.039411     -0.291219
  C      -2.025852     -1.224448      1.100762
  C       0.180029     -0.008951     -0.585339
  C       0.866636      1.194066     -0.446599
  C       0.877621     -1.205350     -0.443185
  C       2.220791      1.201927     -0.148830
  C       2.231701     -1.200243     -0.145551
  C       2.904358      0.004164      0.006154
  H      -1.548386      0.865329     -1.511205
  H      -1.540076     -0.902158     -1.509821
  H      -2.190363      2.077109      0.452239
  H      -1.059696      1.202061      1.523650
  H      -2.803902      1.184836      1.870205
  H      -3.756405      0.840704     -0.913543
  H      -4.310433     -0.029027      0.542417
  H      -3.743406     -0.944626     -0.879210
  H      -1.036307     -1.191506      1.548726
  H      -2.134129     -2.111843      0.481030
  H      -2.783144     -1.217847      1.881901
  H       0.336114      2.130582     -0.578270
  H       0.355467     -2.146890     -0.572441
  H       2.744221      2.144612     -0.043739
  H       2.763635     -2.137879     -0.038019
  H       3.963206      0.009286      0.236060
  Cl     -2.995603     -0.198305     -4.363151
28
Coordinates from ORCA-job R4N+Cl-_wb E -905.728266846879
  N      -2.226039     -0.019433      0.252680
  C      -1.280897     -0.016377     -0.931639
  C      -2.053012      1.201355      1.083575
  C      -3.612370     -0.038508     -0.291235
  C      -2.026268     -1.224842      1.100026
  C       0.179805     -0.008897     -0.585007
  C       0.866520      1.194281     -0.446546
  C       0.877529     -1.205376     -0.442896
  C       2.220891      1.202213     -0.149120
  C       2.231815     -1.200157     -0.145462
  C       2.904575      0.004376      0.005900
  H      -1.547474      0.865642     -1.512002
  H      -1.539672     -0.901176     -1.511313
  H      -2.189516      2.077306      0.453181
  H      -1.059806      1.200997      1.524523
  H      -2.804133      1.184849      1.870491
  H      -3.756905      0.842613     -0.912156
  H      -4.310708     -0.029693      0.542536
  H      -3.743702     -0.942474     -0.881324
  H      -1.036469     -1.192405      1.547487
  H      -2.135132     -2.112025      0.480071
  H      -2.783062     -1.218445      1.881671
  H       0.336110      2.130856     -0.578191
  H       0.355573     -2.147078     -0.571686
  H       2.744306      2.144943     -0.044351
  H       2.763755     -2.137780     -0.037844
  H       3.963485      0.009546      0.235525
  Cl     -2.994330     -0.202743     -4.359690
28
Coordinates from ORCA-job R4N+Cl-_wb E -905.728268681011
  N      -2.225882     -0.018564      0.251464
  C      -1.280374     -0.014260     -0.932010
  C      -2.052297      1.201010      1.084352
  C      -3.612457     -0.035894     -0.292501
  C      -2.026834     -1.225454      1.097135
  C       0.180353     -0.007904     -0.583938
  C       0.867319      1.195206     -0.444119
  C       0.877992     -1.204746     -0.443065
  C       2.221818      1.202677     -0.146430
  C       2.232440     -1.199904     -0.145386
  C       2.905442      0.004475      0.007404
  H      -1.544245      0.868530     -1.512668
  H      -1.537941     -0.897178     -1.515333
  H      -2.187128      2.078018      0.455058
  H      -1.059447      1.198714      1.526128
  H      -2.804212      1.184313      1.870507
  H      -3.756714      0.847249     -0.910700
  H      -4.310498     -0.030027      0.541506
  H      -3.743443     -0.937378     -0.886534
  H      -1.036807     -1.194160      1.544164
  H      -2.136551     -2.111714      0.476003
  H      -2.783275     -1.219601      1.879143
  H       0.337336      2.132134     -0.574844
  H       0.356427     -2.146503     -0.572881
  H       2.745255      2.145286     -0.040697
  H       2.764212     -2.137734     -0.038764
  H       3.964331      0.009262      0.237101
  Cl     -3.009952     -0.224288     -4.352891
28
Coordinates from ORCA-job R4N+Cl-_wb E -905.728270873375
  N      -2.226318     -0.018374      0.251673
  C      -1.281078     -0.014003     -0.931804
  C      -2.052343      1.200969      1.084994
  C      -3.613151     -0.035125     -0.292012
  C      -2.027466     -1.225682      1.096939
  C       0.179772     -0.007677     -0.583865
  C       0.866834      1.195402     -0.444122
  C       0.877470     -1.204535     -0.443570
  C       2.221494      1.202779     -0.147072
  C       2.232088     -1.199748     -0.146514
  C       2.905231      0.004556      0.006189
  H      -1.544759      0.868528     -1.512919
  H      -1.538403     -0.896618     -1.515660
  H      -2.186263      2.078095      0.455699
  H      -1.059684      1.197711      1.527159
  H      -2.804757      1.184390      1.870662
  H      -3.757468      0.849103     -0.908658
  H      -4.310751     -0.031009      0.542326
  H      -3.743687     -0.935319     -0.888095
  H      -1.037111     -1.194861      1.543254
  H      -2.138026     -2.111584      0.475462
  H      -2.783521     -1.219455      1.879297
  H       0.337017      2.132467     -0.574440
  H       0.356053     -2.146383     -0.573271
  H       2.744915      2.145410     -0.041459
  H       2.763816     -2.137660     -0.040394
  H       3.964233      0.009284      0.235338
  Cl     -2.999270     -0.229097     -4.347931
28
Coordinates from ORCA-job R4N+Cl-_wb E -905.728271856352
  N      -2.226026     -0.017393      0.250998
  C      -1.280598     -0.011590     -0.932155
  C      -2.051943      1.200802      1.086160
  C      -3.612917     -0.032994     -0.292906
  C      -2.027850     -1.226062      1.094634
  C       0.180173     -0.006126     -0.583785
  C       0.867647      1.196443     -0.442318
  C       0.877355     -1.203357     -0.444886
  C       2.222218      1.202899     -0.145024
  C       2.231877     -1.199463     -0.147484
  C       2.905495      0.004293      0.006871
  H      -1.544042      0.871774     -1.512033
  H      -1.538139     -0.893134     -1.517507
  H      -2.184658      2.078656      0.457672
  H      -1.059682      1.196020      1.529151
  H      -2.805257      1.183374      1.870921
  H      -3.756912      0.852741     -0.907430
  H      -4.310279     -0.031082      0.541584
  H      -3.742869     -0.931532     -0.891523
  H      -1.037409     -1.196282      1.540785
  H      -2.139021     -2.110825      0.471673
  H      -2.784010     -1.220157      1.876858
  H       0.338432      2.133990     -0.571549
  H       0.355797     -2.144954     -0.575807
  H       2.745869      2.145259     -0.038152
  H       2.763094     -2.137788     -0.042456
  H       3.964444      0.008319      0.236249
  Cl     -3.005919     -0.250264     -4.341335
28
Coordinates from ORCA-job R4N+Cl-_wb E -905.728274957107
  N      -2.225846     -0.015994      0.250475
  C      -1.280353     -0.008380     -0.932537
  C      -2.051394      1.200639      1.087950
  C      -3.612753     -0.029985     -0.293657
  C      -2.028589     -1.226368      1.091995
  C       0.180337     -0.003961     -0.584205
  C       0.868302      1.197834     -0.439964
  C       0.876903     -1.201696     -0.447733
  C       2.222735      1.202990     -0.142432
  C       2.231304     -1.199111     -0.150117
  C       2.905470      0.003869      0.006966
  H      -1.544318      0.876164     -1.510246
  H      -1.538675     -0.888801     -1.519135
  H      -2.182572      2.079468      0.460548
  H      -1.059601      1.193900      1.531936
  H      -2.805713      1.182249      1.871689
  H      -3.756244      0.857432     -0.905796
  H      -4.309956     -0.030268      0.540928
  H      -3.742353     -0.926773     -0.894850
  H      -1.038040     -1.198168      1.537954
  H      -2.140667     -2.109671      0.467158
  H      -2.784848     -1.220862      1.874088
  H       0.339742      2.136036     -0.567133
  H       0.355069     -2.142844     -0.580786
  H       2.746640      2.144966     -0.033402
  H       2.761894     -2.138012     -0.047065
  H       3.964374      0.006920      0.236549
  Cl     -3.005979     -0.280010     -4.331972
28
Coordinates from ORCA-job R4N+Cl-_wb E -905.728280158505
  N      -2.225351     -0.012168      0.248769
  C      -1.279564      0.000770     -0.933829
  C      -2.049847      1.199730      1.093026
  C      -3.612084     -0.021657     -0.296085
  C      -2.030251     -1.227375      1.083914
  C       0.180870      0.001932     -0.585131
  C       0.870355      1.201762     -0.433860
  C       0.875695     -1.197314     -0.454542
  C       2.224503      1.203440     -0.135505
  C       2.229792     -1.198247     -0.155950
  C       2.905552      0.002784      0.007965
  H      -1.543721      0.888940     -1.505745
  H      -1.539651     -0.876097     -1.524912
  H      -2.177469      2.081848      0.469565
  H      -1.059098      1.188083      1.539232
  H      -2.806169      1.178674      1.874721
  H      -3.754374      0.869967     -0.902246
  H      -4.309396     -0.027219      0.538353
  H      -3.741441     -0.914052     -0.903664
  H      -1.039471     -1.203586      1.529549
  H      -2.144430     -2.106810      0.454040
  H      -2.786488     -1.224087      1.866001
  H       0.343523      2.141588     -0.556197
  H       0.352870     -2.137144     -0.592968
  H       2.749343      2.144270     -0.021141
  H       2.758700     -2.138598     -0.057526
  H       3.964298      0.003181      0.238287
  Cl     -3.011830     -0.361052     -4.306915
28
Coordinates from ORCA-job R4N+Cl-_wb E -905.728286694042
  N      -2.225206     -0.009386      0.247756
  C      -1.279062      0.007514     -0.934596
  C      -2.049202      1.199064      1.096770
  C      -3.611663     -0.016041     -0.297703
  C      -2.031301     -1.227855      1.078314
  C       0.181178      0.006138     -0.585641
  C       0.871891      1.204540     -0.429527
  C       0.874718     -1.194283     -0.459376
  C       2.225921      1.203647     -0.130816
  C       2.228661     -1.197847     -0.160327
  C       2.905648      0.001796      0.008335
  H      -1.543029      0.898463     -1.502266
  H      -1.540351     -0.866728     -1.528974
  H      -2.175128      2.083699      0.476533
  H      -1.058972      1.184649      1.544085
  H      -2.806350      1.175938      1.877598
  H      -3.753177      0.877828     -0.900682
  H      -4.309443     -0.024108      0.536348
  H      -3.741406     -0.906121     -0.908563
  H      -1.040555     -1.206899      1.524146
  H      -2.146307     -2.104771      0.445079
  H      -2.787612     -1.226842      1.860337
  H       0.346199      2.145455     -0.548437
  H       0.350926     -2.133007     -0.601665
  H       2.751629      2.143542     -0.012783
  H       2.756413     -2.139197     -0.065287
  H       3.964326      0.000209      0.238975
  Cl     -3.013879     -0.417833     -4.290428
28
Coordinates from ORCA-job R4N+Cl-_wb E -905.728299736758
  N      -2.224836     -0.006613      0.246397
  C      -1.278260      0.014296     -0.935526
  C      -2.048284      1.198345      1.100226
  C      -3.611017     -0.010333     -0.299731
  C      -2.032255     -1.228407      1.072323
  C       0.181748      0.010309     -0.585908
  C       0.873608      1.207332     -0.424845
  C       0.874032     -1.191261     -0.463883
  C       2.227472      1.203926     -0.125488
  C       2.227786     -1.197370     -0.164132
  C       2.905918      0.000907      0.009431
  H      -1.541550      0.908021     -1.499142
  H      -1.540513     -0.857117     -1.533660
  H      -2.172612      2.085513      0.483293
  H      -1.058507      1.181103      1.548471
  H      -2.806185      1.173043      1.880244
  H      -3.751589      0.885734     -0.899646
  H      -4.309232     -0.020863      0.533938
  H      -3.741055     -0.898028     -0.913913
  H      -1.041614     -1.210227      1.518486
  H      -2.147972     -2.102752      0.435664
  H      -2.788776     -1.229694      1.854142
  H       0.349014      2.149288     -0.540364
  H       0.349392     -2.128912     -0.610098
  H       2.753986      2.142882     -0.003630
  H       2.754443     -2.139663     -0.072410
  H       3.964478     -0.002629      0.240598
  Cl     -3.022753     -0.475264     -4.273632
28
Coordinates from ORCA-job R4N+Cl-_wb E -905.728321415256
  N      -2.224533     -0.003786      0.245038
  C      -1.277418      0.020923     -0.936345
  C      -2.047308      1.197603      1.103737
  C      -3.610436     -0.004275     -0.301829
  C      -2.033596     -1.228967      1.066298
  C       0.182358      0.014428     -0.585967
  C       0.875253      1.210106     -0.419835
  C       0.873539     -1.188220     -0.468585
  C       2.228973      1.204265     -0.119935
  C       2.227148     -1.196786     -0.168352
  C       2.906296      0.000137      0.010365
  H      -1.539936      0.917200     -1.496273
  H      -1.540431     -0.847752     -1.538114
  H      -2.169932      2.087339      0.490182
  H      -1.057989      1.177341      1.552890
  H      -2.805981      1.170122      1.882919
  H      -3.749722      0.893849     -0.898952
  H      -4.309108     -0.016890      0.531432
  H      -3.740947     -0.889617     -0.919204
  H      -1.043122     -1.213708      1.512913
  H      -2.150062     -2.100668      0.426154
  H      -2.790456     -1.232448      1.847777
  H       0.351646      2.153055     -0.531703
  H       0.348175     -2.124809     -0.618962
  H       2.756203      2.142291      0.005938
  H       2.752858     -2.139962     -0.080341
  H       3.964766     -0.005290      0.241909
  Cl     -3.031369     -0.533915     -4.255949
28
Coordinates from ORCA-job R4N+Cl-_wb E -905.728351056608
  N      -2.224382     -0.000833      0.243782
  C      -1.276809      0.027705     -0.937105
  C      -2.046555      1.196958      1.107369
  C      -3.610076      0.001778     -0.303677
  C      -2.034901     -1.229398      1.060305
  C       0.182757      0.018644     -0.586086
  C       0.876766      1.212883     -0.414758
  C       0.872767     -1.185116     -0.473611
  C       2.230379      1.204465     -0.114537
  C       2.226265     -1.196275     -0.173092
  C       2.906530     -0.000807      0.010840
  H      -1.538632      0.926472     -1.493353
  H      -1.540639     -0.838233     -1.542493
  H      -2.167643      2.089247      0.497242
  H      -1.057654      1.173744      1.557314
  H      -2.805936      1.167135      1.885762
  H      -3.748097      0.901756     -0.898278
  H      -4.309091     -0.012685      0.529262
  H      -3.741072     -0.881376     -0.924017
  H      -1.044557     -1.216951      1.507267
  H      -2.152060     -2.098408      0.416636
  H      -2.792058     -1.235163      1.841471
  H       0.354211      2.156867     -0.522773
  H       0.346595     -2.120570     -0.628188
  H       2.758398      2.141492      0.015413
  H       2.750976     -2.140368     -0.089024
  H       3.964942     -0.008229      0.242590
  Cl     -3.035556     -0.593169     -4.237057
28
Coordinates from ORCA-job R4N+Cl-_wb E -905.728385244556
  N      -2.224224      0.002054      0.242454
  C      -1.276187      0.034492     -0.937890
  C      -2.045807      1.196173      1.110987
  C      -3.609663      0.007810     -0.305676
  C      -2.036236     -1.229916      1.054181
  C       0.183183      0.022801     -0.586245
  C       0.878301      1.215625     -0.409909
  C       0.872013     -1.182044     -0.478421
  C       2.231808      1.204694     -0.109368
  C       2.225393     -1.195733     -0.177542
  C       2.906776     -0.001693      0.011357
  H      -1.537127      0.935865     -1.490363
  H      -1.540899     -0.828589     -1.547134
  H      -2.165404      2.091045      0.504368
  H      -1.057309      1.170015      1.561668
  H      -2.805862      1.163972      1.888610
  H      -3.746390      0.909678     -0.897687
  H      -4.309081     -0.008572      0.526887
  H      -3.741089     -0.873089     -0.929086
  H      -1.046046     -1.220280      1.501530
  H      -2.154044     -2.096215      0.406989
  H      -2.793707     -1.238011      1.835016
  H       0.356781      2.160592     -0.514283
  H       0.345023     -2.116374     -0.636969
  H       2.760633      2.140721      0.024463
  H       2.749111     -2.140698     -0.097148
  H       3.965121     -0.011065      0.243341
  Cl     -3.040200     -0.651694     -4.216925
28
Coordinates from ORCA-job R4N+Cl-_wb E -905.728440298205
  N      -2.223692      0.006004      0.240038
  C      -1.275140      0.044249     -0.939427
  C      -2.044124      1.194573      1.115949
  C      -3.608714      0.016725     -0.309182
  C      -2.038188     -1.231012      1.044659
  C       0.183870      0.028804     -0.586643
  C       0.880502      1.219620     -0.403346
  C       0.870995     -1.177501     -0.484821
  C       2.233758      1.205231     -0.101975
  C       2.224101     -1.194676     -0.182982
  C       2.907014     -0.002649      0.012773
  H      -1.534760      0.949478     -1.486178
  H      -1.541414     -0.814451     -1.554623
  H      -2.161050      2.093250      0.514469
  H      -1.056326      1.163659      1.567879
  H      -2.805381      1.159121      1.892227
  H      -3.743554      0.921935     -0.896453
  H      -4.308761     -0.003409      0.522761
  H      -3.740543     -0.860225     -0.937966
  H      -1.048161     -1.225815      1.492400
  H      -2.157335     -2.093223      0.392279
  H      -2.796033     -1.242227      1.825081
  H       0.360503      2.165940     -0.502989
  H       0.342953     -2.110294     -0.648830
  H       2.763651      2.139880      0.037175
  H       2.746350     -2.140840     -0.107278
  H       3.965184     -0.014707      0.245428
  Cl     -3.050835     -0.735874     -4.183216
28
Coordinates from ORCA-job R4N+Cl-_wb E -905.728540314388
  N      -2.223260      0.011654      0.236643
  C      -1.274039      0.058080     -0.941370
  C      -2.041960      1.191910      1.123451
  C      -3.607486      0.030142     -0.314592
  C      -2.041927     -1.232754      1.030811
  C       0.184446      0.037381     -0.587040
  C       0.883285      1.225266     -0.394287
  C       0.869242     -1.170879     -0.494046
  C       2.236317      1.206007     -0.092469
  C       2.222096     -1.192975     -0.191591
  C       2.907259     -0.003880      0.013456
  H      -1.531982      0.968566     -1.480017
  H      -1.542877     -0.794263     -1.565091
  H      -2.154091      2.096120      0.529435
  H      -1.055517      1.153426      1.577765
  H      -2.805524      1.152066      1.897200
  H      -3.739371      0.940943     -0.893729
  H      -4.308772      0.003333      0.516099
  H      -3.739330     -0.840080     -0.952602
  H      -1.052101     -1.234505      1.478945
  H      -2.163502     -2.088827      0.370850
  H      -2.800278     -1.248072      1.810640
  H       0.365486      2.173492     -0.487095
  H       0.339770     -2.101487     -0.665688
  H       2.767726      2.138709      0.053810
  H       2.742283     -2.140812     -0.122920
  H       3.965315     -0.019705      0.246380
  Cl     -3.056340     -0.857288     -4.125745
28
Coordinates from ORCA-job R4N+Cl-_wb E -905.728714055217
  N      -2.222387      0.019895      0.230705
  C      -1.272954      0.078711     -0.945524
  C      -2.038443      1.187624      1.133547
  C      -3.605878      0.049397     -0.322377
  C      -2.046322     -1.235225      1.009141
  C       0.184673      0.050310     -0.588830
  C       0.886974      1.233583     -0.382305
  C       0.865606     -1.160849     -0.507788
  C       2.239429      1.206822     -0.078923
  C       2.217811     -1.190532     -0.203477
  C       2.906503     -0.006043      0.015115
  H      -1.528831      0.996766     -1.472143
  H      -1.546104     -0.764271     -1.582039
  H      -2.143697      2.099843      0.550682
  H      -1.053928      1.137906      1.590952
  H      -2.805263      1.141184      1.903624
  H      -3.734510      0.969039     -0.887930
  H      -4.308387      0.011055      0.506790
  H      -3.737269     -0.809924     -0.975230
  H      -1.056414     -1.247013      1.456829
  H      -2.171902     -2.082065      0.338120
  H      -2.804786     -1.256620      1.788665
  H       0.372806      2.184669     -0.465650
  H       0.333847     -2.088080     -0.690331
  H       2.773210      2.136469      0.077829
  H       2.734507     -2.140915     -0.144192
  H       3.964181     -0.027658      0.249270
  Cl     -3.057603     -1.032513     -4.027324
28
Coordinates from ORCA-job R4N+Cl-_wb E -905.728991119673
  N      -2.218851      0.031802      0.218167
  C      -1.270695      0.109862     -0.956135
  C      -2.027803      1.180555      1.143777
  C      -3.602284      0.077182     -0.334608
  C      -2.051469     -1.238700      0.973389
  C       0.185108      0.070245     -0.594042
  C       0.891373      1.246264     -0.363170
  C       0.860666     -1.144791     -0.530960
  C       2.241802      1.208259     -0.052660
  C       2.210797     -1.185825     -0.219521
  C       2.903297     -0.008659      0.023951
  H      -1.523262      1.039943     -1.463178
  H      -1.552847     -0.718971     -1.613665
  H      -2.123316      2.104279      0.577686
  H      -1.045280      1.113278      1.603195
  H      -2.797740      1.125383      1.910057
  H      -3.727116      1.007138     -0.882922
  H      -4.304989      0.023827      0.493508
  H      -3.735123     -0.767016     -1.005185
  H      -1.061313     -1.266311      1.419633
  H      -2.184255     -2.071652      0.286516
  H      -2.809743     -1.268041      1.752756
  H       0.382272      2.201257     -0.431873
  H       0.326494     -2.066604     -0.732909
  H       2.778033      2.132997      0.123636
  H       2.722522     -2.139669     -0.174082
  H       3.959450     -0.038960      0.263956
  Cl     -3.080860     -1.295508     -3.858109
28
Coordinates from ORCA-job R4N+Cl-_wb E -905.729388501581
  N      -2.215453      0.051084      0.194926
  C      -1.264797      0.160506     -0.980527
  C      -2.009556      1.174517      1.147034
  C      -3.604453      0.111612     -0.341484
  C      -2.062320     -1.240764      0.915621
  C       0.188953      0.101032     -0.610672
  C       0.899777      1.264718     -0.333242
  C       0.856839     -1.120093     -0.579612
  C       2.245022      1.207037     -0.001993
  C       2.201858     -1.180675     -0.249577
  C       2.897448     -0.016694      0.044734
  H      -1.509385      1.108760     -1.458500
  H      -1.554824     -0.637619     -1.672833
  H      -2.104190      2.113925      0.607143
  H      -1.023795      1.090309      1.596270
  H      -2.772526      1.105492      1.919123
  H      -3.733963      1.045650     -0.879211
  H      -4.299180      0.045753      0.492577
  H      -3.750764     -0.716040     -1.019393
  H      -1.073702     -1.291245      1.363146
  H      -2.202967     -2.055395      0.208060
  H      -2.821360     -1.283870      1.693570
  H       0.395946      2.224039     -0.375099
  H       0.319163     -2.030711     -0.819411
  H       2.784385      2.121099      0.215576
  H       2.707445     -2.138642     -0.227619
  H       3.949091     -0.062379      0.301709
  Cl     -3.097824     -1.689842     -3.573110
28
Coordinates from ORCA-job R4N+Cl-_wb E -905.729715597065
  N      -2.218030      0.066592      0.183927
  C      -1.263447      0.194152     -0.987435
  C      -2.014270      1.166367      1.163174
  C      -3.604266      0.145302     -0.355841
  C      -2.072471     -1.242882      0.873572
  C       0.189491      0.121231     -0.616977
  C       0.906819      1.275658     -0.317693
  C       0.850358     -1.104255     -0.607178
  C       2.251174      1.203821      0.014954
  C       2.194362     -1.179019     -0.275945
  C       2.896109     -0.024614      0.041053
  H      -1.503380      1.152483     -1.449765
  H      -1.564925     -0.592296     -1.697933
  H      -2.104124      2.118902      0.645986
  H      -1.031252      1.069498      1.615522
  H      -2.780831      1.081689      1.930200
  H      -3.728202      1.091909     -0.873636
  H      -4.303444      0.064471      0.473074
  H      -3.749308     -0.667949     -1.057906
  H      -1.086346     -1.308539      1.324888
  H      -2.212566     -2.040120      0.146180
  H      -2.834922     -1.302878      1.646952
  H       0.408694      2.238444     -0.344041
  H       0.307348     -2.006766     -0.865093
  H       2.795879      2.110323      0.250057
  H       2.694556     -2.140023     -0.270815
  H       3.946858     -0.081270      0.299443
  Cl     -3.024998     -1.948665     -3.311522
28
Coordinates from ORCA-job R4N+Cl-_wb E -905.729605924469
  N      -2.243335      0.080721      0.204422
  C      -1.256926      0.203425     -0.950255
  C      -2.087745      1.169927      1.202403
  C      -3.611830      0.173365     -0.371938
  C      -2.085823     -1.237470      0.874147
  C       0.200040      0.122034     -0.601536
  C       0.929970      1.273167     -0.315464
  C       0.853269     -1.108305     -0.607287
  C       2.283003      1.193809     -0.020004
  C       2.205493     -1.190734     -0.311220
  C       2.921211     -0.039121     -0.012297
  H      -1.491665      1.157288     -1.422961
  H      -1.519771     -0.591298     -1.631483
  H      -2.184008      2.128555      0.697465
  H      -1.115630      1.089116      1.680729
  H      -2.870525      1.063904      1.950758
  H      -3.719153      1.131097     -0.872993
  H      -4.336350      0.091265      0.434417
  H      -3.741012     -0.634442     -1.106839
  H      -1.109805     -1.293114      1.350048
  H      -2.190258     -2.025413      0.131082
  H      -2.863192     -1.331940      1.629063
  H       0.435816      2.237929     -0.335751
  H       0.296680     -2.005708     -0.854698
  H       2.841335      2.095995      0.198781
  H       2.702930     -2.152951     -0.321428
  H       3.978325     -0.101489      0.216760
  Cl     -2.876176     -2.038046     -3.256717
28
Coordinates from ORCA-job R4N+Cl-_wb E -905.730374388433
  N      -2.232146      0.087897      0.184934
  C      -1.259620      0.229997     -0.970870
  C      -2.051332      1.165969      1.190605
  C      -3.603717      0.182553     -0.386900
  C      -2.080769     -1.236038      0.844427
  C       0.192067      0.138437     -0.606330
  C       0.918979      1.280897     -0.282623
  C       0.844752     -1.091667     -0.636813
  C       2.268212      1.192985      0.026478
  C       2.193294     -1.182531     -0.327845
  C       2.905991     -0.039749      0.008906
  H      -1.490620      1.196090     -1.421488
  H      -1.553274     -0.555044     -1.676960
  H      -2.149429      2.129794      0.695681
  H      -1.070513      1.073566      1.650260
  H      -2.821720      1.056851      1.950950
  H      -3.710179      1.138779     -0.892125
  H      -4.325282      0.101212      0.422451
  H      -3.735286     -0.625418     -1.112549
  H      -1.103543     -1.299544      1.316212
  H      -2.192148     -2.017102      0.095066
  H      -2.857039     -1.331148      1.600816
  H       0.424755      2.246091     -0.280619
  H       0.290580     -1.982127     -0.913189
  H       2.823774      2.088956      0.276150
  H       2.690065     -2.144836     -0.356821
  H       3.960428     -0.108748      0.248645
  Cl     -2.931414     -2.234558     -3.069242
28
Coordinates from ORCA-job R4N+Cl-_wb E -905.730542222244
  N      -2.226580      0.099365      0.170447
  C      -1.268617      0.255629     -0.994809
  C      -2.028402      1.170460      1.179686
  C      -3.606312      0.193144     -0.382172
  C      -2.070443     -1.230813      0.815932
  C       0.179532      0.150876     -0.619643
  C       0.906536      1.283038     -0.261295
  C       0.828157     -1.080905     -0.670998
  C       2.251218      1.182503      0.063696
  C       2.172458     -1.183966     -0.347689
  C       2.884782     -0.051995      0.024731
  H      -1.499188      1.222850     -1.435081
  H      -1.573806     -0.513694     -1.711650
  H      -2.141206      2.137656      0.694322
  H      -1.036821      1.078739      1.615949
  H      -2.781154      1.052197      1.956159
  H      -3.718599      1.152283     -0.888016
  H      -4.316099      0.112482      0.437888
  H      -3.747354     -0.616073     -1.098672
  H      -1.089504     -1.297128      1.279115
  H      -2.187437     -2.004726      0.059091
  H      -2.840948     -1.333591      1.577418
  H       0.414367      2.249134     -0.240214
  H       0.273070     -1.962646     -0.972218
  H       2.806793      2.069716      0.343055
  H       2.666316     -2.147278     -0.391574
  H       3.935776     -0.130735      0.276581
  Cl     -2.841669     -2.394955     -2.902834
28
Coordinates from ORCA-job R4N+Cl-_wb E -905.730676042257
  N      -2.235231      0.113312      0.167224
  C      -1.263969      0.280947     -0.990457
  C      -2.042215      1.168505      1.193037
  C      -3.605883      0.215876     -0.404444
  C      -2.089390     -1.224738      0.798394
  C       0.185318      0.163658     -0.622104
  C       0.915014      1.285807     -0.237705
  C       0.831751     -1.067629     -0.706534
  C       2.260259      1.175246      0.081560
  C       2.176800     -1.180470     -0.389205
  C       2.891691     -0.058877      0.009209
  H      -1.485813      1.261265     -1.414428
  H      -1.577826     -0.502661     -1.700777
  H      -2.157474      2.143109      0.722988
  H      -1.050851      1.073742      1.628807
  H      -2.795097      1.036364      1.967195
  H      -3.704467      1.177339     -0.910927
  H      -4.328439      0.142686      0.405323
  H      -3.734862     -0.604504     -1.119660
  H      -1.117315     -1.294622      1.279035
  H      -2.191058     -1.988411      0.028121
  H      -2.873584     -1.339360      1.544227
  H       0.423421      2.251301     -0.191685
  H       0.273133     -1.940444     -1.026341
  H       2.818760      2.053857      0.381505
  H       2.669914     -2.142737     -0.457463
  H       3.943424     -0.145243      0.255458
  Cl     -2.791147     -2.591752     -2.713146
28
Coordinates from ORCA-job R4N+Cl-_wb E -905.730198233360
  N      -2.247213      0.108104      0.178946
  C      -1.259598      0.263234     -0.968604
  C      -2.055830      1.180316      1.187340
  C      -3.617926      0.209602     -0.397705
  C      -2.109012     -1.219582      0.833868
  C       0.195460      0.150512     -0.614363
  C       0.920143      1.276799     -0.232251
  C       0.849336     -1.075782     -0.706625
  C       2.268457      1.175955      0.075566
  C       2.197985     -1.178789     -0.399967
  C       2.908394     -0.052951     -0.006210
  H      -1.471895      1.237250     -1.397477
  H      -1.505594     -0.521182     -1.661658
  H      -2.171187      2.146511      0.700091
  H      -1.064642      1.092935      1.623960
  H      -2.809445      1.059973      1.962596
  H      -3.707528      1.156182     -0.919271
  H      -4.338092      0.161525      0.416279
  H      -3.763987     -0.616481     -1.075017
  H      -1.141930     -1.278218      1.325087
  H      -2.203002     -1.992732      0.071065
  H      -2.901638     -1.321041      1.572731
  H       0.422643      2.238868     -0.180177
  H       0.294688     -1.953168     -1.019972
  H       2.823059      2.058253      0.371798
  H       2.697445     -2.137418     -0.472684
  H       3.963213     -0.131679      0.228983
  Cl     -2.827436     -2.575432     -2.919126
28
Coordinates from ORCA-job R4N+Cl-_wb E -905.730970221427
  N      -2.236185      0.112239      0.169156
  C      -1.265473      0.282016     -0.983897
  C      -2.049512      1.167872      1.196764
  C      -3.609177      0.218620     -0.400877
  C      -2.084762     -1.226657      0.798904
  C       0.185590      0.164044     -0.617681
  C       0.918537      1.286982     -0.242328
  C       0.828366     -1.068827     -0.693272
  C       2.264630      1.176609      0.071799
  C       2.174485     -1.181628     -0.380309
  C       2.893442     -0.059041      0.006491
  H      -1.483340      1.257470     -1.408465
  H      -1.548061     -0.489245     -1.699279
  H      -2.167650      2.142012      0.726659
  H      -1.058845      1.075553      1.633956
  H      -2.804055      1.031043      1.968392
  H      -3.706203      1.178126     -0.901109
  H      -4.327970      0.144954      0.412099
  H      -3.748973     -0.592923     -1.111399
  H      -1.111566     -1.291922      1.278596
  H      -2.184261     -1.987160      0.025595
  H      -2.868813     -1.343244      1.544167
  H       0.431109      2.254846     -0.203850
  H       0.267909     -1.943966     -1.003935
  H       2.825511      2.056998      0.361820
  H       2.664805     -2.145646     -0.443291
  H       3.946053     -0.145548      0.248639
  Cl     -2.800724     -2.612008     -2.776139
28
Coordinates from ORCA-job R4N+Cl-_wb E -905.731030423141
  N      -2.237806      0.115660      0.163978
  C      -1.267793      0.288015     -0.989286
  C      -2.043280      1.160623      1.201243
  C      -3.610552      0.235854     -0.402740
  C      -2.097229     -1.230424      0.781695
  C       0.183802      0.166868     -0.624111
  C       0.916005      1.288207     -0.242548
  C       0.827581     -1.065355     -0.705027
  C       2.261229      1.176538      0.075345
  C       2.173015     -1.179312     -0.388914
  C       2.890692     -0.058676      0.005887
  H      -1.483901      1.267839     -1.409568
  H      -1.558842     -0.482371     -1.710922
  H      -2.153317      2.139934      0.740076
  H      -1.053398      1.055902      1.637732
  H      -2.799490      1.022268      1.970797
  H      -3.703005      1.208242     -0.887906
  H      -4.329100      0.152668      0.409526
  H      -3.748606     -0.572176     -1.127185
  H      -1.124210     -1.307740      1.259422
  H      -2.204599     -1.982561      0.001021
  H      -2.881535     -1.345874      1.526887
  H       0.428124      2.255666     -0.198555
  H       0.269150     -1.939478     -1.021581
  H       2.820463      2.055638      0.372388
  H       2.663504     -2.143014     -0.455582
  H       3.942457     -0.146279      0.251312
  Cl     -2.734489     -2.675097     -2.656180
28
Coordinates from ORCA-job R4N+Cl-_wb E -905.731077633130
  N      -2.237644      0.114320      0.164134
  C      -1.267796      0.286945     -0.988155
  C      -2.044258      1.162635      1.198624
  C      -3.612003      0.232126     -0.400147
  C      -2.094349     -1.230137      0.785525
  C       0.183648      0.165919     -0.622498
  C       0.916356      1.287623     -0.243232
  C       0.826894     -1.066543     -0.701305
  C       2.261795      1.176254      0.073734
  C       2.172450     -1.180342     -0.385626
  C       2.890847     -0.059278      0.006513
  H      -1.483279      1.268179     -1.406241
  H      -1.551698     -0.479797     -1.712665
  H      -2.153651      2.140445      0.734217
  H      -1.055015      1.058983      1.636735
  H      -2.801685      1.026295      1.967331
  H      -3.707772      1.202659     -0.885065
  H      -4.328171      0.147364      0.414011
  H      -3.753142     -0.573653     -1.121584
  H      -1.120140     -1.304872      1.261348
  H      -2.202821     -1.984325      0.007031
  H      -2.876978     -1.343476      1.532781
  H       0.429272      2.255559     -0.201279
  H       0.268421     -1.941115     -1.016792
  H       2.821296      2.056034      0.368237
  H       2.662330     -2.144433     -0.451069
  H       3.942731     -0.146744      0.251422
  Cl     -2.740774     -2.665061     -2.688781
28
Coordinates from ORCA-job R4N+Cl-_wb E -905.731112449858
  N      -2.238323      0.116504      0.162098
  C      -1.268193      0.295874     -0.986945
  C      -2.048373      1.161429      1.201221
  C      -3.612195      0.236005     -0.404105
  C      -2.093780     -1.230243      0.779353
  C       0.182633      0.170353     -0.620545
  C       0.918752      1.289275     -0.239837
  C       0.822609     -1.063332     -0.703439
  C       2.264562      1.173970      0.074107
  C       2.168371     -1.181262     -0.390123
  C       2.890400     -0.062999      0.003307
  H      -1.481077      1.281837     -1.396304
  H      -1.549859     -0.463328     -1.719783
  H      -2.155341      2.140849      0.739771
  H      -1.061105      1.055547      1.643144
  H      -2.809178      1.022487      1.966125
  H      -3.709399      1.207258     -0.882614
  H      -4.329342      0.144880      0.408457
  H      -3.754284     -0.563769     -1.128302
  H      -1.119503     -1.305211      1.255149
  H      -2.201762     -1.981385     -0.002254
  H      -2.876322     -1.345727      1.526371
  H       0.434821      2.258683     -0.196062
  H       0.261826     -1.935625     -1.021640
  H       2.826637      2.052099      0.368622
  H       2.655412     -2.146529     -0.459213
  H       3.942505     -0.153648      0.246029
  Cl     -2.715622     -2.712427     -2.645381
28
Coordinates from ORCA-job R4N+Cl-_wb E -905.731118001349
  N      -2.242149      0.119651      0.160593
  C      -1.270812      0.301548     -0.987279
  C      -2.051915      1.166178      1.198725
  C      -3.617521      0.237893     -0.400954
  C      -2.096469     -1.226855      0.779157
  C       0.180326      0.171845     -0.623091
  C       0.918569      1.287081     -0.236025
  C       0.818024     -1.062439     -0.713379
  C       2.264256      1.167369      0.077238
  C       2.163678     -1.184725     -0.401067
  C       2.887994     -0.070266     -0.001030
  H      -1.481165      1.292932     -1.389275
  H      -1.545447     -0.452744     -1.725073
  H      -2.153646      2.145034      0.734949
  H      -1.066407      1.057137      1.644041
  H      -2.816043      1.030840      1.960901
  H      -3.720726      1.215542     -0.868590
  H      -4.331911      0.134554      0.412672
  H      -3.757597     -0.557661     -1.131337
  H      -1.120074     -1.301302      1.250578
  H      -2.209288     -1.978331     -0.001604
  H      -2.875656     -1.338876      1.530251
  H       0.436534      2.257116     -0.184938
  H       0.255816     -1.931823     -1.037198
  H       2.827388      2.042991      0.377213
  H       2.648295     -2.150809     -0.476014
  H       3.939882     -0.164371      0.241376
  Cl     -2.639070     -2.745946     -2.613636
28
Coordinates from ORCA-job R4N+Cl-_wb E -905.731133628753
  N      -2.241096      0.119886      0.160977
  C      -1.269345      0.303703     -0.986803
  C      -2.052396      1.165500      1.200073
  C      -3.614671      0.236943     -0.404707
  C      -2.094979     -1.226362      0.779379
  C       0.181653      0.173573     -0.622294
  C       0.919924      1.288370     -0.234004
  C       0.819423     -1.060732     -0.714157
  C       2.265577      1.168171      0.079209
  C       2.165048     -1.183409     -0.402099
  C       2.889270     -0.069317     -0.000811
  H      -1.479536      1.294884     -1.387560
  H      -1.549475     -0.450030     -1.724577
  H      -2.155097      2.144692      0.737160
  H      -1.066864      1.057374      1.645598
  H      -2.816365      1.028981      1.962240
  H      -3.717120      1.212170     -0.874480
  H      -4.332042      0.134111      0.406395
  H      -3.753244     -0.557383     -1.136787
  H      -1.119764     -1.299903      1.253283
  H      -2.204415     -1.978148     -0.001525
  H      -2.875749     -1.340305      1.528546
  H       0.437512      2.258165     -0.181719
  H       0.256626     -1.929495     -1.038224
  H       2.828940      2.043235      0.380375
  H       2.649867     -2.149318     -0.477966
  H       3.941218     -0.163664      0.241279
  Cl     -2.668032     -2.760129     -2.609596
28
Coordinates from ORCA-job R4N+Cl-_wb E -905.731137427099
  N      -2.240680      0.118760      0.162178
  C      -1.269289      0.301068     -0.986454
  C      -2.051913      1.165303      1.200234
  C      -3.614006      0.235183     -0.403608
  C      -2.093946     -1.226678      0.781628
  C       0.181856      0.172343     -0.622123
  C       0.919676      1.288418     -0.236682
  C       0.820073     -1.062109     -0.710341
  C       2.265418      1.169545      0.076657
  C       2.165745     -1.183429     -0.398076
  C       2.889568     -0.067870     -0.000107
  H      -1.480227      1.290145     -1.389740
  H      -1.549604     -0.452843     -1.722690
  H      -2.153433      2.144044      0.736108
  H      -1.066773      1.056837      1.646489
  H      -2.816436      1.030469      1.962160
  H      -3.717270      1.211718     -0.871677
  H      -4.331809      0.129637      0.406687
  H      -3.750655     -0.556936     -1.139179
  H      -1.118164     -1.300172      1.254342
  H      -2.204158     -1.979510      0.001886
  H      -2.873778     -1.340160      1.531809
  H       0.436857      2.258147     -0.187132
  H       0.257233     -1.932054     -1.030992
  H       2.828561      2.045588      0.375370
  H       2.650954     -2.149356     -0.471044
  H       3.941617     -0.161087      0.241966
  Cl     -2.680547     -2.743437     -2.630462
28
Coordinates from ORCA-job R4N+Cl-_wb E -905.731139284285
  N      -2.240998      0.119638      0.162037
  C      -1.269470      0.302510     -0.986702
  C      -2.052432      1.166651      1.199655
  C      -3.614472      0.234776     -0.403282
  C      -2.093604     -1.225560      0.781752
  C       0.181554      0.172847     -0.622492
  C       0.919671      1.288097     -0.235351
  C       0.819327     -1.061733     -0.712368
  C       2.265325      1.168247      0.078044
  C       2.164881     -1.184002     -0.400130
  C       2.889028     -0.069262     -0.000416
  H      -1.480249      1.292429     -1.388728
  H      -1.550588     -0.451064     -1.723369
  H      -2.153007      2.145198      0.734941
  H      -1.067663      1.057777      1.646617
  H      -2.817569      1.032679      1.961122
  H      -3.719584      1.212187     -0.869734
  H      -4.332084      0.126328      0.406757
  H      -3.749525     -0.556308     -1.140226
  H      -1.117353     -1.298918      1.253529
  H      -2.204499     -1.978729      0.002380
  H      -2.872691     -1.338791      1.532730
  H       0.437167      2.257912     -0.184497
  H       0.256071     -1.930902     -1.034435
  H       2.828732      2.043642      0.378148
  H       2.649760     -2.149986     -0.474508
  H       3.941020     -0.163191      0.241628
  Cl     -2.671878     -2.750911     -2.625899
28
Coordinates from ORCA-job R4N+Cl-_wb E -905.731140500595
  N      -2.241188      0.120060      0.162165
  C      -1.269675      0.302856     -0.986622
  C      -2.052438      1.167213      1.199600
  C      -3.614593      0.235171     -0.403233
  C      -2.094062     -1.225101      0.781936
  C       0.181287      0.172879     -0.622555
  C       0.919420      1.287894     -0.234853
  C       0.819049     -1.061641     -0.713343
  C       2.265083      1.167792      0.078459
  C       2.164592     -1.184133     -0.401308
  C       2.888746     -0.069652     -0.000835
  H      -1.480494      1.292845     -1.388480
  H      -1.551152     -0.450678     -1.723317
  H      -2.150606      2.145718      0.734316
  H      -1.068506      1.056778      1.648049
  H      -2.818939      1.034915      1.959993
  H      -3.720861      1.213925     -0.866882
  H      -4.332407      0.123265      0.406114
  H      -3.747976     -0.553984     -1.142640
  H      -1.117224     -1.299366      1.252335
  H      -2.206592     -1.978403      0.002898
  H      -2.872211     -1.337592      1.533987
  H       0.436933      2.257682     -0.183411
  H       0.255665     -1.930468     -1.036128
  H       2.828512      2.042966      0.379161
  H       2.649492     -2.150045     -0.476448
  H       3.940750     -0.163745      0.241087
  Cl     -2.665738     -2.755583     -2.622837
28
Coordinates from ORCA-job R4N+Cl-_wb E -905.731142356710
  N      -2.241124      0.120106      0.162188
  C      -1.269785      0.302350     -0.986861
  C      -2.051434      1.167218      1.199470
  C      -3.614697      0.235814     -0.402834
  C      -2.094635     -1.225113      0.781830
  C       0.181136      0.172679     -0.622783
  C       0.918929      1.287915     -0.235084
  C       0.819161     -1.061716     -0.713332
  C       2.264559      1.168124      0.078501
  C       2.164658     -1.183877     -0.401092
  C       2.888479     -0.069184     -0.000579
  H      -1.481008      1.292138     -1.389308
  H      -1.551352     -0.452011     -1.722792
  H      -2.146702      2.145767      0.733699
  H      -1.068364      1.054650      1.649310
  H      -2.819306      1.036986      1.958844
  H      -3.721881      1.215831     -0.863570
  H      -4.332372      0.120776      0.406182
  H      -3.747193     -0.551351     -1.144395
  H      -1.116966     -1.300843      1.250272
  H      -2.209580     -1.978414      0.003117
  H      -2.871504     -1.336578      1.535355
  H       0.436192      2.257585     -0.183840
  H       0.255897     -1.930608     -1.036166
  H       2.827772      2.043410      0.379286
  H       2.649845     -2.149659     -0.476054
  H       3.940450     -0.163040      0.241588
  Cl     -2.664307     -2.757391     -2.623747
28
Coordinates from ORCA-job R4N+Cl-_wb E -905.731143204511
  N      -2.240967      0.119688      0.162219
  C      -1.269908      0.300556     -0.987199
  C      -2.049437      1.165985      1.199977
  C      -3.614645      0.237954     -0.402440
  C      -2.096565     -1.226053      0.781075
  C       0.181074      0.172147     -0.622949
  C       0.918156      1.288232     -0.236309
  C       0.819831     -1.061924     -0.712265
  C       2.263813      1.169559      0.077535
  C       2.165346     -1.182980     -0.399736
  C       2.888439     -0.067473     -0.000210
  H      -1.481964      1.289272     -1.391687
  H      -1.551198     -0.455560     -1.721585
  H      -2.139961      2.144936      0.734133
  H      -1.067784      1.049576      1.651933
  H      -2.819473      1.038636      1.957657
  H      -3.721817      1.219897     -0.858641
  H      -4.332244      0.119280      0.406114
  H      -3.747102     -0.546003     -1.147226
  H      -1.117854     -1.304777      1.246848
  H      -2.215438     -1.978812      0.002416
  H      -2.871793     -1.335767      1.536541
  H       0.434854      2.257669     -0.186150
  H       0.257060     -1.931392     -1.034430
  H       2.826534      2.045441      0.377506
  H       2.651205     -2.148500     -0.473703
  H       3.940424     -0.160498      0.242219
  Cl     -2.663719     -2.757527     -2.624438
28
Coordinates from ORCA-job R4N+Cl-_wb E -905.731144087272
  N      -2.240744      0.119056      0.162060
  C      -1.269947      0.298636     -0.987716
  C      -2.047347      1.164551      1.200282
  C      -3.614557      0.239759     -0.401952
  C      -2.097957     -1.227164      0.780232
  C       0.181096      0.171696     -0.623127
  C       0.917470      1.288651     -0.237599
  C       0.820533     -1.062115     -0.710800
  C       2.263105      1.171115      0.076651
  C       2.166063     -1.182058     -0.397820
  C       2.888441     -0.065687      0.000503
  H      -1.482754      1.286468     -1.394172
  H      -1.550700     -0.459475     -1.720307
  H      -2.135334      2.143891      0.734766
  H      -1.066264      1.045738      1.652849
  H      -2.818181      1.038705      1.957406
  H      -3.720989      1.222679     -0.855815
  H      -4.331873      0.120004      0.406714
  H      -3.748426     -0.542347     -1.148213
  H      -1.118663     -1.307817      1.244476
  H      -2.219293     -1.979397      0.001453
  H      -2.872230     -1.335735      1.536850
  H       0.433600      2.257865     -0.188622
  H       0.258320     -1.932306     -1.031992
  H       2.825316      2.047640      0.375700
  H       2.652510     -2.147385     -0.470457
  H       3.940415     -0.157863      0.243306
  Cl     -2.666741     -2.755540     -2.627449
28
Coordinates from ORCA-job R4N+Cl-_wb E -905.731144791940
  N      -2.240733      0.118507      0.161982
  C      -1.270012      0.297147     -0.987997
  C      -2.046063      1.163202      1.200797
  C      -3.614484      0.241336     -0.401630
  C      -2.099301     -1.228193      0.779532
  C       0.181139      0.171407     -0.623163
  C       0.917136      1.288999     -0.238735
  C       0.821026     -1.062249     -0.709572
  C       2.262791      1.172266      0.075625
  C       2.166616     -1.181423     -0.396400
  C       2.888592     -0.064415      0.000775
  H      -1.483219      1.284219     -1.395925
  H      -1.550377     -0.462225     -1.719484
  H      -2.133302      2.142924      0.735933
  H      -1.065001      1.043270      1.653079
  H      -2.816841      1.037549      1.958010
  H      -3.719728      1.224712     -0.854519
  H      -4.331745      0.121870      0.407146
  H      -3.750087     -0.539655     -1.148645
  H      -1.120019     -1.309869      1.243631
  H      -2.221518     -1.979882      0.000390
  H      -2.873516     -1.336203      1.536293
  H       0.432956      2.258106     -0.190709
  H       0.259227     -1.933039     -1.029853
  H       2.824694      2.049306      0.373742
  H       2.653373     -2.146671     -0.468002
  H       3.940596     -0.155971      0.243680
  Cl     -2.667332     -2.753459     -2.628780
28
Coordinates from ORCA-job R4N+Cl-_wb E -905.731144784294
  N      -2.240808      0.118309      0.161923
  C      -1.270119      0.296675     -0.988138
  C      -2.045518      1.162601      1.201039
  C      -3.614480      0.242049     -0.401405
  C      -2.099729     -1.228635      0.779148
  C       0.181055      0.171356     -0.623179
  C       0.916997      1.289158     -0.239267
  C       0.821023     -1.062316     -0.708956
  C       2.262656      1.172653      0.075129
  C       2.166646     -1.181271     -0.395724
  C       2.888562     -0.064031      0.000876
  H      -1.483308      1.283641     -1.396409
  H      -1.550361     -0.463151     -1.719195
  H      -2.133574      2.142515      0.736721
  H      -1.063982      1.042854      1.652324
  H      -2.815517      1.036288      1.958933
  H      -3.719066      1.225457     -0.854415
  H      -4.331757      0.123238      0.407460
  H      -3.751151     -0.538619     -1.148554
  H      -1.120715     -1.310241      1.243840
  H      -2.221512     -1.980046     -0.000318
  H      -2.874313     -1.336784      1.535518
  H       0.432769      2.258266     -0.191645
  H       0.259353     -1.933357     -1.028759
  H       2.824484      2.049887      0.372810
  H       2.653404     -2.146555     -0.466840
  H       3.940579     -0.155384      0.243799
  Cl     -2.666749     -2.752992     -2.629514
28
Coordinates from ORCA-job R4N+Cl-_wb E -905.731145297825
  N      -2.240971      0.118293      0.161990
  C      -1.270255      0.296583     -0.988117
  C      -2.045329      1.162369      1.201263
  C      -3.614569      0.242488     -0.401165
  C      -2.100127     -1.228802      0.779032
  C       0.180938      0.171304     -0.623172
  C       0.916968      1.289180     -0.239654
  C       0.820885     -1.062416     -0.708669
  C       2.262645      1.172703      0.074692
  C       2.166532     -1.181341     -0.395489
  C       2.888519     -0.064018      0.000759
  H      -1.483245      1.283635     -1.396287
  H      -1.550609     -0.463211     -1.719198
  H      -2.134382      2.142382      0.737339
  H      -1.063300      1.043042      1.651571
  H      -2.814535      1.035354      1.959845
  H      -3.718851      1.225896     -0.854314
  H      -4.331931      0.123973      0.407662
  H      -3.751706     -0.537913     -1.148498
  H      -1.121471     -1.310204      1.244511
  H      -2.221199     -1.980049     -0.000698
  H      -2.875231     -1.337187      1.534835
  H       0.432790      2.258324     -0.192241
  H       0.259232     -1.933555     -1.028214
  H       2.824491      2.050019      0.372102
  H       2.653197     -2.146687     -0.466403
  H       3.940553     -0.155316      0.243628
  Cl     -2.664173     -2.753282     -2.629905
28
Coordinates from ORCA-job R4N+Cl-_wb E -905.731144950444
  N      -2.241057      0.118384      0.162064
  C      -1.270392      0.296795     -0.988063
  C      -2.045259      1.162288      1.201473
  C      -3.614640      0.242745     -0.401023
  C      -2.100206     -1.228822      0.778870
  C       0.180788      0.171306     -0.623190
  C       0.916955      1.289202     -0.239987
  C       0.820612     -1.062505     -0.708414
  C       2.262645      1.172665      0.074326
  C       2.166261     -1.181485     -0.395277
  C       2.888387     -0.064131      0.000666
  H      -1.483187      1.284031     -1.395945
  H      -1.550901     -0.462828     -1.719274
  H      -2.134925      2.142374      0.737823
  H      -1.062931      1.043204      1.651198
  H      -2.813995      1.034813      1.960455
  H      -3.718957      1.226281     -0.853965
  H      -4.332063      0.123980      0.407703
  H      -3.751693     -0.537372     -1.148687
  H      -1.121733     -1.310130      1.244759
  H      -2.220801     -1.979931     -0.001071
  H      -2.875601     -1.337541      1.534326
  H       0.432871      2.258405     -0.192789
  H       0.258866     -1.933660     -1.027741
  H       2.824578      2.050004      0.371503
  H       2.652802     -2.146906     -0.465996
  H       3.940423     -0.155465      0.243515
  Cl     -2.661978     -2.754134     -2.630055
28
Coordinates from ORCA-job R4N+Cl-_wb E -905.731145446512
  N      -2.241096      0.118422      0.162150
  C      -1.270448      0.296863     -0.987988
  C      -2.045170      1.162249      1.201603
  C      -3.614701      0.242900     -0.400922
  C      -2.100410     -1.228836      0.778849
  C       0.180732      0.171226     -0.623171
  C       0.916944      1.289189     -0.240232
  C       0.820542     -1.062604     -0.708226
  C       2.262653      1.172697      0.074046
  C       2.166196     -1.181539     -0.395123
  C       2.888360     -0.064122      0.000598
  H      -1.483136      1.284186     -1.395728
  H      -1.551080     -0.462624     -1.719326
  H      -2.134899      2.142366      0.738033
  H      -1.062779      1.043122      1.651181
  H      -2.813806      1.034725      1.960681
  H      -3.719074      1.226529     -0.853622
  H      -4.332130      0.123863      0.407755
  H      -3.751613     -0.537043     -1.148771
  H      -1.122017     -1.310296      1.244872
  H      -2.220913     -1.979888     -0.001169
  H      -2.875944     -1.337634      1.534149
  H       0.432864      2.258402     -0.193204
  H       0.258774     -1.933786     -1.027435
  H       2.824614      2.050082      0.371036
  H       2.652729     -2.146974     -0.465711
  H       3.940403     -0.155431      0.243426
  Cl     -2.660725     -2.754477     -2.630546
