25
-96.5589773758
F  -0.88516931468798754068 -2.53739014797541750923 0.60491126734269529130
F  -0.96065773946600030442 -1.24495698057139780879 2.32517310926112141800
F  1.35546644828171047870 -2.17980100412390465081 1.78088147507570138117
F  1.45317027462688974637 -1.43498143114544562948 -0.20882182354394079882
F  -2.83830937446000897140 -0.80911025447533291288 0.71000303757219995759
F  -1.58932436279785083144 0.90005120083433987066 0.73139844001376141946
F  0.57210768222439079000 0.94513726735120273670 2.10423328687517452451
F  2.29296685973537961445 -0.19347976153375540109 2.67691446884469774758
F  -0.60472567023322254531 -1.21542422384811521496 -1.72380129702620799037
F  -2.72402772595035491676 -1.25871917207840899877 -1.58020960457593040438
F  3.45791728292418998336 0.21487174265946296092 0.21272586709684782047
F  2.93179832080162405816 2.02627885341230440375 1.26835736103996699065
F  -2.92070923546567939866 0.75206192607680710793 -2.82246343653708819943
F  -0.80434130552550819893 0.87146756204616715458 -3.04230629370209948448
F  -1.81072362929737229464 1.94465548313017100313 -1.46455684641231953513
O  1.94652274407889369634 2.30543509590101169948 -1.35214925100695904092
O  0.41325925697601001430 0.81942028977957992453 -0.66862271645331761150
C  -0.61124965846462464558 -1.28097443088626472552 1.02005092892035653662
C  0.94482791936659471510 -1.14750823784628885882 0.99644272844325920691
C  -1.63051363213132471941 -0.35385246067852804686 0.28171617740691684562
C  1.54582321181867721194 0.15743699515590112159 1.60309248694397510349
C  -1.64483548078805053017 -0.49821554588143951436 -1.27870836152364697469
C  2.39362941475171542294 0.96802249922333594156 0.60504873131436964773
C  -1.76857111264951250007 0.80978916501511633008 -2.13882698772700585721
C  1.48576882633151252655 1.43978557045888067023 -0.64068374764253965825
