25
Coordinates from ORCA-job PFOA_r2 E -1953.032702427008
  F      -0.885169     -2.537390      0.604911
  F      -0.960658     -1.244957      2.325173
  F       1.355466     -2.179801      1.780881
  F       1.453170     -1.434981     -0.208822
  F      -2.838309     -0.809110      0.710003
  F      -1.589324      0.900051      0.731398
  F       0.572108      0.945137      2.104233
  F       2.292967     -0.193480      2.676914
  F      -0.604726     -1.215424     -1.723801
  F      -2.724028     -1.258719     -1.580210
  F       3.457917      0.214872      0.212726
  F       2.931798      2.026279      1.268357
  F      -2.920709      0.752062     -2.822463
  F      -0.804341      0.871468     -3.042306
  F      -1.810724      1.944655     -1.464557
  O       1.946523      2.305435     -1.352149
  O       0.413259      0.819420     -0.668623
  C      -0.611250     -1.280974      1.020051
  C       0.944828     -1.147508      0.996443
  C      -1.630514     -0.353852      0.281716
  C       1.545823      0.157437      1.603092
  C      -1.644835     -0.498216     -1.278708
  C       2.393629      0.968022      0.605049
  C      -1.768571      0.809789     -2.138827
  C       1.485769      1.439786     -0.640684
25
Coordinates from ORCA-job PFOA_r2 E -1953.033621626288
  F      -0.857963     -2.469568      0.529527
  F      -0.955298     -1.134264      2.240531
  F       1.288325     -2.124507      1.737046
  F       1.505253     -1.371620     -0.254189
  F      -2.885889     -0.904206      0.734153
  F      -1.785800      0.914306      0.611586
  F       0.716327      1.035468      2.120239
  F       2.292393     -0.305344      2.729813
  F      -0.860709     -1.249698     -1.878919
  F      -2.952808     -1.462791     -1.498572
  F       3.733187      0.113133      0.509233
  F       3.263877      1.882268      1.683640
  F      -3.495974      0.391363     -2.854272
  F      -1.427224      0.709276     -3.334334
  F      -2.377856      1.820708     -1.728837
  O       2.868680      2.572306     -0.963740
  O       1.024058      1.291021     -0.764764
  C      -0.620813     -1.191471      0.924900
  C       0.961526     -1.065289      0.936747
  C      -1.752750     -0.357019      0.199158
  C       1.649485      0.182784      1.634922
  C      -1.916194     -0.591916     -1.366407
  C       2.719384      0.970700      0.827654
  C      -2.281770      0.632132     -2.315295
  C       2.148649      1.712225     -0.460019
25
Coordinates from ORCA-job PFOA_r2 E -1953.045356577913
  F      -0.905232     -2.546214      0.594424
  F      -0.974141     -1.173506      2.321755
  F       1.293026     -2.173055      1.783279
  F       1.422605     -1.434200     -0.245680
  F      -2.938570     -0.943551      0.760355
  F      -1.754244      0.862278      0.680879
  F       0.640966      1.034847      2.037293
  F       2.307343     -0.207913      2.690311
  F      -0.715384     -1.186677     -1.770912
  F      -2.856225     -1.460030     -1.594665
  F       3.625508      0.123703      0.369390
  F       3.162574      1.921803      1.532788
  F      -3.281783      0.536734     -2.910854
  F      -1.142110      0.818754     -3.157233
  F      -2.207982      1.851238     -1.570049
  O       2.724285      2.534663     -1.102353
  O       0.849268      1.289738     -0.818020
  C      -0.658515     -1.265678      0.997541
  C       0.926853     -1.129095      0.969412
  C      -1.775956     -0.410901      0.262823
  C       1.599212      0.183451      1.589384
  C      -1.842386     -0.588494     -1.331578
  C       2.611332      0.976744      0.711445
  C      -2.114194      0.703368     -2.244494
  C       2.003849      1.681993     -0.555443
25
Coordinates from ORCA-job PFOA_r2 E -1953.048095704907
  F      -0.912536     -2.573393      0.600570
  F      -0.973201     -1.221813      2.350923
  F       1.338649     -2.208501      1.778544
  F       1.412132     -1.415718     -0.239679
  F      -2.906823     -0.866476      0.758650
  F      -1.612880      0.872700      0.710817
  F       0.562203      0.976644      2.039804
  F       2.297007     -0.187603      2.684178
  F      -0.629799     -1.164592     -1.711499
  F      -2.786852     -1.386237     -1.581929
  F       3.524791      0.170849      0.292134
  F       3.011906      1.979569      1.432672
  F      -3.129537      0.643283     -2.884090
  F      -0.978568      0.843208     -3.102639
  F      -2.014630      1.898986     -1.516366
  O       2.466306      2.439652     -1.223852
  O       0.662643      1.113312     -0.843727
  C      -0.648913     -1.305688      1.029785
  C       0.929322     -1.165290      0.990180
  C      -1.713200     -0.394557      0.291333
  C       1.552987      0.164052      1.593670
  C      -1.756761     -0.549937     -1.300584
  C       2.483239      0.982509      0.656338
  C      -1.969541      0.758546     -2.207297
  C       1.792155      1.596494     -0.598138
25
Coordinates from ORCA-job PFOA_r2 E -1953.045075266733
  F      -0.930477     -2.529496      0.608004
  F      -0.965302     -1.147563      2.325871
  F       1.326258     -2.237923      1.730175
  F       1.423413     -1.383753     -0.256228
  F      -2.867504     -0.719969      0.759944
  F      -1.494461      0.944190      0.585340
  F       0.640536      0.932826      2.134700
  F       2.359549     -0.294448      2.686582
  F      -0.667952     -1.219014     -1.756815
  F      -2.814374     -1.423788     -1.517631
  F       3.503645      0.146545      0.235347
  F       3.111484      1.897845      1.506294
  F      -3.229568      0.527505     -2.888946
  F      -1.103741      0.696999     -3.259279
  F      -2.029356      1.849967     -1.673303
  O       2.437236      2.542967     -1.069341
  O       0.576852      1.330731     -0.612674
  C      -0.635280     -1.262533      1.010987
  C       0.943417     -1.163026      0.978217
  C      -1.666330     -0.336703      0.243807
  C       1.601496      0.121190      1.631297
  C      -1.773163     -0.579751     -1.331285
  C       2.510562      0.966112      0.701486
  C      -2.031983      0.672705     -2.297984
  C       1.775144      1.668385     -0.474767
25
Coordinates from ORCA-job PFOA_r2 E -1953.046488110818
  F      -0.879675     -2.486999      0.552642
  F      -0.987974     -1.136378      2.268614
  F       1.297894     -2.164706      1.721264
  F       1.456527     -1.313115     -0.250542
  F      -2.893927     -0.816681      0.704669
  F      -1.660414      0.938924      0.551427
  F       0.686259      1.047934      2.095175
  F       2.269233     -0.279021      2.765919
  F      -0.662754     -1.037809     -1.858692
  F      -2.739672     -1.562066     -1.561033
  F       3.655014      0.058887      0.477479
  F       3.232294      1.859165      1.653362
  F      -3.501992      0.307039     -2.840217
  F      -1.461662      0.817993     -3.308446
  F      -2.485026      1.779897     -1.653698
  O       2.906186      2.447960     -1.003631
  O       0.936702      1.373540     -0.756070
  C      -0.637707     -1.213919      0.959986
  C       0.942546     -1.087518      0.967613
  C      -1.724055     -0.344353      0.194914
  C       1.618437      0.170829      1.659560
  C      -1.830856     -0.577522     -1.380069
  C       2.664217      0.941739      0.810754
  C      -2.318470      0.630730     -2.303227
  C       2.118975      1.645451     -0.467952
25
Coordinates from ORCA-job PFOA_r2 E -1953.049977470490
  F      -0.907047     -2.532359      0.564786
  F      -0.994821     -1.187083      2.308550
  F       1.316420     -2.202543      1.736002
  F       1.421800     -1.346645     -0.251776
  F      -2.907431     -0.801741      0.729107
  F      -1.592943      0.915359      0.619894
  F       0.597406      1.014996      2.052308
  F       2.250370     -0.226368      2.744810
  F      -0.578063     -1.005909     -1.779346
  F      -2.671556     -1.542863     -1.578837
  F       3.603822      0.108511      0.426044
  F       3.112594      1.913740      1.572757
  F      -3.377880      0.406089     -2.851385
  F      -1.293459      0.877932     -3.212078
  F      -2.361275      1.826033     -1.579089
  O       2.791431      2.398135     -1.123264
  O       0.851748      1.262640     -0.849564
  C      -0.651116     -1.265266      0.994666
  C       0.928372     -1.132375      0.980508
  C      -1.711927     -0.361251      0.241155
  C       1.568762      0.167709      1.632580
  C      -1.770885     -0.558999     -1.341804
  C       2.578446      0.958113      0.751076
  C      -2.206988      0.685733     -2.254258
  C       2.004320      1.628409     -0.533043
25
Coordinates from ORCA-job PFOA_r2 E -1953.050412050877
  F      -0.914752     -2.551920      0.572061
  F      -1.000859     -1.208633      2.318386
  F       1.324729     -2.203734      1.747421
  F       1.415733     -1.361608     -0.246069
  F      -2.909316     -0.790379      0.718643
  F      -1.561664      0.904508      0.630765
  F       0.562826      1.014174      2.015897
  F       2.220875     -0.203021      2.740403
  F      -0.544048     -0.992305     -1.758401
  F      -2.637712     -1.542618     -1.582378
  F       3.575178      0.101894      0.414022
  F       3.075308      1.925813      1.529262
  F      -3.333605      0.436857     -2.836023
  F      -1.239529      0.903548     -3.167706
  F      -2.315634      1.828991     -1.529903
  O       2.762164      2.383647     -1.155314
  O       0.799347      1.292687     -0.859381
  C      -0.656421     -1.286449      1.005102
  C       0.921052     -1.146233      0.985164
  C      -1.701187     -0.369371      0.249306
  C       1.543881      0.168546      1.617701
  C      -1.743397     -0.558196     -1.329617
  C       2.546646      0.953418      0.722654
  C      -2.167679      0.699701     -2.225708
  C       1.978163      1.600685     -0.576487
25
Coordinates from ORCA-job PFOA_r2 E -1953.050857135498
  F      -0.918523     -2.529075      0.560138
  F      -1.001734     -1.180536      2.297297
  F       1.317994     -2.203802      1.716560
  F       1.424674     -1.328992     -0.256801
  F      -2.899108     -0.716523      0.708675
  F      -1.508913      0.937088      0.555969
  F       0.602355      1.014288      2.057328
  F       2.230403     -0.250948      2.755190
  F      -0.568953     -0.996697     -1.805496
  F      -2.641399     -1.587782     -1.553053
  F       3.576795      0.081172      0.418365
  F       3.131164      1.883614      1.591909
  F      -3.419138      0.360765     -2.809977
  F      -1.345716      0.846880     -3.232397
  F      -2.367940      1.789335     -1.572994
  O       2.836435      2.384076     -1.102043
  O       0.818143      1.406843     -0.793876
  C      -0.653990     -1.264205      0.986867
  C       0.924341     -1.132322      0.974395
  C      -1.685910     -0.343391      0.217487
  C       1.563321      0.157906      1.640663
  C      -1.761763     -0.580192     -1.349589
  C       2.572951      0.948445      0.760939
  C      -2.235743      0.648970     -2.253506
  C       2.010354      1.655082     -0.512253
25
Coordinates from ORCA-job PFOA_r2 E -1953.051393666607
  F      -0.909837     -2.516030      0.534336
  F      -1.003600     -1.188905      2.287848
  F       1.318175     -2.206392      1.711706
  F       1.430919     -1.309648     -0.255824
  F      -2.892194     -0.703355      0.706660
  F      -1.497055      0.948680      0.564183
  F       0.606357      1.022880      2.057961
  F       2.221129     -0.246335      2.778626
  F      -0.548565     -0.923925     -1.821675
  F      -2.592853     -1.600609     -1.558594
  F       3.610187      0.074379      0.475483
  F       3.127679      1.894336      1.607592
  F      -3.468888      0.301344     -2.805439
  F      -1.428112      0.878720     -3.256764
  F      -2.474701      1.787726     -1.593590
  O       2.881811      2.329693     -1.109044
  O       0.857796      1.363692     -0.798951
  C      -0.648975     -1.256607      0.978452
  C       0.929952     -1.126387      0.977986
  C      -1.679074     -0.328036      0.214572
  C       1.568318      0.160468      1.655107
  C      -1.755199     -0.556993     -1.357142
  C       2.592850      0.939826      0.783567
  C      -2.294106      0.647381     -2.263531
  C       2.048088      1.614098     -0.513725
25
Coordinates from ORCA-job PFOA_r2 E -1953.051721575601
  F      -0.908771     -2.517478      0.533110
  F      -1.010548     -1.189264      2.286794
  F       1.317915     -2.202644      1.708235
  F       1.422878     -1.300755     -0.259419
  F      -2.900257     -0.700732      0.695933
  F      -1.498864      0.948865      0.556131
  F       0.599784      1.030543      2.051019
  F       2.207371     -0.241908      2.782260
  F      -0.527068     -0.882789     -1.819764
  F      -2.555036     -1.621136     -1.569311
  F       3.617499      0.066932      0.497154
  F       3.124429      1.896690      1.608179
  F      -3.482628      0.280642     -2.796373
  F      -1.453621      0.904480     -3.245036
  F      -2.515188      1.773885     -1.568092
  O       2.924738      2.292635     -1.123684
  O       0.877641      1.376114     -0.809395
  C      -0.653691     -1.256951      0.977851
  C       0.925096     -1.122237      0.977262
  C      -1.682464     -0.329279      0.211029
  C       1.562288      0.165239      1.654470
  C      -1.746830     -0.555429     -1.358804
  C       2.597384      0.936114      0.786325
  C      -2.313767      0.644783     -2.252975
  C       2.071812      1.603680     -0.523099
25
Coordinates from ORCA-job PFOA_r2 E -1953.052105722230
  F      -0.905921     -2.518266      0.524374
  F      -1.017952     -1.190656      2.279005
  F       1.318483     -2.195577      1.703092
  F       1.420852     -1.289795     -0.264102
  F      -2.904879     -0.690234      0.684742
  F      -1.488320      0.949908      0.541274
  F       0.590359      1.043768      2.032622
  F       2.180111     -0.234258      2.791838
  F      -0.515500     -0.831426     -1.830342
  F      -2.514221     -1.649197     -1.576081
  F       3.627856      0.048536      0.536005
  F       3.129579      1.891582      1.622764
  F      -3.520201      0.238955     -2.779253
  F      -1.513172      0.926250     -3.240075
  F      -2.584477      1.749383     -1.545134
  O       3.010494      2.245935     -1.126256
  O       0.921250      1.426067     -0.818182
  C      -0.657192     -1.257324      0.971099
  C       0.921622     -1.116069      0.973490
  C      -1.682886     -0.328812      0.202383
  C       1.554213      0.172468      1.653082
  C      -1.745113     -0.554887     -1.363665
  C       2.610407      0.929756      0.797047
  C      -2.357474      0.632408     -2.243444
  C       2.122183      1.601486     -0.526485
25
Coordinates from ORCA-job PFOA_r2 E -1953.052712137833
  F      -0.904581     -2.510029      0.516450
  F      -1.025134     -1.178511      2.267979
  F       1.319253     -2.187097      1.674710
  F       1.409997     -1.253734     -0.281439
  F      -2.911747     -0.667358      0.667924
  F      -1.474901      0.959839      0.510752
  F       0.593671      1.061325      2.023738
  F       2.151788     -0.240110      2.805096
  F      -0.506209     -0.755504     -1.847258
  F      -2.454818     -1.688744     -1.581214
  F       3.644636      0.017157      0.593232
  F       3.149340      1.877820      1.653690
  F      -3.578519      0.156130     -2.761294
  F      -1.613139      0.944551     -3.243411
  F      -2.701012      1.703106     -1.528509
  O       3.132617      2.178848     -1.115011
  O       0.990246      1.504981     -0.813219
  C      -0.662719     -1.247639      0.960857
  C       0.916265     -1.099687      0.961816
  C      -1.685286     -0.320888      0.186757
  C       1.551415      0.179247      1.656889
  C      -1.746439     -0.553648     -1.372603
  C       2.636521      0.918017      0.820353
  C      -2.429660      0.602751     -2.238790
  C       2.198516      1.599178     -0.517695
25
Coordinates from ORCA-job PFOA_r2 E -1953.053834526553
  F      -0.898449     -2.499317      0.500590
  F      -1.033021     -1.161851      2.245884
  F       1.323909     -2.174923      1.641829
  F       1.406987     -1.207552     -0.300324
  F      -2.911372     -0.627138      0.642796
  F      -1.442264      0.975140      0.460613
  F       0.588623      1.090431      1.991984
  F       2.094977     -0.233775      2.831488
  F      -0.505261     -0.635959     -1.892202
  F      -2.366832     -1.733784     -1.595321
  F       3.670236     -0.025106      0.687642
  F       3.171486      1.861422      1.702080
  F      -3.665785      0.031468     -2.726632
  F      -1.780565      0.980754     -3.242714
  F      -2.880915      1.623125     -1.486938
  O       3.309116      2.064385     -1.093115
  O       1.108132      1.602256     -0.814173
  C      -0.664454     -1.235117      0.941145
  C       0.914182     -1.079264      0.947193
  C      -1.679393     -0.307299      0.158718
  C       1.543195      0.191983      1.661287
  C      -1.748477     -0.546380     -1.392800
  C       2.674080      0.900859      0.858936
  C      -2.542953      0.559357     -2.225869
  C       2.314917      1.586286     -0.502296
25
Coordinates from ORCA-job PFOA_r2 E -1953.055902640371
  F      -0.902389     -2.469972      0.489750
  F      -1.046912     -1.111621      2.216804
  F       1.323444     -2.154101      1.580934
  F       1.386804     -1.131057     -0.336498
  F      -2.915133     -0.555639      0.593778
  F      -1.400836      1.010637      0.378069
  F       0.601978      1.136234      1.958010
  F       2.021696     -0.240016      2.858603
  F      -0.514898     -0.437691     -1.957633
  F      -2.206142     -1.783999     -1.622340
  F       3.693605     -0.104635      0.801260
  F       3.227551      1.812633      1.776481
  F      -3.767249     -0.188644     -2.684337
  F      -2.044549      1.018532     -3.233500
  F      -3.158527      1.462294     -1.422098
  O       3.543897      1.905045     -1.039469
  O       1.296166      1.757473     -0.791302
  C      -0.672856     -1.201379      0.915105
  C       0.905160     -1.042396      0.920523
  C      -1.673053     -0.274616      0.113613
  C       1.538599      0.207512      1.666334
  C      -1.744131     -0.526877     -1.425701
  C       2.733164      0.866472      0.913903
  C      -2.708585      0.473195     -2.206689
  C       2.483298      1.572617     -0.463803
25
Coordinates from ORCA-job PFOA_r2 E -1953.056552732532
  F      -0.904471     -2.425607      0.511637
  F      -1.056395     -1.002393      2.175611
  F       1.333004     -2.107834      1.497251
  F       1.359483     -1.016565     -0.388320
  F      -2.907716     -0.485686      0.510697
  F      -1.365438      1.059471      0.248215
  F       0.631074      1.226139      1.874459
  F       1.895097     -0.214564      2.895899
  F      -0.583505     -0.138301     -2.083737
  F      -1.984513     -1.791401     -1.719222
  F       3.699433     -0.241575      0.951424
  F       3.328277      1.717585      1.892216
  F      -3.861047     -0.505601     -2.637409
  F      -2.468564      1.071136     -3.178634
  F      -3.534934      1.148144     -1.280997
  O       3.844795      1.657820     -0.945579
  O       1.611372      1.959671     -0.731161
  C      -0.676818     -1.142589      0.880103
  C       0.897393     -0.979733      0.880723
  C      -1.660041     -0.233773      0.035237
  C       1.531749      0.243762      1.665239
  C      -1.743511     -0.480134     -1.497185
  C       2.820671      0.807256      0.996508
  C      -2.937263      0.335122     -2.165367
  C       2.731968      1.539651     -0.387810
25
Coordinates from ORCA-job PFOA_r2 E -1953.058336634366
  F      -0.903884     -2.440068      0.538737
  F      -1.029826     -1.010940      2.199575
  F       1.365004     -2.113809      1.448580
  F       1.332636     -0.984685     -0.414291
  F      -2.901065     -0.529265      0.563078
  F      -1.387947      1.042341      0.276432
  F       0.622209      1.213911      1.870231
  F       1.889873     -0.227817      2.887924
  F      -0.572407     -0.220590     -2.047318
  F      -2.043603     -1.805125     -1.693206
  F       3.702087     -0.218869      0.932160
  F       3.310721      1.726653      1.891281
  F      -3.866016     -0.429543     -2.634155
  F      -2.364806      1.023068     -3.222230
  F      -3.439977      1.262243     -1.351087
  O       3.789800      1.692401     -0.965798
  O       1.555003      1.945218     -0.712344
  C      -0.670826     -1.155430      0.898176
  C       0.898870     -0.980077      0.865192
  C      -1.667611     -0.255329      0.064075
  C       1.528196      0.236658      1.659031
  C      -1.755204     -0.503202     -1.474328
  C       2.809240      0.816714      0.992300
  C      -2.891753      0.366131     -2.184175
  C       2.691388      1.549413     -0.388042
25
Coordinates from ORCA-job PFOA_r2 E -1953.059351293151
  F      -0.912120     -2.432845      0.558838
  F      -1.009848     -0.979752      2.197907
  F       1.405967     -2.107730      1.380310
  F       1.318932     -0.918440     -0.441035
  F      -2.876748     -0.526751      0.566540
  F      -1.374120      1.053519      0.258759
  F       0.622154      1.225788      1.838098
  F       1.830372     -0.232187      2.904975
  F      -0.590213     -0.136625     -2.075023
  F      -1.973647     -1.795843     -1.725596
  F       3.704865     -0.239037      0.983529
  F       3.309153      1.715326      1.926085
  F      -3.908464     -0.483989     -2.558935
  F      -2.457686      0.969093     -3.261629
  F      -3.453483      1.265086     -1.359422
  O       3.807383      1.615432     -0.963077
  O       1.588451      1.955652     -0.678919
  C      -0.660138     -1.146970      0.896308
  C       0.905094     -0.966633      0.843969
  C      -1.650721     -0.248540      0.053998
  C       1.520105      0.234976      1.662880
  C      -1.748973     -0.485962     -1.489359
  C       2.818322      0.802077      1.024164
  C      -2.930260      0.343016     -2.179396
  C       2.715725      1.521340     -0.364173
25
Coordinates from ORCA-job PFOA_r2 E -1953.061149576683
  F      -0.942945     -2.410118      0.601629
  F      -0.992571     -0.919890      2.209531
  F       1.446566     -2.084735      1.237111
  F       1.243828     -0.783853     -0.496612
  F      -2.886266     -0.549824      0.553623
  F      -1.412423      1.074045      0.278878
  F       0.640848      1.252042      1.824582
  F       1.757584     -0.266790      2.905119
  F      -0.623289      0.099621     -2.051815
  F      -1.760269     -1.749901     -1.784484
  F       3.689987     -0.304163      1.037431
  F       3.337706      1.661612      1.973789
  F      -3.937828     -0.642277     -2.429084
  F      -2.612812      0.819723     -3.337740
  F      -3.514031      1.239265     -1.419224
  O       3.856054      1.421983     -0.979993
  O       1.731234      2.103620     -0.599146
  C      -0.669061     -1.122013      0.905539
  C       0.889210     -0.929336      0.799998
  C      -1.662069     -0.233689      0.056386
  C       1.508935      0.233371      1.662080
  C      -1.724353     -0.433924     -1.494620
  C       2.838017      0.765634      1.059217
  C      -2.990937      0.267039     -2.179460
  C       2.788985      1.492558     -0.332936
25
Coordinates from ORCA-job PFOA_r2 E -1953.062817819306
  F      -0.984980     -2.379587      0.661151
  F      -0.983697     -0.849357      2.229008
  F       1.462657     -2.068969      1.128870
  F       1.173624     -0.684483     -0.526966
  F      -2.898695     -0.596036      0.522130
  F      -1.485375      1.097220      0.331968
  F       0.673033      1.267858      1.833078
  F       1.720760     -0.307805      2.903761
  F      -0.672078      0.372946     -2.006850
  F      -1.524678     -1.638085     -1.859370
  F       3.672686     -0.371518      1.047929
  F       3.383495      1.595461      2.001456
  F      -3.913247     -0.804150     -2.299421
  F      -2.734406      0.640260     -3.418151
  F      -3.578829      1.207017     -1.515729
  O       3.837153      1.255791     -1.026653
  O       1.855170      2.222363     -0.512836
  C      -0.680913     -1.091653      0.926266
  C       0.871330     -0.903687      0.773888
  C      -1.675963     -0.214391      0.063757
  C       1.508620      0.222555      1.666723
  C      -1.687612     -0.351409     -1.500406
  C       2.855999      0.724639      1.078480
  C      -3.025978      0.190333     -2.190745
  C       2.832024      1.464687     -0.311538
25
Coordinates from ORCA-job PFOA_r2 E -1953.064769316214
  F      -1.053024     -2.357659      0.711165
  F      -1.015277     -0.820342      2.271342
  F       1.423150     -2.097274      1.124669
  F       1.103467     -0.700800     -0.518956
  F      -2.936302     -0.662891      0.463736
  F      -1.611067      1.100059      0.479595
  F       0.690546      1.254422      1.859513
  F       1.762643     -0.335066      2.891804
  F      -0.689777      0.665397     -1.873477
  F      -1.270206     -1.455204     -1.896990
  F       3.655859     -0.402318      0.979285
  F       3.418214      1.559110      1.947358
  F      -3.778006     -0.920241     -2.227725
  F      -2.694223      0.495121     -3.479865
  F      -3.590939      1.179580     -1.635103
  O       3.712630      1.141002     -1.151802
  O       1.879886      2.289926     -0.480612
  C      -0.713763     -1.078849      0.971634
  C       0.838491     -0.923156      0.791311
  C      -1.705328     -0.194330      0.103442
  C       1.513721      0.200952      1.665453
  C      -1.618466     -0.229211     -1.469924
  C       2.849618      0.700488      1.040082
  C      -2.968321      0.146559     -2.213385
  C       2.796574      1.444727     -0.352748
25
Coordinates from ORCA-job PFOA_r2 E -1953.066037450765
  F      -1.028456     -2.388744      0.637275
  F      -1.028884     -0.910790      2.259576
  F       1.429487     -2.086116      1.064848
  F       1.061430     -0.656638     -0.545234
  F      -2.964613     -0.671207      0.447656
  F      -1.628216      1.068693      0.564554
  F       0.640168      1.263442      1.801885
  F       1.711236     -0.302616      2.874198
  F      -0.707221      0.755281     -1.790504
  F      -1.173983     -1.397690     -1.878807
  F       3.648849     -0.383858      1.041508
  F       3.354576      1.607196      1.929175
  F      -3.774648     -0.899328     -2.102586
  F      -2.662915      0.384940     -3.469510
  F      -3.512493      1.231744     -1.664962
  O       3.691149      1.005779     -1.177403
  O       1.974714      2.329821     -0.517763
  C      -0.723232     -1.112744      0.953589
  C       0.823247     -0.916851      0.765313
  C      -1.721570     -0.202624      0.126809
  C       1.479919      0.216990      1.638925
  C      -1.595077     -0.197700     -1.433262
  C       2.828166      0.711205      1.035079
  C      -2.934172      0.140230     -2.177584
  C       2.812640      1.411586     -0.382975
25
Coordinates from ORCA-job PFOA_r2 E -1953.066390216406
  F      -0.971596     -2.412064      0.583935
  F      -1.037459     -0.964051      2.228986
  F       1.400499     -2.099706      1.195813
  F       1.140393     -0.776570     -0.527179
  F      -2.964661     -0.701699      0.423428
  F      -1.662153      1.037647      0.571302
  F       0.610050      1.269032      1.711011
  F       1.710773     -0.217371      2.875035
  F      -0.651221      0.674352     -1.810220
  F      -1.287998     -1.445309     -1.903529
  F       3.684695     -0.334673      1.081226
  F       3.310906      1.666422      1.918014
  F      -3.818267     -0.806431     -2.125934
  F      -2.665258      0.490363     -3.432192
  F      -3.463271      1.265111     -1.552966
  O       3.744618      1.050526     -1.154742
  O       1.911369      2.237681     -0.563872
  C      -0.709659     -1.130889      0.925850
  C       0.843896     -0.939597      0.787963
  C      -1.725746     -0.222677      0.114049
  C       1.480892      0.239076      1.615681
  C      -1.606774     -0.213974     -1.446279
  C       2.835740      0.736968      1.031612
  C      -2.930800      0.196215     -2.152647
  C       2.821129      1.401618     -0.394546
25
Coordinates from ORCA-job PFOA_r2 E -1953.067046999086
  F      -0.976994     -2.390236      0.596389
  F      -1.019003     -0.931024      2.231298
  F       1.413541     -2.076814      1.160341
  F       1.136526     -0.732527     -0.540485
  F      -2.946331     -0.735472      0.424861
  F      -1.700407      1.054617      0.570340
  F       0.641582      1.279770      1.697813
  F       1.683506     -0.232335      2.880714
  F      -0.738320      0.801965     -1.793988
  F      -1.174635     -1.356235     -1.921274
  F       3.690873     -0.372501      1.108651
  F       3.332268      1.637916      1.939935
  F      -3.809958     -0.886150     -2.111403
  F      -2.721086      0.426567     -3.449560
  F      -3.556514      1.217509     -1.598890
  O       3.721123      0.954529     -1.166414
  O       2.000729      2.272605     -0.517966
  C      -0.708520     -1.106567      0.923881
  C       0.845081     -0.916342      0.772804
  C      -1.731447     -0.210058      0.113915
  C       1.491281      0.234713      1.617693
  C      -1.613483     -0.168828     -1.448501
  C       2.858146      0.709775      1.048717
  C      -2.970144      0.154547     -2.162935
  C       2.852287      1.370577     -0.376137
25
Coordinates from ORCA-job PFOA_r2 E -1953.067234079254
  F      -0.977643     -2.405384      0.574001
  F      -1.021212     -0.971306      2.235110
  F       1.429319     -2.080149      1.166131
  F       1.139178     -0.736206     -0.534383
  F      -2.949047     -0.738367      0.436744
  F      -1.680272      1.040249      0.583459
  F       0.614659      1.264752      1.717865
  F       1.691184     -0.236210      2.879700
  F      -0.708632      0.761726     -1.783959
  F      -1.201343     -1.379039     -1.912758
  F       3.692159     -0.328830      1.129102
  F       3.293069      1.687126      1.920790
  F      -3.818144     -0.840731     -2.113926
  F      -2.691214      0.453094     -3.446144
  F      -3.513659      1.258509     -1.596613
  O       3.704251      0.920009     -1.179228
  O       1.996685      2.274512     -0.566631
  C      -0.708895     -1.127418      0.924453
  C       0.846342     -0.925080      0.777314
  C      -1.729418     -0.223354      0.123996
  C       1.480841      0.234379      1.620333
  C      -1.610150     -0.182063     -1.439298
  C       2.838458      0.734282      1.043527
  C      -2.954674      0.179628     -2.161222
  C       2.838257      1.365870     -0.398566
25
Coordinates from ORCA-job PFOA_r2 E -1953.067340412680
  F      -0.975874     -2.408140      0.577318
  F      -1.019621     -0.977850      2.241085
  F       1.423365     -2.079192      1.167860
  F       1.124951     -0.745215     -0.539706
  F      -2.955331     -0.760792      0.427834
  F      -1.711016      1.028625      0.605479
  F       0.614134      1.274921      1.693157
  F       1.681964     -0.218689      2.873648
  F      -0.700732      0.777514     -1.756349
  F      -1.187760     -1.363141     -1.910667
  F       3.691524     -0.330979      1.127595
  F       3.292435      1.685538      1.915847
  F      -3.799464     -0.841406     -2.116531
  F      -2.670417      0.455251     -3.442828
  F      -3.508245      1.257032     -1.595423
  O       3.685479      0.900371     -1.197392
  O       2.011274      2.284499     -0.561125
  C      -0.711955     -1.129640      0.929037
  C       0.840638     -0.924759      0.775022
  C      -1.738437     -0.229954      0.132411
  C       1.477277      0.240053      1.609234
  C      -1.603648     -0.171772     -1.429012
  C       2.839907      0.732644      1.037683
  C      -2.940975      0.182634     -2.159740
  C       2.840628      1.362447     -0.404640
25
Coordinates from ORCA-job PFOA_r2 E -1953.067412667432
  F      -0.958432     -2.418127      0.564467
  F      -1.014095     -0.999544      2.237952
  F       1.427768     -2.072951      1.184940
  F       1.133197     -0.762032     -0.540768
  F      -2.955048     -0.793724      0.421199
  F      -1.737558      1.009283      0.622596
  F       0.606314      1.286852      1.650631
  F       1.660181     -0.185987      2.871676
  F      -0.701117      0.787980     -1.731457
  F      -1.186887     -1.352253     -1.918815
  F       3.697887     -0.318236      1.156038
  F       3.273710      1.707146      1.908396
  F      -3.799038     -0.826611     -2.124299
  F      -2.665194      0.483371     -3.430886
  F      -3.508641      1.263711     -1.576016
  O       3.674605      0.850629     -1.206477
  O       2.042298      2.284817     -0.572619
  C      -0.707697     -1.138987      0.924449
  C       0.843654     -0.924725      0.774399
  C      -1.744883     -0.244446      0.136614
  C       1.471350      0.251286      1.597179
  C      -1.604823     -0.166316     -1.422496
  C       2.841166      0.737769      1.037984
  C      -2.939408      0.196176     -2.152552
  C       2.850790      1.344918     -0.412336
25
Coordinates from ORCA-job PFOA_r2 E -1953.067468274655
  F      -0.948659     -2.428826      0.561012
  F      -1.013069     -1.017680      2.241650
  F       1.430646     -2.069578      1.215246
  F       1.141202     -0.789761     -0.534130
  F      -2.954546     -0.831995      0.411892
  F      -1.768020      0.986967      0.645731
  F       0.598093      1.294138      1.619240
  F       1.648393     -0.156625      2.870493
  F      -0.692630      0.796123     -1.700408
  F      -1.182696     -1.340623     -1.922239
  F       3.699369     -0.305118      1.166225
  F       3.259697      1.726029      1.891970
  F      -3.787035     -0.809488     -2.147694
  F      -2.643103      0.525921     -3.419790
  F      -3.506904      1.271982     -1.561403
  O       3.653831      0.812054     -1.224858
  O       2.055946      2.285298     -0.592972
  C      -0.706042     -1.149663      0.927379
  C       0.845071     -0.929797      0.781402
  C      -1.751442     -0.260542      0.143621
  C       1.466000      0.259829      1.588080
  C      -1.601062     -0.159915     -1.412861
  C       2.837760      0.744176      1.030152
  C      -2.929318      0.214964     -2.149890
  C       2.848619      1.332130     -0.428050
25
Coordinates from ORCA-job PFOA_r2 E -1953.067578748192
  F      -0.915277     -2.459619      0.544437
  F      -1.008561     -1.070052      2.244918
  F       1.443050     -2.054462      1.290190
  F       1.163283     -0.859128     -0.520079
  F      -2.948749     -0.933099      0.384816
  F      -1.841592      0.922395      0.701637
  F       0.571102      1.317277      1.512287
  F       1.593936     -0.064362      2.862720
  F      -0.678533      0.814029     -1.627068
  F      -1.180205     -1.312203     -1.934447
  F       3.693725     -0.277519      1.204094
  F       3.223251      1.769904      1.856525
  F      -3.767402     -0.762011     -2.190637
  F      -2.604326      0.632520     -3.381842
  F      -3.505570      1.294145     -1.512780
  O       3.630985      0.716266     -1.251058
  O       2.118106      2.288526     -0.651665
  C      -0.698271     -1.180744      0.929389
  C       0.850652     -0.941730      0.794984
  C      -1.766162     -0.305661      0.157113
  C       1.445140      0.287938      1.557173
  C      -1.596581     -0.146077     -1.389718
  C       2.828795      0.759924      1.014555
  C      -2.913060      0.263350     -2.133298
  C       2.862364      1.300391     -0.462447
25
Coordinates from ORCA-job PFOA_r2 E -1953.067651611501
  F      -0.895447     -2.470741      0.534361
  F      -1.005278     -1.090186      2.242651
  F       1.455432     -2.038814      1.297777
  F       1.163310     -0.860832     -0.523193
  F      -2.945125     -0.977423      0.374135
  F      -1.871664      0.894647      0.719645
  F       0.563940      1.335941      1.464946
  F       1.557819     -0.025558      2.857716
  F      -0.688589      0.826034     -1.607825
  F      -1.179435     -1.298660     -1.943102
  F       3.685208     -0.273841      1.234386
  F       3.214622      1.784069      1.850674
  F      -3.768572     -0.754430     -2.200012
  F      -2.608936      0.668712     -3.362538
  F      -3.519164      1.291720     -1.486046
  O       3.639566      0.658449     -1.243119
  O       2.188137      2.298802     -0.675837
  C      -0.693953     -1.191361      0.926647
  C       0.852141     -0.936464      0.792411
  C      -1.773578     -0.325282      0.159010
  C       1.434123      0.305053      1.544100
  C      -1.601801     -0.142099     -1.383750
  C       2.828225      0.764668      1.016809
  C      -2.919993      0.274466     -2.122073
  C       2.889114      1.283132     -0.467974
25
Coordinates from ORCA-job PFOA_r2 E -1953.067727788014
  F      -0.882415     -2.476301      0.528066
  F      -1.004572     -1.100734      2.239655
  F       1.470194     -2.019538      1.269580
  F       1.143768     -0.828440     -0.538912
  F      -2.947603     -0.997280      0.372351
  F      -1.881810      0.880769      0.730591
  F       0.566847      1.360617      1.429397
  F       1.519619     -0.000715      2.851063
  F      -0.711737      0.841686     -1.606392
  F      -1.173851     -1.287056     -1.945810
  F       3.670393     -0.288424      1.257383
  F       3.222868      1.777620      1.861821
  F      -3.774325     -0.771358     -2.199233
  F      -2.631979      0.675570     -3.350138
  F      -3.545486      1.271012     -1.466224
  O       3.677319      0.618805     -1.213662
  O       2.268923      2.310627     -0.689361
  C      -0.693463     -1.195857      0.923614
  C       0.848517     -0.922014      0.779771
  C      -1.780484     -0.334792      0.159819
  C       1.424754      0.321373      1.533479
  C      -1.611325     -0.140106     -1.381422
  C       2.831648      0.762750      1.026153
  C      -2.937322      0.266790     -2.112134
  C       2.931622      1.274998     -0.459657
25
Coordinates from ORCA-job PFOA_r2 E -1953.067764440899
  F      -0.878628     -2.478100      0.522606
  F      -1.006747     -1.107558      2.237116
  F       1.468946     -2.018479      1.276302
  F       1.147915     -0.833675     -0.537643
  F      -2.948230     -1.002820      0.366579
  F      -1.888433      0.874471      0.736906
  F       0.567254      1.362412      1.419309
  F       1.517001      0.007790      2.850158
  F      -0.714287      0.847413     -1.603160
  F      -1.174800     -1.281033     -1.950228
  F       3.673723     -0.283775      1.266342
  F       3.218433      1.784026      1.859290
  F      -3.776315     -0.768390     -2.197701
  F      -2.636987      0.680477     -3.347875
  F      -3.546773      1.271099     -1.458835
  O       3.693496      0.615367     -1.206921
  O       2.266548      2.297188     -0.700500
  C      -0.693119     -1.198076      0.921668
  C       0.849389     -0.922522      0.781033
  C      -1.781883     -0.336942      0.159691
  C       1.425115      0.323631      1.530969
  C      -1.612857     -0.136407     -1.381418
  C       2.833136      0.764465      1.026952
  C      -2.939358      0.270000     -2.109540
  C       2.937561      1.269438     -0.461301
25
Coordinates from ORCA-job PFOA_r2 E -1953.067796684162
  F      -0.880979     -2.472018      0.513865
  F      -1.005879     -1.107024      2.230899
  F       1.467753     -2.019835      1.256422
  F       1.145982     -0.815475     -0.545079
  F      -2.949854     -0.979716      0.372068
  F      -1.871023      0.887150      0.730961
  F       0.574018      1.361503      1.428903
  F       1.519447     -0.005301      2.851096
  F      -0.723775      0.849151     -1.621672
  F      -1.180601     -1.281839     -1.952337
  F       3.682123     -0.282696      1.282179
  F       3.215486      1.785224      1.868155
  F      -3.787362     -0.779199     -2.182241
  F      -2.661455      0.660625     -3.353802
  F      -3.553817      1.264350     -1.458098
  O       3.739822      0.634358     -1.182157
  O       2.244366      2.265401     -0.707272
  C      -0.693042     -1.193211      0.915467
  C       0.849612     -0.917918      0.774077
  C      -1.778032     -0.325995      0.157170
  C       1.429663      0.319804      1.534052
  C      -1.618562     -0.135252     -1.387652
  C       2.838602      0.762212      1.036298
  C      -2.951007      0.261051     -2.108705
  C       2.948614      1.264650     -0.452796
25
Coordinates from ORCA-job PFOA_r2 E -1953.067834797136
  F      -0.856030     -2.480810      0.483287
  F      -0.996351     -1.143848      2.220317
  F       1.481643     -1.999240      1.252837
  F       1.147360     -0.810937     -0.558865
  F      -2.947158     -1.020075      0.361751
  F      -1.900199      0.855337      0.762645
  F       0.573236      1.384896      1.353311
  F       1.466476      0.045303      2.836309
  F      -0.747086      0.878220     -1.594402
  F      -1.179671     -1.251107     -1.963708
  F       3.682504     -0.264769      1.351403
  F       3.188714      1.816707      1.861122
  F      -3.790978     -0.778709     -2.184821
  F      -2.687388      0.697791     -3.329013
  F      -3.584042      1.251738     -1.418558
  O       3.802878      0.567985     -1.141802
  O       2.306083      2.221280     -0.755198
  C      -0.686865     -1.205089      0.903360
  C       0.851653     -0.907806      0.761437
  C      -1.786170     -0.342751      0.162896
  C       1.418896      0.340352      1.510219
  C      -1.630688     -0.120120     -1.378308
  C       2.843700      0.768401      1.047331
  C      -2.968797      0.271146     -2.091025
  C       2.998380      1.226106     -0.452724
25
Coordinates from ORCA-job PFOA_r2 E -1953.067890622837
  F      -0.851366     -2.477591      0.472288
  F      -0.991801     -1.148001      2.214952
  F       1.489457     -1.993604      1.233447
  F       1.144266     -0.790805     -0.566853
  F      -2.946162     -1.016635      0.367552
  F      -1.894285      0.859277      0.758798
  F       0.575975      1.390226      1.356642
  F       1.460475      0.040650      2.836232
  F      -0.758528      0.880220     -1.603602
  F      -1.186574     -1.250884     -1.968088
  F       3.684065     -0.259310      1.375570
  F       3.184613      1.825866      1.863332
  F      -3.798776     -0.786221     -2.178751
  F      -2.705686      0.696590     -3.326401
  F      -3.596715      1.245910     -1.413276
  O       3.830328      0.554896     -1.119558
  O       2.317175      2.200975     -0.765879
  C      -0.684034     -1.203385      0.897147
  C       0.853176     -0.900337      0.753448
  C      -1.785420     -0.340609      0.160946
  C       1.418700      0.342931      1.511415
  C      -1.637765     -0.120442     -1.381630
  C       2.846674      0.769698      1.056204
  C      -2.980687      0.267032     -2.088091
  C       3.012996      1.213554     -0.446044
25
Coordinates from ORCA-job PFOA_r2 E -1953.067953955956
  F      -0.827466     -2.468162      0.424065
  F      -0.969232     -1.172319      2.191705
  F       1.521809     -1.965465      1.160972
  F       1.129646     -0.721721     -0.602879
  F      -2.940116     -1.019832      0.384948
  F      -1.887101      0.861267      0.760245
  F       0.587132      1.415390      1.334616
  F       1.418133      0.043648      2.825663
  F      -0.813848      0.910210     -1.619307
  F      -1.201415     -1.227803     -1.987149
  F       3.687444     -0.232210      1.488700
  F       3.159783      1.867412      1.866296
  F      -3.822867     -0.818608     -2.157012
  F      -2.780947      0.699398     -3.309228
  F      -3.658431      1.215862     -1.384072
  O       3.943553      0.480473     -1.025202
  O       2.386613      2.111130     -0.814449
  C      -0.671160     -1.200314      0.870462
  C       0.859310     -0.870965      0.717799
  C      -1.786133     -0.337730      0.157501
  C       1.414834      0.358595      1.502794
  C      -1.666914     -0.110000     -1.387407
  C       2.860302      0.774939      1.091088
  C      -3.029150      0.253144     -2.071604
  C       3.086319      1.153661     -0.418748
25
Coordinates from ORCA-job PFOA_r2 E -1953.067968416470
  F      -0.833795     -2.472755      0.439146
  F      -0.975473     -1.168017      2.200712
  F       1.514931     -1.972823      1.183165
  F       1.130496     -0.745044     -0.592514
  F      -2.941868     -1.024169      0.380947
  F      -1.893637      0.857391      0.763245
  F       0.580246      1.407596      1.337422
  F       1.428486      0.046007      2.827266
  F      -0.795031      0.901692     -1.607478
  F      -1.195065     -1.233431     -1.979328
  F       3.685006     -0.238310      1.457020
  F       3.164971      1.858125      1.862387
  F      -3.811548     -0.806851     -2.168338
  F      -2.751005      0.704586     -3.312266
  F      -3.640940      1.225811     -1.393959
  O       3.900396      0.492901     -1.059875
  O       2.374019      2.144720     -0.800656
  C      -0.674729     -1.203237      0.880167
  C       0.857216     -0.880447      0.728277
  C      -1.787332     -0.341329      0.160766
  C       1.413722      0.355520      1.503265
  C      -1.657022     -0.112733     -1.382328
  C       2.855229      0.774662      1.078828
  C      -3.011650      0.259621     -2.076672
  C       3.064476      1.170514     -0.429400
25
Coordinates from ORCA-job PFOA_r2 E -1953.067971838808
  F      -0.828486     -2.473097      0.432235
  F      -0.973549     -1.173870      2.197240
  F       1.518820     -1.968128      1.176927
  F       1.129283     -0.738830     -0.596751
  F      -2.941259     -1.028501      0.380324
  F      -1.896245      0.853721      0.766229
  F       0.581366      1.411974      1.327845
  F       1.420365      0.052038      2.824678
  F      -0.800833      0.905134     -1.607035
  F      -1.197999     -1.229826     -1.982314
  F       3.684645     -0.234171      1.472843
  F       3.160601      1.864533      1.861605
  F      -3.815438     -0.807944     -2.166069
  F      -2.760208      0.708182     -3.308372
  F      -3.647374      1.222648     -1.386495
  O       3.916467      0.481464     -1.046860
  O       2.386216      2.132872     -0.808613
  C      -0.672907     -1.204289      0.876739
  C       0.858094     -0.876876      0.724205
  C      -1.788265     -0.343087      0.160547
  C       1.412549      0.359273      1.500109
  C      -1.660803     -0.111197     -1.382296
  C       2.856898      0.775996      1.082744
  C      -3.017414      0.259862     -2.073224
  C       3.075576      1.162119     -0.426443
25
Coordinates from ORCA-job PFOA_r2 E -1953.067972575490
  F      -0.825623     -2.473262      0.428421
  F      -0.972368     -1.177284      2.195433
  F       1.521519     -1.965684      1.173565
  F       1.128546     -0.735800     -0.598957
  F      -2.940489     -1.030545      0.380735
  F      -1.896853      0.852197      0.767691
  F       0.581664      1.414067      1.322478
  F       1.415661      0.055423      2.823296
  F      -0.804077      0.907110     -1.606936
  F      -1.199441     -1.227927     -1.983628
  F       3.684088     -0.232366      1.481110
  F       3.158606      1.867488      1.861624
  F      -3.817606     -0.808517     -2.164433
  F      -2.764750      0.709196     -3.306729
  F      -3.650825      1.221611     -1.383736
  O       3.922797      0.474904     -1.041185
  O       2.392959      2.127825     -0.811537
  C      -0.671614     -1.204942      0.875025
  C       0.858858     -0.875224      0.722074
  C      -1.788431     -0.343833      0.160555
  C       1.411729      0.361320      1.498385
  C      -1.662789     -0.110370     -1.382174
  C       2.857773      0.776614      1.084900
  C      -3.020427      0.259943     -2.071595
  C       3.081194      1.158054     -0.424582
25
Coordinates from ORCA-job PFOA_r2 E -1953.067972713802
  F      -0.824329     -2.473649      0.427083
  F      -0.972266     -1.179020      2.194898
  F       1.522337     -1.964726      1.173137
  F       1.128268     -0.735238     -0.599465
  F      -2.940252     -1.031923      0.380565
  F      -1.897486      0.851051      0.768641
  F       0.581628      1.414963      1.319851
  F       1.413787      0.057477      2.822750
  F      -0.804701      0.907359     -1.606472
  F      -1.200092     -1.227515     -1.983929
  F       3.683670     -0.231830      1.483545
  F       3.158038      1.868466      1.861390
  F      -3.818349     -0.808002     -2.164107
  F      -2.765474      0.709986     -3.305991
  F      -3.651307      1.221754     -1.382640
  O       3.924035      0.472428     -1.039943
  O       2.395739      2.127015     -0.812294
  C      -0.671219     -1.205487      0.874628
  C       0.859044     -0.874757      0.721637
  C      -1.788603     -0.344504      0.160682
  C       1.411278      0.362307      1.497576
  C      -1.663348     -0.110267     -1.381910
  C       2.857952      0.776932      1.085349
  C      -3.021051      0.260374     -2.070950
  C       3.082802      1.156807     -0.424236
25
Coordinates from ORCA-job PFOA_r2 E -1953.067972751768
  F      -0.823962     -2.473920      0.426745
  F      -0.972267     -1.179735      2.194848
  F       1.522491     -1.964541      1.173526
  F       1.128285     -0.735507     -0.599425
  F      -2.940170     -1.032408      0.380528
  F      -1.897531      0.850603      0.769009
  F       0.581468      1.415171      1.318882
  F       1.413175      0.058306      2.822609
  F      -0.804526      0.907141     -1.606194
  F      -1.200337     -1.227614     -1.983896
  F       3.683443     -0.231737      1.483703
  F       3.157951      1.868602      1.861312
  F      -3.818538     -0.807475     -2.164027
  F      -2.765173      0.710235     -3.305830
  F      -3.650967      1.222238     -1.382545
  O       3.923580      0.471872     -1.040133
  O       2.396368      2.127427     -0.812232
  C      -0.671133     -1.205814      0.874630
  C       0.859063     -0.874801      0.721726
  C      -1.788586     -0.344821      0.160798
  C       1.411054      0.362594      1.497293
  C      -1.663373     -0.110352     -1.381743
  C       2.857861      0.777075      1.085299
  C      -3.020952      0.260695     -2.070802
  C       3.082875      1.156768     -0.424281
