25
Coordinates from ORCA-job PFOA_r2 E -1953.067972751768
  F          -0.82396243872097     -2.47391979803707      0.42674515120887
  F          -0.97226653374349     -1.17973523702807      2.19484754882565
  F           1.52249052328689     -1.96454125214123      1.17352573034695
  F           1.12828523118883     -0.73550708122986     -0.59942475945096
  F          -2.94016971184238     -1.03240809651022      0.38052846007829
  F          -1.89753081749466      0.85060276266372      0.76900934952211
  F           0.58146827025219      1.41517106462290      1.31888185038848
  F           1.41317493643798      0.05830629471867      2.82260879246766
  F          -0.80452566995011      0.90714105384277     -1.60619412681250
  F          -1.20033654100897     -1.22761357974883     -1.98389579409327
  F           3.68344306388250     -0.23173667227080      1.48370347753210
  F           3.15795134415978      1.86860195834971      1.86131182244104
  F          -3.81853815496120     -0.80747536851264     -2.16402677197261
  F          -2.76517335539247      0.71023524597527     -3.30583032541479
  F          -3.65096733749489      1.22223756014176     -1.38254535721813
  O           3.92357990657505      0.47187192945269     -1.04013338904350
  O           2.39636821946116      2.12742654790774     -0.81223249731020
  C          -0.67113266521584     -1.20581385972919      0.87462978819081
  C           0.85906261098079     -0.87480140076268      0.72172630340169
  C          -1.78858632519254     -0.34482132890871      0.16079767006759
  C           1.41105410502030      0.36259393537945      1.49729276187625
  C          -1.66337319810863     -0.11035216371286     -1.38174265836532
  C           2.85786087034280      0.77707488686516      1.08529905100883
  C          -3.02095174222603      0.26069453739368     -2.07080199657530
  C           3.08287540976397      1.15676806127863     -0.42428108109975
