25
Coordinates from ORCA-job PFOA_wb E -1953.445772470908
  F          -1.00185722214771      1.97136161417065     -0.14022879184786
  F           0.49489813602720      1.21654475041297     -1.51861277598776
  F           1.35070132919628      1.68675768352836      0.94475690040795
  F          -0.18094665389802      0.40519988753052      1.80721747760505
  F          -1.89978245291803      0.43340737963178     -2.08746572097650
  F          -0.61467801341872     -1.21835354307619     -1.50798448495513
  F           2.15056357420856     -0.63498839843553      1.99537972411601
  F           0.91172028008281     -1.77049542125553      0.62263616841946
  F          -3.14193884825420     -1.57295732392375     -0.94171759038073
  F          -1.89519303153850     -1.48465161406274      0.83947739459191
  F           2.25676218207046     -0.87273971802310     -1.48599343632153
  F           3.51455798581906     -1.76200858972345      0.04550284377268
  F          -3.96461810956597      1.05889473046109     -0.40038113948570
  F          -2.90688088642885      0.93104091238085      1.48018710630402
  F          -4.45821923253660     -0.48876042767309      1.02117203533022
  O           4.46805161231145      0.67987960287462      0.74263152977826
  O           3.64327014006728      1.35272761112050     -1.23553782496367
  C          -0.28934668998954      0.88358985440166     -0.48593292745580
  C           0.62653028288826      0.57049597377635      0.74672726731170
  C          -1.30495312347454     -0.16843745739743     -1.04394497013335
  C           1.62167809239212     -0.63519869199481      0.75790883471982
  C          -2.44109434599367     -0.75476348887784     -0.14013956220080
  C           2.79205740023257     -0.65546312147760     -0.26609547454839
  C          -3.46603722978501      0.22806668914877      0.50582052897192
  C           3.73485482445329      0.60085110648294     -0.25558311227179
