28
Coordinates from ORCA-job R4N+Cl-_wb E -905.731145446512
  N          -2.24109563220754      0.11842200250618      0.16215022151631
  C          -1.27044845316397      0.29686263224182     -0.98798818444861
  C          -2.04517010340628      1.16224889243640      1.20160292576965
  C          -3.61470129120632      0.24290021393029     -0.40092240399650
  C          -2.10041044332865     -1.22883609793530      0.77884881033194
  C           0.18073161024006      0.17122634116898     -0.62317071191509
  C           0.91694375741869      1.28918902893746     -0.24023165213312
  C           0.82054190739352     -1.06260405584907     -0.70822641193319
  C           2.26265320127857      1.17269666917612      0.07404575346975
  C           2.16619560414443     -1.18153865817449     -0.39512284207757
  C           2.88836007582794     -0.06412232076963      0.00059780722236
  H          -1.48313597838763      1.28418552619662     -1.39572800574997
  H          -1.55107976174032     -0.46262366545334     -1.71932552188753
  H          -2.13489862062323      2.14236565952672      0.73803300594399
  H          -1.06277889392396      1.04312194367084      1.65118102981031
  H          -2.81380592456443      1.03472536499709      1.96068065939002
  H          -3.71907445912091      1.22652875570185     -0.85362194395384
  H          -4.33213003236519      0.12386307294150      0.40775479291672
  H          -3.75161285761044     -0.53704326970763     -1.14877074811815
  H          -1.12201668417067     -1.31029616017728      1.24487205023430
  H          -2.22091324900235     -1.97988781783773     -0.00116852508522
  H          -2.87594362795269     -1.33763424712021      1.53414925107575
  H           0.43286359758895      2.25840182429280     -0.19320421639096
  H           0.25877366854238     -1.93378635354319     -1.02743518073511
  H           2.82461394457818      2.05008180519051      0.37103550174806
  H           2.65272872956681     -2.14697382455846     -0.46571058309931
  H           3.94040286065716     -0.15543093886352      0.24342564507379
  Cl         -2.66072494456207     -2.75447732292532     -2.63054552287878
