52
Coordinates from ORCA-job R4N+PFOA-_0.15M E -2398.189009581568
  N      -4.216767      0.624411      0.046407
  C      -3.134867      0.494685     -1.022422
  C      -3.903641      1.677111      1.077789
  C      -5.524995      1.004868     -0.663506
  C      -4.466566     -0.712350      0.741514
  C      -1.743188      0.159945     -0.541014
  C      -0.830627      1.178214     -0.221669
  C      -1.334330     -1.176689     -0.412224
  C       0.453290      0.865193      0.228042
  C      -0.050142     -1.486253      0.038257
  C       0.841567     -0.465905      0.360274
  H      -3.110410      1.447378     -1.567931
  H      -3.470737     -0.267438     -1.738063
  H      -3.696619      2.620334      0.563555
  H      -4.768734      1.790638      1.738922
  H      -3.036884      1.359923      1.663888
  H      -5.716605      0.255727     -1.434087
  H      -6.317229      1.060970      0.086871
  H      -5.383454      1.986557     -1.126697
  H      -4.637281     -1.477122     -0.020086
  H      -3.582719     -0.964140      1.334315
  H      -5.321089     -0.600665      1.414591
  H      -1.105033      2.225678     -0.328205
  H      -2.009282     -1.992374     -0.667554
  H       1.155906      1.659261      0.470863
  H       0.257641     -2.525267      0.134016
  H       1.843033     -0.709314      0.707690
  F     -11.974078      1.602179     -0.575333
  F     -10.846340      0.351442     -1.915638
  F      -9.813157      0.647845      0.666752
  F     -11.651536     -0.097163      1.492070
  F     -13.455833      0.140704     -2.269573
  F     -12.578960     -1.714999     -1.587080
  F      -9.731920     -1.928220      1.558234
  F     -11.411629     -2.480752      0.316551
  F     -15.037997     -1.287823     -0.648591
  F     -13.574774     -1.314393      0.948000
  F     -10.000940     -1.888051     -1.982630
  F      -9.051064     -3.358194     -0.689727
  F     -14.933335      1.554070     -0.666367
  F     -13.603839      1.474237      1.056210
  F     -15.589323      0.620229      1.185703
  O      -7.149758     -1.598600     -0.024254
  O      -8.183585     -0.047946     -1.283447
  C     -11.631674      0.294046     -0.805723
  C     -10.833602     -0.215878      0.390273
  C     -12.907765     -0.458823     -1.161161
  C     -10.317827     -1.650848      0.349539
  C     -13.996975     -0.570656     -0.110302
  C      -9.392294     -2.038024     -0.773450
  C     -14.524099      0.773747      0.358402
  C      -8.136706     -1.169179     -0.693445
52
Coordinates from ORCA-job R4N+PFOA-_0.15M E -2398.219006940949
  N      -4.099516      0.627888     -0.028535
  C      -3.011799      0.430550     -1.072878
  C      -3.785496      1.733011      0.939022
  C      -5.394420      0.975556     -0.769597
  C      -4.363424     -0.661344      0.738493
  C      -1.637153      0.115552     -0.542653
  C      -0.726979      1.144112     -0.265647
  C      -1.243768     -1.211800     -0.328046
  C       0.543498      0.851543      0.228339
  C       0.026634     -1.503186      0.166481
  C       0.919543     -0.471678      0.447224
  H      -2.975090      1.349827     -1.669932
  H      -3.347819     -0.369443     -1.743256
  H      -3.566809      2.642266      0.372736
  H      -4.655179      1.889324      1.583034
  H      -2.926205      1.443476      1.548709
  H      -5.587584      0.185882     -1.496344
  H      -6.193292      1.080348     -0.033184
  H      -5.239937      1.927511     -1.286917
  H      -4.535403     -1.468038      0.022581
  H      -3.485291     -0.882792      1.351360
  H      -5.223207     -0.506744      1.395277
  H      -0.995570      2.183451     -0.440952
  H      -1.922182     -2.033063     -0.550763
  H       1.245050      1.654987      0.438154
  H       0.322863     -2.536518      0.328887
  H       1.911289     -0.700205      0.829491
  F     -12.061113      1.645657     -0.278861
  F     -10.999655      0.549390     -1.785521
  F      -9.876448      0.651132      0.725719
  F     -11.637135     -0.217826      1.590584
  F     -13.538835      0.531278     -2.160829
  F     -12.776018     -1.451284     -1.764234
  F      -9.644147     -1.877892      1.577103
  F     -11.303154     -2.546788      0.364505
  F     -15.252181     -1.119339     -1.048481
  F     -14.012302     -1.499054      0.681290
  F      -9.887047     -1.984108     -1.951140
  F      -8.933161     -3.361751     -0.563104
  F     -15.280658      1.618153     -0.430264
  F     -14.212343      1.191650      1.415676
  F     -16.123040      0.255842      1.032982
  O      -7.050381     -1.574418      0.002240
  O      -8.059968     -0.097962     -1.350050
  C     -11.752435      0.374338     -0.672727
  C     -10.871215     -0.235623      0.453936
  C     -13.080889     -0.274422     -1.153294
  C     -10.259957     -1.657922      0.376838
  C     -14.302455     -0.553527     -0.243202
  C      -9.287639     -2.054206     -0.732173
  C     -14.968139      0.645611      0.447355
  C      -8.021210     -1.175071     -0.696880
52
Coordinates from ORCA-job R4N+PFOA-_0.15M E -2398.230165342294
  N      -4.025047      0.643239     -0.085263
  C      -2.932120      0.404210     -1.104021
  C      -3.684609      1.756553      0.852555
  C      -5.290518      1.006266     -0.843540
  C      -4.312020     -0.612445      0.704658
  C      -1.590059      0.074385     -0.516356
  C      -0.674515      1.090794     -0.231139
  C      -1.232115     -1.252998     -0.265076
  C       0.571772      0.787202      0.309449
  C       0.013786     -1.558088      0.275822
  C       0.916431     -0.537759      0.567201
  H      -2.869492      1.313043     -1.710981
  H      -3.280626     -0.405866     -1.751678
  H      -3.441504      2.645650      0.266960
  H      -4.553097      1.945873      1.486037
  H      -2.834758      1.459394      1.469917
  H      -5.506004      0.207400     -1.549623
  H      -6.095755      1.142836     -0.124106
  H      -5.102304      1.941722     -1.378713
  H      -4.505182     -1.429230      0.009533
  H      -3.440087     -0.836673      1.324819
  H      -5.174127     -0.426908      1.345778
  H      -0.926411      2.128017     -0.437765
  H      -1.922904     -2.059377     -0.497869
  H       1.278041      1.583554      0.525373
  H       0.283071     -2.592994      0.465775
  H       1.890048     -0.775859      0.986464
  F     -12.241684      1.669883     -0.247196
  F     -11.132756      0.624908     -1.809195
  F      -9.990561      0.754161      0.671417
  F     -11.741949     -0.204658      1.549524
  F     -13.698548      0.533885     -2.130445
  F     -12.817926     -1.437549     -1.773753
  F      -9.672134     -1.755433      1.524570
  F     -11.328409     -2.475726      0.287846
  F     -15.307162     -1.213872     -1.002654
  F     -13.959947     -1.577414      0.676934
  F      -9.899170     -1.874733     -1.985466
  F      -8.964122     -3.246965     -0.570187
  F     -15.467155      1.470428     -0.250989
  F     -14.273752      1.015717      1.516799
  F     -16.153158     -0.019519      1.182069
  O      -7.041051     -1.485644     -0.037142
  O      -8.007160     -0.018793     -1.434830
  C     -11.870978      0.436487     -0.693084
  C     -10.960127     -0.160207      0.428849
  C     -13.180062     -0.278709     -1.167910
  C     -10.299123     -1.572062      0.330739
  C     -14.361623     -0.643040     -0.209755
  C      -9.280128     -1.935426     -0.774565
  C     -15.068048      0.492495      0.574853
  C      -7.981932     -1.067825     -0.752088
52
Coordinates from ORCA-job R4N+PFOA-_0.15M E -2398.233411279504
  N      -4.052529      0.631246     -0.079880
  C      -2.959380      0.420854     -1.113786
  C      -3.713231      1.745109      0.857880
  C      -5.319896      0.983522     -0.820658
  C      -4.296419     -0.625271      0.706479
  C      -1.611594      0.105919     -0.531667
  C      -0.712087      1.133833     -0.240029
  C      -1.229232     -1.218153     -0.304435
  C       0.541297      0.844925      0.290253
  C       0.023976     -1.509053      0.225750
  C       0.910086     -0.477376      0.528563
  H      -2.921543      1.340788     -1.704558
  H      -3.307283     -0.391731     -1.757933
  H      -3.496166      2.642195      0.274684
  H      -4.574891      1.914543      1.506226
  H      -2.847671      1.461208      1.458142
  H      -5.544939      0.184549     -1.523346
  H      -6.123897      1.099375     -0.097396
  H      -5.145092      1.923486     -1.351678
  H      -4.496958     -1.440396      0.012894
  H      -3.410611     -0.838056      1.309101
  H      -5.155369     -0.459223      1.355266
  H      -0.989787      2.166848     -0.433435
  H      -1.911172     -2.028177     -0.549358
  H       1.233588      1.651717      0.512296
  H       0.311656     -2.542177      0.396986
  H       1.889881     -0.704093      0.939209
  F     -12.128704      1.628086     -0.199391
  F     -10.988537      0.529708     -1.719020
  F      -9.952112      0.608414      0.766127
  F     -11.771414     -0.294650      1.607471
  F     -13.540024      0.569661     -2.161584
  F     -12.783054     -1.452018     -1.759088
  F      -9.702209     -1.892757      1.579860
  F     -11.369689     -2.571165      0.308541
  F     -15.296978     -1.055468     -1.104718
  F     -14.035240     -1.509830      0.633098
  F      -9.956868     -1.932483     -1.922319
  F      -8.991075     -3.328575     -0.535744
  F     -15.304596      1.628614     -0.332126
  F     -14.220630      1.069943      1.476316
  F     -16.154083      0.173927      1.049672
  O      -7.070080     -1.542273     -0.016037
  O      -8.081368     -0.078698     -1.404031
  C     -11.792469      0.389337     -0.644507
  C     -10.957810     -0.257404      0.515243
  C     -13.111862     -0.270472     -1.187407
  C     -10.332308     -1.688358      0.394141
  C     -14.353808     -0.560043     -0.268449
  C      -9.304887     -2.012407     -0.727320
  C     -15.017878      0.624363      0.502677
  C      -8.011826     -1.119535     -0.718419
52
Coordinates from ORCA-job R4N+PFOA-_0.15M E -2398.235304735455
  N      -4.029701      0.640303     -0.127684
  C      -2.895889      0.385435     -1.121118
  C      -3.707844      1.790146      0.777010
  C      -5.261658      0.978996     -0.923306
  C      -4.298365     -0.579282      0.699943
  C      -1.570944      0.076436     -0.484246
  C      -0.667919      1.104576     -0.199821
  C      -1.209527     -1.244116     -0.204242
  C       0.564823      0.820148      0.379165
  C       0.023259     -1.529632      0.374759
  C       0.910596     -0.497427      0.672290
  H      -2.832930      1.288424     -1.735115
  H      -3.235241     -0.447314     -1.744335
  H      -3.472128      2.664478      0.166793
  H      -4.585722      1.987564      1.396059
  H      -2.859129      1.527595      1.409814
  H      -5.485955      0.152563     -1.595853
  H      -6.092223      1.127484     -0.235219
  H      -5.054698      1.893689     -1.484963
  H      -4.498010     -1.418088      0.033952
  H      -3.430658     -0.778651      1.331215
  H      -5.175755     -0.382544      1.315242
  H      -0.932076      2.132099     -0.436862
  H      -1.895401     -2.052054     -0.446134
  H       1.258726      1.627373      0.595675
  H       0.294069     -2.559901      0.587284
  H       1.874478     -0.720358      1.121096
  F     -12.230601      1.647170     -0.181817
  F     -11.113719      0.627615     -1.769481
  F      -9.951344      0.636177      0.641024
  F     -11.728635     -0.257922      1.573792
  F     -13.697780      0.585495     -2.098412
  F     -12.848490     -1.416703     -1.787584
  F      -9.728769     -1.883550      1.462723
  F     -11.408310     -2.531617      0.197554
  F     -15.345782     -1.092025     -0.969234
  F     -13.946914     -1.592647      0.652785
  F     -10.006696     -1.879572     -2.040236
  F      -9.041393     -3.290137     -0.666109
  F     -15.300443      1.578127     -0.076892
  F     -14.114894      0.925268      1.631763
  F     -16.073205      0.055848      1.273707
  O      -7.134090     -1.503425     -0.090337
  O      -8.087572     -0.080845     -1.575646
  C     -11.869758      0.434691     -0.671475
  C     -10.977336     -0.220138      0.443472
  C     -13.185817     -0.261427     -1.174901
  C     -10.370832     -1.658253      0.287120
  C     -14.352797     -0.615449     -0.183061
  C      -9.347009     -1.968542     -0.848183
  C     -14.970416      0.531893      0.686045
  C      -8.040350     -1.085649     -0.839470
52
Coordinates from ORCA-job R4N+PFOA-_0.15M E -2398.236302979573
  N      -3.996255      0.649633     -0.154007
  C      -2.830008      0.390020     -1.120997
  C      -3.696745      1.815520      0.742551
  C      -5.203545      0.977496     -0.985698
  C      -4.270156     -0.558317      0.684977
  C      -1.521320      0.083905     -0.451492
  C      -0.624541      1.113753     -0.148621
  C      -1.165101     -1.236942     -0.161982
  C       0.595504      0.830127      0.457244
  C       0.055265     -1.520427      0.443872
  C       0.935035     -0.487108      0.759063
  H      -2.755976      1.293379     -1.732668
  H      -3.157422     -0.447810     -1.744067
  H      -3.459953      2.684866      0.125529
  H      -4.585493      2.013133      1.346395
  H      -2.854838      1.568520      1.390629
  H      -5.423072      0.137445     -1.645720
  H      -6.055856      1.131137     -0.323061
  H      -4.981062      1.881862     -1.556497
  H      -4.465339     -1.405706      0.026270
  H      -3.412941     -0.751131      1.331003
  H      -5.161377     -0.357613      1.281271
  H      -0.887440      2.139841     -0.393564
  H      -1.847553     -2.043395     -0.418959
  H       1.284179      1.638239      0.687331
  H       0.322367     -2.550474      0.662797
  H       1.889065     -0.708873      1.229165
  F     -12.268124      1.582946     -0.090449
  F     -11.218486      0.607126     -1.746481
  F      -9.943645      0.549273      0.606960
  F     -11.668679     -0.383333      1.592867
  F     -13.768962      0.508655     -2.035853
  F     -12.955218     -1.491885     -1.651703
  F      -9.706133     -2.012886      1.340538
  F     -11.402088     -2.608392      0.083023
  F     -15.417479     -1.116216     -0.796882
  F     -14.009038     -1.493020      0.849145
  F     -10.061679     -1.836235     -2.157342
  F      -9.051630     -3.300128     -0.876320
  F     -15.325527      1.633582     -0.128366
  F     -14.195883      1.088123      1.651652
  F     -16.159233      0.229017      1.307827
  O      -7.183533     -1.504888     -0.184661
  O      -8.098525     -0.098799     -1.720520
  C     -11.925424      0.383530     -0.622636
  C     -10.980050     -0.303658      0.430499
  C     -13.258491     -0.306691     -1.083815
  C     -10.376106     -1.731633      0.190593
  C     -14.417189     -0.581854     -0.058096
  C      -9.375252     -1.972508     -0.983959
  C     -15.032393      0.637264      0.713781
  C      -8.065426     -1.086138     -0.962016
52
Coordinates from ORCA-job R4N+PFOA-_0.15M E -2398.237842749560
  N      -4.011191      0.651628     -0.173512
  C      -2.839813      0.372814     -1.132072
  C      -3.719440      1.845190      0.689763
  C      -5.216494      0.948762     -1.019706
  C      -4.278668     -0.534875      0.699420
  C      -1.532701      0.085677     -0.454943
  C      -0.639979      1.125013     -0.170465
  C      -1.172605     -1.228410     -0.138130
  C       0.581302      0.856907      0.440082
  C       0.049092     -1.495609      0.472403
  C       0.925261     -0.453234      0.766331
  H      -2.767964      1.263499     -1.761941
  H      -3.164130     -0.479836     -1.736135
  H      -3.493157      2.698904      0.047610
  H      -4.607217      2.051472      1.291762
  H      -2.872484      1.622562      1.340404
  H      -5.434513      0.085231     -1.651250
  H      -6.073546      1.117758     -0.364717
  H      -4.997258      1.834613     -1.618858
  H      -4.473574     -1.401570      0.064047
  H      -3.419694     -0.708709      1.347951
  H      -5.170216     -0.321778      1.293727
  H      -0.906759      2.145220     -0.435191
  H      -1.852820     -2.041756     -0.378864
  H       1.267517      1.671295      0.654564
  H       0.320135     -2.520067      0.711523
  H       1.880234     -0.662623      1.240228
  F     -12.172731      1.592047      0.018505
  F     -11.071198      0.655820     -1.623096
  F      -9.909619      0.448756      0.761204
  F     -11.704152     -0.444651      1.649763
  F     -13.632176      0.673160     -2.020657
  F     -12.873378     -1.360682     -1.756653
  F      -9.734743     -2.126101      1.377675
  F     -11.456139     -2.648756      0.133324
  F     -15.359560     -0.998890     -0.952343
  F     -14.013286     -1.543551      0.691176
  F     -10.168795     -1.861764     -2.111142
  F      -9.110860     -3.345758     -0.897801
  F     -15.188146      1.704246     -0.042070
  F     -14.194627      0.935717      1.738513
  F     -16.161878      0.202081      1.193557
  O      -7.259358     -1.525168     -0.171242
  O      -8.165510     -0.164756     -1.752625
  C     -11.845099      0.402605     -0.547955
  C     -10.972651     -0.358724      0.514559
  C     -13.172402     -0.216885     -1.107235
  C     -10.412026     -1.795103      0.242284
  C     -14.368735     -0.546572     -0.145758
  C      -9.448588     -2.017685     -0.961553
  C     -14.982754      0.613834      0.707479
  C      -8.139678     -1.128968     -0.963385
52
Coordinates from ORCA-job R4N+PFOA-_0.15M E -2398.238572444421
  N      -4.012809      0.659313     -0.208170
  C      -2.815044      0.365682     -1.126680
  C      -3.755742      1.875575      0.631883
  C      -5.196381      0.921315     -1.094782
  C      -4.297993     -0.507986      0.686016
  C      -1.528180      0.097449     -0.407270
  C      -0.647681      1.145158     -0.117249
  C      -1.174056     -1.208730     -0.054152
  C       0.555834      0.893361      0.533758
  C       0.029804     -1.459913      0.596733
  C       0.893982     -0.408971      0.895149
  H      -2.728618      1.243654     -1.772282
  H      -3.119220     -0.499421     -1.722777
  H      -3.522640      2.715285     -0.025859
  H      -4.659796      2.086058      1.207041
  H      -2.922704      1.676393      1.307306
  H      -5.388915      0.037186     -1.706040
  H      -6.072283      1.102541     -0.468016
  H      -4.970783      1.790699     -1.714864
  H      -4.469133     -1.392073      0.067593
  H      -3.453978     -0.660317      1.359192
  H      -5.203830     -0.285768      1.255769
  H      -0.908784      2.159026     -0.410094
  H      -1.844557     -2.028972     -0.298013
  H       1.233269      1.713811      0.752376
  H       0.296646     -2.478297      0.864262
  H       1.835581     -0.605857      1.400057
  F     -12.084601      1.560816     -0.034720
  F     -11.124919      0.559988     -1.727641
  F      -9.861973      0.349047      0.609533
  F     -11.637404     -0.496377      1.581915
  F     -13.716091      0.725513     -1.954920
  F     -13.046909     -1.346079     -1.759528
  F      -9.748341     -2.232678      1.247638
  F     -11.484831     -2.715543      0.007678
  F     -15.458625     -0.845036     -0.777765
  F     -14.027087     -1.525082      0.735376
  F     -10.195122     -1.918889     -2.229223
  F      -9.115217     -3.410124     -1.044356
  F     -15.020296      1.815981      0.206134
  F     -13.958086      0.898257      1.874813
  F     -16.010936      0.333517      1.457147
  O      -7.304113     -1.554520     -0.257052
  O      -8.166406     -0.244438     -1.897305
  C     -11.850349      0.351987     -0.607928
  C     -10.954411     -0.435012      0.413964
  C     -13.240661     -0.196090     -1.080912
  C     -10.425728     -1.877573      0.120081
  C     -14.380491     -0.480384     -0.041145
  C      -9.468519     -2.084949     -1.087565
  C     -14.843700      0.681577      0.896112
  C      -8.165942     -1.187786     -1.082665
52
Coordinates from ORCA-job R4N+PFOA-_0.15M E -2398.239315298256
  N      -3.996371      0.673534     -0.243010
  C      -2.787045      0.350463     -1.133687
  C      -3.751826      1.911860      0.565343
  C      -5.165558      0.907943     -1.154267
  C      -4.302139     -0.466937      0.678760
  C      -1.514639      0.089076     -0.387401
  C      -0.631937      1.136036     -0.104034
  C      -1.174856     -1.212117     -0.004491
  C       0.558586      0.889427      0.572017
  C       0.016058     -1.458777      0.670972
  C       0.882103     -0.407798      0.963831
  H      -2.683854      1.212772     -1.797925
  H      -3.088032     -0.524789     -1.715977
  H      -3.509798      2.732461     -0.112851
  H      -4.663575      2.137257      1.122091
  H      -2.928206      1.731044      1.256863
  H      -5.347905      0.003951     -1.738777
  H      -6.049373      1.113318     -0.546373
  H      -4.932560      1.755348     -1.801535
  H      -4.465840     -1.368045      0.083757
  H      -3.467253     -0.603568      1.366845
  H      -5.211981     -0.223144      1.232633
  H      -0.880370      2.145567     -0.421538
  H      -1.846302     -2.032690     -0.244155
  H       1.237914      1.709387      0.786260
  H       0.271648     -2.473442      0.962302
  H       1.814183     -0.601046      1.487376
  F     -12.074697      1.554193      0.071974
  F     -11.121165      0.629108     -1.670561
  F      -9.824476      0.298921      0.611679
  F     -11.598064     -0.531135      1.605303
  F     -13.703361      0.795729     -1.888570
  F     -13.033792     -1.284126     -1.764687
  F      -9.774233     -2.305531      1.196820
  F     -11.535339     -2.708202     -0.039890
  F     -15.442248     -0.832086     -0.778628
  F     -14.013287     -1.543956      0.723163
  F     -10.262430     -1.915728     -2.258986
  F      -9.156504     -3.421088     -1.116436
  F     -15.035940      1.800974      0.285708
  F     -13.975629      0.841623      1.932471
  F     -16.021939      0.273473      1.486755
  O      -7.357699     -1.545650     -0.296343
  O      -8.180863     -0.287387     -1.989251
  C     -11.840567      0.373063     -0.556885
  C     -10.938856     -0.456797      0.424801
  C     -13.231278     -0.156973     -1.048104
  C     -10.449922     -1.903206      0.086277
  C     -14.374439     -0.479761     -0.023103
  C      -9.511556     -2.096070     -1.136989
  C     -14.855356      0.649530      0.944318
  C      -8.206203     -1.203679     -1.145318
52
Coordinates from ORCA-job R4N+PFOA-_0.15M E -2398.239712204413
  N      -3.964638      0.688876     -0.273491
  C      -2.746398      0.340308     -1.139224
  C      -3.726633      1.943526      0.510089
  C      -5.123460      0.904696     -1.202803
  C      -4.290895     -0.430023      0.668511
  C      -1.487268      0.080117     -0.368894
  C      -0.601056      1.123811     -0.085772
  C      -1.163862     -1.218145      0.037021
  C       0.576789      0.877373      0.612384
  C       0.014352     -1.465071      0.734306
  C       0.884101     -0.416831      1.026757
  H      -2.625109      1.189751     -1.817517
  H      -3.045492     -0.541491     -1.712599
  H      -3.473633      2.748197     -0.183073
  H      -4.644366      2.183574      1.050733
  H      -2.912075      1.775958      1.215688
  H      -5.298459     -0.013417     -1.766887
  H      -6.010416      1.133925     -0.608593
  H      -4.883839      1.733283     -1.872271
  H      -4.450702     -1.342789      0.091268
  H      -3.463915     -0.557935      1.368481
  H      -5.201718     -0.165176      1.209556
  H      -0.835378      2.131070     -0.420932
  H      -1.837682     -2.037186     -0.201643
  H       1.259298      1.694797      0.826436
  H       0.257219     -2.477608      1.043566
  H       1.806273     -0.610080      1.567579
  F     -12.092401      1.543104      0.124735
  F     -11.154795      0.647679     -1.643185
  F      -9.838066      0.279130      0.618612
  F     -11.602630     -0.571626      1.613464
  F     -13.736651      0.822979     -1.834870
  F     -13.063941     -1.260330     -1.758702
  F      -9.787985     -2.348079      1.151374
  F     -11.559511     -2.711400     -0.080526
  F     -15.459046     -0.847113     -0.749098
  F     -14.015240     -1.557754      0.743200
  F     -10.322490     -1.875253     -2.286437
  F      -9.193690     -3.406641     -1.197344
  F     -15.088898      1.776399      0.337650
  F     -13.994774      0.823879      1.965390
  F     -16.037373      0.228503      1.539387
  O      -7.401534     -1.527080     -0.334946
  O      -8.190698     -0.306893     -2.068293
  C     -11.864095      0.374131     -0.528107
  C     -10.953294     -0.474296      0.429782
  C     -13.258522     -0.146751     -1.019199
  C     -10.468199     -1.915183      0.057774
  C     -14.394326     -0.491366      0.007749
  C      -9.548697     -2.082023     -1.184581
  C     -14.883696      0.625341      0.987361
  C      -8.239258     -1.200537     -1.201314
52
Coordinates from ORCA-job R4N+PFOA-_0.15M E -2398.239860781030
  N      -3.949781      0.692707     -0.286762
  C      -2.727105      0.336654     -1.140544
  C      -3.718536      1.956100      0.484704
  C      -5.105710      0.895804     -1.223573
  C      -4.282211     -0.417100      0.665063
  C      -1.472665      0.082568     -0.359406
  C      -0.588851      1.128500     -0.077423
  C      -1.151962     -1.212584      0.058382
  C       0.584315      0.887315      0.630635
  C       0.021493     -1.454293      0.765580
  C       0.889128     -0.403749      1.056539
  H      -2.600075      1.179138     -1.826559
  H      -3.021281     -0.549935     -1.709125
  H      -3.461799      2.753621     -0.215320
  H      -4.640007      2.200991      1.016738
  H      -2.908522      1.798066      1.197921
  H      -5.272872     -0.029134     -1.778448
  H      -5.992594      1.136177     -0.634249
  H      -4.866495      1.715352     -1.904629
  H      -4.437061     -1.335471      0.095671
  H      -3.458851     -0.539016      1.370683
  H      -5.193677     -0.143698      1.200224
  H      -0.820128      2.133606     -0.421172
  H      -1.823778     -2.033912     -0.178207
  H       1.265270      1.706332      0.843557
  H       0.262258     -2.464477      1.084067
  H       1.807377     -0.592810      1.605449
  F     -12.082210      1.530083      0.154870
  F     -11.157538      0.647153     -1.625649
  F      -9.843882      0.240388      0.633206
  F     -11.613457     -0.614696      1.615211
  F     -13.738710      0.856403     -1.807696
  F     -13.089612     -1.235409     -1.764999
  F      -9.813358     -2.398089      1.124208
  F     -11.587094     -2.727313     -0.113430
  F     -15.478404     -0.810872     -0.740715
  F     -14.038053     -1.556190      0.738878
  F     -10.356598     -1.876414     -2.304824
  F      -9.219408     -3.419256     -1.240016
  F     -15.088249      1.790585      0.375931
  F     -13.977099      0.819296      1.980537
  F     -16.028102      0.236153      1.574826
  O      -7.432909     -1.536051     -0.355114
  O      -8.210070     -0.334748     -2.107603
  C     -11.867967      0.367097     -0.512796
  C     -10.963742     -0.502599      0.433189
  C     -13.269754     -0.131001     -1.008339
  C     -10.489033     -1.941972      0.039543
  C     -14.407295     -0.477226      0.016673
  C      -9.575303     -2.095235     -1.210339
  C     -14.879861      0.633092      1.012438
  C      -8.266940     -1.217599     -1.229234
52
Coordinates from ORCA-job R4N+PFOA-_0.15M E -2398.239926198075
  N      -3.934918      0.692423     -0.290785
  C      -2.711087      0.332068     -1.139735
  C      -3.705247      1.959960      0.474870
  C      -5.090250      0.890995     -1.229890
  C      -4.270546     -0.412697      0.665985
  C      -1.457411      0.083133     -0.354798
  C      -0.574189      1.131072     -0.078290
  C      -1.137420     -1.209124      0.072498
  C       0.597663      0.894768      0.633761
  C       0.034637     -1.445787      0.783873
  C       0.901704     -0.393228      1.069350
  H      -2.582131      1.169502     -1.831465
  H      -3.002675     -0.558379     -1.703788
  H      -3.444619      2.753572     -0.228194
  H      -4.628595      2.209026      1.001753
  H      -2.898529      1.805655      1.192693
  H      -5.253968     -0.036252     -1.781624
  H      -5.975069      1.139131     -0.641132
  H      -4.850554      1.706003     -1.916352
  H      -4.423877     -1.333283      0.099714
  H      -3.449360     -0.532801      1.374436
  H      -5.182292     -0.134063      1.197990
  H      -0.804347      2.134013     -0.429024
  H      -1.808617     -2.032371     -0.159164
  H       1.278157      1.715312      0.842301
  H       0.274688     -2.453731      1.109935
  H       1.818697     -0.578365      1.621686
  F     -12.081753      1.530264      0.158044
  F     -11.165629      0.640632     -1.623051
  F      -9.856951      0.225906      0.640524
  F     -11.629725     -0.631538      1.614162
  F     -13.751370      0.871901     -1.794922
  F     -13.109857     -1.222068     -1.769637
  F      -9.835404     -2.417994      1.107924
  F     -11.611533     -2.729340     -0.131401
  F     -15.494078     -0.796987     -0.735347
  F     -14.053558     -1.559646      0.734125
  F     -10.382246     -1.870506     -2.316870
  F      -9.246372     -3.422306     -1.263585
  F     -15.101594      1.791383      0.399845
  F     -13.978515      0.812506      1.991776
  F     -16.030394      0.226973      1.593818
  O      -7.457756     -1.543205     -0.366420
  O      -8.229038     -0.345333     -2.125834
  C     -11.877445      0.365675     -0.509539
  C     -10.978381     -0.511913      0.433777
  C     -13.283296     -0.123115     -1.004190
  C     -10.509802     -1.950236      0.028831
  C     -14.419385     -0.473578      0.021083
  C      -9.598700     -2.097287     -1.225207
  C     -14.886260      0.630023      1.027343
  C      -8.289573     -1.224432     -1.243302
52
Coordinates from ORCA-job R4N+PFOA-_0.15M E -2398.239953216930
  N      -3.929496      0.688672     -0.288590
  C      -2.706271      0.330493     -1.138655
  C      -3.700515      1.956239      0.477447
  C      -5.086506      0.886475     -1.226018
  C      -4.262620     -0.417249      0.668087
  C      -1.450710      0.086851     -0.354891
  C      -0.570193      1.138119     -0.082363
  C      -1.126448     -1.203312      0.075478
  C       0.603299      0.907116      0.628734
  C       0.047261     -1.434563      0.785968
  C       0.911655     -0.378771      1.067458
  H      -2.580215      1.166688     -1.832315
  H      -2.995537     -0.562164     -1.700477
  H      -3.439200      2.750005     -0.225193
  H      -4.624420      2.205320      1.003351
  H      -2.894591      1.802112      1.196174
  H      -5.248236     -0.039872     -1.779685
  H      -5.969538      1.134999     -0.634979
  H      -4.848093      1.702338     -1.911964
  H      -4.414434     -1.337632      0.101023
  H      -3.441539     -0.536430      1.376708
  H      -5.175053     -0.140146      1.199823
  H      -0.803759      2.139536     -0.435154
  H      -1.795380     -2.029237     -0.153124
  H       1.281582      1.730296      0.834074
  H       0.290625     -2.440957      1.114352
  H       1.829853     -0.559721      1.619172
  F     -12.078714      1.525953      0.164956
  F     -11.163488      0.637777     -1.617154
  F      -9.864844      0.209180      0.651748
  F     -11.643895     -0.647322      1.613160
  F     -13.748152      0.887152     -1.791294
  F     -13.120322     -1.211039     -1.776905
  F      -9.849644     -2.434523      1.102009
  F     -11.626638     -2.736982     -0.138190
  F     -15.504669     -0.771423     -0.743012
  F     -14.072760     -1.555907      0.723266
  F     -10.392238     -1.883149     -2.322524
  F      -9.260211     -3.434647     -1.265931
  F     -15.097666      1.803912      0.404439
  F     -13.973069      0.816017      1.989319
  F     -16.028718      0.239027      1.597440
  O      -7.469320     -1.557833     -0.370189
  O      -8.243634     -0.353943     -2.125273
  C     -11.879489      0.362700     -0.506140
  C     -10.987602     -0.523226      0.435836
  C     -13.287386     -0.115550     -1.005528
  C     -10.523113     -1.961324      0.024715
  C     -14.427373     -0.462574      0.016064
  C      -9.610674     -2.108765     -1.229166
  C     -14.884957      0.639544      1.027787
  C      -8.301714     -1.235928     -1.245328
52
Coordinates from ORCA-job R4N+PFOA-_0.15M E -2398.239970064735
  N      -3.923531      0.686099     -0.282757
  C      -2.702136      0.330528     -1.136517
  C      -3.692993      1.951608      0.486301
  C      -5.082682      0.886671     -1.217064
  C      -4.253887     -0.422501      0.671564
  C      -1.444045      0.088845     -0.356224
  C      -0.564299      1.141594     -0.086802
  C      -1.116579     -1.200592      0.073857
  C       0.611571      0.912765      0.621007
  C       0.059519     -1.429606      0.781138
  C       0.923106     -0.372404      1.059567
  H      -2.579277      1.167321     -1.830008
  H      -2.991296     -0.562600     -1.697646
  H      -3.431054      2.746794     -0.214490
  H      -4.616570      2.200399      1.012918
  H      -2.887089      1.794816      1.204398
  H      -5.244687     -0.037237     -1.774705
  H      -5.964034      1.133534     -0.622900
  H      -4.844898      1.705400     -1.899822
  H      -4.405448     -1.341569      0.102239
  H      -3.432332     -0.542262      1.379418
  H      -5.166895     -0.148614      1.204104
  H      -0.800568      2.142446     -0.439351
  H      -1.784772     -2.027685     -0.152649
  H       1.289097      1.737189      0.823842
  H       0.305300     -2.435487      1.109291
  H       1.843168     -0.551663      1.608719
  F     -12.084043      1.528632      0.153964
  F     -11.171434      0.630941     -1.624848
  F      -9.872804      0.210123      0.647361
  F     -11.652952     -0.643024      1.609849
  F     -13.756294      0.884847     -1.796242
  F     -13.129667     -1.213739     -1.777459
  F      -9.859357     -2.431563      1.102174
  F     -11.637420     -2.734838     -0.137275
  F     -15.514436     -0.766319     -0.744826
  F     -14.084368     -1.555373      0.720458
  F     -10.396324     -1.890054     -2.325025
  F      -9.270883     -3.439856     -1.259690
  F     -15.103613      1.806052      0.401713
  F     -13.979137      0.818787      1.987023
  F     -16.034849      0.242045      1.596271
  O      -7.474772     -1.567995     -0.370931
  O      -8.253660     -0.351930     -2.115930
  C     -11.886985      0.362114     -0.511862
  C     -10.996029     -0.521458      0.432340
  C     -13.295650     -0.116697     -1.008313
  C     -10.533108     -1.960296      0.023337
  C     -14.435717     -0.460676      0.014034
  C      -9.618534     -2.112849     -1.228580
  C     -14.890964      0.641877      1.025829
  C      -8.308459     -1.240214     -1.242249
52
Coordinates from ORCA-job R4N+PFOA-_0.15M E -2398.239977849427
  N      -3.919032      0.685643     -0.276261
  C      -2.700071      0.333088     -1.135036
  C      -3.686226      1.948300      0.496726
  C      -5.080735      0.889889     -1.206654
  C      -4.246180     -0.426470      0.674881
  C      -1.439463      0.090168     -0.359299
  C      -0.559403      1.142753     -0.090201
  C      -1.109824     -1.200095      0.066558
  C       0.618853      0.912957      0.613245
  C       0.068672     -1.430111      0.769498
  C       0.932531     -0.373101      1.047685
  H      -2.580104      1.172090     -1.826383
  H      -2.990672     -0.558752     -1.697425
  H      -3.425053      2.745650     -0.201879
  H      -4.608721      2.195884      1.025799
  H      -2.879087      1.788266      1.212664
  H      -5.244151     -0.031416     -1.768215
  H      -5.960784      1.133600     -0.609241
  H      -4.844158      1.712104     -1.885625
  H      -4.397927     -1.343966      0.103064
  H      -3.423347     -0.547126      1.381046
  H      -5.159211     -0.156500      1.209426
  H      -0.797593      2.144243     -0.439620
  H      -1.778230     -2.027000     -0.159996
  H       1.296490      1.737347      0.815837
  H       0.316056     -2.436654      1.094395
  H       1.854514     -0.553163      1.593342
  F     -12.094175      1.531002      0.143361
  F     -11.179493      0.627307     -1.631615
  F      -9.880790      0.217681      0.643678
  F     -11.661079     -0.633749      1.607705
  F     -13.763998      0.876305     -1.805079
  F     -13.133618     -1.221274     -1.777101
  F      -9.863770     -2.420975      1.109676
  F     -11.641142     -2.732223     -0.129316
  F     -15.520323     -0.772462     -0.749437
  F     -14.090752     -1.554807      0.720241
  F     -10.395119     -1.895022     -2.321105
  F      -9.274869     -3.441603     -1.246138
  F     -15.115323      1.803493      0.387448
  F     -13.990869      0.825121      1.978241
  F     -16.044894      0.242659      1.587723
  O      -7.473848     -1.574531     -0.367290
  O      -8.259057     -0.345658     -2.100104
  C     -11.894753      0.362153     -0.517592
  C     -11.002924     -0.516036      0.430346
  C     -13.302269     -0.121336     -1.012608
  C     -10.537926     -1.955716      0.027569
  C     -14.442807     -0.462922      0.009949
  C      -9.620995     -2.114138     -1.221606
  C     -14.901084      0.642467      1.016921
  C      -8.310043     -1.241033     -1.233642
52
Coordinates from ORCA-job R4N+PFOA-_0.15M E -2398.239981701981
  N      -3.915057      0.687082     -0.272431
  C      -2.697860      0.335952     -1.134578
  C      -3.680222      1.947919      0.502845
  C      -5.078419      0.893855     -1.200188
  C      -4.240393     -0.427042      0.676880
  C      -1.436066      0.090315     -0.361751
  C      -0.555068      1.141710     -0.091054
  C      -1.106242     -1.201330      0.059719
  C       0.624311      0.909347      0.609633
  C       0.073401     -1.433970      0.759852
  C       0.938203     -0.378161      1.039650
  H      -2.578959      1.176915     -1.823748
  H      -2.990273     -0.554208     -1.698653
  H      -3.420084      2.746610     -0.194610
  H      -4.601586      2.194737      1.034239
  H      -2.871692      1.785854      1.216749
  H      -5.243386     -0.026093     -1.763588
  H      -5.957734      1.135603     -0.600825
  H      -4.842757      1.717993     -1.877110
  H      -4.392382     -1.343745      0.103836
  H      -3.416548     -0.548201      1.381779
  H      -5.153170     -0.159252      1.212986
  H      -0.793566      2.144284     -0.437148
  H      -1.775449     -2.027226     -0.168152
  H       1.302648      1.732841      0.813507
  H       0.320924     -2.441585      1.081295
  H       1.861109     -0.560258      1.583070
  F     -12.105310      1.532998      0.135354
  F     -11.187541      0.626679     -1.636758
  F      -9.886995      0.227036      0.639383
  F     -11.665925     -0.623724      1.606909
  F     -13.771888      0.866019     -1.812689
  F     -13.134961     -1.229512     -1.775768
  F      -9.865432     -2.409282      1.117396
  F     -11.641635     -2.729235     -0.121368
  F     -15.523758     -0.784343     -0.751976
  F     -14.092706     -1.555881      0.722142
  F     -10.393662     -1.894870     -2.315894
  F      -9.276580     -3.439902     -1.235425
  F     -15.127751      1.797633      0.374787
  F     -14.002251      0.828841      1.970744
  F     -16.054216      0.239156      1.580362
  O      -7.471817     -1.576771     -0.363359
  O      -8.261592     -0.338907     -2.087272
  C     -11.901963      0.362776     -0.522003
  C     -11.007843     -0.509649      0.429084
  C     -13.307736     -0.126926     -1.015840
  C     -10.539999     -1.950000      0.032554
  C     -14.448018     -0.468054      0.007265
  C      -9.621733     -2.112355     -1.214672
  C     -14.910910      0.639879      1.009274
  C      -8.310235     -1.239223     -1.225880
52
Coordinates from ORCA-job R4N+PFOA-_0.15M E -2398.239984705683
  N      -3.910607      0.689593     -0.269845
  C      -2.694767      0.339228     -1.134527
  C      -3.674093      1.949213      0.506874
  C      -5.075160      0.898158     -1.195640
  C      -4.234782     -0.425751      0.678386
  C      -1.432393      0.090105     -0.363875
  C      -0.549960      1.139702     -0.090885
  C      -1.103481     -1.203192      0.053214
  C       0.629915      0.903908      0.607815
  C       0.076678     -1.439314      0.751290
  C       0.942904     -0.385289      1.033443
  H      -2.576014      1.182004     -1.821529
  H      -2.989090     -0.549041     -1.700559
  H      -3.415335      2.748905     -0.189946
  H      -4.594328      2.195289      1.040570
  H      -2.864058      1.785965      1.218801
  H      -5.241643     -0.021157     -1.759696
  H      -5.953954      1.138731     -0.594962
  H      -4.840331      1.723276     -1.871609
  H      -4.386764     -1.342089      0.104750
  H      -3.410174     -0.547102      1.382378
  H      -5.147231     -0.159209      1.215677
  H      -0.787778      2.143556     -0.433731
  H      -1.773892     -2.027615     -0.176444
  H       1.309384      1.726000      0.813557
  H       0.323506     -2.448191      1.069289
  H       1.866236     -0.570080      1.575231
  F     -12.117593      1.534603      0.128811
  F     -11.196373      0.627712     -1.641084
  F      -9.893551      0.236702      0.635051
  F     -11.670595     -0.614008      1.606386
  F     -13.780944      0.855547     -1.819311
  F     -13.136357     -1.237479     -1.774590
  F      -9.867041     -2.397574      1.125079
  F     -11.641390     -2.726640     -0.114068
  F     -15.526763     -0.799068     -0.753308
  F     -14.093065     -1.557504      0.725116
  F     -10.392304     -1.892412     -2.310289
  F      -9.278077     -3.437031     -1.226159
  F     -15.141238      1.790291      0.362957
  F     -14.014185      0.831378      1.963866
  F     -16.063888      0.233644      1.573521
  O      -7.469693     -1.578052     -0.359209
  O      -8.263543     -0.332000     -2.075007
  C     -11.909773      0.363609     -0.525878
  C     -11.012929     -0.503265      0.427993
  C     -13.313613     -0.132670     -1.018718
  C     -10.541717     -1.944206      0.037719
  C     -14.453058     -0.474495      0.005224
  C      -9.622177     -2.109496     -1.207713
  C     -14.921307      0.635817      1.002205
  C      -8.310386     -1.236677     -1.218067
52
Coordinates from ORCA-job R4N+PFOA-_0.15M E -2398.239986430566
  N      -3.907302      0.691476     -0.269544
  C      -2.691863      0.341203     -1.134923
  C      -3.670093      1.950788      0.507478
  C      -5.072151      0.900578     -1.194771
  C      -4.231349     -0.424042      0.678542
  C      -1.429677      0.089757     -0.364788
  C      -0.546410      1.138111     -0.089765
  C      -1.101849     -1.204609      0.049850
  C       0.633257      0.899991      0.608517
  C       0.078118     -1.443071      0.747442
  C       0.945197     -0.390284      1.031639
  H      -2.572527      1.184894     -1.820704
  H      -2.987123     -0.545905     -1.702286
  H      -3.412427      2.750883     -0.189285
  H      -4.589664      2.196384      1.042544
  H      -2.859080      1.787447      1.218285
  H      -5.239509     -0.018902     -1.758334
  H      -5.950729      1.141305     -0.593799
  H      -4.837606      1.725459     -1.871093
  H      -4.383078     -1.340417      0.104903
  H      -3.406586     -0.545371      1.382380
  H      -5.143609     -0.157488      1.216130
  H      -0.783351      2.142817     -0.430733
  H      -1.772973     -2.028023     -0.181331
  H       1.313430      1.721086      0.815905
  H       0.324162     -2.452760      1.063465
  H       1.868374     -0.576876      1.573076
  F     -12.126159      1.535350      0.126082
  F     -11.202685      0.629680     -1.643039
  F      -9.897878      0.242745      0.632103
  F     -11.673199     -0.608234      1.606426
  F     -13.787489      0.849295     -1.822486
  F     -13.137593     -1.241916     -1.773959
  F      -9.868210     -2.390569      1.129382
  F     -11.641190     -2.725184     -0.110221
  F     -15.528931     -0.808845     -0.753337
  F     -14.093232     -1.559184      0.727190
  F     -10.392027     -1.889052     -2.306909
  F      -9.279676     -3.434608     -1.222027
  F     -15.149369      1.785281      0.357692
  F     -14.021535      0.831113      1.960890
  F     -16.069979      0.229066      1.570182
  O      -7.468626     -1.578942     -0.356947
  O      -8.264675     -0.327635     -2.067817
  C     -11.915252      0.364343     -0.527723
  C     -11.016326     -0.499349      0.427421
  C     -13.317785     -0.136135     -1.020083
  C     -10.542888     -1.940616      0.040790
  C     -14.456422     -0.479093      0.004454
  C      -9.622671     -2.107005     -1.203786
  C     -14.927801      0.632280      0.998940
  C      -8.310756     -1.234885     -1.213466
52
Coordinates from ORCA-job R4N+PFOA-_0.15M E -2398.239987454551
  N      -3.905833      0.692290     -0.270850
  C      -2.689906      0.341820     -1.135423
  C      -3.669080      1.951934      0.505811
  C      -5.070195      0.900922     -1.196730
  C      -4.230462     -0.422814      0.677563
  C      -1.428345      0.089589     -0.364520
  C      -0.544784      1.137432     -0.088533
  C      -1.101435     -1.205086      0.049895
  C       0.634280      0.898479      0.610505
  C       0.077931     -1.444364      0.748219
  C       0.945312     -0.392083      1.033395
  H      -2.569732      1.185595     -1.820951
  H      -2.985059     -0.544984     -1.703333
  H      -3.411998      2.752028     -0.191168
  H      -4.588616      2.197177      1.041106
  H      -2.857827      1.789251      1.216500
  H      -5.237672     -0.019166     -1.759272
  H      -5.948899      1.142614     -0.596330
  H      -4.835348      1.724870     -1.874071
  H      -4.381656     -1.339425      0.104172
  H      -3.406116     -0.543949      1.381936
  H      -5.142855     -0.155659      1.214602
  H      -0.780909      2.142386     -0.429332
  H      -1.772803     -2.028100     -0.181995
  H       1.314733      1.719146      0.818676
  H       0.323298     -2.454280      1.064045
  H       1.868011     -0.579304      1.575429
  F     -12.129227      1.535363      0.126675
  F     -11.205394      0.631570     -1.643047
  F      -9.899269      0.244198      0.630867
  F     -11.673701     -0.607068      1.606511
  F     -13.790517      0.848259     -1.822090
  F     -13.138709     -1.242296     -1.773970
  F      -9.868851     -2.389068      1.129855
  F     -11.641285     -2.724999     -0.110082
  F     -15.529827     -0.812190     -0.752143
  F     -14.092853     -1.560049      0.728287
  F     -10.392331     -1.886585     -2.306428
  F      -9.281030     -3.433682     -1.222596
  F     -15.151535      1.783598      0.358536
  F     -14.023706      0.829470      1.961724
  F     -16.071848      0.226698      1.570334
  O      -7.468375     -1.580248     -0.356974
  O      -8.265022     -0.326080     -2.065558
  C     -11.917408      0.364831     -0.527786
  C     -11.017531     -0.498439      0.427103
  C     -13.319616     -0.136729     -1.019939
  C     -10.543464     -1.939784      0.041183
  C     -14.457526     -0.480763      0.005038
  C      -9.623036     -2.105922     -1.203316
  C     -14.929714      0.630471      0.999432
  C      -8.311032     -1.234546     -1.212413
52
Coordinates from ORCA-job R4N+PFOA-_0.15M E -2398.239988402036
  N      -3.905420      0.692331     -0.273480
  C      -2.688379      0.341400     -1.136154
  C      -3.669813      1.952684      0.502405
  C      -5.068692      0.899918     -1.200924
  C      -4.231252     -0.421969      0.675513
  C      -1.427832      0.089411     -0.363486
  C      -0.544528      1.137306     -0.086924
  C      -1.101609     -1.205095      0.052013
  C       0.633625      0.898559      0.613743
  C       0.076838     -1.444139      0.751966
  C       0.943976     -0.391804      1.037703
  H      -2.567129      1.184741     -1.822017
  H      -2.982723     -0.545659     -1.704110
  H      -3.412873      2.752482     -0.194964
  H      -4.589730      2.197733      1.037133
  H      -2.858838      1.791039      1.213656
  H      -5.235918     -0.021075     -1.762050
  H      -5.947782      1.143263     -0.601779
  H      -4.832932      1.722417     -1.879714
  H      -4.381687     -1.338957      0.102544
  H      -3.407801     -0.542779      1.380995
  H      -5.144098     -0.153906      1.211300
  H      -0.780025      2.142144     -0.428496
  H      -1.772752     -2.028168     -0.180306
  H       1.313917      1.719246      0.822366
  H       0.321702     -2.453918      1.068619
  H       1.865947     -0.578845      1.581034
  F     -12.129245      1.534994      0.129671
  F     -11.205935      0.633694     -1.641502
  F      -9.898828      0.243165      0.630927
  F     -11.672813     -0.608500      1.606936
  F     -13.791227      0.850270     -1.819528
  F     -13.139354     -1.240276     -1.774156
  F      -9.868902     -2.390631      1.128095
  F     -11.641512     -2.725260     -0.111851
  F     -15.529994     -0.811467     -0.750580
  F     -14.092482     -1.560756      0.728473
  F     -10.393115     -1.884129     -2.307559
  F      -9.282544     -3.433420     -1.226096
  F     -15.150206      1.783739      0.363319
  F     -14.022887      0.826548      1.964962
  F     -16.071306      0.225311      1.572611
  O      -7.468385     -1.582245     -0.358621
  O      -8.264865     -0.325603     -2.065613
  C     -11.917581      0.365314     -0.526444
  C     -11.017340     -0.499110      0.427214
  C     -13.319925     -0.135639     -1.018730
  C     -10.543608     -1.940317      0.040093
  C     -14.457369     -0.480768      0.006348
  C      -9.623428     -2.105407     -1.204899
  C     -14.928985      0.629435      1.002279
  C      -8.311130     -1.234970     -1.213387
52
Coordinates from ORCA-job R4N+PFOA-_0.15M E -2398.239989797426
  N      -3.906060      0.691916     -0.278689
  C      -2.686725      0.339884     -1.137458
  C      -3.672892      1.953720      0.495585
  C      -5.067042      0.897370     -1.209443
  C      -4.234275     -0.420785      0.671411
  C      -1.428110      0.089161     -0.361171
  C      -0.545454      1.137525     -0.084365
  C      -1.102986     -1.204609      0.057473
  C       0.630983      0.899975      0.619611
  C       0.073723     -1.442418      0.760760
  C       0.940228     -0.389611      1.046691
  H      -2.563602      1.182049     -1.824413
  H      -2.979327     -0.548107     -1.704890
  H      -3.415491      2.752689     -0.202562
  H      -4.593898      2.198771      1.028431
  H      -2.863017      1.793941      1.208516
  H      -5.233509     -0.025245     -1.768112
  H      -5.947112      1.143647     -0.612974
  H      -4.829237      1.717329     -1.890617
  H      -4.383234     -1.338572      0.099361
  H      -3.412672     -0.540742      1.379198
  H      -5.148278     -0.151350      1.204500
  H      -0.779970      2.141793     -0.428278
  H      -1.773579     -2.028086     -0.174997
  H       1.310813      1.721008      0.828386
  H       0.317749     -2.451628      1.079869
  H       1.860838     -0.575705      1.592646
  F     -12.125503      1.533908      0.136703
  F     -11.204153      0.636824     -1.637597
  F      -9.896017      0.238549      0.632656
  F     -11.670072     -0.613907      1.607718
  F     -13.789586      0.856570     -1.813217
  F     -13.139771     -1.234731     -1.774493
  F      -9.868259     -2.396551      1.122923
  F     -11.641907     -2.726327     -0.116726
  F     -15.529101     -0.806464     -0.747581
  F     -14.091287     -1.561373      0.728198
  F     -10.394479     -1.880768     -2.311109
  F      -9.284610     -3.433874     -1.234442
  F     -15.144970      1.785636      0.373962
  F     -14.018495      0.821618      1.972015
  F     -16.067806      0.224352      1.578342
  O      -7.468407     -1.586090     -0.362970
  O      -8.264108     -0.325725     -2.067783
  C     -11.915415      0.365882     -0.522939
  C     -11.015396     -0.502106      0.427782
  C     -13.318565     -0.132201     -1.015681
  C     -10.543246     -1.942802      0.036658
  C     -14.455504     -0.478987      0.009304
  C      -9.623916     -2.105472     -1.209559
  C     -14.925124      0.628870      1.008895
  C      -8.310939     -1.236421     -1.216980
52
Coordinates from ORCA-job R4N+PFOA-_0.15M E -2398.239992265965
  N      -3.908358      0.690896     -0.289566
  C      -2.684335      0.335960     -1.140131
  C      -3.679997      1.955867      0.480944
  C      -5.064453      0.891917     -1.227346
  C      -4.241652     -0.418167      0.663081
  C      -1.429755      0.088473     -0.356205
  C      -0.548668      1.138119     -0.079304
  C      -1.106652     -1.203489      0.069536
  C       0.624194      0.903674      0.631669
  C       0.066447     -1.438146      0.779872
  C       0.931382     -0.384040      1.065779
  H      -2.557440      1.175327     -1.829786
  H      -2.973488     -0.554325     -1.705770
  H      -3.420622      2.752586     -0.219040
  H      -4.603504      2.201743      1.009043
  H      -2.872991      1.799696      1.197931
  H      -5.229275     -0.033932     -1.781109
  H      -5.946786      1.143890     -0.636678
  H      -4.822152      1.706917     -1.912933
  H      -4.387608     -1.337889      0.093404
  H      -3.423965     -0.535866      1.375778
  H      -5.158316     -0.146219      1.190255
  H      -0.781457      2.140956     -0.428526
  H      -1.775920     -2.028043     -0.162929
  H       1.302842      1.725691      0.840428
  H       0.308907     -2.445965      1.104531
  H       1.849177     -0.567713      1.617261
  F     -12.114953      1.531140      0.152450
  F     -11.198166      0.642345     -1.628428
  F      -9.888796      0.226879      0.637951
  F     -11.663755     -0.627438      1.609531
  F     -13.783416      0.871014     -1.799260
  F     -13.139633     -1.222383     -1.774812
  F      -9.866279     -2.411156      1.110818
  F     -11.642712     -2.728945     -0.127832
  F     -15.526437     -0.793148     -0.741772
  F     -14.089003     -1.562388      0.726848
  F     -10.397494     -1.874537     -2.319287
  F      -9.288170     -3.435176     -1.253079
  F     -15.132228      1.790451      0.396710
  F     -14.007068      0.811847      1.986717
  F     -16.058622      0.223658      1.591323
  O      -7.468579     -1.593499     -0.372939
  O      -8.262353     -0.326496     -2.073991
  C     -11.908976      0.366586     -0.514663
  C     -11.010200     -0.509740      0.429551
  C     -13.314115     -0.124337     -1.008705
  C     -10.542002     -1.949032      0.028598
  C     -14.450638     -0.474098      0.015596
  C      -9.624963     -2.106189     -1.220411
  C     -14.915306      0.628601      1.023259
  C      -8.310466     -1.239548     -1.225806
52
Coordinates from ORCA-job R4N+PFOA-_0.15M E -2398.239996365648
  N      -3.913473      0.689349     -0.310850
  C      -2.680551      0.327704     -1.145255
  C      -3.693988      1.960799      0.451472
  C      -5.059799      0.881612     -1.262403
  C      -4.256818     -0.411953      0.647260
  C      -1.434046      0.086932     -0.346341
  C      -0.555676      1.139014     -0.070062
  C      -1.115469     -1.201139      0.094344
  C       0.609929      0.910968      0.654806
  C       0.050319     -1.429349      0.818674
  C       0.912502     -0.372751      1.103701
  H      -2.546183      1.161046     -1.840712
  H      -2.963550     -0.567393     -1.706418
  H      -3.429339      2.752296     -0.252459
  H      -4.622622      2.209488      0.969129
  H      -2.893418      1.811461      1.177096
  H      -5.221369     -0.050350     -1.806752
  H      -5.946843      1.143870     -0.683439
  H      -4.808574      1.687367     -1.955769
  H      -4.396830     -1.335992      0.083146
  H      -3.446917     -0.524250      1.369677
  H      -5.178977     -0.135533      1.162340
  H      -0.784739      2.138710     -0.430585
  H      -1.782478     -2.027733     -0.137371
  H       1.286513      1.734858      0.862886
  H       0.289245     -2.434171      1.155037
  H       1.824604     -0.551460      1.666148
  F     -12.091231      1.524626      0.184512
  F     -11.184328      0.651860     -1.609483
  F      -9.873447      0.201139      0.649816
  F     -11.651080     -0.657116      1.612709
  F     -13.768713      0.900583     -1.770457
  F     -13.138819     -1.197264     -1.774868
  F      -9.862244     -2.442594      1.085020
  F     -11.644529     -2.734760     -0.151339
  F     -15.520380     -0.764522     -0.730002
  F     -14.084440     -1.563987      0.723854
  F     -10.403644     -1.863096     -2.336381
  F      -9.294285     -3.437938     -1.291419
  F     -15.105576      1.800140      0.441866
  F     -13.982291      0.793197      2.015415
  F     -16.038604      0.223399      1.618259
  O      -7.469244     -1.607058     -0.393758
  O      -8.259140     -0.328431     -2.088225
  C     -11.894466      0.367104     -0.497490
  C     -10.999050     -0.526695      0.433245
  C     -13.303950     -0.108277     -0.994138
  C     -10.539308     -1.962666      0.011334
  C     -14.440103     -0.463524      0.028513
  C      -9.627226     -2.108245     -1.243197
  C     -14.894300      0.628693      1.052222
  C      -8.309828     -1.245640     -1.244756
52
Coordinates from ORCA-job R4N+PFOA-_0.15M E -2398.240000273515
  N      -3.918771      0.688404     -0.334291
  C      -2.676542      0.317995     -1.150821
  C      -3.707967      1.967208      0.418019
  C      -5.054136      0.871135     -1.300834
  C      -4.273438     -0.403468      0.630423
  C      -1.439271      0.084802     -0.335378
  C      -0.563519      1.139376     -0.060227
  C      -1.126471     -1.198665      0.122562
  C       0.593587      0.918563      0.680310
  C       0.030791     -1.419634      0.862635
  C       0.890242     -0.360444      1.146282
  H      -2.533618      1.144064     -1.853122
  H      -2.953721     -0.582597     -1.706049
  H      -3.435830      2.751977     -0.290593
  H      -4.642288      2.220508      0.923022
  H      -2.915344      1.824964      1.153749
  H      -5.212234     -0.067234     -1.835084
  H      -5.946609      1.143562     -0.735072
  H      -4.792992      1.667315     -2.001648
  H      -4.406711     -1.332936      0.073662
  H      -3.472336     -0.508514      1.363685
  H      -5.201942     -0.122571      1.131463
  H      -0.787983      2.135302     -0.433865
  H      -1.791313     -2.027355     -0.107900
  H       1.268142      1.744374      0.887352
  H       0.265202     -2.420902      1.212508
  H       1.795690     -0.533555      1.721090
  F     -12.063777      1.516434      0.219633
  F     -11.169263      0.661131     -1.589172
  F      -9.855987      0.171235      0.661699
  F     -11.636659     -0.691127      1.615164
  F     -13.751943      0.933068     -1.737474
  F     -13.138606     -1.169514     -1.774124
  F      -9.858439     -2.478473      1.054605
  F     -11.647330     -2.741057     -0.178809
  F     -15.514124     -0.731142     -0.715661
  F     -14.080084     -1.566147      0.720250
  F     -10.410792     -1.851087     -2.356139
  F      -9.300776     -3.440879     -1.334759
  F     -15.074932      1.809960      0.493129
  F     -13.952683      0.771702      2.047075
  F     -16.014801      0.223146      1.650418
  O      -7.470306     -1.621391     -0.418221
  O      -8.256515     -0.330228     -2.104939
  C     -11.878058      0.366867     -0.478660
  C     -10.986439     -0.546368      0.436394
  C     -13.292731     -0.090678     -0.977308
  C     -10.536689     -1.978235     -0.009262
  C     -14.428468     -0.451765      0.043689
  C      -9.630322     -2.110893     -1.269518
  C     -14.869832      0.628240      1.085558
  C      -8.309831     -1.252144     -1.266894
52
Coordinates from ORCA-job R4N+PFOA-_0.15M E -2398.240004962973
  N      -3.920862      0.689144     -0.344336
  C      -2.675078      0.313506     -1.153486
  C      -3.712520      1.971112      0.403194
  C      -5.051559      0.868464     -1.317073
  C      -4.280306     -0.398099      0.623652
  C      -1.442000      0.083584     -0.330845
  C      -0.566898      1.138974     -0.056616
  C      -1.132563     -1.197644      0.135591
  C       0.586021      0.921354      0.691301
  C       0.020545     -1.415480      0.883039
  C       0.879192     -0.355378      1.165693
  H      -2.528237      1.135916     -1.859190
  H      -2.950873     -0.589587     -1.705262
  H      -3.435249      2.752169     -0.307548
  H      -4.649394      2.228033      0.901588
  H      -2.924220      1.831002      1.143967
  H      -5.208038     -0.072168     -1.847879
  H      -5.946862      1.143407     -0.756985
  H      -4.786202      1.661846     -2.019476
  H      -4.410053     -1.330609      0.071100
  H      -3.483134     -0.498491      1.361839
  H      -5.212163     -0.116331      1.117940
  H      -0.788844      2.132991     -0.436808
  H      -1.796893     -2.027026     -0.093857
  H       1.260010      1.747806      0.897614
  H       0.252321     -2.415014      1.239561
  H       1.781381     -0.526035      1.746331
  F     -12.050003      1.512159      0.233294
  F     -11.163506      0.663021     -1.582528
  F      -9.847456      0.156556      0.664278
  F     -11.629438     -0.706687      1.614813
  F     -13.744612      0.946976     -1.722646
  F     -13.140194     -1.158051     -1.773216
  F      -9.857788     -2.495804      1.039867
  F     -11.649742     -2.744200     -0.192345
  F     -15.512635     -0.713515     -0.707929
  F     -14.079433     -1.567644      0.718071
  F     -10.413899     -1.848160     -2.365837
  F      -9.303000     -3.443468     -1.353868
  F     -15.059228      1.814308      0.517516
  F     -13.936275      0.761391      2.061247
  F     -16.001980      0.224171      1.667744
  O      -7.470393     -1.628783     -0.431050
  O      -8.257553     -0.330099     -2.111092
  C     -11.870584      0.365710     -0.471581
  C     -10.980460     -0.556049      0.436107
  C     -13.288313     -0.083253     -0.969649
  C     -10.536087     -1.986234     -0.019851
  C     -14.423658     -0.446161      0.051255
  C      -9.632211     -2.113765     -1.281922
  C     -14.857150      0.628051      1.102001
  C      -8.310698     -1.255586     -1.277178
52
Coordinates from ORCA-job R4N+PFOA-_0.15M E -2398.240008508329
  N      -3.921640      0.690335     -0.345819
  C      -2.675664      0.311431     -1.153898
  C      -3.711938      1.973201      0.399835
  C      -5.051362      0.870149     -1.319626
  C      -4.282288     -0.394905      0.623795
  C      -1.443383      0.082667     -0.329825
  C      -0.568129      1.138271     -0.056751
  C      -1.134894     -1.197726      0.139566
  C       0.583757      0.921824      0.693035
  C       0.017252     -1.414466      0.888820
  C       0.875868     -0.354059      1.170413
  H      -2.527951      1.132143     -1.861375
  H      -2.952520     -0.592606     -1.703505
  H      -3.430922      2.752208     -0.311698
  H      -4.649502      2.233396      0.895240
  H      -2.925794      1.832494      1.142765
  H      -5.207084     -0.070239     -1.851214
  H      -5.948006      1.142959     -0.760574
  H      -4.785327      1.664851     -2.020217
  H      -4.410770     -1.328997      0.073536
  H      -3.486066     -0.492654      1.363344
  H      -5.215424     -0.113473      1.115878
  H      -0.789426      2.131480     -0.439441
  H      -1.799284     -2.027323     -0.088932
  H       1.257802      1.748435      0.898521
  H       0.248321     -2.413351      1.247611
  H       1.777274     -0.523808      1.752538
  F     -12.043827      1.510167      0.234920
  F     -11.162055      0.660494     -1.583031
  F      -9.844576      0.150548      0.663314
  F     -11.627153     -0.712454      1.613242
  F     -13.742266      0.950341     -1.718915
  F     -13.142336     -1.155975     -1.772656
  F      -9.858036     -2.502686      1.034504
  F     -11.651076     -2.746555     -0.197234
  F     -15.513235     -0.706027     -0.704641
  F     -14.080139     -1.567973      0.717270
  F     -10.415676     -1.850120     -2.369457
  F      -9.302427     -3.445426     -1.359876
  F     -15.052892      1.816286      0.524715
  F     -13.928326      0.759364      2.064682
  F     -15.995923      0.226603      1.675212
  O      -7.470639     -1.630278     -0.437114
  O      -8.261013     -0.329827     -2.113801
  C     -11.867947      0.363939     -0.471014
  C     -10.978460     -0.560363      0.434614
  C     -13.287406     -0.081576     -0.967713
  C     -10.536160     -1.990314     -0.024019
  C     -14.422447     -0.443905      0.053927
  C      -9.633403     -2.116359     -1.286409
  C     -14.851717      0.628916      1.107540
  C      -8.312540     -1.256728     -1.281528
52
Coordinates from ORCA-job R4N+PFOA-_0.15M E -2398.240010966550
  N      -3.925247      0.690364     -0.359974
  C      -2.674113      0.303855     -1.156836
  C      -3.718934      1.978041      0.378383
  C      -5.047835      0.865456     -1.342852
  C      -4.293680     -0.387733      0.614621
  C      -1.447776      0.080603     -0.322459
  C      -0.573466      1.137647     -0.051816
  C      -1.143994     -1.196103      0.159903
  C       0.572610      0.926463      0.708262
  C       0.002357     -1.407595      0.919480
  C       0.859876     -0.345628      1.198544
  H      -2.520755      1.118714     -1.869810
  H      -2.948551     -0.604113     -1.701072
  H      -3.430515      2.751526     -0.336211
  H      -4.660047      2.243545      0.864158
  H      -2.939178      1.841002      1.128691
  H      -5.200712     -0.077887     -1.870061
  H      -5.948506      1.141426     -0.791799
  H      -4.776129      1.656270     -2.045647
  H      -4.417736     -1.325967      0.070419
  H      -3.503192     -0.479659      1.361052
  H      -5.230815     -0.103174      1.097187
  H      -0.791013      2.127762     -0.444559
  H      -1.807590     -2.026953     -0.066342
  H       1.245959      1.754121      0.911813
  H       0.229791     -2.403610      1.288431
  H       1.756705     -0.511252      1.788869
  F     -12.023165      1.503594      0.255574
  F     -11.152574      0.663999     -1.572523
  F      -9.831963      0.129208      0.667190
  F     -11.616045     -0.735577      1.612683
  F     -13.731409      0.970739     -1.696674
  F     -13.143978     -1.138534     -1.771443
  F      -9.855440     -2.527522      1.011835
  F     -11.653255     -2.751721     -0.216587
  F     -15.509369     -0.682626     -0.691737
  F     -14.076708     -1.569003      0.715832
  F     -10.422551     -1.844339     -2.383927
  F      -9.306077     -3.447774     -1.390777
  F     -15.029750      1.822710      0.560489
  F     -13.904161      0.745301      2.085543
  F     -15.976331      0.227544      1.700478
  O      -7.472261     -1.637483     -0.457358
  O      -8.262981     -0.331537     -2.129559
  C     -11.856481      0.362362     -0.460498
  C     -10.969303     -0.574623      0.434202
  C     -13.280222     -0.070491     -0.956401
  C     -10.534374     -2.001988     -0.039475
  C     -14.414051     -0.435884      0.065564
  C      -9.636404     -2.119221     -1.305934
  C     -14.832577      0.628781      1.131490
  C      -8.314855     -1.260709     -1.299810
52
Coordinates from ORCA-job R4N+PFOA-_0.15M E -2398.240013886165
  N      -3.928266      0.689418     -0.369231
  C      -2.673701      0.298668     -1.158755
  C      -3.724005      1.979556      0.365531
  C      -5.046107      0.862526     -1.357818
  C      -4.301892     -0.384810      0.607653
  C      -1.451308      0.079628     -0.317525
  C      -0.577758      1.137863     -0.049043
  C      -1.150754     -1.194218      0.174342
  C       0.564331      0.930768      0.718111
  C      -0.008402     -1.401599      0.941058
  C       0.848311     -0.338381      1.217844
  H      -2.516923      1.109756     -1.875243
  H      -2.946050     -0.611948     -1.699586
  H      -3.430706      2.750084     -0.350263
  H      -4.667359      2.248118      0.845260
  H      -2.948485      1.844295      1.120534
  H      -5.196472     -0.081812     -1.884025
  H      -5.949613      1.138726     -0.811481
  H      -4.771219      1.652250     -2.060565
  H      -4.422986     -1.325220      0.066559
  H      -3.515142     -0.473667      1.358415
  H      -5.241374     -0.098182      1.084332
  H      -0.792748      2.125650     -0.448989
  H      -1.813762     -2.026080     -0.049894
  H       1.237165      1.759263      0.919959
  H       0.216574     -2.395384      1.317454
  H       1.741964     -0.500761      1.813858
  F     -12.008341      1.499042      0.268338
  F     -11.146036      0.665977     -1.566669
  F      -9.821912      0.114878      0.667009
  F     -11.606303     -0.749842      1.612004
  F     -13.723911      0.983155     -1.682357
  F     -13.145020     -1.127991     -1.769554
  F      -9.852304     -2.543667      0.996034
  F     -11.654167     -2.755537     -0.228535
  F     -15.506059     -0.667087     -0.681152
  F     -14.073352     -1.568350      0.716942
  F     -10.428508     -1.841274     -2.393985
  F      -9.309170     -3.449985     -1.412592
  F     -15.010789      1.828601      0.584643
  F     -13.886242      0.736694      2.100096
  F     -15.961890      0.231015      1.717631
  O      -7.472942     -1.643146     -0.474258
  O      -8.266429     -0.332629     -2.141625
  C     -11.848114      0.361062     -0.454360
  C     -10.961975     -0.584062      0.432851
  C     -13.274878     -0.063546     -0.948687
  C     -10.532542     -2.010109     -0.050021
  C     -14.407407     -0.429907      0.074361
  C      -9.638706     -2.121785     -1.319918
  C     -14.817867      0.630205      1.147915
  C      -8.317221     -1.263893     -1.314051
52
Coordinates from ORCA-job R4N+PFOA-_0.15M E -2398.240019073725
  N      -3.934045      0.685521     -0.382537
  C      -2.673828      0.290284     -1.160741
  C      -3.733603      1.978169      0.349130
  C      -5.044063      0.857189     -1.380035
  C      -4.316287     -0.384587      0.595678
  C      -1.457183      0.078808     -0.309231
  C      -0.585747      1.139704     -0.044444
  C      -1.160068     -1.190295      0.196814
  C       0.550671      0.940101      0.733050
  C      -0.023439     -1.390119      0.973996
  C       0.831019     -0.324127      1.247087
  H      -2.512618      1.096134     -1.882097
  H      -2.941644     -0.624400     -1.696996
  H      -3.433126      2.745640     -0.366956
  H      -4.680480      2.250046      0.820006
  H      -2.964682      1.844703      1.111152
  H      -5.189184     -0.087229     -1.907670
  H      -5.952327      1.131425     -0.840585
  H      -4.764642      1.647333     -2.080471
  H      -4.432904     -1.327110      0.057344
  H      -3.535570     -0.470660      1.353055
  H      -5.259025     -0.094786      1.063801
  H      -0.797868      2.123719     -0.455067
  H      -1.821125     -2.024486     -0.024476
  H       1.221949      1.770545      0.932069
  H       0.198954     -2.380215      1.361490
  H       1.720151     -0.480568      1.851393
  F     -11.985191      1.492907      0.285077
  F     -11.136696      0.668662     -1.560321
  F      -9.804800      0.094911      0.662361
  F     -11.588406     -0.768238      1.610258
  F     -13.713336      0.999906     -1.661689
  F     -13.146983     -1.113857     -1.764844
  F      -9.844924     -2.565521      0.971501
  F     -11.654377     -2.760935     -0.244262
  F     -15.499886     -0.645059     -0.661457
  F     -14.065697     -1.564843      0.722911
  F     -10.439200     -1.837472     -2.409812
  F      -9.315525     -3.454025     -1.446515
  F     -14.978212      1.839790      0.620598
  F     -13.857337      0.726227      2.122779
  F     -15.938517      0.240665      1.744003
  O      -7.472575     -1.654023     -0.505637
  O      -8.273914     -0.334019     -2.161872
  C     -11.834985      0.359400     -0.446893
  C     -10.949324     -0.596895      0.428969
  C     -13.266503     -0.053734     -0.936789
  C     -10.528680     -2.021536     -0.066194
  C     -14.395814     -0.419995      0.089702
  C      -9.642532     -2.126116     -1.342415
  C     -14.793411      0.635060      1.173183
  C      -8.321234     -1.269671     -1.338852
52
Coordinates from ORCA-job R4N+PFOA-_0.15M E -2398.240023495954
  N      -3.935333      0.682765     -0.384115
  C      -2.673817      0.288698     -1.160417
  C      -3.735855      1.974010      0.350397
  C      -5.043442      0.856875     -1.383303
  C      -4.319915     -0.389050      0.591447
  C      -1.458081      0.078862     -0.307131
  C      -0.587252      1.140481     -0.043337
  C      -1.161229     -1.189212      0.201606
  C       0.548394      0.942590      0.735743
  C      -0.025436     -1.387274      0.980476
  C       0.828472     -0.320575      1.252521
  H      -2.512348      1.094398     -1.881899
  H      -2.939705     -0.626497     -1.696827
  H      -3.433962      2.742792     -0.363667
  H      -4.683473      2.245214      0.820186
  H      -2.968351      1.839033      1.113571
  H      -5.185673     -0.085386     -1.915607
  H      -5.953222      1.127270     -0.844507
  H      -4.763730      1.650315     -2.079886
  H      -4.436194     -1.330296      0.050857
  H      -3.540340     -0.477435      1.349763
  H      -5.262679     -0.098664      1.059079
  H      -0.799110      2.123787     -0.455777
  H      -1.821646     -2.024085     -0.019024
  H       1.219274      1.773552      0.933952
  H       0.196794     -2.376593      1.370043
  H       1.716960     -0.475647      1.858125
  F     -11.984625      1.494364      0.282409
  F     -11.139829      0.669669     -1.564467
  F      -9.800642      0.098879      0.653633
  F     -11.580528     -0.763330      1.609296
  F     -13.717107      0.996589     -1.660422
  F     -13.148538     -1.116615     -1.760984
  F      -9.838236     -2.561009      0.968039
  F     -11.651272     -2.759803     -0.241658
  F     -15.498592     -0.649247     -0.652151
  F     -14.059794     -1.563236      0.731033
  F     -10.442913     -1.836521     -2.412599
  F      -9.318118     -3.453673     -1.451822
  F     -14.973854      1.840856      0.624529
  F     -13.852131      0.728215      2.126594
  F     -15.933979      0.243262      1.750413
  O      -7.469323     -1.656941     -0.519517
  O      -8.277991     -0.331869     -2.168150
  C     -11.834858      0.360414     -0.449135
  C     -10.945616     -0.593953      0.425402
  C     -13.267032     -0.055105     -0.934624
  C     -10.525649     -2.019376     -0.068275
  C     -14.393110     -0.420470      0.095611
  C      -9.643108     -2.125384     -1.347251
  C     -14.789221      0.636566      1.177943
  C      -8.321806     -1.269882     -1.347565
52
Coordinates from ORCA-job R4N+PFOA-_0.15M E -2398.240031714269
  N      -3.940949      0.675881     -0.395092
  C      -2.672863      0.282543     -1.160338
  C      -3.748208      1.966642      0.342093
  C      -5.040327      0.850525     -1.403871
  C      -4.334425     -0.396654      0.576395
  C      -1.462713      0.079060     -0.297423
  C      -0.595624      1.143724     -0.033698
  C      -1.166784     -1.185686      0.220019
  C       0.535294      0.952229      0.753832
  C      -0.035812     -1.377302      1.007490
  C       0.814318     -0.307553      1.279361
  H      -2.507875      1.086008     -1.883481
  H      -2.932009     -0.635341     -1.695557
  H      -3.440403      2.736003     -0.368797
  H      -4.699892      2.237215      0.803953
  H      -2.987304      1.831299      1.111775
  H      -5.173859     -0.089500     -1.942358
  H      -5.955739      1.115942     -0.872225
  H      -4.756356      1.647724     -2.094499
  H      -4.447825     -1.336868      0.033486
  H      -3.560670     -0.487428      1.340405
  H      -5.279650     -0.104503      1.037847
  H      -0.806669      2.124580     -0.452343
  H      -1.823732     -2.023219     -0.000886
  H       1.203276      1.785561      0.951888
  H       0.185715     -2.364103      1.403790
  H       1.699099     -0.457655      1.891603
  F     -11.970969      1.495512      0.283837
  F     -11.142892      0.672546     -1.571449
  F      -9.783717      0.097475      0.633017
  F     -11.556015     -0.761796      1.605269
  F     -13.720253      1.000787     -1.645231
  F     -13.154592     -1.112898     -1.751400
  F      -9.823337     -2.562368      0.948889
  F     -11.646363     -2.758168     -0.246113
  F     -15.493875     -0.643992     -0.621636
  F     -14.043928     -1.558873      0.749228
  F     -10.452406     -1.834666     -2.426960
  F      -9.326211     -3.456400     -1.475865
  F     -14.951528      1.847247      0.652733
  F     -13.823780      0.728008      2.145198
  F     -15.909758      0.250855      1.781942
  O      -7.462325     -1.669393     -0.559517
  O      -8.284620     -0.331643     -2.190982
  C     -11.828201      0.362326     -0.450535
  C     -10.931967     -0.593542      0.415396
  C     -13.264680     -0.051697     -0.923672
  C     -10.518476     -2.019551     -0.081822
  C     -14.381860     -0.415870      0.116418
  C      -9.645483     -2.127067     -1.367753
  C     -14.767367      0.641462      1.202528
  C      -8.322182     -1.275086     -1.376337
52
Coordinates from ORCA-job R4N+PFOA-_0.15M E -2398.240040309091
  N      -3.944173      0.670021     -0.399627
  C      -2.671473      0.282189     -1.159462
  C      -3.757478      1.957273      0.345121
  C      -5.038279      0.847762     -1.413828
  C      -4.341690     -0.408020      0.564163
  C      -1.464750      0.080431     -0.291254
  C      -0.601225      1.146813     -0.022828
  C      -1.168228     -1.184041      0.226417
  C       0.526876      0.957178      0.769189
  C      -0.040164     -1.373786      1.018521
  C       0.806529     -0.302454      1.294775
  H      -2.505254      1.087702     -1.880060
  H      -2.925024     -0.635552     -1.697675
  H      -3.446711      2.730487     -0.360268
  H      -4.712064      2.224267      0.803035
  H      -3.000652      1.818925      1.118285
  H      -5.162673     -0.088015     -1.961827
  H      -5.958203      1.104761     -0.885918
  H      -4.753345      1.652076     -2.095854
  H      -4.455163     -1.344554      0.014937
  H      -3.570140     -0.504940      1.329690
  H      -5.287422     -0.117159      1.025370
  H      -0.812872      2.127680     -0.441144
  H      -1.822259     -2.022912      0.001904
  H       1.192076      1.791907      0.970686
  H       0.181754     -2.360453      1.414936
  H       1.689125     -0.451183      1.910497
  F     -11.970038      1.502923      0.267862
  F     -11.157010      0.671694     -1.590407
  F      -9.772477      0.113903      0.603125
  F     -11.532871     -0.741228      1.600352
  F     -13.735473      0.988856     -1.641760
  F     -13.162565     -1.123209     -1.739220
  F      -9.805691     -2.544040      0.942475
  F     -11.637663     -2.751618     -0.237019
  F     -15.492181     -0.657624     -0.590544
  F     -14.025511     -1.554495      0.774460
  F     -10.458545     -1.837310     -2.433999
  F      -9.331859     -3.457768     -1.481362
  F     -14.948460      1.847029      0.660543
  F     -13.804712      0.741964      2.151351
  F     -15.892005      0.255322      1.808342
  O      -7.451664     -1.677427     -0.594657
  O      -8.290550     -0.331210     -2.210391
  C     -11.829720      0.365687     -0.460852
  C     -10.921572     -0.581189      0.402795
  C     -13.268908     -0.057149     -0.917473
  C     -10.510035     -2.010009     -0.087285
  C     -14.374791     -0.418164      0.135655
  C      -9.645933     -2.126869     -1.378556
  C     -14.755537      0.645972      1.216989
  C      -8.320118     -1.278115     -1.399656
52
Coordinates from ORCA-job R4N+PFOA-_0.15M E -2398.240047791593
  N      -3.950905      0.664574     -0.413978
  C      -2.669898      0.278124     -1.160647
  C      -3.774086      1.952796      0.331382
  C      -5.035076      0.838953     -1.439564
  C      -4.356050     -0.413385      0.546702
  C      -1.470967      0.081769     -0.280416
  C      -0.613053      1.151273     -0.006348
  C      -1.175864     -1.180520      0.243364
  C       0.507780      0.966965      0.797132
  C      -0.055086     -1.364962      1.046999
  C       0.785816     -0.290515      1.328722
  H      -2.498764      1.082325     -1.881519
  H      -2.916013     -0.641708     -1.698757
  H      -3.456683      2.725586     -0.371525
  H      -4.733898      2.219026      0.778656
  H      -3.025357      1.816042      1.112684
  H      -5.149337     -0.096617     -1.990014
  H      -5.961545      1.092406     -0.921400
  H      -4.745522      1.645073     -2.117598
  H      -4.466454     -1.349782     -0.003383
  H      -3.590315     -0.510856      1.317956
  H      -5.305192     -0.122678      1.001006
  H      -0.823596      2.130428     -0.429225
  H      -1.825325     -2.021817      0.014680
  H       1.168493      1.804206      1.002906
  H       0.165628     -2.349968      1.448191
  H       1.662752     -0.435156      1.953444
  F     -11.948584      1.504111      0.268506
  F     -11.158688      0.671370     -1.599062
  F      -9.751636      0.108765      0.580993
  F     -11.504461     -0.742090      1.595082
  F     -13.735989      0.996224     -1.621508
  F     -13.169866     -1.117275     -1.727582
  F      -9.790890     -2.549802      0.920296
  F     -11.633398     -2.750254     -0.244225
  F     -15.486081     -0.646344     -0.553998
  F     -14.007439     -1.549263      0.794424
  F     -10.468451     -1.838279     -2.450239
  F      -9.340370     -3.463572     -1.507292
  F     -14.924615      1.854201      0.693375
  F     -13.765292      0.746664      2.170375
  F     -15.857222      0.263477      1.851251
  O      -7.445108     -1.691510     -0.637137
  O      -8.295099     -0.337778     -2.240609
  C     -11.819356      0.366729     -0.461966
  C     -10.904694     -0.582984      0.391714
  C     -13.264615     -0.052012     -0.903451
  C     -10.502221     -2.012404     -0.103528
  C     -14.360372     -0.411159      0.160862
  C      -9.649074     -2.131648     -1.401564
  C     -14.726974      0.652755      1.247129
  C      -8.319762     -1.287178     -1.432744
52
Coordinates from ORCA-job R4N+PFOA-_0.15M E -2398.240054296871
  N      -3.954767      0.661295     -0.425039
  C      -2.666520      0.278607     -1.161971
  C      -3.787492      1.950172      0.321241
  C      -5.031437      0.831746     -1.459299
  C      -4.363677     -0.417690      0.532623
  C      -1.474510      0.083666     -0.272186
  C      -0.622548      1.155089      0.012875
  C      -1.179873     -1.179310      0.250251
  C       0.491624      0.971958      0.825803
  C      -0.065688     -1.362637      1.063263
  C       0.769042     -0.286307      1.355878
  H      -2.491498      1.084457     -1.880079
  H      -2.906451     -0.641033     -1.703172
  H      -3.466032      2.723355     -0.379397
  H      -4.751577      2.214331      0.760442
  H      -3.044807      1.815402      1.108661
  H      -5.137046     -0.104340     -2.010515
  H      -5.963313      1.081703     -0.949081
  H      -4.739397      1.639263     -2.134613
  H      -4.472189     -1.353690     -0.018569
  H      -3.601459     -0.515661      1.307226
  H      -5.315410     -0.128870      0.982828
  H      -0.832671      2.134703     -0.409169
  H      -1.824707     -2.021880      0.013292
  H       1.147605      1.810776      1.040095
  H       0.154653     -2.348192      1.463303
  H       1.640827     -0.430077      1.987974
  F     -11.936293      1.509001      0.259885
  F     -11.167045      0.669901     -1.613200
  F      -9.736042      0.113884      0.555159
  F     -11.479275     -0.731915      1.589880
  F     -13.744284      0.994396     -1.608120
  F     -13.177716     -1.118882     -1.715395
  F      -9.777037     -2.544513      0.907184
  F     -11.628360     -2.746080     -0.243429
  F     -15.482051     -0.647815     -0.519159
  F     -13.988567     -1.545093      0.816848
  F     -10.476904     -1.839693     -2.460232
  F      -9.348800     -3.467908     -1.521882
  F     -14.916181      1.855445      0.713078
  F     -13.733876      0.759493      2.180631
  F     -15.827730      0.266509      1.889842
  O      -7.438624     -1.703043     -0.671593
  O      -8.297758     -0.346135     -2.267420
  C     -11.814821      0.368988     -0.467620
  C     -10.891414     -0.577807      0.380142
  C     -13.264789     -0.051798     -0.892652
  C     -10.495044     -2.009341     -0.113606
  C     -14.349378     -0.409348      0.183736
  C      -9.652023     -2.134742     -1.416838
  C     -14.706670      0.657432      1.270038
  C      -8.318771     -1.295445     -1.459386
52
Coordinates from ORCA-job R4N+PFOA-_0.15M E -2398.240058400345
  N      -3.959674      0.659090     -0.441106
  C      -2.663737      0.275970     -1.164906
  C      -3.801455      1.951227      0.301487
  C      -5.027217      0.823327     -1.485753
  C      -4.374746     -0.416880      0.517097
  C      -1.480378      0.084713     -0.262953
  C      -0.632826      1.157891      0.028643
  C      -1.189666     -1.176713      0.265460
  C       0.472946      0.978016      0.853658
  C      -0.083856     -1.356788      1.090544
  C       0.746343     -0.278692      1.389477
  H      -2.482853      1.080186     -1.883374
  H      -2.897722     -0.645294     -1.705930
  H      -3.474466      2.722072     -0.399173
  H      -4.769989      2.215768      0.730550
  H      -3.066030      1.820812      1.096440
  H      -5.126363     -0.115312     -2.033692
  H      -5.964306      1.073449     -0.985075
  H      -4.730686      1.628703     -2.161639
  H      -4.478478     -1.355022     -0.031363
  H      -3.618428     -0.511224      1.297888
  H      -5.330522     -0.128040      0.958673
  H      -0.839718      2.136160     -0.398092
  H      -1.831160     -2.020534      0.023907
  H       1.125573      1.818152      1.072973
  H       0.133522     -2.341127      1.495170
  H       1.611538     -0.419873      2.031142
  F     -11.914641      1.507831      0.268378
  F     -11.163465      0.672577     -1.613523
  F      -9.717652      0.103685      0.542768
  F     -11.456410     -0.739405      1.587234
  F     -13.739498      1.005983     -1.586576
  F     -13.180440     -1.108611     -1.706754
  F      -9.766820     -2.556299      0.886755
  F     -11.626373     -2.746593     -0.252437
  F     -15.474351     -0.634792     -0.491287
  F     -13.973773     -1.542525      0.829740
  F     -10.486690     -1.836161     -2.472985
  F      -9.358203     -3.472411     -1.548931
  F     -14.894747      1.860264      0.745304
  F     -13.699879      0.759078      2.198757
  F     -15.796826      0.268776      1.926048
  O      -7.435563     -1.717310     -0.704790
  O      -8.300083     -0.353388     -2.291807
  C     -11.803063      0.369874     -0.463771
  C     -10.876694     -0.583241      0.373829
  C     -13.257915     -0.044468     -0.879066
  C     -10.489155     -2.014727     -0.127391
  C     -14.335521     -0.403117      0.204015
  C      -9.655819     -2.138614     -1.436509
  C     -14.681281      0.660340      1.297052
  C      -8.319555     -1.304451     -1.485558
52
Coordinates from ORCA-job R4N+PFOA-_0.15M E -2398.240063285243
  N      -3.964314      0.656894     -0.458259
  C      -2.659611      0.274841     -1.167602
  C      -3.816955      1.952735      0.280093
  C      -5.021761      0.813755     -1.514090
  C      -4.385582     -0.416018      0.500373
  C      -1.486325      0.085779     -0.252268
  C      -0.644552      1.160492      0.050130
  C      -1.199101     -1.175558      0.278371
  C       0.451825      0.982163      0.887940
  C      -0.102654     -1.354081      1.116172
  C       0.721588     -0.274433      1.425826
  H      -2.472226      1.078846     -1.884663
  H      -2.886568     -0.647088     -1.710492
  H      -3.485162      2.721390     -0.420706
  H      -4.790195      2.216653      0.698776
  H      -3.088965      1.828025      1.082804
  H      -5.114086     -0.128080     -2.057708
  H      -5.964480      1.063928     -1.024008
  H      -4.720704      1.616384     -2.191148
  H      -4.483017     -1.356609     -0.045083
  H      -3.636105     -0.505756      1.288197
  H      -5.346064     -0.127698      0.932017
  H      -0.848384      2.138595     -0.378454
  H      -1.835968     -2.020468      0.028540
  H       1.100084      1.823429      1.115719
  H       0.112234     -2.338330      1.522337
  H       1.579474     -0.414328      2.077513
  F     -11.896463      1.510255      0.271203
  F     -11.165183      0.677154     -1.619033
  F      -9.697855      0.101771      0.521015
  F     -11.427790     -0.737038      1.583604
  F     -13.741158      1.012286     -1.565254
  F     -13.183727     -1.102099     -1.695421
  F      -9.752384     -2.559165      0.867727
  F     -11.621737     -2.743716     -0.256098
  F     -15.465238     -0.631448     -0.456293
  F     -13.951830     -1.540361      0.848929
  F     -10.497843     -1.830953     -2.484709
  F      -9.370537     -3.475983     -1.574622
  F     -14.878666      1.861120      0.776972
  F     -13.664064      0.763031      2.216320
  F     -15.762489      0.266513      1.967531
  O      -7.430883     -1.733907     -0.742834
  O      -8.301305     -0.362282     -2.319968
  C     -11.793430      0.373161     -0.463422
  C     -10.860168     -0.582352      0.364177
  C     -13.252822     -0.039487     -0.864749
  C     -10.481102     -2.015300     -0.140092
  C     -14.319762     -0.400333      0.228207
  C      -9.659705     -2.140914     -1.456080
  C     -14.655521      0.661397      1.325902
  C      -8.319533     -1.314488     -1.514786
52
Coordinates from ORCA-job R4N+PFOA-_0.15M E -2398.240068139344
  N      -3.971590      0.654297     -0.476233
  C      -2.658298      0.272292     -1.169901
  C      -3.834964      1.954239      0.257020
  C      -5.018380      0.803700     -1.543547
  C      -4.400060     -0.414855      0.483233
  C      -1.495496      0.086873     -0.240610
  C      -0.658545      1.163210      0.069179
  C      -1.213079     -1.173012      0.296087
  C       0.428387      0.987820      0.919858
  C      -0.126131     -1.348542      1.146778
  C       0.693355     -0.267304      1.463488
  H      -2.464047      1.074749     -1.886889
  H      -2.877840     -0.651269     -1.713095
  H      -3.498190      2.720266     -0.444264
  H      -4.812852      2.217810      0.664995
  H      -3.114703      1.835638      1.067622
  H      -5.104305     -0.141272     -2.082799
  H      -5.966547      1.054448     -1.064354
  H      -4.712079      1.603126     -2.221956
  H      -4.489011     -1.358456     -0.058490
  H      -3.658924     -0.498507      1.279548
  H      -5.365973     -0.126973      0.902838
  H      -0.858315      2.140163     -0.363906
  H      -1.846144     -2.019149      0.040803
  H       1.073180      1.830210      1.153260
  H       0.085246     -2.331661      1.557494
  H       1.543884     -0.404826      2.125245
  F     -11.871732      1.509986      0.279708
  F     -11.160329      0.682295     -1.620196
  F      -9.674435      0.093207      0.502734
  F     -11.397127     -0.741889      1.580054
  F     -13.735256      1.023858     -1.540937
  F     -13.184139     -1.091296     -1.684751
  F      -9.737258     -2.569243      0.844281
  F     -11.616639     -2.742809     -0.264113
  F     -15.452818     -0.620263     -0.422486
  F     -13.929808     -1.537507      0.865411
  F     -10.508378     -1.825671     -2.498999
  F      -9.381987     -3.480644     -1.605840
  F     -14.851203      1.865779      0.814328
  F     -13.623573      0.761797      2.237957
  F     -15.724689      0.267706      2.008192
  O      -7.426213     -1.752027     -0.783050
  O      -8.301720     -0.371417     -2.349467
  C     -11.778731      0.375407     -0.460128
  C     -10.840750     -0.586086      0.355397
  C     -13.242903     -0.031754     -0.849216
  C     -10.471860     -2.019599     -0.155552
  C     -14.300504     -0.394381      0.252200
  C      -9.662504     -2.144457     -1.479050
  C     -14.623834      0.663808      1.356985
  C      -8.318961     -1.325483     -1.546312
52
Coordinates from ORCA-job R4N+PFOA-_0.15M E -2398.240075299532
  N      -3.980819      0.651542     -0.487599
  C      -2.660904      0.272332     -1.169984
  C      -3.854263      1.954684      0.241853
  C      -5.020104      0.794275     -1.562967
  C      -4.412883     -0.415739      0.472172
  C      -1.505683      0.089086     -0.230879
  C      -0.673364      1.166853      0.086111
  C      -1.224988     -1.170635      0.307140
  C       0.407459      0.992880      0.944900
  C      -0.144240     -1.344687      1.165953
  C       0.670785     -0.262105      1.489589
  H      -2.462548      1.075175     -1.885471
  H      -2.873516     -0.651740     -1.715107
  H      -3.516078      2.719536     -0.460011
  H      -4.835696      2.215817      0.642890
  H      -3.138847      1.842090      1.057614
  H      -5.101222     -0.153445     -2.098360
  H      -5.972143      1.045204     -1.091835
  H      -4.710521      1.590953     -2.243026
  H      -4.491516     -1.361929     -0.066706
  H      -3.679154     -0.492371      1.275977
  H      -5.384173     -0.130832      0.881203
  H      -0.871419      2.143787     -0.347788
  H      -1.854284     -2.017875      0.046275
  H       1.048955      1.836255      1.183772
  H       0.066015     -2.327691      1.577519
  H       1.516654     -0.398481      2.157527
  F     -11.848935      1.511152      0.282391
  F     -11.153756      0.685126     -1.624066
  F      -9.652297      0.087839      0.484507
  F     -11.368510     -0.742065      1.576192
  F     -13.727898      1.032011     -1.523830
  F     -13.182077     -1.083956     -1.675725
  F      -9.722418     -2.575388      0.826435
  F     -11.610460     -2.741203     -0.267849
  F     -15.439482     -0.610858     -0.394315
  F     -13.908364     -1.532627      0.880286
  F     -10.516006     -1.824267     -2.510112
  F      -9.391707     -3.487072     -1.628876
  F     -14.824690      1.872190      0.841295
  F     -13.587254      0.764965      2.253735
  F     -15.690455      0.273074      2.039685
  O      -7.420990     -1.770221     -0.816909
  O      -8.299140     -0.384530     -2.377136
  C     -11.764045      0.377559     -0.459991
  C     -10.822008     -0.587528      0.346666
  C     -13.231982     -0.025758     -0.837883
  C     -10.462135     -2.022503     -0.167340
  C     -14.281441     -0.387972      0.271433
  C      -9.663386     -2.149407     -1.497397
  C     -14.594342      0.669074      1.380383
  C      -8.316493     -1.338245     -1.573794
52
Coordinates from ORCA-job R4N+PFOA-_0.15M E -2398.240087136849
  N      -3.996546      0.646638     -0.493676
  C      -2.671068      0.273931     -1.167838
  C      -3.880821      1.951554      0.234556
  C      -5.030480      0.783528     -1.574875
  C      -4.428817     -0.421661      0.464887
  C      -1.521005      0.094042     -0.221726
  C      -0.693913      1.174251      0.100318
  C      -1.239049     -1.165155      0.316830
  C       0.383383      1.003000      0.964159
  C      -0.161989     -1.336417      1.180775
  C       0.648198     -0.251565      1.509040
  H      -2.471588      1.078427     -1.881190
  H      -2.875619     -0.650430     -1.715621
  H      -3.544418      2.717398     -0.467049
  H      -4.865350      2.207323      0.631509
  H      -3.168165      1.844433      1.053485
  H      -5.106965     -0.165923     -2.108115
  H      -5.985656      1.033070     -1.109617
  H      -4.719264      1.578857     -2.255710
  H      -4.492001     -1.370043     -0.072197
  H      -3.703183     -0.488951      1.276854
  H      -5.406843     -0.144187      0.862714
  H      -0.892672      2.151072     -0.333502
  H      -1.864176     -2.014294      0.052175
  H       1.021144      1.848153      1.206736
  H       0.049396     -2.319056      1.592641
  H       1.491467     -0.385826      2.180678
  F     -11.814619      1.510531      0.283941
  F     -11.137158      0.683815     -1.628678
  F      -9.623297      0.074547      0.466123
  F     -11.335570     -0.746221      1.570955
  F     -13.708889      1.044447     -1.509113
  F     -13.176142     -1.074406     -1.667411
  F      -9.706689     -2.588833      0.806229
  F     -11.604237     -2.742034     -0.272876
  F     -15.420865     -0.589387     -0.368241
  F     -13.885946     -1.521637      0.893836
  F     -10.523256     -1.829531     -2.523124
  F      -9.401893     -3.500270     -1.653255
  F     -14.780461      1.889085      0.866272
  F     -13.542322      0.770890      2.269231
  F     -15.649928      0.293467      2.066885
  O      -7.414718     -1.795848     -0.854480
  O      -8.295380     -0.405156     -2.408601
  C     -11.740927      0.377673     -0.460930
  C     -10.798049     -0.593709      0.336916
  C     -13.213527     -0.017011     -0.828062
  C     -10.450880     -2.030567     -0.180895
  C     -14.256553     -0.374035      0.288930
  C      -9.663525     -2.160816     -1.518084
  C     -14.555016      0.683417      1.401657
  C      -8.312924     -1.358252     -1.604920
52
Coordinates from ORCA-job R4N+PFOA-_0.15M E -2398.240102428090
  N      -4.015560      0.638675     -0.495869
  C      -2.685063      0.275783     -1.164373
  C      -3.911244      1.943138      0.234978
  C      -5.045516      0.771160     -1.581457
  C      -4.445685     -0.434078      0.458972
  C      -1.538100      0.101146     -0.213362
  C      -0.718436      1.185641      0.113079
  C      -1.251117     -1.156991      0.324959
  C       0.356560      1.019575      0.980847
  C      -0.176454     -1.323061      1.192872
  C       0.626462     -0.234069      1.525323
  H      -2.487031      1.082975     -1.875062
  H      -2.880542     -0.648814     -1.715143
  H      -3.578403      2.712448     -0.464517
  H      -4.898679      2.191089      0.629683
  H      -3.200140      1.839544      1.055703
  H      -5.116226     -0.178495     -2.115126
  H      -6.003512      1.017518     -1.120306
  H      -4.734124      1.567410     -2.261179
  H      -4.492647     -1.383101     -0.078578
  H      -3.727336     -0.493333      1.278056
  H      -5.430294     -0.166858      0.847439
  H      -0.921021      2.161995     -0.320036
  H      -1.870262     -2.009457      0.056997
  H       0.988557      1.868089      1.226748
  H       0.038816     -2.304943      1.604537
  H       1.468047     -0.364361      2.199845
  F     -11.772967      1.509254      0.281626
  F     -11.117357      0.677849     -1.636889
  F      -9.590720      0.056394      0.444441
  F     -11.299734     -0.751699      1.563627
  F     -13.684807      1.058887     -1.496084
  F     -13.171086     -1.064335     -1.658455
  F      -9.691750     -2.606462      0.783349
  F     -11.599803     -2.744047     -0.279077
  F     -15.400517     -0.559521     -0.340269
  F     -13.863187     -1.505454      0.908629
  F     -10.532312     -1.839798     -2.538460
  F      -9.414403     -3.518101     -1.678652
  F     -14.723929      1.914035      0.889861
  F     -13.489396      0.780649      2.283633
  F     -15.603442      0.326924      2.094384
  O      -7.409394     -1.825966     -0.896258
  O      -8.293061     -0.431003     -2.444640
  C     -11.713913      0.376123     -0.464293
  C     -10.771749     -0.602630      0.324986
  C     -13.192387     -0.006804     -0.819014
  C     -10.440444     -2.041586     -0.196847
  C     -14.228826     -0.354453      0.306995
  C      -9.665692     -2.176804     -1.541343
  C     -14.508376      0.705508      1.422465
  C      -8.310569     -1.383254     -1.640193
52
Coordinates from ORCA-job R4N+PFOA-_0.15M E -2398.240122588886
  N      -4.038372      0.627118     -0.495890
  C      -2.702740      0.276742     -1.159960
  C      -3.946988      1.929414      0.240486
  C      -5.064766      0.755603     -1.585402
  C      -4.464665     -0.452866      0.453090
  C      -1.557420      0.110626     -0.205195
  C      -0.747587      1.201710      0.123870
  C      -1.261863     -1.145093      0.334028
  C       0.325999      1.044514      0.995021
  C      -0.188635     -1.302348      1.205373
  C       0.604386     -0.206911      1.540350
  H      -2.508312      1.086830     -1.868282
  H      -2.887855     -0.648607     -1.713087
  H      -3.619106      2.704216     -0.455302
  H      -4.937587      2.167118      0.633565
  H      -3.236920      1.828229      1.062359
  H      -5.128498     -0.193374     -2.120877
  H      -6.025438      0.997984     -1.127557
  H      -4.754159      1.554200     -2.262870
  H      -4.495681     -1.401114     -0.086829
  H      -3.752641     -0.505761      1.278171
  H      -5.455476     -0.197855      0.833962
  H      -0.956880      2.176462     -0.309697
  H      -1.873034     -2.002666      0.064080
  H       0.950145      1.898273      1.242804
  H       0.033201     -2.282495      1.617693
  H       1.444905     -0.330431      2.217473
  F     -11.720112      1.505051      0.282084
  F     -11.089383      0.668933     -1.643259
  F      -9.553744      0.027450      0.425395
  F     -11.262725     -0.765131      1.555558
  F     -13.650062      1.080992     -1.481967
  F     -13.164785     -1.048418     -1.650481
  F      -9.680430     -2.634782      0.755584
  F     -11.599360     -2.748292     -0.290127
  F     -15.377106     -0.515501     -0.313488
  F     -13.841909     -1.483979      0.920895
  F     -10.543680     -1.852867     -2.556693
  F      -9.430171     -3.540316     -1.708899
  F     -14.649681      1.948486      0.915701
  F     -13.427861      0.789312      2.299351
  F     -15.550877      0.374290      2.120701
  O      -7.406693     -1.861077     -0.940473
  O      -8.291853     -0.462500     -2.484684
  C     -11.680125      0.372629     -0.466234
  C     -10.742987     -0.618196      0.313472
  C     -13.165837      0.008116     -0.809925
  C     -10.432183     -2.058351     -0.216289
  C     -14.197440     -0.327108      0.324285
  C      -9.670894     -2.197444     -1.568161
  C     -14.452753      0.735083      1.443702
  C      -8.310132     -1.413567     -1.678870
52
Coordinates from ORCA-job R4N+PFOA-_0.15M E -2398.240146402690
  N      -4.063786      0.612879     -0.497778
  C      -2.721367      0.277634     -1.155647
  C      -3.988547      1.911893      0.246015
  C      -5.084873      0.737048     -1.592859
  C      -4.486055     -0.476263      0.443081
  C      -1.578971      0.121634     -0.195498
  C      -0.781718      1.220627      0.138159
  C      -1.273347     -1.131275      0.344527
  C       0.289103      1.073945      1.014474
  C      -0.202829     -1.278111      1.221061
  C       0.577431     -0.174949      1.560498
  H      -2.530833      1.091422     -1.860718
  H      -2.894019     -0.648262     -1.711877
  H      -3.665480      2.693569     -0.444362
  H      -4.983345      2.137352      0.635697
  H      -3.280882      1.812959      1.070182
  H      -5.139165     -0.210799     -2.130977
  H      -6.049208      0.973950     -1.139709
  H      -4.775407      1.539291     -2.266706
  H      -4.502439     -1.422402     -0.101012
  H      -3.779888     -0.525116      1.273469
  H      -5.482633     -0.234216      0.817378
  H      -0.998996      2.193380     -0.296018
  H      -1.874399     -1.994882      0.071115
  H       0.903177      1.933994      1.265633
  H       0.026771     -2.256268      1.633859
  H       1.415792     -0.290441      2.241708
  F     -11.659933      1.500932      0.281819
  F     -11.059240      0.659412     -1.651217
  F      -9.511977     -0.003925      0.402268
  F     -11.219603     -0.778917      1.546323
  F     -13.611836      1.105580     -1.464742
  F     -13.157938     -1.030138     -1.639956
  F      -9.667228     -2.665036      0.724123
  F     -11.598552     -2.752034     -0.301478
  F     -15.349250     -0.468484     -0.279961
  F     -13.814566     -1.458993      0.937563
  F     -10.557317     -1.866140     -2.576731
  F      -9.449060     -3.564193     -1.742899
  F     -14.566697      1.986191      0.944450
  F     -13.356625      0.801170      2.316496
  F     -15.488733      0.427508      2.153139
  O      -7.404215     -1.899837     -0.991081
  O      -8.291185     -0.497992     -2.531166
  C     -11.642122      0.369365     -0.468590
  C     -10.710201     -0.634680      0.300152
  C     -13.136062      0.025227     -0.798551
  C     -10.422752     -2.075999     -0.238146
  C     -14.160724     -0.296716      0.345838
  C      -9.677751     -2.219715     -1.598241
  C     -14.388946      0.768441      1.468548
  C      -8.310346     -1.447294     -1.723102
52
Coordinates from ORCA-job R4N+PFOA-_0.15M E -2398.240185473247
  N      -4.106788      0.587156     -0.502401
  C      -2.752291      0.279685     -1.149454
  C      -4.060740      1.878820      0.256040
  C      -5.118144      0.704959     -1.607321
  C      -4.521316     -0.519271      0.422394
  C      -1.615509      0.141296     -0.179801
  C      -0.841306      1.254052      0.162972
  C      -1.291807     -1.106685      0.360902
  C       0.223953      1.125653      1.048716
  C      -0.226683     -1.235415      1.246924
  C       0.530062     -0.118828      1.595280
  H      -2.569173      1.100632     -1.848082
  H      -2.903016     -0.646269     -1.711802
  H      -3.745409      2.673424     -0.423174
  H      -5.063172      2.082190      0.638265
  H      -3.358485      1.782713      1.085067
  H      -5.155030     -0.240138     -2.151016
  H      -6.088952      0.930957     -1.162307
  H      -4.811841      1.515035     -2.273480
  H      -4.517866     -1.459828     -0.131290
  H      -3.822468     -0.565775      1.259088
  H      -5.525618     -0.298361      0.789193
  H      -1.073036      2.223082     -0.272137
  H      -1.874370     -1.980689      0.080564
  H       0.819556      1.996617      1.306625
  H       0.016915     -2.210083      1.659952
  H       1.364038     -0.220341      2.284074
  F     -11.555628      1.493040      0.283184
  F     -11.005218      0.643683     -1.661932
  F      -9.442222     -0.058781      0.367497
  F     -11.148549     -0.804182      1.532262
  F     -13.542608      1.148943     -1.435640
  F     -13.143135     -0.996565     -1.621909
  F      -9.646743     -2.716963      0.672880
  F     -11.597643     -2.757845     -0.318842
  F     -15.298671     -0.388852     -0.225765
  F     -13.766761     -1.414921      0.965492
  F     -10.580372     -1.886807     -2.607544
  F      -9.481797     -3.603185     -1.797984
  F     -14.427541      2.049116      0.988642
  F     -13.236869      0.823754      2.342285
  F     -15.382024      0.517758      2.205639
  O      -7.401799     -1.964221     -1.072474
  O      -8.290930     -0.557801     -2.606935
  C     -11.575891      0.363988     -0.470646
  C     -10.655143     -0.663501      0.280289
  C     -13.083079      0.055929     -0.779123
  C     -10.407465     -2.105835     -0.272843
  C     -14.096882     -0.244329      0.380966
  C      -9.690338     -2.256426     -1.646064
  C     -14.281048      0.825469      1.507717
  C      -8.311921     -1.503722     -1.794391
52
Coordinates from ORCA-job R4N+PFOA-_0.15M E -2398.240223123755
  N      -4.168750      0.548266     -0.496370
  C      -2.801263      0.291345     -1.138918
  C      -4.163844      1.820926      0.294443
  C      -5.173325      0.664293     -1.607969
  C      -4.561420     -0.592086      0.397153
  C      -1.666380      0.172225     -0.164324
  C      -0.926160      1.302537      0.196401
  C      -1.310060     -1.072133      0.363772
  C       0.136949      1.194566      1.087182
  C      -0.246858     -1.180676      1.254974
  C       0.475367     -0.047157      1.621026
  H      -2.636510      1.129286     -1.821684
  H      -2.921376     -0.628882     -1.717575
  H      -3.866518      2.640744     -0.362736
  H      -5.174718      1.985967      0.672863
  H      -3.464333      1.723108      1.125470
  H      -5.184632     -0.271107     -2.168221
  H      -6.151224      0.866301     -1.166800
  H      -4.879214      1.493012     -2.256887
  H      -4.532314     -1.518426     -0.178971
  H      -3.866341     -0.641983      1.236783
  H      -5.573639     -0.407536      0.762536
  H      -1.183865      2.268988     -0.229849
  H      -1.865457     -1.959157      0.069478
  H       0.705348      2.079488      1.358577
  H       0.022011     -2.152981      1.657764
  H       1.307625     -0.133125      2.314025
  F     -11.423986      1.490534      0.264971
  F     -10.935125      0.619158     -1.687327
  F      -9.351234     -0.113354      0.316366
  F     -11.052338     -0.815075      1.514280
  F     -13.451952      1.191029     -1.417536
  F     -13.114781     -0.965573     -1.596035
  F      -9.609693     -2.763627      0.623623
  F     -11.586241     -2.760081     -0.318268
  F     -15.225281     -0.296807     -0.162100
  F     -13.694381     -1.348427      1.007866
  F     -10.607978     -1.922196     -2.634466
  F      -9.523378     -3.656713     -1.844311
  F     -14.254830      2.133567      1.012699
  F     -13.084426      0.877632      2.356439
  F     -15.241688      0.647062      2.257081
  O      -7.391629     -2.053601     -1.181247
  O      -8.292184     -0.640101     -2.701171
  C     -11.488830      0.359746     -0.483260
  C     -10.580221     -0.688358      0.253987
  C     -13.010392      0.090323     -0.762291
  C     -10.380576     -2.135252     -0.304520
  C     -14.008966     -0.175399      0.419631
  C      -9.703688     -2.306078     -1.694162
  C     -14.142434      0.910021      1.539068
  C      -8.311638     -1.581905     -1.882910
52
Coordinates from ORCA-job R4N+PFOA-_0.15M E -2398.240213599784
  N      -4.216920      0.535348     -0.483424
  C      -2.848667      0.295911     -1.126298
  C      -4.223829      1.804933      0.312868
  C      -5.222619      0.646862     -1.594742
  C      -4.598128     -0.613062      0.405786
  C      -1.712284      0.182294     -0.152195
  C      -0.981993      1.317615      0.212274
  C      -1.343813     -1.060975      0.369992
  C       0.083879      1.215608      1.100731
  C      -0.278185     -1.163524      1.258887
  C       0.434804     -0.025200      1.628449
  H      -2.691433      1.138968     -1.804443
  H      -2.956950     -0.622955     -1.709902
  H      -3.940434      2.630500     -0.343192
  H      -5.234112      1.956033      0.698551
  H      -3.518208      1.711814      1.139249
  H      -5.227692     -0.285471     -2.159559
  H      -6.202228      0.840052     -1.152606
  H      -4.930585      1.478444     -2.241037
  H      -4.526894     -1.539327     -0.166464
  H      -3.920892     -0.641085      1.261179
  H      -5.622576     -0.454367      0.748778
  H      -1.248841      2.284418     -0.207519
  H      -1.891068     -1.952024      0.072751
  H       0.644562      2.104576      1.374957
  H      -0.000038     -2.135075      1.657196
  H       1.269523     -0.106624      2.319012
  F     -11.350865      1.493449      0.231980
  F     -10.902025      0.602505     -1.722279
  F      -9.286813     -0.128155      0.254007
  F     -10.970569     -0.802792      1.492303
  F     -13.407467      1.198183     -1.412217
  F     -13.094652     -0.963164     -1.576940
  F      -9.566258     -2.773594      0.591151
  F     -11.559000     -2.757309     -0.314975
  F     -15.171289     -0.250016     -0.109017
  F     -13.634019     -1.319573      1.036770
  F     -10.615390     -1.949183     -2.656009
  F      -9.532210     -3.686526     -1.870087
  F     -14.127456      2.171995      1.036730
  F     -12.972441      0.893544      2.371911
  F     -15.134988      0.711504      2.295768
  O      -7.371523     -2.096551     -1.264528
  O      -8.286665     -0.683995     -2.771562
  C     -11.436498      0.357154     -0.506610
  C     -10.522525     -0.691670      0.221339
  C     -12.963684      0.098077     -0.755007
  C     -10.348349     -2.144487     -0.328103
  C     -13.941943     -0.144471      0.448385
  C      -9.696934     -2.332640     -1.729444
  C     -14.036814      0.948215      1.565316
  C      -8.302774     -1.621856     -1.949608
52
Coordinates from ORCA-job R4N+PFOA-_0.15M E -2398.240259074966
  N      -4.235044      0.495796     -0.362957
  C      -2.897865      0.360201     -1.098784
  C      -4.238466      1.692834      0.539912
  C      -5.301501      0.657740     -1.408555
  C      -4.521326     -0.734249      0.444446
  C      -1.703776      0.217394     -0.202257
  C      -0.991116      1.348918      0.206826
  C      -1.262980     -1.047000      0.199421
  C       0.128590      1.220605      1.022231
  C      -0.143216     -1.175933      1.015606
  C       0.551946     -0.042448      1.430836
  H      -2.812198      1.259147     -1.715655
  H      -3.011411     -0.514290     -1.745476
  H      -4.012491      2.580319     -0.055195
  H      -5.231941      1.778412      0.984191
  H      -3.488849      1.554915      1.320111
  H      -5.297089     -0.223500     -2.050393
  H      -6.264873      0.763751     -0.905040
  H      -5.080306      1.555565     -1.990938
  H      -4.464254     -1.609462     -0.205532
  H      -3.787554     -0.806013      1.249147
  H      -5.526876     -0.643832      0.861710
  H      -1.316213      2.332620     -0.122891
  H      -1.796784     -1.933011     -0.135040
  H       0.674639      2.106959      1.332244
  H       0.190992     -2.163518      1.320347
  H       1.428340     -0.144059      2.064787
  F     -11.443843      1.570846      0.078227
  F     -10.928716      0.579353     -1.807877
  F      -9.317690      0.026493      0.219479
  F     -10.990050     -0.610775      1.492467
  F     -13.460915      1.079941     -1.586036
  F     -13.056236     -1.071676     -1.588857
  F      -9.498374     -2.589752      0.736322
  F     -11.502072     -2.712238     -0.140256
  F     -15.188969     -0.356802     -0.209666
  F     -13.626279     -1.264279      1.035639
  F     -10.594929     -2.025984     -2.552924
  F      -9.505890     -3.703710     -1.656699
  F     -14.286694      2.189633      0.772704
  F     -13.085973      1.068934      2.207890
  F     -15.236162      0.775475      2.125501
  O      -7.325382     -2.130914     -1.240751
  O      -8.296067     -0.709067     -2.707393
  C     -11.474337      0.388389     -0.587879
  C     -10.534229     -0.577331      0.220110
  C     -12.986748      0.051347     -0.843769
  C     -10.312197     -2.062619     -0.218445
  C     -13.977443     -0.151706      0.357506
  C      -9.672343     -2.344869     -1.606220
  C     -14.143325      1.012930      1.390075
  C      -8.282287     -1.647148     -1.883701
52
Coordinates from ORCA-job R4N+PFOA-_0.15M E -2398.240457588472
  N      -4.306866      0.456194     -0.352021
  C      -2.964259      0.373614     -1.086721
  C      -4.348872      1.638415      0.568180
  C      -5.376264      0.600259     -1.397051
  C      -4.557441     -0.794186      0.436922
  C      -1.767681      0.251870     -0.189887
  C      -1.091134      1.397770      0.240327
  C      -1.289217     -1.004907      0.192209
  C       0.029668      1.290434      1.057181
  C      -0.168250     -1.112882      1.009802
  C       0.490314      0.034318      1.446370
  H      -2.903897      1.285494     -1.687264
  H      -3.049946     -0.492386     -1.748701
  H      -4.154206      2.541764     -0.014043
  H      -5.344123      1.683622      1.014461
  H      -3.593345      1.513707      1.344731
  H      -5.353572     -0.276468     -2.043913
  H      -6.340911      0.684950     -0.891166
  H      -5.175144      1.506058     -1.974277
  H      -4.471416     -1.658193     -0.224568
  H      -3.824691     -0.854735      1.243285
  H      -5.567295     -0.741941      0.850654
  H      -1.445898      2.376219     -0.074163
  H      -1.794899     -1.901142     -0.158355
  H       0.547067      2.188038      1.383502
  H       0.195219     -2.094742      1.299140
  H       1.367592     -0.050983      2.081502
  F     -11.285149      1.561862      0.058171
  F     -10.843434      0.546546     -1.834617
  F      -9.216857     -0.056184      0.166193
  F     -10.887518     -0.639464      1.467325
  F     -13.352139      1.145897     -1.562371
  F     -13.028686     -1.019538     -1.572413
  F      -9.476205     -2.663204      0.682145
  F     -11.496879     -2.719703     -0.163194
  F     -15.103364     -0.232141     -0.150472
  F     -13.546773     -1.190272      1.064656
  F     -10.606034     -2.070814     -2.589425
  F      -9.535543     -3.767517     -1.704635
  F     -14.097224      2.283839      0.806719
  F     -12.906259      1.126590      2.220894
  F     -15.066333      0.905893      2.182315
  O      -7.325018     -2.216128     -1.303103
  O      -8.279617     -0.814036     -2.797437
  C     -11.372821      0.380047     -0.603633
  C     -10.453394     -0.618217      0.187873
  C     -12.901867      0.099686     -0.829701
  C     -10.288452     -2.107827     -0.258738
  C     -13.874419     -0.067231      0.391811
  C      -9.677115     -2.405420     -1.655571
  C     -13.981029      1.104521      1.424324
  C      -8.277172     -1.735016     -1.954700
52
Coordinates from ORCA-job R4N+PFOA-_0.15M E -2398.240656847747
  N      -4.401140      0.426550     -0.396558
  C      -3.034607      0.387194     -1.093918
  C      -4.504635      1.607171      0.518224
  C      -5.451250      0.539904     -1.465499
  C      -4.637472     -0.830588      0.391314
  C      -1.862836      0.291652     -0.160863
  C      -1.240931      1.452975      0.309278
  C      -1.357516     -0.954357      0.222914
  C      -0.150327      1.370459      1.168804
  C      -0.265988     -1.037202      1.082044
  C       0.334499      0.124650      1.561586
  H      -2.983411      1.304274     -1.686662
  H      -3.078183     -0.476304     -1.763190
  H      -4.330189      2.516590     -0.060651
  H      -5.510379      1.617803      0.943109
  H      -3.761975      1.509515      1.310779
  H      -5.397350     -0.345094     -2.100358
  H      -6.426910      0.612173     -0.979240
  H      -5.261528      1.443534     -2.048819
  H      -4.516508     -1.691862     -0.267364
  H      -3.922600     -0.873573      1.214203
  H      -5.657654     -0.800585      0.780849
  H      -1.616510      2.423791     -0.004928
  H      -1.820424     -1.861369     -0.157635
  H       0.323700      2.279622      1.527309
  H       0.118595     -2.010553      1.372883
  H       1.187798      0.059211      2.230804
  F     -11.022645      1.521857      0.053685
  F     -10.724980      0.493903     -1.861043
  F      -9.063982     -0.219313      0.078475
  F     -10.721101     -0.725196      1.429706
  F     -13.175900      1.259632     -1.476777
  F     -12.994635     -0.922994     -1.525803
  F      -9.458033     -2.809097      0.577982
  F     -11.497198     -2.746050     -0.223515
  F     -14.955464     -0.024416     -0.015573
  F     -13.417399     -1.098946      1.125570
  F     -10.623101     -2.134372     -2.662417
  F      -9.583955     -3.867574     -1.809990
  F     -13.788819      2.403112      0.931750
  F     -12.584331      1.177467      2.274405
  F     -14.750903      1.051948      2.340397
  O      -7.342143     -2.351630     -1.395774
  O      -8.278390     -0.946317     -2.909742
  C     -11.214359      0.353741     -0.610217
  C     -10.330464     -0.708824      0.136313
  C     -12.765673      0.175794     -0.776056
  C     -10.260241     -2.198016     -0.335886
  C     -13.698167      0.052988      0.480699
  C      -9.686671     -2.502042     -1.747786
  C     -13.696227      1.212212      1.531445
  C      -8.278261     -1.861119     -2.059715
52
Coordinates from ORCA-job R4N+PFOA-_0.15M E -2398.240839858159
  N      -4.428440      0.410928     -0.393271
  C      -3.060073      0.396839     -1.085292
  C      -4.553554      1.581060      0.532663
  C      -5.474709      0.517271     -1.466868
  C      -4.651932     -0.857651      0.380165
  C      -1.889866      0.302961     -0.150184
  C      -1.282008      1.464920      0.336216
  C      -1.371238     -0.942065      0.218322
  C      -0.192107      1.383553      1.196862
  C      -0.280581     -1.023865      1.078632
  C       0.306296      0.138303      1.574056
  H      -3.017774      1.321493     -1.666843
  H      -3.090427     -0.458716     -1.765594
  H      -4.392377      2.498617     -0.037226
  H      -5.560270      1.571570      0.955305
  H      -3.811578      1.487875      1.326440
  H      -5.406483     -0.362597     -2.106070
  H      -6.452896      0.577842     -0.983874
  H      -5.292529      1.425548     -2.045829
  H      -4.513101     -1.709668     -0.287030
  H      -3.941543     -0.898889      1.207163
  H      -5.674455     -0.845729      0.764273
  H      -1.666645      2.435777      0.033372
  H      -1.823060     -1.849312     -0.174815
  H       0.271140      2.293258      1.567863
  H       0.114313     -1.996549      1.357629
  H       1.159137      0.073718      2.243949
  F     -10.993160      1.540206      0.003672
  F     -10.733152      0.482659     -1.900457
  F      -9.028861     -0.194286      0.018979
  F     -10.657899     -0.682004      1.409210
  F     -13.175582      1.250264     -1.474042
  F     -12.988795     -0.932243     -1.500319
  F      -9.417149     -2.783108      0.571407
  F     -11.466117     -2.726296     -0.202689
  F     -14.922975     -0.013005      0.037252
  F     -13.363855     -1.077683      1.159145
  F     -10.626076     -2.144724     -2.661925
  F      -9.597232     -3.880096     -1.803322
  F     -13.739130      2.421788      0.936922
  F     -12.502581      1.211272      2.263536
  F     -14.666943      1.083428      2.380498
  O      -7.323689     -2.394180     -1.449516
  O      -8.261361     -0.988688     -2.957381
  C     -11.194760      0.360771     -0.637160
  C     -10.292501     -0.686758      0.108139
  C     -12.748248      0.176074     -0.768245
  C     -10.229644     -2.183362     -0.341531
  C     -13.655765      0.067792      0.507711
  C      -9.679684     -2.512693     -1.757805
  C     -13.630944      1.237284      1.546110
  C      -8.265910     -1.896576     -2.099650
52
Coordinates from ORCA-job R4N+PFOA-_0.15M E -2398.240975140792
  N      -4.423985      0.426877     -0.416407
  C      -3.048080      0.386528     -1.087042
  C      -4.554504      1.615451      0.487179
  C      -5.450761      0.521021     -1.508828
  C      -4.672395     -0.826072      0.372003
  C      -1.892126      0.289470     -0.135612
  C      -1.272459      1.448374      0.342193
  C      -1.395271     -0.958182      0.252835
  C      -0.190963      1.361777      1.213243
  C      -0.313860     -1.045293      1.124106
  C       0.286976      0.114313      1.608984
  H      -2.987052      1.301374     -1.682314
  H      -3.079177     -0.478252     -1.755903
  H      -4.376576      2.521379     -0.096267
  H      -5.567667      1.621577      0.894437
  H      -3.827591      1.531578      1.296041
  H      -5.377014     -0.370102     -2.131956
  H      -6.436453      0.594299     -1.045075
  H      -5.251864      1.417161     -2.101630
  H      -4.522216     -1.687750     -0.281158
  H      -3.978722     -0.859171      1.213645
  H      -5.701388     -0.799016      0.737203
  H      -1.637596      2.421679      0.023689
  H      -1.856133     -1.863616     -0.134004
  H       0.282963      2.268897      1.577046
  H       0.064709     -2.019930      1.418497
  H       1.133354      0.045849      2.286658
  F     -11.018119      1.553258     -0.005915
  F     -10.767186      0.493453     -1.909618
  F      -9.032416     -0.152562      0.003865
  F     -10.645163     -0.660004      1.403775
  F     -13.213201      1.234930     -1.447393
  F     -12.996960     -0.944564     -1.485808
  F      -9.401017     -2.758697      0.567945
  F     -11.446481     -2.709165     -0.208301
  F     -14.926417     -0.042977      0.079227
  F     -13.347862     -1.107248      1.175119
  F     -10.618063     -2.112084     -2.663243
  F      -9.602503     -3.859605     -1.816848
  F     -13.756991      2.389140      0.982758
  F     -12.482431      1.186415      2.278653
  F     -14.641917      1.027863      2.432679
  O      -7.308991     -2.406258     -1.466979
  O      -8.226105     -1.001036     -2.986297
  C     -11.211181      0.368739     -0.640132
  C     -10.287790     -0.663718      0.099401
  C     -12.762423      0.163503     -0.750993
  C     -10.211963     -2.161739     -0.346530
  C     -13.653530      0.040863      0.534816
  C      -9.666379     -2.491287     -1.767416
  C     -13.622297      1.201724      1.581566
  C      -8.245530     -1.896832     -2.117345
52
Coordinates from ORCA-job R4N+PFOA-_0.15M E -2398.241191111244
  N      -4.506573      0.388609     -0.421306
  C      -3.122727      0.398272     -1.076994
  C      -4.678075      1.552981      0.506962
  C      -5.522417      0.480493     -1.523521
  C      -4.731476     -0.887313      0.335701
  C      -1.975482      0.318336     -0.114242
  C      -1.394495      1.486431      0.389056
  C      -1.446919     -0.920870      0.259158
  C      -0.319836      1.416404      1.269979
  C      -0.372372     -0.991429      1.140418
  C       0.189877      0.176741      1.650367
  H      -3.082495      1.324764     -1.656008
  H      -3.122788     -0.455261     -1.760693
  H      -4.516629      2.476123     -0.053878
  H      -5.696107      1.523850      0.900959
  H      -3.959601      1.469891      1.323464
  H      -5.417886     -0.394515     -2.165420
  H      -6.514832      0.514492     -1.070430
  H      -5.342730      1.395176     -2.093550
  H      -4.553320     -1.729655     -0.335616
  H      -4.045145     -0.921956      1.183305
  H      -5.764111     -0.893380      0.691454
  H      -1.784264      2.453992      0.082465
  H      -1.877286     -1.832466     -0.147791
  H       0.124204      2.330444      1.653647
  H       0.031453     -1.959451      1.422821
  H       1.030830      0.121413      2.335956
  F     -10.864375      1.553321     -0.046357
  F     -10.694257      0.472538     -1.946518
  F      -8.920227     -0.198221     -0.074617
  F     -10.504718     -0.655853      1.373466
  F     -13.109039      1.273519     -1.420124
  F     -12.943376     -0.910513     -1.443641
  F      -9.333646     -2.790319      0.523225
  F     -11.398838     -2.699738     -0.194162
  F     -14.804076      0.046249      0.169678
  F     -13.215701     -1.039317      1.229784
  F     -10.630672     -2.145103     -2.677365
  F      -9.628771     -3.907442     -1.845580
  F     -13.559790      2.462672      1.009371
  F     -12.269478      1.249339      2.279525
  F     -14.425663      1.135782      2.501878
  O      -7.292842     -2.504260     -1.578627
  O      -8.221182     -1.088391     -3.078087
  C     -11.103715      0.368395     -0.663612
  C     -10.183953     -0.679154      0.059742
  C     -12.661974      0.198723     -0.726857
  C     -10.156007     -2.183028     -0.372965
  C     -13.516633      0.108070      0.586013
  C      -9.660527     -2.537874     -1.806595
  C     -13.429871      1.279178      1.617846
  C      -8.238236     -1.978360     -2.203134
52
Coordinates from ORCA-job R4N+PFOA-_0.15M E -2398.241471532120
  N      -4.574876      0.378209     -0.487173
  C      -3.165235      0.394556     -1.091984
  C      -4.783720      1.542090      0.432435
  C      -5.551964      0.470742     -1.623773
  C      -4.823725     -0.897137      0.263256
  C      -2.055011      0.330790     -0.086365
  C      -1.504541      1.507296      0.431519
  C      -1.529077     -0.901359      0.314092
  C      -0.462929      1.452372      1.352148
  C      -0.487110     -0.956644      1.234730
  C       0.043791      0.219856      1.758876
  H      -3.112888      1.319084     -1.673953
  H      -3.134122     -0.461480     -1.771353
  H      -4.600416      2.465077     -0.121532
  H      -5.817100      1.511076      0.783893
  H      -4.099810      1.460309      1.278147
  H      -5.422633     -0.402789     -2.264901
  H      -6.560697      0.488491     -1.207531
  H      -5.362879      1.390174     -2.181910
  H      -4.630160     -1.739994     -0.401675
  H      -4.161953     -0.933607      1.130045
  H      -5.866362     -0.899988      0.589487
  H      -1.892929      2.469021      0.105467
  H      -1.935652     -1.819122     -0.103233
  H      -0.041813      2.372386      1.747239
  H      -0.084448     -1.918806      1.538019
  H       0.859223      0.176744      2.475455
  F     -10.686811      1.524542      0.002020
  F     -10.579552      0.481071     -1.921425
  F      -8.800082     -0.291847     -0.101154
  F     -10.369643     -0.715659      1.374341
  F     -12.964248      1.337893     -1.347171
  F     -12.865248     -0.849445     -1.401971
  F      -9.274890     -2.866980      0.469004
  F     -11.358570     -2.713353     -0.186599
  F     -14.668715      0.127435      0.253120
  F     -13.090918     -1.001772      1.279236
  F     -10.646568     -2.152343     -2.684327
  F      -9.658574     -3.948276     -1.905912
  F     -13.362171      2.510238      1.088327
  F     -12.075888      1.262761      2.330430
  F     -14.230402      1.191798      2.586988
  O      -7.294118     -2.596275     -1.679976
  O      -8.235256     -1.142854     -3.140325
  C     -10.973818      0.360950     -0.635590
  C     -10.076406     -0.730173      0.053368
  C     -12.538247      0.241538     -0.675762
  C     -10.105424     -2.230021     -0.394784
  C     -13.374388      0.157406      0.649484
  C      -9.660635     -2.579084     -1.845777
  C     -13.246664      1.319092      1.687933
  C      -8.242496     -2.041664     -2.274355
52
Coordinates from ORCA-job R4N+PFOA-_0.15M E -2398.241586506308
  N      -4.730316      0.355356     -0.609259
  C      -3.280449      0.365932     -1.111739
  C      -5.007501      1.538339      0.266249
  C      -5.628189      0.425192     -1.810869
  C      -5.028983     -0.905380      0.148661
  C      -2.245342      0.351359     -0.026961
  C      -1.739473      1.552579      0.479388
  C      -1.742986     -0.859036      0.460839
  C      -0.764992      1.543840      1.472281
  C      -0.768224     -0.868021      1.453774
  C      -0.281857      0.333332      1.964705
  H      -3.194826      1.269797     -1.721611
  H      -3.192104     -0.512872     -1.756647
  H      -4.781803      2.449189     -0.291745
  H      -6.064888      1.512315      0.538085
  H      -4.391882      1.475692      1.164330
  H      -5.452646     -0.454332     -2.433119
  H      -6.662318      0.430491     -1.464507
  H      -5.412033      1.340371     -2.365324
  H      -4.783987     -1.759430     -0.482930
  H      -4.431743     -0.922879      1.061719
  H      -6.092541     -0.904627      0.399491
  H      -2.109717      2.497366      0.089108
  H      -2.113910     -1.796397      0.054039
  H      -0.377269      2.482355      1.857926
  H      -0.382815     -1.813374      1.824830
  H       0.481924      0.326549      2.737267
  F     -10.287580      1.435774      0.120015
  F     -10.302193      0.478386     -1.850852
  F      -8.555174     -0.515280     -0.115621
  F     -10.119678     -0.890050      1.378368
  F     -12.598737      1.491485     -1.184009
  F     -12.679918     -0.692772     -1.327702
  F      -9.199218     -3.066833      0.326186
  F     -11.289507     -2.730480     -0.232764
  F     -14.359418      0.364876      0.411073
  F     -12.864725     -0.937792      1.349292
  F     -10.659452     -2.114284     -2.720687
  F      -9.728924     -3.993692     -2.079818
  F     -12.830185      2.589864      1.304822
  F     -11.635097      1.186204      2.468655
  F     -13.782935      1.291511      2.769971
  O      -7.289664     -2.739054     -1.876027
  O      -8.220195     -1.270778     -3.324082
  C     -10.679654      0.329710     -0.563167
  C      -9.857228     -0.860340      0.050197
  C     -12.248545      0.336822     -0.567811
  C     -10.011749     -2.329693     -0.468237
  C     -13.058987      0.266936      0.774320
  C      -9.654392     -2.629794     -1.956367
  C     -12.808232      1.368838      1.855273
  C      -8.236513     -2.150942     -2.440457
52
Coordinates from ORCA-job R4N+PFOA-_0.15M E -2398.241760529243
  N      -4.621604      0.382153     -0.591332
  C      -3.182392      0.368545     -1.120515
  C      -4.863857      1.572835      0.285000
  C      -5.538265      0.457752     -1.778415
  C      -4.921159     -0.870792      0.176967
  C      -2.128521      0.329938     -0.054422
  C      -1.590637      1.518632      0.448596
  C      -1.643353     -0.892314      0.420654
  C      -0.600577      1.486101      1.425368
  C      -0.653355     -0.925125      1.397876
  C      -0.133741      0.263986      1.904655
  H      -3.090662      1.272515     -1.729029
  H      -3.122234     -0.510262     -1.768570
  H      -4.633305      2.478044     -0.280445
  H      -5.916115      1.566444      0.577233
  H      -4.231651      1.503154      1.171082
  H      -5.383606     -0.427215     -2.398201
  H      -6.567205      0.485571     -1.416227
  H      -5.314487      1.365698     -2.342258
  H      -4.717631     -1.731892     -0.461635
  H      -4.294922     -0.900549      1.069940
  H      -5.974670     -0.849646      0.462198
  H      -1.948050      2.471938      0.067262
  H      -2.040371     -1.820289      0.016819
  H      -0.188155      2.415242      1.808115
  H      -0.281898     -1.879810      1.759090
  H       0.641992      0.238354      2.664834
  F     -10.520691      1.478859      0.103466
  F     -10.457394      0.491100     -1.851421
  F      -8.701491     -0.395768     -0.065815
  F     -10.279083     -0.819632      1.400904
  F     -12.808458      1.413717     -1.237842
  F     -12.788716     -0.773547     -1.357167
  F      -9.244940     -2.970403      0.403252
  F     -11.331928     -2.729898     -0.212906
  F     -14.547281      0.225668      0.337903
  F     -13.012252     -0.998311      1.317923
  F     -10.653158     -2.106147     -2.694516
  F      -9.699266     -3.953259     -1.999835
  F     -13.136080      2.525755      1.238564
  F     -11.900348      1.186262      2.435306
  F     -14.055191      1.198551      2.699075
  O      -7.291606     -2.661731     -1.774279
  O      -8.225341     -1.195931     -3.226363
  C     -10.851364      0.346308     -0.568340
  C      -9.989940     -0.796938      0.078572
  C     -12.418973      0.282892     -0.601784
  C     -10.067428     -2.277938     -0.423173
  C     -13.250727      0.190276      0.726154
  C      -9.659462     -2.586584     -1.894993
  C     -13.069524      1.312256      1.800222
  C      -8.237699     -2.082237     -2.348997
52
Coordinates from ORCA-job R4N+PFOA-_0.15M E -2398.241762635087
  N      -4.636804      0.383592     -0.658939
  C      -3.177357      0.375982     -1.127074
  C      -4.923713      1.572995      0.205941
  C      -5.501884      0.449708     -1.886367
  C      -4.964146     -0.870275      0.099726
  C      -2.169630      0.327833     -0.017696
  C      -1.658122      1.511534      0.523180
  C      -1.702235     -0.898925      0.463254
  C      -0.712733      1.469447      1.542880
  C      -0.757079     -0.941407      1.483546
  C      -0.263922      0.242605      2.027288
  H      -3.060730      1.284631     -1.723896
  H      -3.090438     -0.497824     -1.778497
  H      -4.676752      2.479893     -0.350064
  H      -5.986932      1.559734      0.455445
  H      -4.326800      1.507831      1.116702
  H      -5.317992     -0.436895     -2.492831
  H      -6.545833      0.483994     -1.565203
  H      -5.257632      1.354179     -2.448033
  H      -4.749474     -1.732335     -0.532046
  H      -4.365313     -0.904152      1.011111
  H      -6.025885     -0.841551      0.352616
  H      -2.000433      2.468407      0.136970
  H      -2.078241     -1.822808      0.030885
  H      -0.320931      2.394990      1.954868
  H      -0.399485     -1.899675      1.849186
  H       0.476580      0.209333      2.821564
  F     -10.504024      1.520225     -0.001736
  F     -10.545951      0.471778     -1.924867
  F      -8.655565     -0.319009     -0.222104
  F     -10.132535     -0.724039      1.351049
  F     -12.872266      1.365332     -1.181180
  F     -12.805337     -0.823220     -1.252031
  F      -9.125966     -2.890439      0.384264
  F     -11.242258     -2.707794     -0.147605
  F     -14.480075      0.177132      0.524828
  F     -12.857312     -0.989583      1.434281
  F     -10.661800     -2.143585     -2.685023
  F      -9.693953     -3.971308     -1.958979
  F     -13.089363      2.526287      1.292596
  F     -11.729717      1.252175      2.424586
  F     -13.859546      1.200973      2.838698
  O      -7.269751     -2.712938     -1.896613
  O      -8.247397     -1.212704     -3.281179
  C     -10.850834      0.359421     -0.614470
  C      -9.924087     -0.742699      0.013725
  C     -12.415662      0.259897     -0.545308
  C      -9.997467     -2.242056     -0.431002
  C     -13.161311      0.179488      0.833464
  C      -9.644614     -2.602934     -1.903530
  C     -12.943350      1.328251      1.870657
  C      -8.234715     -2.117161     -2.418486
52
Coordinates from ORCA-job R4N+PFOA-_0.15M E -2398.241861962897
  N      -4.686162      0.373828     -0.653082
  C      -3.228928      0.382739     -1.125613
  C      -4.983733      1.566105      0.204245
  C      -5.555757      0.425534     -1.875642
  C      -4.992763     -0.878443      0.111611
  C      -2.216621      0.341950     -0.019555
  C      -1.719256      1.529076      0.526647
  C      -1.729436     -0.881378      0.450385
  C      -0.768371      1.493248      1.541621
  C      -0.778545     -0.917440      1.465403
  C      -0.299549      0.269710      2.015137
  H      -3.124075      1.293720     -1.720973
  H      -3.133416     -0.489063     -1.779006
  H      -4.746076      2.471501     -0.358049
  H      -6.046388      1.544385      0.456364
  H      -4.384701      1.512518      1.114439
  H      -5.363953     -0.462670     -2.480994
  H      -6.598089      0.446645     -1.555604
  H      -5.318321      1.330560     -2.438776
  H      -4.763332     -1.740041     -0.518874
  H      -4.392459     -0.899018      1.022270
  H      -6.053783     -0.868339      0.367222
  H      -2.077032      2.483928      0.149618
  H      -2.093879     -1.807467      0.012937
  H      -0.387582      2.421322      1.958205
  H      -0.405433     -1.873048      1.822451
  H       0.446026      0.241572      2.804835
  F     -10.399383      1.493143      0.057282
  F     -10.423517      0.479513     -1.885835
  F      -8.599451     -0.395059     -0.166294
  F     -10.116586     -0.788757      1.371823
  F     -12.739200      1.430566     -1.177624
  F     -12.738809     -0.758053     -1.284727
  F      -9.145781     -2.961721      0.369489
  F     -11.250595     -2.711008     -0.178403
  F     -14.418916      0.282457      0.475053
  F     -12.866610     -0.971057      1.391660
  F     -10.639637     -2.118755     -2.694969
  F      -9.710317     -3.978200     -1.998755
  F     -12.941790      2.552961      1.321897
  F     -11.670057      1.196760      2.459922
  F     -13.810039      1.231056      2.819303
  O      -7.262798     -2.744479     -1.876989
  O      -8.210807     -1.273110     -3.309996
  C     -10.764104      0.354119     -0.585429
  C      -9.883734     -0.786099      0.037959
  C     -12.331041      0.300052     -0.551733
  C      -9.991351     -2.273367     -0.439246
  C     -13.107896      0.222102      0.810015
  C      -9.634702     -2.610997     -1.917548
  C     -12.863975      1.338050      1.877281
  C      -8.216063     -2.149222     -2.422811
52
Coordinates from ORCA-job R4N+PFOA-_0.15M E -2398.241874705374
  N      -4.668442      0.375208     -0.654239
  C      -3.211149      0.374450     -1.128688
  C      -4.955540      1.570454      0.203050
  C      -5.538610      0.432877     -1.876483
  C      -4.982601     -0.874474      0.111820
  C      -2.197313      0.338193     -0.023860
  C      -1.692715      1.527998      0.509857
  C      -1.715490     -0.883003      0.457030
  C      -0.739490      1.497164      1.522780
  C      -0.762434     -0.914072      1.470285
  C      -0.276143      0.275877      2.007396
  H      -3.102803      1.281673     -1.729448
  H      -3.119410     -0.501298     -1.777230
  H      -4.710905      2.473495     -0.359968
  H      -6.018019      1.557389      0.455566
  H      -4.356295      1.512685      1.112784
  H      -5.353183     -0.455581     -2.483105
  H      -6.581149      0.459851     -1.555572
  H      -5.294793      1.337139     -2.438245
  H      -4.760067     -1.738216     -0.517589
  H      -4.380969     -0.898072      1.021586
  H      -6.043196     -0.857314      0.369477
  H      -2.046231      2.480874      0.123887
  H      -2.085761     -1.811487      0.029665
  H      -0.352744      2.427278      1.929227
  H      -0.393465     -1.868088      1.835797
  H       0.471014      0.251536      2.795721
  F     -10.416316      1.480617      0.096297
  F     -10.415101      0.491167     -1.859052
  F      -8.617403     -0.411011     -0.129579
  F     -10.152753     -0.815198      1.387602
  F     -12.739973      1.434909     -1.177944
  F     -12.742310     -0.752809     -1.298745
  F      -9.171248     -2.978333      0.370606
  F     -11.272892     -2.720708     -0.186353
  F     -14.442817      0.268039      0.445836
  F     -12.896210     -0.978671      1.379315
  F     -10.651405     -2.107285     -2.691989
  F      -9.718428     -3.970398     -2.011286
  F     -12.971732      2.545983      1.313319
  F     -11.728023      1.183890      2.475087
  F     -13.875035      1.228107      2.792542
  O      -7.275617     -2.730707     -1.869435
  O      -8.226325     -1.246176     -3.289733
  C     -10.774524      0.350502     -0.565447
  C      -9.905138     -0.799432      0.056711
  C     -12.342109      0.299847     -0.554079
  C     -10.011717     -2.281660     -0.435819
  C     -13.136234      0.214550      0.797293
  C      -9.647866     -2.603911     -1.915543
  C     -12.910315      1.330429      1.869341
  C      -8.229375     -2.131948     -2.411897
52
Coordinates from ORCA-job R4N+PFOA-_0.15M E -2398.241885109515
  N      -4.668904      0.375788     -0.652038
  C      -3.212171      0.377288     -1.127350
  C      -4.957055      1.570675      0.205577
  C      -5.540257      0.432145     -1.874072
  C      -4.980276     -0.874488      0.114536
  C      -2.197482      0.336335     -0.023364
  C      -1.693380      1.523643      0.516246
  C      -1.714663     -0.887035      0.450880
  C      -0.739916      1.488108      1.528871
  C      -0.761306     -0.922809      1.463679
  C      -0.275674      0.264613      2.006993
  H      -3.104006      1.286651     -1.724802
  H      -3.120432     -0.496033     -1.779168
  H      -4.714834      2.474055     -0.357936
  H      -6.019021      1.556006      0.460030
  H      -4.356099      1.513854      1.114256
  H      -5.352805     -0.456045     -2.480444
  H      -6.582746      0.458206     -1.553265
  H      -5.296842      1.336677     -2.435634
  H      -4.752688     -1.737565     -0.513828
  H      -4.380668     -0.895045      1.025764
  H      -6.041419     -0.861044      0.370241
  H      -2.047367      2.478460      0.135548
  H      -2.084613     -1.813557      0.019009
  H      -0.353737      2.416337      1.940128
  H      -0.391663     -1.878517      1.824059
  H       0.471619      0.236619      2.795063
  F     -10.433576      1.493179      0.073356
  F     -10.438226      0.489996     -1.875172
  F      -8.619792     -0.384999     -0.152833
  F     -10.140426     -0.789253      1.379208
  F     -12.765754      1.418795     -1.183040
  F     -12.750021     -0.769608     -1.289451
  F      -9.151831     -2.953195      0.376041
  F     -11.257595     -2.715716     -0.174411
  F     -14.446372      0.249866      0.460583
  F     -12.883461     -0.979646      1.390313
  F     -10.646034     -2.114061     -2.689133
  F      -9.708277     -3.970026     -1.995320
  F     -12.986807      2.543704      1.305213
  F     -11.725272      1.197639      2.466281
  F     -13.870285      1.226802      2.797460
  O      -7.266975     -2.729602     -1.875263
  O      -8.223054     -1.245467     -3.291056
  C     -10.786741      0.355352     -0.577902
  C      -9.903033     -0.782449      0.046283
  C     -12.353416      0.291286     -0.554625
  C     -10.001004     -2.269600     -0.432975
  C     -13.136912      0.208345      0.803079
  C      -9.639880     -2.602673     -1.910968
  C     -12.912331      1.331907      1.867335
  C      -8.223296     -2.131565     -2.413432
52
Coordinates from ORCA-job R4N+PFOA-_0.15M E -2398.241891384367
  N      -4.675217      0.372032     -0.659605
  C      -3.216252      0.378692     -1.127762
  C      -4.971975      1.566086      0.196176
  C      -5.540331      0.424825     -1.886455
  C      -4.985705     -0.878980      0.105769
  C      -2.206753      0.338613     -0.018977
  C      -1.708898      1.526260      0.525650
  C      -1.722552     -0.884303      0.454946
  C      -0.760329      1.491386      1.542886
  C      -0.774001     -0.919430      1.472286
  C      -0.294646      0.268262      2.020549
  H      -3.107541      1.289472     -1.722962
  H      -3.118757     -0.493012     -1.780828
  H      -4.729558      2.470160     -0.366160
  H      -6.035284      1.548090      0.444808
  H      -4.375677      1.511263      1.108052
  H      -5.346449     -0.463535     -2.490558
  H      -6.584575      0.449876     -1.571514
  H      -5.295059      1.329440     -2.447124
  H      -4.754403     -1.741468     -0.522037
  H      -4.388455     -0.897963      1.018568
  H      -6.047552     -0.868526      0.358775
  H      -2.063633      2.480833      0.145056
  H      -2.087671     -1.811038      0.019433
  H      -0.379017      2.419899      1.958019
  H      -0.403180     -1.874820      1.832289
  H       0.448801      0.240774      2.812270
  F     -10.421190      1.495454      0.069260
  F     -10.436996      0.491208     -1.878635
  F      -8.609566     -0.383303     -0.165551
  F     -10.121839     -0.785328      1.375224
  F     -12.759961      1.421330     -1.175445
  F     -12.745929     -0.767150     -1.279853
  F      -9.140926     -2.951252      0.370722
  F     -11.248879     -2.712687     -0.171295
  F     -14.432935      0.256636      0.478144
  F     -12.867317     -0.975529      1.399691
  F     -10.645051     -2.112488     -2.689669
  F      -9.712080     -3.971372     -1.996905
  F     -12.963940      2.547951      1.315561
  F     -11.699368      1.198505      2.469377
  F     -13.842398      1.232766      2.812275
  O      -7.265414     -2.741686     -1.888443
  O      -8.221086     -1.252393     -3.299167
  C     -10.778478      0.357445     -0.579377
  C      -9.891895     -0.780267      0.041009
  C     -12.345100      0.294333     -0.548018
  C      -9.992965     -2.268097     -0.435890
  C     -13.121813      0.212887      0.813778
  C      -9.638224     -2.604106     -1.914418
  C     -12.889423      1.335896      1.876909
  C      -8.221331     -2.139313     -2.422285
52
Coordinates from ORCA-job R4N+PFOA-_0.15M E -2398.241898874236
  N      -4.677975      0.366958     -0.668364
  C      -3.216624      0.376126     -1.128648
  C      -4.981673      1.562283      0.183240
  C      -5.536448      0.415785     -1.900521
  C      -4.989316     -0.883030      0.098078
  C      -2.212930      0.339474     -0.014378
  C      -1.720680      1.528784      0.531680
  C      -1.728454     -0.881842      0.463326
  C      -0.777529      1.497077      1.554076
  C      -0.785220     -0.913809      1.485725
  C      -0.311571      0.275510      2.035431
  H      -3.106178      1.286568     -1.724048
  H      -3.113382     -0.495875     -1.780439
  H      -4.736795      2.465537     -0.379326
  H      -6.046538      1.543475      0.425201
  H      -4.390933      1.509864      1.098872
  H      -5.335483     -0.472807     -2.502017
  H      -6.582552      0.440089     -1.592154
  H      -5.287932      1.320378     -2.459848
  H      -4.752801     -1.746246     -0.526863
  H      -4.396010     -0.898368      1.013538
  H      -6.052138     -0.874896      0.346869
  H      -2.075406      2.482264      0.148354
  H      -2.089069     -1.809927      0.026950
  H      -0.400668      2.426888      1.970367
  H      -0.414078     -1.868016      1.848523
  H       0.427649      0.250492      2.831180
  F     -10.412014      1.496298      0.071638
  F     -10.437116      0.496228     -1.878309
  F      -8.602751     -0.383381     -0.175859
  F     -10.107673     -0.785595      1.372057
  F     -12.756133      1.426067     -1.164373
  F     -12.744373     -0.762248     -1.271458
  F      -9.134723     -2.951562      0.362647
  F     -11.244330     -2.710210     -0.171742
  F     -14.422807      0.260849      0.495271
  F     -12.854254     -0.973924      1.408200
  F     -10.646978     -2.106599     -2.691968
  F      -9.718950     -3.969807     -2.003893
  F     -12.943420      2.549801      1.329075
  F     -11.680562      1.194409      2.477868
  F     -13.822552      1.235994      2.826497
  O      -7.267117     -2.751186     -1.904251
  O      -8.222249     -1.253682     -3.306767
  C     -10.773013      0.359911     -0.577852
  C      -9.884432     -0.779546      0.036709
  C     -12.339497      0.298072     -0.540088
  C      -9.988858     -2.267035     -0.440660
  C     -13.110341      0.215553      0.825061
  C      -9.639639     -2.602747     -1.920353
  C     -12.871788      1.336884      1.888694
  C      -8.222468     -2.142949     -2.432395
52
Coordinates from ORCA-job R4N+PFOA-_0.15M E -2398.241909249657
  N      -4.676823      0.357985     -0.678561
  C      -3.212676      0.370699     -1.129760
  C      -4.989464      1.554490      0.168218
  C      -5.527488      0.401688     -1.916940
  C      -4.988267     -0.891043      0.089145
  C      -2.215637      0.340681     -0.009259
  C      -1.730249      1.533239      0.535855
  C      -1.730094     -0.877555      0.475140
  C      -0.793018      1.507748      1.563868
  C      -0.792731     -0.903332      1.503136
  C      -0.326013      0.289197      2.051811
  H      -3.101121      1.279960     -1.726768
  H      -3.102176     -0.502549     -1.778655
  H      -4.741891      2.457045     -0.394280
  H      -6.056251      1.534083      0.401629
  H      -4.405826      1.505050      1.088551
  H      -5.316955     -0.486657     -2.515567
  H      -6.575660      0.423790     -1.616206
  H      -5.276332      1.306982     -2.474032
  H      -4.745505     -1.755059     -0.532386
  H      -4.398893     -0.901647      1.007241
  H      -6.052087     -0.886064      0.333552
  H      -2.085588      2.484462      0.147526
  H      -2.085081     -1.808243      0.039700
  H      -0.421572      2.440083      1.979381
  H      -0.420680     -1.855239      1.871006
  H       0.408608      0.269020      2.851944
  F     -10.404995      1.496381      0.080769
  F     -10.438041      0.505706     -1.873759
  F      -8.599229     -0.385048     -0.182935
  F     -10.098097     -0.789385      1.370293
  F     -12.753208      1.434513     -1.150224
  F     -12.745143     -0.753352     -1.264347
  F      -9.134416     -2.954325      0.351678
  F     -11.245152     -2.707020     -0.175512
  F     -14.416456      0.265426      0.511284
  F     -12.845969     -0.973236      1.415394
  F     -10.652516     -2.093867     -2.695649
  F      -9.731688     -3.964184     -2.016800
  F     -12.926290      2.550920      1.346114
  F     -11.667759      1.187070      2.489855
  F     -13.809128      1.237418      2.841328
  O      -7.273777     -2.760643     -1.922570
  O      -8.225826     -1.248802     -3.312315
  C     -10.769872      0.363571     -0.572890
  C      -9.880660     -0.779772      0.034070
  C     -12.336415      0.304076     -0.530801
  C      -9.989509     -2.265716     -0.447094
  C     -13.103052      0.218180      0.836610
  C      -9.645625     -2.597689     -1.928539
  C     -12.859298      1.336334      1.902546
  C      -8.227181     -2.143040     -2.443241
52
Coordinates from ORCA-job R4N+PFOA-_0.15M E -2398.241921203068
  N      -4.674954      0.347225     -0.689736
  C      -3.207882      0.363716     -1.131097
  C      -4.997401      1.545072      0.151548
  C      -5.517362      0.384781     -1.934390
  C      -4.986695     -0.900753      0.079761
  C      -2.218302      0.342112     -0.003795
  C      -1.741461      1.538740      0.539921
  C      -1.730733     -0.872200      0.488369
  C      -0.810686      1.521128      1.573958
  C      -0.799856     -0.890127      1.522416
  C      -0.341617      0.306426      2.069476
  H      -3.095657      1.271019     -1.730943
  H      -3.089500     -0.511759     -1.775604
  H      -4.747831      2.446867     -0.411274
  H      -6.066028      1.522321      0.376376
  H      -4.421018      1.499570      1.076647
  H      -5.296656     -0.502904     -2.530263
  H      -6.567608      0.402417     -1.641115
  H      -5.265872      1.291144     -2.489649
  H      -4.736302     -1.765772     -0.537360
  H      -4.402438     -0.905829      1.001200
  H      -6.051855     -0.898954      0.318123
  H      -2.098441      2.487043      0.145993
  H      -2.078770     -1.806061      0.054114
  H      -0.445866      2.456613      1.988265
  H      -0.426165     -1.839068      1.896236
  H       0.388038      0.292409      2.874272
  F     -10.394880      1.495538      0.092248
  F     -10.436252      0.515832     -1.867556
  F      -8.595157     -0.390170     -0.187615
  F     -10.090035     -0.796057      1.369062
  F     -12.746742      1.446646     -1.133587
  F     -12.745294     -0.740604     -1.258159
  F      -9.137461     -2.960115      0.338940
  F     -11.248639     -2.703476     -0.181647
  F     -14.408683      0.272462      0.527067
  F     -12.837625     -0.972282      1.421744
  F     -10.659727     -2.079349     -2.700587
  F      -9.746162     -3.957317     -2.032971
  F     -12.909175      2.552326      1.366185
  F     -11.653620      1.179866      2.503074
  F     -13.794292      1.236664      2.857931
  O      -7.282480     -2.768682     -1.942347
  O      -8.230825     -1.241225     -3.318071
  C     -10.764862      0.367301     -0.566625
  C      -9.877079     -0.781686      0.032199
  C     -12.331514      0.312136     -0.520682
  C      -9.992171     -2.265182     -0.454653
  C     -13.094478      0.221870      0.848500
  C      -9.653420     -2.591673     -1.938367
  C     -12.845585      1.335481      1.918098
  C      -8.233697     -2.141152     -2.455078
52
Coordinates from ORCA-job R4N+PFOA-_0.15M E -2398.241940303562
  N      -4.671498      0.326253     -0.706227
  C      -3.200048      0.352927     -1.132533
  C      -5.012847      1.524096      0.127720
  C      -5.501251      0.352650     -1.959868
  C      -4.980435     -0.921958      0.064665
  C      -2.221835      0.346253      0.004815
  C      -1.761087      1.549864      0.547018
  C      -1.728093     -0.861064      0.507951
  C      -0.840271      1.545955      1.590073
  C      -0.807301     -0.865322      1.551130
  C      -0.365113      0.338072      2.096374
  H      -3.089563      1.257520     -1.736764
  H      -3.067548     -0.525620     -1.770095
  H      -4.763846      2.426189     -0.434858
  H      -6.083954      1.493559      0.339825
  H      -4.447222      1.485930      1.059736
  H      -5.262231     -0.532425     -2.552641
  H      -6.554477      0.357747     -1.677667
  H      -5.254893      1.262305     -2.512115
  H      -4.716323     -1.787112     -0.546571
  H      -4.403922     -0.918389      0.991006
  H      -6.047645     -0.927635      0.293376
  H      -2.122932      2.492922      0.145020
  H      -2.063217     -1.800201      0.074898
  H      -0.487916      2.486818      2.002989
  H      -0.428872     -1.808960      1.933517
  H       0.356881      0.334791      2.908161
  F     -10.377588      1.494850      0.110100
  F     -10.432083      0.531867     -1.857572
  F      -8.588878     -0.398951     -0.193341
  F     -10.079017     -0.806747      1.367328
  F     -12.734494      1.468246     -1.107463
  F     -12.745365     -0.717888     -1.249079
  F      -9.144376     -2.969540      0.317393
  F     -11.256009     -2.696424     -0.192520
  F     -14.396167      0.287544      0.550619
  F     -12.826131     -0.968737      1.430878
  F     -10.672710     -2.054057     -2.709091
  F      -9.770690     -3.944113     -2.060166
  F     -12.883369      2.556453      1.397937
  F     -11.630186      1.171334      2.522171
  F     -13.769440      1.235833      2.884527
  O      -7.298201     -2.779108     -1.974840
  O      -8.239830     -1.226430     -3.327247
  C     -10.756194      0.373983     -0.556716
  C      -9.872003     -0.784410      0.029711
  C     -12.323045      0.326743     -0.505006
  C      -9.998013     -2.263322     -0.467292
  C     -13.080865      0.230069      0.866484
  C      -9.667517     -2.580194     -1.954860
  C     -12.823392      1.335900      1.942190
  C      -8.245751     -2.135737     -2.474531
52
Coordinates from ORCA-job R4N+PFOA-_0.15M E -2398.241959557004
  N      -4.669372      0.312389     -0.707025
  C      -3.197433      0.349696     -1.131091
  C      -5.021300      1.507052      0.127123
  C      -5.497466      0.332791     -1.961431
  C      -4.970618     -0.938705      0.062733
  C      -2.220642      0.350717      0.007455
  C      -1.769982      1.557696      0.550665
  C      -1.717501     -0.852885      0.510284
  C      -0.849682      1.560622      1.594178
  C      -0.797358     -0.850303      1.554006
  C      -0.365117      0.356306      2.100096
  H      -3.093183      1.254343     -1.736331
  H      -3.057709     -0.528809     -1.767203
  H      -4.779116      2.411438     -0.434750
  H      -6.092415      1.467671      0.337912
  H      -4.456644      1.473184      1.059864
  H      -5.248700     -0.548604     -2.555852
  H      -6.550899      0.324651     -1.680517
  H      -5.262293      1.246148     -2.512440
  H      -4.698003     -1.801549     -0.548104
  H      -4.395988     -0.931214      0.990211
  H      -6.038366     -0.952094      0.288546
  H      -2.139249      2.497995      0.148951
  H      -2.044657     -1.794343      0.076156
  H      -0.505026      2.504062      2.007716
  H      -0.411615     -1.791074      1.936149
  H       0.356542      0.358437      2.912181
  F     -10.370977      1.495559      0.115681
  F     -10.428566      0.537646     -1.854447
  F      -8.588751     -0.404130     -0.191675
  F     -10.081352     -0.811333      1.366707
  F     -12.727795      1.480642     -1.100885
  F     -12.746326     -0.705001     -1.249772
  F      -9.153121     -2.974093      0.308022
  F     -11.264111     -2.691862     -0.199478
  F     -14.393530      0.299212      0.552998
  F     -12.827093     -0.963806      1.430114
  F     -10.681028     -2.043176     -2.714239
  F      -9.782304     -3.937060     -2.072407
  F     -12.878158      2.561601      1.406831
  F     -11.624846      1.172620      2.526028
  F     -13.763761      1.237249      2.890493
  O      -7.307742     -2.778294     -1.986097
  O      -8.246467     -1.217537     -3.330712
  C     -10.753318      0.377650     -0.554084
  C      -9.873396     -0.785410      0.029310
  C     -12.320321      0.335500     -0.502244
  C     -10.004879     -2.261749     -0.473188
  C     -13.078330      0.237191      0.868845
  C      -9.676418     -2.573969     -1.962441
  C     -12.818312      1.339412      1.947621
  C      -8.254077     -2.130151     -2.481914
52
Coordinates from ORCA-job R4N+PFOA-_0.15M E -2398.241990367271
  N      -4.673719      0.284563     -0.723612
  C      -3.198108      0.346910     -1.131884
  C      -5.055396      1.473035      0.106331
  C      -5.488954      0.288028     -1.985278
  C      -4.962826     -0.971526      0.043740
  C      -2.233950      0.362979      0.017139
  C      -1.810713      1.576037      0.568818
  C      -1.715589     -0.833223      0.522278
  C      -0.902093      1.591842      1.622393
  C      -0.807241     -0.817727      1.576100
  C      -0.402089      0.394624      2.130167
  H      -3.103301      1.252901     -1.736644
  H      -3.037009     -0.529646     -1.765619
  H      -4.826278      2.381408     -0.454590
  H      -6.127230      1.413303      0.308624
  H      -4.497856      1.451112      1.043708
  H      -5.218045     -0.587700     -2.578333
  H      -6.544715      0.253977     -1.714093
  H      -5.273557      1.205912     -2.536795
  H      -4.671773     -1.830053     -0.564606
  H      -4.396841     -0.956460      0.976411
  H      -6.032535     -1.000053      0.258593
  H      -2.192239      2.510797      0.165636
  H      -2.021914     -1.778717      0.081723
  H      -0.578544      2.539883      2.042418
  H      -0.409547     -1.752774      1.960042
  H       0.310552      0.406971      2.950084
  F     -10.329978      1.494436      0.128785
  F     -10.405901      0.547994     -1.846307
  F      -8.569617     -0.423299     -0.195925
  F     -10.061220     -0.825065      1.364636
  F     -12.691958      1.512490     -1.074498
  F     -12.734517     -0.671784     -1.239701
  F      -9.158493     -2.989643      0.282916
  F     -11.269622     -2.681481     -0.208863
  F     -14.362829      0.335469      0.577162
  F     -12.805649     -0.949108      1.439404
  F     -10.697362     -2.023106     -2.722823
  F      -9.809047     -3.927588     -2.098952
  F     -12.830242      2.576769      1.441201
  F     -11.575889      1.173603      2.541074
  F     -13.711792      1.245226      2.921229
  O      -7.325034     -2.787719     -2.021211
  O      -8.260402     -1.212332     -3.351187
  C     -10.726943      0.384423     -0.545607
  C      -9.857675     -0.791579      0.026703
  C     -12.294018      0.358151     -0.486399
  C     -10.007907     -2.261977     -0.486980
  C     -13.046866      0.258088      0.887115
  C      -9.692021     -2.566471     -1.980989
  C     -12.772232      1.350203      1.972435
  C      -8.270048     -2.129778     -2.507418
52
Coordinates from ORCA-job R4N+PFOA-_0.15M E -2398.242012713228
  N      -4.676126      0.258274     -0.724195
  C      -3.200825      0.348613     -1.129207
  C      -5.079609      1.433059      0.114888
  C      -5.488755      0.257400     -1.986443
  C      -4.946797     -1.008841      0.031479
  C      -2.238488      0.373140      0.021215
  C      -1.835724      1.589164      0.581691
  C      -1.700933     -0.817908      0.518490
  C      -0.928780      1.612469      1.636553
  C      -0.794296     -0.794874      1.573663
  C      -0.409990      0.420081      2.136774
  H      -3.120693      1.260029     -1.727911
  H      -3.023733     -0.520652     -1.768682
  H      -4.866263      2.349844     -0.438545
  H      -6.150398      1.352795      0.315686
  H      -4.522436      1.413531      1.052469
  H      -5.199978     -0.607116     -2.587741
  H      -6.544019      0.196579     -1.718535
  H      -5.294458      1.184484     -2.530395
  H      -4.646103     -1.857498     -0.586118
  H      -4.379473     -0.996027      0.963304
  H      -6.015756     -1.053838      0.247350
  H      -2.231700      2.520220      0.183916
  H      -1.991259     -1.765103      0.070790
  H      -0.621262      2.562727      2.063551
  H      -0.381659     -1.725915      1.951512
  H       0.301194      0.438398      2.957838
  F     -10.319878      1.502840      0.124726
  F     -10.402923      0.553337     -1.848754
  F      -8.563701     -0.417546     -0.200995
  F     -10.052498     -0.818491      1.362134
  F     -12.685192      1.522660     -1.072337
  F     -12.731813     -0.661907     -1.232807
  F      -9.152426     -2.983066      0.273617
  F     -11.266079     -2.672707     -0.206582
  F     -14.353212      0.352796      0.586440
  F     -12.796611     -0.933727      1.446756
  F     -10.706487     -2.014321     -2.723788
  F      -9.816855     -3.919336     -2.104011
  F     -12.812756      2.592065      1.442634
  F     -11.558512      1.187620      2.540816
  F     -13.693277      1.264759      2.927175
  O      -7.331340     -2.783515     -2.042221
  O      -8.272037     -1.202966     -3.361259
  C     -10.720519      0.392606     -0.546885
  C      -9.851859     -0.784287      0.023841
  C     -12.287445      0.368806     -0.483002
  C     -10.005682     -2.253925     -0.491102
  C     -13.036577      0.273010      0.892807
  C      -9.697909     -2.558414     -1.986966
  C     -12.756113      1.366234      1.975483
  C      -8.278753     -2.123232     -2.520565
52
Coordinates from ORCA-job R4N+PFOA-_0.15M E -2398.242028766435
  N      -4.684000      0.231408     -0.741883
  C      -3.206062      0.349590     -1.130037
  C      -5.116665      1.395163      0.097883
  C      -5.482584      0.221445     -2.012549
  C      -4.942482     -1.043438      0.004752
  C      -2.256819      0.384628      0.030960
  C      -1.881055      1.604328      0.602064
  C      -1.704248     -0.799777      0.527700
  C      -0.986268      1.637308      1.667007
  C      -0.809651     -0.767020      1.592873
  C      -0.452745      0.451259      2.166740
  H      -3.135167      1.265628     -1.722844
  H      -3.006352     -0.512398     -1.772689
  H      -4.913281      2.317955     -0.449318
  H      -6.187969      1.295660      0.287028
  H      -4.568877      1.380890      1.041061
  H      -5.173102     -0.635016     -2.614786
  H      -6.539696      0.140110     -1.756848
  H      -5.299522      1.153763     -2.551439
  H      -4.630100     -1.884593     -0.617422
  H      -4.380143     -1.030454      0.939526
  H      -6.011721     -1.103026      0.215392
  H      -2.288220      2.530628      0.204497
  H      -1.973326     -1.749346      0.071822
  H      -0.699766      2.590326      2.102392
  H      -0.385033     -1.692888      1.970140
  H       0.248811      0.477236      2.995838
  F     -10.283258      1.505564      0.130526
  F     -10.384900      0.561050     -1.844578
  F      -8.542653     -0.424692     -0.209053
  F     -10.025475     -0.823042      1.360155
  F     -12.655910      1.544138     -1.052433
  F     -12.718388     -0.639837     -1.216218
  F      -9.142030     -2.987982      0.256058
  F     -11.258034     -2.663891     -0.205110
  F     -14.321548      0.382587      0.614467
  F     -12.768766     -0.916245      1.462733
  F     -10.715877     -2.001563     -2.724946
  F      -9.832497     -3.913380     -2.117561
  F     -12.757765      2.609560      1.465718
  F     -11.509628      1.192263      2.554382
  F     -13.641601      1.286828      2.952292
  O      -7.339358     -2.792979     -2.075371
  O      -8.282893     -1.202517     -3.380935
  C     -10.695728      0.399823     -0.541053
  C      -9.831906     -0.784533      0.020930
  C     -12.262330      0.386645     -0.467567
  C      -9.997729     -2.251360     -0.498977
  C     -13.003755      0.293295      0.912679
  C      -9.704239     -2.553245     -1.998231
  C     -12.708782      1.382282      1.995757
  C      -8.287681     -2.125812     -2.542974
52
Coordinates from ORCA-job R4N+PFOA-_0.15M E -2398.242040843060
  N      -4.682947      0.228299     -0.744639
  C      -3.205144      0.353375     -1.130402
  C      -5.120653      1.389629      0.095530
  C      -5.480072      0.217436     -2.016983
  C      -4.938002     -1.047753      0.000146
  C      -2.257509      0.387278      0.032003
  C      -1.886967      1.606325      0.607783
  C      -1.701083     -0.796829      0.525179
  C      -0.993880      1.638790      1.674203
  C      -0.807883     -0.764533      1.591571
  C      -0.456714      0.453013      2.170565
  H      -3.136417      1.272466     -1.718770
  H      -3.000833     -0.504285     -1.777408
  H      -4.918084      2.313609     -0.449992
  H      -6.191994      1.287299      0.282210
  H      -4.574829      1.375283      1.039836
  H      -5.168532     -0.637820     -2.619252
  H      -6.537347      0.135190     -1.762009
  H      -5.295313      1.149281     -2.556070
  H      -4.624566     -1.887287     -0.623736
  H      -4.376556     -1.034716      0.935425
  H      -6.006758     -1.111490      0.211638
  H      -2.296728      2.532693      0.213073
  H      -1.965841     -1.745955      0.065879
  H      -0.711588      2.591276      2.113486
  H      -0.380059     -1.690099      1.965937
  H       0.243399      0.478629      3.000892
  F     -10.280310      1.505213      0.130764
  F     -10.383613      0.559628     -1.843936
  F      -8.542466     -0.426027     -0.207853
  F     -10.025542     -0.824419      1.361190
  F     -12.653262      1.546078     -1.052706
  F     -12.718522     -0.637988     -1.213909
  F      -9.141696     -2.988834      0.256215
  F     -11.258436     -2.664457     -0.202104
  F     -14.320183      0.389126      0.615638
  F     -12.770013     -0.912443      1.463970
  F     -10.720261     -2.005190     -2.722558
  F      -9.833484     -3.915738     -2.115790
  F     -12.747994      2.613367      1.465899
  F     -11.507524      1.191097      2.557003
  F     -13.639519      1.295433      2.952073
  O      -7.341402     -2.789351     -2.073641
  O      -8.289431     -1.205514     -3.384786
  C     -10.694496      0.399808     -0.540021
  C      -9.831931     -0.785404      0.021838
  C     -12.260985      0.389022     -0.466555
  C      -9.998286     -2.252636     -0.497918
  C     -13.002694      0.297535      0.913901
  C      -9.706561     -2.554823     -1.997353
  C     -12.705292      1.386193      1.996652
  C      -8.291968     -2.126450     -2.543556
52
Coordinates from ORCA-job R4N+PFOA-_0.15M E -2398.242052526557
  N      -4.679973      0.217249     -0.752949
  C      -3.201352      0.353713     -1.130714
  C      -5.130849      1.376500      0.083263
  C      -5.470558      0.200624     -2.030013
  C      -4.928686     -1.059243     -0.007942
  C      -2.259915      0.391600      0.036634
  C      -1.900154      1.612161      0.615960
  C      -1.698189     -0.789552      0.530850
  C      -1.012544      1.648854      1.686871
  C      -0.810360     -0.753026      1.601598
  C      -0.470008      0.465943      2.184131
  H      -3.135758      1.274869     -1.716196
  H      -2.987159     -0.500299     -1.779379
  H      -4.928914      2.301374     -0.460967
  H      -6.202980      1.268441      0.261655
  H      -4.592474      1.365498      1.031885
  H      -5.147930     -0.652760     -2.630159
  H      -6.528565      0.111716     -1.780871
  H      -5.286124      1.133814     -2.566871
  H      -4.606266     -1.897362     -0.628990
  H      -4.372491     -1.040046      0.930358
  H      -5.998226     -1.131716      0.198912
  H      -2.313807      2.536687      0.221024
  H      -1.954387     -1.739936      0.069306
  H      -0.738642      2.602479      2.128995
  H      -0.378220     -1.676311      1.976629
  H       0.225791      0.494912      3.017969
  F     -10.271500      1.504551      0.135475
  F     -10.382944      0.563467     -1.841148
  F      -8.540393     -0.430204     -0.212638
  F     -10.019736     -0.828779      1.360048
  F     -12.647800      1.554377     -1.042886
  F     -12.719596     -0.629197     -1.206645
  F      -9.144350     -2.992639      0.247449
  F     -11.261725     -2.662063     -0.202710
  F     -14.313450      0.399753      0.628629
  F     -12.764679     -0.907682      1.470249
  F     -10.732562     -2.000376     -2.722937
  F      -9.844046     -3.912843     -2.124613
  F     -12.726372      2.617926      1.476829
  F     -11.494466      1.186709      2.566199
  F     -13.625501      1.304920      2.962627
  O      -7.351601     -2.783586     -2.084089
  O      -8.303238     -1.205077     -3.397379
  C     -10.690901      0.401990     -0.536484
  C      -9.829989     -0.786929      0.020121
  C     -12.257114      0.395865     -0.459267
  C     -10.001487     -2.253054     -0.502078
  C     -12.995530      0.303978      0.923209
  C      -9.715881     -2.551681     -2.003429
  C     -12.691535      1.390086      2.006768
  C      -8.303638     -2.123366     -2.553734
52
Coordinates from ORCA-job R4N+PFOA-_0.15M E -2398.242060635153
  N      -4.675951      0.219953     -0.755588
  C      -3.196706      0.355704     -1.131018
  C      -5.127089      1.379598      0.080291
  C      -5.464399      0.205406     -2.034606
  C      -4.926793     -1.056095     -0.010645
  C      -2.256724      0.390141      0.037550
  C      -1.896511      1.609354      0.619430
  C      -1.696275     -0.792310      0.530083
  C      -1.009540      1.643464      1.690988
  C      -0.809241     -0.758392      1.601554
  C      -0.468112      0.459287      2.186387
  H      -3.129540      1.278180     -1.714223
  H      -2.982756     -0.496924     -1.781584
  H      -4.922590      2.304548     -0.462834
  H      -6.199766      1.272996      0.256277
  H      -4.591202      1.367518      1.030351
  H      -5.144751     -0.649469     -2.633220
  H      -6.522794      0.121705     -1.785709
  H      -5.273510      1.137100     -2.571768
  H      -4.601436     -1.894856     -0.629140
  H      -4.375374     -1.034774      0.930380
  H      -5.997088     -1.128993      0.191613
  H      -2.309167      2.535030      0.226140
  H      -1.952713     -1.741746      0.066727
  H      -0.735131      2.596062      2.135023
  H      -0.378071     -1.682657      1.975280
  H       0.227243      0.486236      3.020664
  F     -10.280449      1.506736      0.130287
  F     -10.392222      0.560928     -1.843950
  F      -8.544291     -0.423754     -0.216681
  F     -10.019366     -0.822334      1.360098
  F     -12.659475      1.545980     -1.044971
  F     -12.724102     -0.638229     -1.202299
  F      -9.140084     -2.987041      0.252048
  F     -11.258892     -2.663934     -0.195086
  F     -14.318268      0.389462      0.633092
  F     -12.762509     -0.908926      1.475825
  F     -10.737338     -2.006096     -2.717523
  F      -9.841630     -3.914713     -2.117899
  F     -12.735551      2.616740      1.470043
  F     -11.499507      1.192553      2.564089
  F     -13.630496      1.307539      2.961570
  O      -7.352539     -2.776908     -2.082177
  O      -8.310413     -1.204847     -3.399173
  C     -10.697770      0.401449     -0.538430
  C      -9.832235     -0.783670      0.019638
  C     -12.263813      0.390778     -0.458716
  C     -10.000323     -2.252134     -0.497762
  C     -12.999425      0.299980      0.925429
  C      -9.717103     -2.552884     -1.999316
  C     -12.697615      1.390919      2.004791
  C      -8.307369     -2.121332     -2.552780
52
Coordinates from ORCA-job R4N+PFOA-_0.15M E -2398.242070984945
  N      -4.673164      0.215041     -0.762095
  C      -3.192897      0.357051     -1.131494
  C      -5.131813      1.371014      0.074988
  C      -5.456933      0.201577     -2.044172
  C      -4.921996     -1.063602     -0.020659
  C      -2.257447      0.391460      0.040596
  C      -1.904269      1.610324      0.627554
  C      -1.693883     -0.790194      0.531481
  C      -1.020906      1.644799      1.702089
  C      -0.810629     -0.755931      1.606013
  C      -0.476216      0.461331      2.195607
  H      -3.127200      1.281214     -1.712140
  H      -2.974001     -0.493384     -1.783351
  H      -4.928930      2.298223     -0.464856
  H      -6.204763      1.259849      0.246735
  H      -4.599971      1.358895      1.027338
  H      -5.134726     -0.652618     -2.642228
  H      -6.515773      0.116838     -1.798176
  H      -5.264748      1.134382     -2.578866
  H      -4.588781     -1.900117     -0.638135
  H      -4.376513     -1.040152      0.923726
  H      -5.993229     -1.141100      0.174503
  H      -2.319543      2.535560      0.235966
  H      -1.944912     -1.739229      0.064344
  H      -0.751765      2.597128      2.149916
  H      -0.377087     -1.679567      1.978552
  H       0.216454      0.488590      3.032100
  F     -10.281717      1.510943      0.124154
  F     -10.399165      0.560270     -1.847239
  F      -8.543738     -0.417930     -0.224957
  F     -10.011898     -0.814208      1.358821
  F     -12.665535      1.543061     -1.041957
  F     -12.726444     -0.641612     -1.194160
  F      -9.134808     -2.981417      0.253081
  F     -11.255074     -2.662081     -0.187947
  F     -14.315741      0.386104      0.645122
  F     -12.753320     -0.905760      1.485449
  F     -10.744086     -2.008397     -2.712992
  F      -9.842318     -3.914154     -2.113973
  F     -12.737124      2.619941      1.469472
  F     -11.491195      1.203352      2.562156
  F     -13.620750      1.311828      2.968712
  O      -7.355746     -2.769702     -2.085711
  O      -8.320536     -1.205906     -3.407325
  C     -10.699737      0.403298     -0.540338
  C      -9.830018     -0.779106      0.017459
  C     -12.265445      0.390094     -0.454579
  C      -9.997875     -2.249279     -0.495347
  C     -12.995482      0.300851      0.932521
  C      -9.719829     -2.552109     -1.997817
  C     -12.692516      1.395605      2.007652
  C      -8.313032     -2.118741     -2.557040
52
Coordinates from ORCA-job R4N+PFOA-_0.15M E -2398.242082637375
  N      -4.670648      0.215582     -0.771625
  C      -3.188343      0.359078     -1.133168
  C      -5.134390      1.368479      0.066844
  C      -5.448157      0.206043     -2.057551
  C      -4.921887     -1.065875     -0.034933
  C      -2.258881      0.390716      0.043618
  C      -1.909212      1.608042      0.635966
  C      -1.697325     -0.792100      0.533980
  C      -1.031240      1.639818      1.714970
  C      -0.819534     -0.760542      1.613013
  C      -0.488546      0.455112      2.207807
  H      -3.120434      1.284288     -1.711855
  H      -2.966558     -0.490556     -1.785131
  H      -4.931315      2.297613     -0.469626
  H      -6.207796      1.254915      0.234382
  H      -4.606593      1.355011      1.021407
  H      -5.126628     -0.649075     -2.654564
  H      -6.508221      0.124883     -1.815720
  H      -5.251185      1.139210     -2.589762
  H      -4.579720     -1.900009     -0.650850
  H      -4.384693     -1.041665      0.914174
  H      -5.994568     -1.146126      0.149919
  H      -2.323013      2.534181      0.244943
  H      -1.945809     -1.739767      0.062712
  H      -0.764691      2.590963      2.166840
  H      -0.387686     -1.685081      1.985302
  H       0.200091      0.480258      3.047684
  F     -10.287574      1.517929      0.112829
  F     -10.410692      0.557569     -1.853274
  F      -8.542343     -0.405609     -0.237658
  F      -9.999208     -0.798158      1.357508
  F     -12.677348      1.533936     -1.039379
  F     -12.728970     -0.651574     -1.183320
  F      -9.121659     -2.969234      0.259911
  F     -11.244692     -2.660175     -0.173953
  F     -14.313232      0.374945      0.660541
  F     -12.739704     -0.905012      1.498421
  F     -10.747408     -2.016077     -2.703859
  F      -9.836410     -3.915888     -2.100431
  F     -12.747442      2.620574      1.467630
  F     -11.481804      1.218904      2.556654
  F     -13.609232      1.310571      2.978112
  O      -7.353653     -2.761672     -2.086680
  O      -8.329649     -1.212162     -3.416617
  C     -10.703773      0.405032     -0.544371
  C      -9.825487     -0.770558      0.014792
  C     -12.268908      0.384901     -0.449842
  C      -9.990144     -2.244129     -0.488505
  C     -12.990931      0.297707      0.941258
  C      -9.717918     -2.553429     -1.990987
  C     -12.688549      1.398560      2.010151
  C      -8.315060     -2.118016     -2.559153
52
Coordinates from ORCA-job R4N+PFOA-_0.15M E -2398.242089319442
  N      -4.671496      0.214869     -0.781569
  C      -3.187241      0.361898     -1.134653
  C      -5.141850      1.363907      0.058265
  C      -5.441841      0.208189     -2.071572
  C      -4.924134     -1.069948     -0.050655
  C      -2.264170      0.390925      0.047161
  C      -1.920387      1.606470      0.646632
  C      -1.702571     -0.792776      0.535404
  C      -1.048512      1.635482      1.730613
  C      -0.830788     -0.763951      1.619377
  C      -0.505975      0.449803      2.221350
  H      -3.117845      1.288984     -1.710148
  H      -2.960820     -0.485580     -1.787818
  H      -4.939833      2.295111     -0.475074
  H      -6.215480      1.246614      0.221703
  H      -4.617444      1.349571      1.014663
  H      -5.118477     -0.646690     -2.668153
  H      -6.503537      0.127921     -1.836123
  H      -5.241842      1.142417     -2.600736
  H      -4.573149     -1.900615     -0.666218
  H      -4.394310     -1.046331      0.902620
  H      -5.998111     -1.154558      0.124772
  H      -2.334067      2.533266      0.257019
  H      -1.946432     -1.738792      0.058450
  H      -0.786646      2.585249      2.188078
  H      -0.398880     -1.689136      1.990002
  H       0.177854      0.472798      3.065207
  F     -10.288527      1.525050      0.100898
  F     -10.419020      0.554451     -1.859622
  F      -8.537394     -0.393531     -0.250881
  F      -9.982877     -0.782621      1.355560
  F     -12.684489      1.526442     -1.036311
  F     -12.728791     -0.659857     -1.170971
  F      -9.104266     -2.956656      0.265238
  F     -11.230788     -2.657848     -0.159269
  F     -14.305993      0.368220      0.677649
  F     -12.722565     -0.901839      1.512214
  F     -10.747687     -2.023676     -2.695082
  F      -9.829334     -3.918301     -2.086425
  F     -12.748345      2.623464      1.467134
  F     -11.466731      1.233795      2.552594
  F     -13.591784      1.313655      2.988218
  O      -7.349164     -2.758441     -2.090870
  O      -8.335961     -1.219005     -3.424718
  C     -10.703858      0.407090     -0.548461
  C      -9.817573     -0.762000      0.011674
  C     -12.268311      0.381201     -0.444420
  C      -9.979420     -2.238678     -0.482507
  C     -12.981743      0.297376      0.951089
  C      -9.713625     -2.555324     -1.984433
  C     -12.678102      1.403880      2.013661
  C      -8.314435     -2.119615     -2.562004
52
Coordinates from ORCA-job R4N+PFOA-_0.15M E -2398.242093123257
  N      -4.673940      0.218765     -0.783806
  C      -3.189045      0.364501     -1.135044
  C      -5.144347      1.367493      0.056198
  C      -5.442452      0.213593     -2.074775
  C      -4.928379     -1.066640     -0.054640
  C      -2.267149      0.391036      0.047797
  C      -1.922115      1.605348      0.649066
  C      -1.707836     -0.794126      0.535163
  C      -1.051437      1.631686      1.734047
  C      -0.837096     -0.767942      1.620076
  C      -0.511285      0.444572      2.223955
  H      -3.117753      1.292246     -1.709281
  H      -2.962648     -0.482303     -1.789028
  H      -4.942236      2.298707     -0.477131
  H      -6.217980      1.250272      0.219478
  H      -4.619716      1.352801      1.012439
  H      -5.119578     -0.642009     -2.671037
  H      -6.505006      0.135354     -1.842151
  H      -5.240565      1.147602     -2.603651
  H      -4.574432     -1.896267     -0.669851
  H      -4.401046     -1.044084      0.900084
  H      -6.002831     -1.152761      0.117381
  H      -2.333797      2.533156      0.259744
  H      -1.952712     -1.739138      0.056761
  H      -0.788661      2.580515      2.192927
  H      -0.406856     -1.694229      1.989884
  H       0.171509      0.465474      3.068704
  F     -10.285931      1.524727      0.097939
  F     -10.417672      0.550833     -1.860981
  F      -8.534431     -0.393516     -0.252452
  F      -9.978347     -0.780865      1.355948
  F     -12.682274      1.524278     -1.037122
  F     -12.726939     -0.662213     -1.168875
  F      -9.099381     -2.955862      0.268321
  F     -11.226747     -2.658722     -0.154686
  F     -14.302584      0.369302      0.679428
  F     -12.719376     -0.901106      1.514067
  F     -10.745359     -2.028932     -2.692067
  F      -9.825521     -3.922055     -2.080555
  F     -12.743910      2.624210      1.466708
  F     -11.461554      1.234858      2.551567
  F     -13.586201      1.315199      2.989102
  O      -7.345880     -2.760114     -2.088437
  O      -8.335478     -1.225506     -3.425624
  C     -10.701361      0.405587     -0.549329
  C      -9.814322     -0.762186      0.011986
  C     -12.265761      0.379599     -0.444040
  C      -9.975950     -2.239476     -0.479918
  C     -12.978213      0.297847      0.952062
  C      -9.710799     -2.558792     -1.980990
  C     -12.673273      1.404994      2.013601
  C      -8.312119     -2.123381     -2.560414
52
Coordinates from ORCA-job R4N+PFOA-_0.15M E -2398.242095099954
  N      -4.675647      0.218169     -0.786106
  C      -3.190660      0.366825     -1.135155
  C      -5.148794      1.365085      0.054760
  C      -5.442108      0.213321     -2.078125
  C      -4.929182     -1.068644     -0.059523
  C      -2.270214      0.392430      0.048894
  C      -1.927539      1.606077      0.652815
  C      -1.709778     -0.792900      0.534599
  C      -1.058127      1.631532      1.738827
  C      -0.840191     -0.767576      1.620494
  C      -0.516836      0.444258      2.227045
  H      -3.119817      1.296066     -1.707070
  H      -2.961723     -0.477798     -1.791029
  H      -4.948296      2.297100     -0.477806
  H      -6.222242      1.245574      0.217375
  H      -4.624211      1.350444      1.011021
  H      -5.116734     -0.640967     -2.675011
  H      -6.505308      0.133330     -1.848641
  H      -5.240721      1.148223     -2.605668
  H      -4.571721     -1.896372     -0.675194
  H      -4.403816     -1.047134      0.896337
  H      -6.003860     -1.158220      0.109794
  H      -2.340062      2.534004      0.264657
  H      -1.952792     -1.737359      0.054177
  H      -0.797244      2.579856      2.199828
  H      -0.408913     -1.693960      1.988834
  H       0.164880      0.464490      3.072684
  F     -10.282224      1.525050      0.096947
  F     -10.415622      0.549688     -1.861254
  F      -8.531515     -0.393448     -0.253460
  F      -9.974239     -0.780111      1.356218
  F     -12.679234      1.524538     -1.036905
  F     -12.724917     -0.662066     -1.166396
  F      -9.095775     -2.955288      0.269024
  F     -11.223910     -2.658240     -0.151218
  F     -14.298798      0.372268      0.681916
  F     -12.715795     -0.898610      1.516341
  F     -10.745096     -2.031101     -2.690087
  F      -9.825193     -3.923897     -2.077472
  F     -12.735827      2.626699      1.466534
  F     -11.456498      1.235532      2.552661
  F     -13.581136      1.320655      2.989686
  O      -7.345108     -2.763478     -2.090306
  O      -8.336117     -1.227909     -3.425685
  C     -10.698390      0.405621     -0.549200
  C      -9.811333     -0.761940      0.012246
  C     -12.262757      0.380221     -0.442993
  C      -9.973659     -2.239467     -0.478773
  C     -12.974369      0.300200      0.953724
  C      -9.710067     -2.560370     -1.979429
  C     -12.667760      1.407911      2.014264
  C      -8.311777     -2.125979     -2.560646
52
Coordinates from ORCA-job R4N+PFOA-_0.15M E -2398.242096034484
  N      -4.675413      0.220744     -0.784634
  C      -3.190816      0.368680     -1.135007
  C      -5.146938      1.367693      0.057164
  C      -5.443132      0.217031     -2.075936
  C      -4.929067     -1.066099     -0.058534
  C      -2.269181      0.392526      0.048217
  C      -1.924595      1.605474      0.652434
  C      -1.709629     -0.793672      0.532806
  C      -1.054191      1.629395      1.737697
  C      -0.839033     -0.769887      1.617934
  C      -0.513794      0.441283      2.224823
  H      -3.119717      1.298532     -1.705905
  H      -2.962883     -0.475206     -1.792186
  H      -4.946567      2.299696     -0.475461
  H      -6.220247      1.248696      0.221011
  H      -4.621079      1.352427      1.012709
  H      -5.118153     -0.636766     -2.673793
  H      -6.506230      0.137178     -1.846022
  H      -5.241834      1.152101     -2.603239
  H      -4.571152     -1.893602     -0.674339
  H      -4.403964     -1.045360      0.897501
  H      -6.003668     -1.156406      0.110514
  H      -2.336499      2.534074      0.265226
  H      -1.954101     -1.737666      0.052217
  H      -0.791862      2.577186      2.198976
  H      -0.408457     -1.696951      1.985383
  H       0.168703      0.460323      3.069862
  F     -10.283820      1.524131      0.095633
  F     -10.416497      0.547458     -1.862034
  F      -8.532925     -0.394309     -0.252874
  F      -9.976244     -0.780588      1.356371
  F     -12.680375      1.522808     -1.039406
  F     -12.725979     -0.663877     -1.167245
  F      -9.097255     -2.956023      0.270878
  F     -11.225165     -2.659256     -0.150789
  F     -14.300637      0.372078      0.679738
  F     -12.718133     -0.898539      1.515506
  F     -10.744732     -2.034001     -2.689888
  F      -9.824729     -3.926145     -2.075442
  F     -12.736188      2.626754      1.463257
  F     -11.459127      1.235131      2.551512
  F     -13.584051      1.322814      2.986727
  O      -7.345047     -2.764996     -2.086832
  O      -8.335271     -1.230286     -3.423775
  C     -10.699716      0.404312     -0.549902
  C      -9.812816     -0.762877      0.012515
  C     -12.264129      0.378953     -0.444453
  C      -9.974806     -2.240703     -0.477939
  C     -12.976369      0.299995      0.952088
  C      -9.710068     -2.562381     -1.978132
  C     -12.669795      1.408386      2.011968
  C      -8.311399     -2.127934     -2.558346
52
Coordinates from ORCA-job R4N+PFOA-_0.15M E -2398.242097003862
  N      -4.675085      0.219980     -0.784840
  C      -3.190875      0.370715     -1.134990
  C      -5.148393      1.365449      0.058137
  C      -5.442889      0.216309     -2.076084
  C      -4.926976     -1.067833     -0.060117
  C      -2.269214      0.394188      0.048281
  C      -1.926004      1.606896      0.653750
  C      -1.708219     -0.791839      0.531582
  C      -1.055579      1.630706      1.739019
  C      -0.837636     -0.768186      1.616721
  C      -0.513777      0.442731      2.224881
  H      -3.121073      1.301606     -1.704355
  H      -2.961504     -0.471621     -1.793661
  H      -4.949636      2.298241     -0.473700
  H      -6.221483      1.244458      0.221975
  H      -4.622352      1.350132      1.013574
  H      -5.115915     -0.635749     -2.675216
  H      -6.505807      0.133796     -1.846292
  H      -5.243536      1.152371     -2.602394
  H      -4.566849     -1.894243     -0.676172
  H      -4.403007     -1.047311      0.896546
  H      -6.001535     -1.160650      0.107626
  H      -2.339067      2.535458      0.267686
  H      -1.951465     -1.735672      0.050063
  H      -0.794339      2.578310      2.201298
  H      -0.405994     -1.695143      1.983182
  H       0.168768      0.461689      3.069883
  F     -10.281241      1.522770      0.097154
  F     -10.414009      0.546793     -1.860902
  F      -8.532752     -0.397781     -0.250751
  F      -9.977597     -0.783199      1.357272
  F     -12.677187      1.524834     -1.039785
  F     -12.725456     -0.661745     -1.167855
  F      -9.100755     -2.959185      0.270872
  F     -11.228039     -2.659266     -0.151441
  F     -14.300107      0.375804      0.678311
  F     -12.719612     -0.896721      1.514888
  F     -10.746121     -2.033776     -2.690060
  F      -9.828065     -3.927025     -2.076274
  F     -12.731733      2.628606      1.462481
  F     -11.458830      1.234341      2.552312
  F     -13.584010      1.326905      2.985316
  O      -7.347432     -2.768302     -2.085956
  O      -8.335297     -1.231740     -3.422599
  C     -10.698273      0.403745     -0.548897
  C      -9.813264     -0.764863      0.013570
  C     -12.262807      0.380452     -0.444642
  C      -9.977013     -2.242262     -0.477914
  C     -12.976134      0.302180      0.951466
  C      -9.712160     -2.563295     -1.978228
  C     -12.668621      1.410211      2.011485
  C      -8.312815     -2.129939     -2.557653
52
Coordinates from ORCA-job R4N+PFOA-_0.15M E -2398.242097911670
  N      -4.674749      0.219435     -0.783916
  C      -3.191213      0.373146     -1.135039
  C      -5.149170      1.362906      0.061314
  C      -5.443978      0.216547     -2.074342
  C      -4.924067     -1.069821     -0.060959
  C      -2.268681      0.395987      0.047588
  C      -1.926762      1.608274      0.654622
  C      -1.705727     -0.789937      0.528797
  C      -1.055561      1.631745      1.739298
  C      -0.834444     -0.766653      1.613364
  C      -0.511771      0.443821      2.223058
  H      -3.123312      1.305109     -1.702860
  H      -2.961023     -0.467729     -1.795317
  H      -4.952515      2.296828     -0.469305
  H      -6.221893      1.239773      0.226031
  H      -4.622223      1.346993      1.016247
  H      -5.115384     -0.633219     -2.675734
  H      -6.506257      0.130621     -1.843200
  H      -5.247622      1.154132     -2.599072
  H      -4.561927     -1.894781     -0.677817
  H      -4.400745     -1.049630      0.896061
  H      -5.998474     -1.165205      0.106061
  H      -2.341464      2.536874      0.270401
  H      -1.947871     -1.733454      0.046099
  H      -0.795295      2.579034      2.202770
  H      -0.401339     -1.693560      1.978226
  H       0.171405      0.462503      3.067556
  F     -10.278982      1.521423      0.098360
  F     -10.410998      0.545994     -1.860034
  F      -8.533104     -0.401926     -0.247998
  F      -9.980311     -0.785404      1.358315
  F     -12.673719      1.527388     -1.041245
  F     -12.725013     -0.659053     -1.170062
  F      -9.106227     -2.962695      0.272230
  F     -11.232307     -2.658996     -0.152825
  F     -14.300326      0.379632      0.674676
  F     -12.722211     -0.894755      1.512829
  F     -10.746669     -2.033932     -2.690477
  F      -9.831147     -3.928243     -2.076336
  F     -12.729569      2.630579      1.460589
  F     -11.460201      1.234371      2.552126
  F     -13.585790      1.330297      2.982392
  O      -7.349450     -2.771565     -2.082178
  O      -8.333997     -1.234509     -3.420712
  C     -10.697044      0.403181     -0.548338
  C      -9.814458     -0.766971      0.014782
  C     -12.261712      0.382256     -0.445959
  C      -9.980133     -2.243958     -0.477409
  C     -12.976751      0.304505      0.949317
  C      -9.714000     -2.564631     -1.977707
  C     -12.669066      1.412089      2.009753
  C      -8.313529     -2.132487     -2.555468
52
Coordinates from ORCA-job R4N+PFOA-_0.15M E -2398.242098524357
  N      -4.674612      0.218701     -0.783534
  C      -3.191500      0.374976     -1.135350
  C      -5.150142      1.360255      0.063700
  C      -5.444879      0.216541     -2.073365
  C      -4.921704     -1.072000     -0.062254
  C      -2.268407      0.397700      0.046833
  C      -1.927897      1.609742      0.655165
  C      -1.703692     -0.788002      0.526480
  C      -1.056353      1.633152      1.739570
  C      -0.832093     -0.764792      1.610786
  C      -0.510826      0.445388      2.221797
  H      -3.125270      1.307624     -1.702223
  H      -2.960575     -0.464998     -1.796522
  H      -4.955045      2.295246     -0.465607
  H      -6.222600      1.235368      0.228850
  H      -4.622710      1.343596      1.018350
  H      -5.114797     -0.631153     -2.676829
  H      -6.506627      0.127446     -1.840958
  H      -5.251266      1.155684     -2.596313
  H      -4.558337     -1.895614     -0.680174
  H      -4.398563     -1.052155      0.894866
  H      -5.995985     -1.169189      0.104551
  H      -2.343998      2.538248      0.272229
  H      -1.944691     -1.731291      0.042762
  H      -0.797205      2.580259      2.204037
  H      -0.397670     -1.691551      1.974464
  H       0.172620      0.464001      3.066077
  F     -10.276109      1.519895      0.100339
  F     -10.407280      0.545502     -1.858630
  F      -8.533089     -0.406429     -0.244636
  F      -9.982979     -0.787984      1.359675
  F     -12.669350      1.530582     -1.042110
  F     -12.724252     -0.655675     -1.172380
  F      -9.111615     -2.966471      0.273488
  F     -11.236451     -2.658778     -0.154612
  F     -14.300178      0.384243      0.670967
  F     -12.725107     -0.892965      1.510523
  F     -10.746535     -2.033237     -2.690885
  F      -9.833897     -3.928977     -2.076809
  F     -12.727359      2.632404      1.460055
  F     -11.460992      1.233963      2.552229
  F     -13.586905      1.332442      2.980279
  O      -7.350802     -2.774419     -2.078138
  O      -8.332082     -1.237148     -3.418851
  C     -10.695285      0.402633     -0.547364
  C      -9.815402     -0.769289      0.016330
  C     -12.260108      0.384377     -0.446992
  C      -9.983031     -2.245629     -0.476919
  C     -12.977048      0.306953      0.947289
  C      -9.715394     -2.565613     -1.977203
  C     -12.669053      1.413517      2.008678
  C      -8.313647     -2.134751     -2.553160
52
Coordinates from ORCA-job R4N+PFOA-_0.15M E -2398.242098831755
  N      -4.675065      0.218370     -0.782554
  C      -3.192330      0.376290     -1.135508
  C      -5.150878      1.358502      0.066351
  C      -5.446550      0.216928     -2.071718
  C      -4.920309     -1.073439     -0.062469
  C      -2.268331      0.398800      0.045949
  C      -1.928617      1.610518      0.655381
  C      -1.702112     -0.786863      0.523918
  C      -1.056370      1.633616      1.739219
  C      -0.829793     -0.763960      1.607654
  C      -0.509342      0.445857      2.219791
  H      -3.127441      1.309423     -1.701725
  H      -2.961282     -0.463085     -1.797389
  H      -4.956889      2.294271     -0.462002
  H      -6.223110      1.232600      0.232194
  H      -4.622719      1.341120      1.020587
  H      -5.115833     -0.629470     -2.676708
  H      -6.507876      0.125925     -1.838097
  H      -5.254801      1.157176     -2.593359
  H      -4.556646     -1.895988     -0.681563
  H      -4.396547     -1.053893      0.894316
  H      -5.994437     -1.171688      0.104979
  H      -2.345884      2.539018      0.273703
  H      -1.942536     -1.729838      0.039302
  H      -0.797877      2.580484      2.204535
  H      -0.394185     -1.690682      1.970008
  H       0.174622      0.464212      3.063656
  F     -10.274401      1.519145      0.101478
  F     -10.404277      0.545319     -1.857863
  F      -8.532996     -0.409013     -0.241966
  F      -9.985135     -0.789164      1.360658
  F     -12.666230      1.532797     -1.043449
  F     -12.723406     -0.653351     -1.174770
  F      -9.114979     -2.968459      0.275101
  F     -11.238927     -2.658427     -0.155734
  F     -14.300268      0.387306      0.667159
  F     -12.727421     -0.891792      1.508078
  F     -10.745346     -2.033025     -2.691035
  F      -9.834811     -3.929601     -2.076234
  F     -12.726940      2.633598      1.459205
  F     -11.462400      1.233924      2.551897
  F     -13.588676      1.333287      2.977925
  O      -7.350651     -2.776249     -2.074212
  O      -8.329662     -1.239556     -3.417168
  C     -10.693985      0.402453     -0.547000
  C      -9.816018     -0.770499      0.017492
  C     -12.258932      0.385843     -0.448391
  C      -9.984646     -2.246457     -0.476241
  C     -12.977510      0.308595      0.945013
  C      -9.715471     -2.566401     -1.976298
  C     -12.669806      1.414398      2.007269
  C      -8.312738     -2.136548     -2.550812
52
Coordinates from ORCA-job R4N+PFOA-_0.15M E -2398.242098941581
  N      -4.675277      0.218470     -0.782343
  C      -3.192587      0.376543     -1.135713
  C      -5.150840      1.358258      0.067069
  C      -5.447084      0.217447     -2.071328
  C      -4.920171     -1.073648     -0.062600
  C      -2.268323      0.399087      0.045525
  C      -1.928672      1.610728      0.655156
  C      -1.701894     -0.786614      0.523171
  C      -1.056306      1.633696      1.738889
  C      -0.829424     -0.763827      1.606794
  C      -0.509080      0.445898      2.219152
  H      -3.127952      1.309694     -1.701928
  H      -2.961666     -0.462843     -1.797606
  H      -4.956750      2.294225     -0.460905
  H      -6.223073      1.232492      0.232983
  H      -4.622556      1.340404      1.021225
  H      -5.116220     -0.628486     -2.676923
  H      -6.508355      0.125915     -1.837420
  H      -5.255742      1.158159     -2.592276
  H      -4.557034     -1.895930     -0.682328
  H      -4.395756     -1.054347      0.893832
  H      -5.994211     -1.171764      0.105574
  H      -2.346100      2.539231      0.273663
  H      -1.942337     -1.729489      0.038370
  H      -0.797894      2.580506      2.204368
  H      -0.393626     -1.690568      1.968874
  H       0.174952      0.464152      3.062964
  F     -10.273792      1.518644      0.102102
  F     -10.403107      0.545094     -1.857422
  F      -8.533009     -0.410141     -0.240630
  F      -9.986191     -0.789970      1.361143
  F     -12.664996      1.533512     -1.043921
  F     -12.723146     -0.652598     -1.175612
  F      -9.116204     -2.969382      0.275734
  F     -11.239816     -2.658546     -0.156344
  F     -14.300362      0.388710      0.665689
  F     -12.728670     -0.891501      1.507125
  F     -10.744529     -2.032943     -2.691160
  F      -9.834767     -3.929868     -2.076140
  F     -12.726582      2.633907      1.459185
  F     -11.462937      1.233507      2.551952
  F     -13.589352      1.333365      2.977153
  O      -7.350223     -2.776702     -2.072298
  O      -8.328437     -1.240314     -3.416200
  C     -10.693509      0.402195     -0.546744
  C      -9.816343     -0.771175      0.018081
  C     -12.258512      0.386241     -0.448866
  C      -9.985220     -2.246926     -0.476007
  C     -12.977773      0.309158      0.944181
  C      -9.715207     -2.566736     -1.975929
  C     -12.670033      1.414529      2.006884
  C      -8.312076     -2.137120     -2.549647
52
Coordinates from ORCA-job R4N+PFOA-_0.15M E -2398.242098977966
  N      -4.675600      0.218616     -0.781903
  C      -3.192981      0.376777     -1.135646
  C      -5.150973      1.358276      0.067738
  C      -5.447671      0.217766     -2.070755
  C      -4.920234     -1.073598     -0.062223
  C      -2.268379      0.399177      0.045330
  C      -1.928652      1.610688      0.655170
  C      -1.701673     -0.786605      0.522470
  C      -1.055965      1.633434      1.738647
  C      -0.828866     -0.764032      1.605828
  C      -0.508474      0.445562      2.218416
  H      -3.128529      1.310021     -1.701730
  H      -2.962203     -0.462479     -1.797745
  H      -4.956926      2.294319     -0.460127
  H      -6.223189      1.232567      0.233803
  H      -4.622510      1.340273      1.021792
  H      -5.116919     -0.628138     -2.676484
  H      -6.508928      0.126309     -1.836742
  H      -5.256352      1.158548     -2.591584
  H      -4.557417     -1.895772     -0.682261
  H      -4.395319     -1.054344      0.893936
  H      -5.994210     -1.171660      0.106484
  H      -2.346279      2.539240      0.274013
  H      -1.942203     -1.729352      0.037463
  H      -0.797513      2.580146      2.204304
  H      -0.392839     -1.690825      1.967500
  H       0.175801      0.463653      3.062034
  F     -10.273713      1.518598      0.102149
  F     -10.402550      0.545024     -1.857401
  F      -8.532958     -0.410262     -0.240093
  F      -9.986603     -0.790027      1.361291
  F     -12.664601      1.533623     -1.044474
  F     -12.722885     -0.652491     -1.176168
  F      -9.116372     -2.969449      0.276169
  F     -11.239898     -2.658518     -0.156354
  F     -14.300463      0.389030      0.664725
  F     -12.729130     -0.891400      1.506531
  F     -10.744050     -2.033133     -2.691098
  F      -9.834552     -3.930091     -2.075742
  F     -12.726783      2.634013      1.458736
  F     -11.463450      1.233524      2.551737
  F     -13.589968      1.333407      2.976423
  O      -7.349864     -2.776981     -2.071441
  O      -8.327725     -1.240807     -3.415740
  C     -10.693310      0.402169     -0.546809
  C      -9.816396     -0.771241      0.018291
  C     -12.258345      0.386302     -0.449330
  C      -9.985239     -2.246990     -0.475808
  C     -12.977956      0.309308      0.943549
  C      -9.714907     -2.566956     -1.975619
  C     -12.670386      1.414621      2.006374
  C      -8.311662     -2.137510     -2.549075
