52
# 5964
N     -4.2167667573    0.6244112644    0.0464067952
C     -3.1348670969    0.4946847354   -1.0224218862
C     -3.9036414925    1.6771113700    1.0777893604
C     -5.5249950476    1.0048675645   -0.6635057631
C     -4.4665659418   -0.7123496125    0.7415141184
C     -1.7431878035    0.1599451193   -0.5410143476
C     -0.8306268187    1.1782137378   -0.2216694105
C     -1.3343303433   -1.1766891514   -0.4122236166
C      0.4532898071    0.8651930669    0.2280415146
C     -0.0501421162   -1.4862531715    0.0382566088
C      0.8415670222   -0.4659053129    0.3602742725
H     -3.1104100359    1.4473777251   -1.5679310807
H     -3.4707371016   -0.2674380712   -1.7380628395
H     -3.6966187593    2.6203344604    0.5635547060
H     -4.7687337035    1.7906376091    1.7389221043
H     -3.0368839183    1.3599227134    1.6638879310
H     -5.7166048975    0.2557267217   -1.4340871852
H     -6.3172287036    1.0609699412    0.0868713826
H     -5.3834537502    1.9865565808   -1.1266965956
H     -4.6372812895   -1.4771217549   -0.0200858636
H     -3.5827185511   -0.9641401621    1.3343152457
H     -5.3210885656   -0.6006646829    1.4145909878
H     -1.1050331447    2.2256782756   -0.3282050032
H     -2.0092822094   -1.9923736143   -0.6675536326
H      1.1559058736    1.6592608534    0.4708627633
H      0.2576405722   -2.5252666472    0.1340155216
H      1.8430327100   -0.7093143810    0.7076901822
F    -11.9740777840    1.6021790138   -0.5753325242
F    -10.8463403725    0.3514424730   -1.9156383371
F     -9.8131570892    0.6478453043    0.6667522710
F    -11.6515360528   -0.0971634364    1.4920701677
F    -13.4558329436    0.1407038007   -2.2695731241
F    -12.5789597908   -1.7149988618   -1.5870803764
F     -9.7319200990   -1.9282196824    1.5582340156
F    -11.4116288542   -2.4807516427    0.3165511485
F    -15.0379972548   -1.2878228096   -0.6485908773
F    -13.5747743345   -1.3143926282    0.9480002663
F    -10.0009396006   -1.8880508523   -1.9826299514
F     -9.0510638780   -3.3581935516   -0.6897267344
F    -14.9333347645    1.5540704837   -0.6663669693
F    -13.6038389223    1.4742369814    1.0562097352
F    -15.5893226259    0.6202289483    1.1857031481
O     -7.1497581868   -1.5985996812   -0.0242536031
O     -8.1835849172   -0.0479455468   -1.2834467277
C    -11.6316737381    0.2940460641   -0.8057231552
C    -10.8336021536   -0.2158775444    0.3902732708
C    -12.9077654856   -0.4588231323   -1.1611605698
C    -10.3178268676   -1.6508479122    0.3495393043
C    -13.9969746921   -0.5706560042   -0.1103021220
C     -9.3922943372   -2.0380238367   -0.7734503081
C    -14.5240987887    0.7737469226    0.3584023409
C     -8.1367059012   -1.1691787284   -0.6934452887
