25
Coordinates from ORCA-job FHEA_wb E -1754.938795890529
  F          -0.28163140678083      1.11404502545691      2.08315000822640
  F           0.57253343795194      0.84132474369269      0.10880520392680
  F          -0.78735197320638     -1.78942744959049      1.94950935361670
  F           1.10650196656402     -0.87540689527870      2.47428372906910
  F          -2.56814598702911      0.20150383093095      1.47697958261054
  F          -1.92078985093958     -0.74777669559320     -0.36652510465192
  F          -3.50039395273222      1.70134653900783     -0.22468234670839
  F          -1.62583557636263      2.68108424939202      0.27916706890954
  F           0.51758886179213     -1.69349397675285     -0.83907918121812
  F           0.71704749821942     -3.25415153918706      0.65799846290356
  F           3.08137549017494     -2.35786630791300      1.43907344836020
  F           2.90515551950234     -0.55652351467993      0.25807892276355
  F           2.99099092057408     -2.48308563573829     -0.70922773763913
  O           0.09279929511333      0.76911874301575     -2.90856941007268
  O           0.18687000946817      2.84658086574112     -2.09648795492581
  C          -0.28602736104743      0.32396582385627      1.00000347176874
  C          -1.74056307506604      0.32620356865899      0.42341543169887
  C           0.24466679153206     -1.08592909512217      1.46537672684954
  C          -2.14830322233192      1.61444566856103     -0.37831135468000
  C           0.97967828837196     -1.96864005061422      0.38702259489573
  C          -1.86022536812103      1.64621188806261     -1.86077995495500
  C           2.53523332990396     -1.82735189133101      0.35303287027445
  C          -0.39268254378974      1.75786039805651     -2.31324593236914
  H          -2.38712164817610      2.53119853698694     -2.22256726620292
  H          -2.32616744358534      0.76732417038121     -2.30135863235065
