25
Coordinates from ORCA-job FHEA_wb E -1754.936857226518
  F      -0.286099      1.116994      2.099751
  F       0.571959      0.849217      0.104643
  F      -0.803928     -1.802178      1.938954
  F       1.106572     -0.888960      2.485153
  F      -2.585986      0.197754      1.481319
  F      -1.920942     -0.745451     -0.382954
  F      -3.513747      1.734694     -0.209407
  F      -1.601216      2.695701      0.276338
  F       0.522217     -1.695320     -0.852866
  F       0.732138     -3.269153      0.656266
  F       3.098850     -2.374166      1.437799
  F       2.908921     -0.531860      0.288347
  F       3.012106     -2.451396     -0.731409
  O       0.080715      0.717183     -2.893578
  O       0.204732      2.820998     -2.103973
  C      -0.291965      0.325563      1.003729
  C      -1.747928      0.332569      0.423050
  C       0.240970     -1.091352      1.462379
  C      -2.151415      1.626591     -0.380424
  C       0.987647     -1.970751      0.383547
  C      -1.871419      1.649725     -1.863592
  C       2.546108     -1.818497      0.354141
  C      -0.391472      1.730917     -2.312000
  H      -2.383249      2.548058     -2.227922
  H      -2.358366      0.775682     -2.302230
25
Coordinates from ORCA-job FHEA_wb E -1754.938147338813
  F      -0.268480      1.106329      2.065352
  F       0.604691      0.815771      0.099910
  F      -0.797246     -1.792530      1.941988
  F       1.094731     -0.886355      2.493292
  F      -2.549335      0.163409      1.440918
  F      -1.883657     -0.742216     -0.418954
  F      -3.483898      1.713225     -0.178671
  F      -1.591587      2.677514      0.284585
  F       0.554796     -1.747620     -0.819721
  F       0.732562     -3.281062      0.709689
  F       3.087222     -2.390567      1.499589
  F       2.930413     -0.588865      0.314361
  F       3.026825     -2.517650     -0.650761
  O       0.018806      0.849847     -3.012428
  O       0.113321      2.923354     -2.184465
  C      -0.268306      0.308540      0.985559
  C      -1.715471      0.319547      0.394428
  C       0.248884     -1.099048      1.468246
  C      -2.135186      1.621408     -0.379219
  C       1.000317     -1.998650      0.419080
  C      -1.900148      1.684475     -1.868519
  C       2.554712     -1.860147      0.405077
  C      -0.448270      1.818862     -2.369891
  H      -2.444508      2.573185     -2.193459
  H      -2.375987      0.811805     -2.310925
25
Coordinates from ORCA-job FHEA_wb E -1754.935048089086
  F      -0.276052      1.114087      2.058195
  F       0.558866      0.835455      0.089345
  F      -0.783463     -1.784433      1.927732
  F       1.093887     -0.868941      2.456416
  F      -2.563878      0.203913      1.464891
  F      -1.924112     -0.736805     -0.370977
  F      -3.488682      1.722193     -0.215894
  F      -1.610805      2.675739      0.265665
  F       0.519922     -1.691862     -0.842701
  F       0.726576     -3.236053      0.651947
  F       3.077337     -2.340825      1.421404
  F       2.897231     -0.542465      0.262033
  F       2.990417     -2.449339     -0.714149
  O       0.088645      0.704935     -2.819541
  O       0.225787      2.758379     -1.989978
  C      -0.290652      0.323686      0.983767
  C      -1.742233      0.331732      0.415735
  C       0.241075     -1.079326      1.448031
  C      -2.146081      1.617294     -0.382503
  C       0.981366     -1.956182      0.378770
  C      -1.869033      1.646123     -1.863373
  C       2.530885     -1.807746      0.345741
  C      -0.404417      1.733488     -2.316865
  H      -2.381944      2.535837     -2.222023
  H      -2.345439      0.773674     -2.296605
25
Coordinates from ORCA-job FHEA_wb E -1754.938560215795
  F      -0.286313      1.109987      2.090788
  F       0.554018      0.844606      0.110160
  F      -0.790915     -1.799210      1.935747
  F       1.097898     -0.884034      2.469647
  F      -2.580883      0.208214      1.485331
  F      -1.930524     -0.742317     -0.355770
  F      -3.499567      1.722106     -0.228008
  F      -1.617082      2.682349      0.277458
  F       0.505947     -1.676404     -0.847243
  F       0.724778     -3.243250      0.637705
  F       3.082224     -2.343640      1.410488
  F       2.889131     -0.526717      0.260917
  F       2.985630     -2.434724     -0.736917
  O       0.103108      0.704122     -2.856834
  O       0.219296      2.797917     -2.098408
  C      -0.297625      0.324434      1.005671
  C      -1.751781      0.331190      0.434180
  C       0.237081     -1.086663      1.459089
  C      -2.148562      1.617424     -0.374407
  C       0.975485     -1.954742      0.374201
  C      -1.847208      1.634085     -1.852410
  C       2.528622     -1.800480      0.336015
  C      -0.370794      1.710197     -2.283270
  H      -2.351579      2.526096     -2.226835
  H      -2.325182      0.762015     -2.292233
25
Coordinates from ORCA-job FHEA_wb E -1754.937553487166
  F      -0.261229      1.115839      2.050547
  F       0.628298      0.806245      0.090843
  F      -0.794801     -1.781734      1.962760
  F       1.105249     -0.875249      2.502827
  F      -2.535855      0.148226      1.423854
  F      -1.864653     -0.748109     -0.443412
  F      -3.488266      1.688332     -0.180212
  F      -1.605501      2.678992      0.286931
  F       0.553904     -1.794117     -0.803240
  F       0.734384     -3.301576      0.757142
  F       3.095593     -2.391776      1.528297
  F       2.938515     -0.617039      0.292633
  F       3.027795     -2.575671     -0.623928
  O       0.012715      0.922100     -3.051583
  O       0.086899      2.975868     -2.163675
  C      -0.253071      0.307971      0.975795
  C      -1.701671      0.311805      0.376557
  C       0.257364     -1.100172      1.479666
  C      -2.137741      1.620665     -0.385454
  C       1.003613     -2.023589      0.440233
  C      -1.916560      1.705725     -1.879519
  C       2.562081     -1.887673      0.418515
  C      -0.475999      1.880278     -2.405071
  H      -2.484515      2.588356     -2.185817
  H      -2.381347      0.828863     -2.329627
25
Coordinates from ORCA-job FHEA_wb E -1754.938734290682
  F      -0.274528      1.114154      2.067119
  F       0.581096      0.825534      0.095134
  F      -0.790366     -1.791252      1.947544
  F       1.100668     -0.876236      2.480515
  F      -2.561992      0.181969      1.460411
  F      -1.907193     -0.743929     -0.392865
  F      -3.496148      1.709529     -0.207467
  F      -1.612884      2.678637      0.282698
  F       0.528084     -1.727577     -0.828864
  F       0.730241     -3.266782      0.689145
  F       3.087410     -2.359462      1.462602
  F       2.910521     -0.565769      0.270608
  F       3.005064     -2.497449     -0.685261
  O       0.063333      0.798220     -2.944830
  O       0.169145      2.866391     -2.111151
  C      -0.280140      0.317012      0.989144
  C      -1.733225      0.322011      0.409816
  C       0.245679     -1.091529      1.466384
  C      -2.146070      1.618656     -0.377648
  C       0.988243     -1.983689      0.401770
  C      -1.876240      1.664889     -1.862810
  C       2.543484     -1.837042      0.371426
  C      -0.413942      1.780442     -2.332365
  H      -2.406387      2.554312     -2.208497
  H      -2.348651      0.791519     -2.307497
25
Coordinates from ORCA-job FHEA_wb E -1754.938769536186
  F      -0.280672      1.113076      2.083004
  F       0.565825      0.839352      0.104664
  F      -0.792672     -1.794450      1.938280
  F       1.098201     -0.881051      2.474918
  F      -2.572884      0.202779      1.478254
  F      -1.924577     -0.744042     -0.366344
  F      -3.499113      1.712740     -0.220603
  F      -1.619090      2.683182      0.278940
  F       0.516369     -1.691793     -0.842854
  F       0.724613     -3.252038      0.653253
  F       3.083237     -2.350180      1.432704
  F       2.900912     -0.544065      0.260773
  F       2.993911     -2.465152     -0.715973
  O       0.091501      0.741571     -2.889037
  O       0.199636      2.825529     -2.096311
  C      -0.289810      0.323570      0.999744
  C      -1.744639      0.328430      0.425892
  C       0.240373     -1.087664      1.461772
  C      -2.148149      1.617971     -0.375640
  C       0.980377     -1.965017      0.382740
  C      -1.858358      1.644302     -1.857504
  C       2.535458     -1.816498      0.349151
  C      -0.388031      1.739787     -2.304944
  H      -2.375941      2.533359     -2.222510
  H      -2.331274      0.768862     -2.297307
25
Coordinates from ORCA-job FHEA_wb E -1754.938793044856
  F      -0.279770      1.112805      2.079871
  F       0.572708      0.836224      0.104853
  F      -0.791403     -1.793196      1.943197
  F       1.100131     -0.879925      2.477790
  F      -2.568539      0.196104      1.472144
  F      -1.917401     -0.745031     -0.374480
  F      -3.497790      1.709276     -0.217430
  F      -1.618040      2.681572      0.279833
  F       0.519141     -1.703970     -0.837088
  F       0.725493     -3.257464      0.666263
  F       3.084663     -2.353133      1.443042
  F       2.903987     -0.552761      0.261714
  F       2.996276     -2.479015     -0.705315
  O       0.082545      0.765312     -2.912576
  O       0.187444      2.842909     -2.102278
  C      -0.285848      0.321527      0.997758
  C      -1.739686      0.325883      0.420505
  C       0.242741     -1.089073      1.464692
  C      -2.146887      1.617512     -0.376945
  C       0.982501     -1.971809      0.389955
  C      -1.864140      1.651295     -1.860270
  C       2.537680     -1.824604      0.356407
  C      -0.397187      1.756505     -2.316680
  H      -2.387732      2.539767     -2.218217
  H      -2.335684      0.775853     -2.301683
25
Coordinates from ORCA-job FHEA_wb E -1754.938794494709
  F      -0.280020      1.111950      2.082197
  F       0.572389      0.838312      0.106909
  F      -0.791761     -1.793914      1.940811
  F       1.099531     -0.881294      2.477400
  F      -2.568708      0.199437      1.474561
  F      -1.919828     -0.744905     -0.371100
  F      -3.497729      1.709975     -0.217674
  F      -1.617658      2.682260      0.278904
  F       0.521799     -1.697469     -0.839514
  F       0.723747     -3.255751      0.659674
  F       3.082915     -2.356031      1.443061
  F       2.906306     -0.552892      0.265266
  F       2.997546     -2.477231     -0.705736
  O       0.082958      0.761380     -2.910429
  O       0.187366      2.840901     -2.104832
  C      -0.286134      0.322185      0.998977
  C      -1.740327      0.326916      0.422216
  C       0.242539     -1.088971      1.463738
  C      -2.146794      1.617712     -0.376777
  C       0.982817     -1.969619      0.387520
  C      -1.863919      1.649428     -1.860208
  C       2.538228     -1.824454      0.356740
  C      -0.397053      1.753906     -2.316936
  H      -2.387479      2.537411     -2.219448
  H      -2.335525      0.773319     -2.300258
25
Coordinates from ORCA-job FHEA_wb E -1754.938794854592
  F      -0.281309      1.113942      2.082620
  F       0.571886      0.840464      0.107873
  F      -0.789736     -1.790638      1.946240
  F       1.103359     -0.877780      2.475873
  F      -2.568799      0.199735      1.475785
  F      -1.919827     -0.747013     -0.368554
  F      -3.499601      1.704397     -0.222801
  F      -1.623150      2.681225      0.279308
  F       0.515868     -1.696629     -0.838564
  F       0.720615     -3.254587      0.660724
  F       3.082838     -2.354705      1.437706
  F       2.903567     -0.553379      0.257418
  F       2.991232     -2.479398     -0.710677
  O       0.092274      0.763465     -2.903544
  O       0.188408      2.843766     -2.098843
  C      -0.286362      0.323642      0.999786
  C      -1.740692      0.326098      0.423018
  C       0.243425     -1.086741      1.465078
  C      -2.147923      1.615388     -0.377641
  C       0.979961     -1.968785      0.387364
  C      -1.860366      1.646990     -1.860215
  C       2.535291     -1.824641      0.352089
  C      -0.392377      1.755056     -2.312256
  H      -2.385105      2.533390     -2.221645
  H      -2.328276      0.769299     -2.301081
25
Coordinates from ORCA-job FHEA_wb E -1754.938796020305
  F      -0.280875      1.113449      2.082191
  F       0.572369      0.839837      0.107515
  F      -0.789723     -1.791165      1.945685
  F       1.103081     -0.878039      2.475847
  F      -2.568436      0.200102      1.475733
  F      -1.920413     -0.746757     -0.368872
  F      -3.499335      1.705053     -0.221857
  F      -1.622315      2.681249      0.279333
  F       0.518019     -1.696731     -0.838804
  F       0.720854     -3.255090      0.660300
  F       3.082620     -2.355387      1.439957
  F       2.904575     -0.554106      0.259368
  F       2.993091     -2.480232     -0.708490
  O       0.089586      0.764965     -2.907410
  O       0.187689      2.843880     -2.099427
  C      -0.286098      0.323183      0.999298
  C      -1.740566      0.326202      0.422692
  C       0.243530     -1.087224      1.464759
  C      -2.147753      1.615719     -0.377602
  C       0.980780     -1.969287      0.387535
  C      -1.861431      1.647754     -1.860410
  C       2.536151     -1.825361      0.353785
  C      -0.393885      1.755788     -2.313892
  H      -2.386341      2.534405     -2.220977
  H      -2.329975      0.770355     -2.301196
25
Coordinates from ORCA-job FHEA_wb E -1754.938795791183
  F      -0.281367      1.113517      2.082955
  F       0.572660      0.840624      0.108566
  F      -0.788791     -1.790584      1.947152
  F       1.104407     -0.877223      2.475456
  F      -2.568315      0.200678      1.476134
  F      -1.920350     -0.747126     -0.367952
  F      -3.499614      1.703560     -0.222959
  F      -1.623582      2.681223      0.279139
  F       0.517893     -1.695270     -0.838792
  F       0.719275     -3.254696      0.659347
  F       3.082161     -2.356700      1.439624
  F       2.905060     -0.555266      0.259055
  F       2.992232     -2.481472     -0.708759
  O       0.090759      0.766851     -2.908207
  O       0.186957      2.845349     -2.098978
  C      -0.286003      0.323503      0.999827
  C      -1.740433      0.326225      0.422966
  C       0.244033     -1.086766      1.465136
  C      -2.147842      1.615216     -0.377951
  C       0.980388     -1.969001      0.387412
  C      -1.861061      1.647163     -1.860688
  C       2.535855     -1.826298      0.353575
  C      -0.393633      1.756851     -2.314086
  H      -2.386940      2.533095     -2.221619
  H      -2.328548      0.769108     -2.301292
25
Coordinates from ORCA-job FHEA_wb E -1754.938795991759
  F      -0.281088      1.114267      2.082257
  F       0.572536      0.840815      0.107787
  F      -0.787517     -1.789399      1.949023
  F       1.106182     -0.875377      2.474316
  F      -2.567868      0.201348      1.476931
  F      -1.921081     -0.747725     -0.366868
  F      -3.500557      1.701481     -0.224368
  F      -1.625887      2.681073      0.279297
  F       0.518163     -1.694451     -0.838986
  F       0.717500     -3.254442      0.658807
  F       3.081524     -2.358080      1.439871
  F       2.905763     -0.557031      0.258401
  F       2.991580     -2.483821     -0.708426
  O       0.092460      0.769784     -2.908572
  O       0.186174      2.847376     -2.096773
  C      -0.285860      0.323847      0.999370
  C      -1.740581      0.326146      0.423143
  C       0.244710     -1.086001      1.465140
  C      -2.148511      1.614558     -0.378267
  C       0.980076     -1.969010      0.387293
  C      -1.860686      1.646711     -1.860786
  C       2.535655     -1.827776      0.353577
  C      -0.393185      1.758509     -2.313362
  H      -2.387621      2.531824     -2.222205
  H      -2.326678      0.767935     -2.301539
25
Coordinates from ORCA-job FHEA_wb E -1754.938795890529
  F      -0.281631      1.114045      2.083150
  F       0.572533      0.841325      0.108805
  F      -0.787352     -1.789427      1.949509
  F       1.106502     -0.875407      2.474284
  F      -2.568146      0.201504      1.476980
  F      -1.920790     -0.747777     -0.366525
  F      -3.500394      1.701347     -0.224682
  F      -1.625836      2.681084      0.279167
  F       0.517589     -1.693494     -0.839079
  F       0.717047     -3.254152      0.657998
  F       3.081375     -2.357866      1.439073
  F       2.905156     -0.556524      0.258079
  F       2.990991     -2.483086     -0.709228
  O       0.092799      0.769119     -2.908569
  O       0.186870      2.846581     -2.096488
  C      -0.286027      0.323966      1.000003
  C      -1.740563      0.326204      0.423415
  C       0.244667     -1.085929      1.465377
  C      -2.148303      1.614446     -0.378311
  C       0.979678     -1.968640      0.387023
  C      -1.860225      1.646212     -1.860780
  C       2.535233     -1.827352      0.353033
  C      -0.392683      1.757860     -2.313246
  H      -2.387122      2.531199     -2.222567
  H      -2.326167      0.767324     -2.301359
