80
Coordinates from ORCA-job R4N+PFOA-
  N           5.53191754775378      0.61086432881983      2.57328579135492
  C           3.39709176325740     -4.09984385629075     -1.58278351084440
  C           4.23347777770017     -4.56312414675647     -2.78039582213888
  C           4.50031028093301     -3.48656384573895     -3.83975865430217
  C           4.03939001123536     -2.93156850066267     -0.86597769546252
  C           3.10622514135956     -5.26603645574325     -0.63127160561384
  C           5.86146348515809      0.44771373536883      1.10204683547246
  C           5.22570805301046     -0.73508616844802      0.43224808964835
  C           3.22145858923487     -2.88879678008094     -4.39233783511383
  C           3.39638568854311     -1.70046166995777     -0.80477744194006
  C           5.29432733837529     -3.04514173300365     -0.26874462595333
  C           5.37713989469780     -4.04681673292584     -4.95960152787345
  C           4.06675376503810      0.76489891555864      2.78135827686456
  C           6.22001072600921      1.84255381879896      3.04983837139135
  C           6.02182166869318     -0.54939801156104      3.36371550990852
  C           3.98187981674251     -0.61343099441322     -0.17571006844048
  C           5.87923030707671     -1.96427636815716      0.36999938680442
  C           2.11535372132425     -4.91415387602323      0.46896408598718
  C           2.26117652245975     -3.68633812141901     -5.01529692175625
  C           2.97591022331019     -1.52229861976782     -4.29352373089856
  C           1.09511560488645     -3.13323023685668     -5.52235067123328
  C           1.80654564540300     -0.96345446154415     -4.79445356458886
  C           0.86046151412779     -1.76822505938796     -5.41132754612384
  H           2.43377131557881     -3.74760021960961     -1.96507812512026
  H           3.72250884516102     -5.41055351916152     -3.24962711909378
  H           5.19706906203360     -4.94427125724965     -2.42542920662072
  H           5.05216001155602     -2.67092304724005     -3.36180609217282
  H           4.04450904650445     -5.62137018944380     -0.19186060806615
  H           2.70890880270341     -6.09653988299182     -1.22315715541115
  H           6.94790514277891      0.38737619344537      1.05291792357504
  H           5.53916469895004      1.37487622813212      0.62932872679006
  H           2.42585143505856     -1.58707499419643     -1.27153644121324
  H           5.82919615598733     -3.98798134290533     -0.30829873599586
  H           5.60549134241256     -3.28071682042762     -5.70432349348047
  H           4.88214005842185     -4.87626161934801     -5.47209957101728
  H           6.32327534640752     -4.41892603462113     -4.55855469242647
  H           3.56676901364060     -0.15808578514628      2.50138845092491
  H           3.70945642197702      1.59273084412976      2.17216546487495
  H           3.89273543919075      0.97201422543849      3.83523285816735
  H           7.29103802927600      1.72714123187769      2.89726473752964
  H           6.00365175474860      1.97242617609257      4.10788045151285
  H           5.84800849151992      2.69374027699452      2.48350296301598
  H           5.49282917377334     -1.44631657456220      3.05200568457103
  H           5.82418692750652     -0.35258388816817      4.41526453264677
  H           7.09136463023738     -0.66106154002965      3.19841684017212
  H           3.46662587550738      0.34109880742156     -0.16274807290142
  H           6.86016938727868     -2.07435620868909      0.81991568451395
  H           1.16122901486269     -4.59000522777707      0.04428668288064
  H           2.48652913536279     -4.10667546764664      1.10580042519822
  H           1.91696506811867     -5.77527238311111      1.11114176565960
  H           2.42284657327258     -4.75572754094767     -5.10430916863787
  H           3.70944721588989     -0.88576871026714     -3.80918830952178
  H           0.36267864293309     -3.77237972418948     -6.00218689291020
  H           1.63461496681722      0.10274619316722     -4.69647187389463
  H          -0.05613768283355     -1.33811227281031     -5.79880635949846
  F          -0.23024097210882     -2.03763698885399      0.43882526419589
  F          -2.28060957904869     -1.36264025502991      0.13768601504665
  F           0.46934115511076      0.12853020278622     -1.41995769047509
  F          -1.56725508431559      0.82079275267350     -1.05725936118166
  F          -1.58851402710521     -1.36234525108905     -2.70786471301743
  F           0.15415969344901     -2.51185763566917     -2.08204494084234
  F          -1.00376203983614      0.48608071560623      1.73410716485857
  F           1.07107042932671      0.16097957401653      1.15348621455775
  F          -1.74593177753804     -4.10266506790617     -0.53943016598255
  F          -3.26935147553337     -3.09685276421034     -1.73447526324522
  F           0.65515631031806      2.61135702480952      1.95206244496671
  F          -1.05783925526016      2.88107426607193      0.64485233181571
  F          -2.63766212254694     -5.42146147113642     -2.78795936460462
  F          -0.52348989784665     -5.00590644700261     -2.76695673240660
  F          -1.84198744758151     -3.84448698270227     -4.02964891313338
  O           2.32557745800982      2.63785421123252     -0.14633356598067
  O           0.56547473837304      3.22212237301051     -1.41402481503752
  C          -1.04898379439722     -1.38053541223273     -0.39396668812702
  C          -0.55679232927346      0.09987575057354     -0.55128643629655
  C          -1.09606135790110     -2.16223563142565     -1.75065658159862
  C          -0.08012908336495      0.74628227574455      0.78560126356513
  C          -1.97870482839610     -3.45190737322843     -1.68909093300226
  C           0.15194396194186      2.28601214584366      0.73402107267857
  C          -1.72695219493166     -4.45625176044407     -2.85689364793170
  C           1.12044972970223      2.77400512535944     -0.40230623177122
