25
Coordinates from ORCA-job FHEA_r2 E -1754.552984407465
  F      -0.901631      0.530650      2.611549
  F       0.378040      1.295642      1.113698
  F      -0.794114     -1.921564      1.864341
  F       1.086280     -1.000515      2.377818
  F      -2.845945      0.369584      1.337955
  F      -1.995234     -0.716987     -0.276855
  F      -3.340850      1.934182     -0.416268
  F      -1.458508      2.736019      0.218430
  F       0.078757     -2.211171     -0.764170
  F       1.200333     -3.046418      0.831700
  F       3.229171     -2.011409      0.202689
  F       2.479479     -0.029474      0.189616
  F       2.324602     -1.278873     -1.576796
  O       0.261588      0.204479     -1.015113
  O       0.692296      1.457031     -2.805145
  C      -0.509673      0.318650      1.317315
  C      -1.809563      0.398008      0.453241
  C       0.160576     -1.087680      1.392773
  C      -1.995950      1.670462     -0.433076
  C       0.875868     -1.858559      0.243758
  C      -1.506098      1.560857     -1.851633
  C       2.223934     -1.247823     -0.260563
  C      -0.028350      1.034790     -1.907386
  H      -1.567065      2.537876     -2.328800
  H      -2.132743      0.844803     -2.384017
25
Coordinates from ORCA-job FHEA_r2 E -1754.555055124751
  F      -0.871568      0.493160      2.552048
  F       0.477911      1.244365      1.093585
  F      -0.794834     -1.936007      1.864923
  F       1.087083     -1.018271      2.460804
  F      -2.767077      0.350256      1.278200
  F      -1.943478     -0.704156     -0.390205
  F      -3.416637      1.873779     -0.310182
  F      -1.532080      2.774494      0.243119
  F       0.320011     -2.480624     -0.637090
  F       1.224248     -3.193203      1.159050
  F       3.369595     -2.370897      0.681856
  F       2.780825     -0.342246      0.380428
  F       2.732118     -1.771390     -1.273037
  O       0.234554      0.573565     -1.691118
  O       0.175826      2.103735     -3.318105
  C      -0.436926      0.279011      1.264178
  C      -1.746447      0.398114      0.366977
  C       0.221764     -1.152086      1.418038
  C      -2.055783      1.721444     -0.452276
  C       1.027812     -2.058320      0.415593
  C      -1.761376      1.824514     -1.933122
  C       2.484856     -1.589316      0.020295
  C      -0.303395      1.483309     -2.354526
  H      -1.978978      2.847443     -2.245055
  H      -2.422822      1.131888     -2.459317
25
Coordinates from ORCA-job FHEA_r2 E -1754.566845917355
  F      -0.834690      0.556960      2.602051
  F       0.489587      1.217393      1.037727
  F      -0.809775     -1.924223      1.954824
  F       1.126710     -1.003522      2.484329
  F      -2.797640      0.319714      1.307540
  F      -1.906255     -0.750832     -0.343732
  F      -3.435313      1.809460     -0.437739
  F      -1.577993      2.748347      0.229322
  F       0.186001     -2.428128     -0.590525
  F       1.213729     -3.205581      1.147523
  F       3.368855     -2.281673      0.466987
  F       2.616941     -0.264108      0.269096
  F       2.468508     -1.656501     -1.406341
  O       0.398848      0.636590     -1.527105
  O       0.318723      2.117065     -3.216635
  C      -0.441416      0.287168      1.307792
  C      -1.763224      0.370061      0.404419
  C       0.209207     -1.151194      1.481696
  C      -2.059869      1.671230     -0.470277
  C       0.965886     -2.058028      0.433985
  C      -1.662108      1.750741     -1.924144
  C       2.378685     -1.532300     -0.080230
  C      -0.172159      1.491547     -2.246595
  H      -1.925758      2.753391     -2.273424
  H      -2.250278      1.008983     -2.475482
25
Coordinates from ORCA-job FHEA_r2 E -1754.568032860065
  F      -0.869563      0.541437      2.657463
  F       0.470397      1.216220      1.107773
  F      -0.848414     -1.953629      1.907051
  F       1.088183     -1.062458      2.507538
  F      -2.818401      0.335879      1.339907
  F      -1.895334     -0.729155     -0.312780
  F      -3.363201      1.876329     -0.436542
  F      -1.453955      2.725935      0.238825
  F       0.146857     -2.210032     -0.683217
  F       1.184544     -3.169941      0.969552
  F       3.336832     -2.169188      0.339724
  F       2.545698     -0.150104      0.366314
  F       2.381058     -1.358256     -1.440694
  O       0.376116      0.362967     -1.518966
  O       0.381892      1.834205     -3.226950
  C      -0.463466      0.291224      1.368386
  C      -1.772117      0.380854      0.452673
  C       0.175204     -1.153531      1.495143
  C      -1.996234      1.665140     -0.446040
  C       0.932168     -1.964504      0.373617
  C      -1.589683      1.659730     -1.896226
  C       2.333735     -1.382621     -0.106053
  C      -0.139122      1.269015     -2.227492
  H      -1.793612      2.669364     -2.267405
  H      -2.244382      0.957678     -2.426540
25
Coordinates from ORCA-job FHEA_r2 E -1754.570495944517
  F      -0.799623      0.631910      2.559861
  F       0.476383      1.213799      0.925779
  F      -0.837002     -1.908298      1.892332
  F       1.089035     -1.003259      2.465528
  F      -2.794740      0.293237      1.342767
  F      -1.908465     -0.717159     -0.362537
  F      -3.424185      1.845554     -0.403377
  F      -1.526077      2.719471      0.267281
  F       0.198785     -2.228425     -0.706596
  F       1.140259     -3.176509      1.003523
  F       3.325900     -2.280629      0.482597
  F       2.633225     -0.237853      0.340714
  F       2.525546     -1.560639     -1.389343
  O       0.383080      0.502804     -1.436172
  O       0.348680      1.963840     -3.150397
  C      -0.445526      0.312715      1.277233
  C      -1.786954      0.375837      0.421607
  C       0.185923     -1.128254      1.452836
  C      -2.055310      1.665369     -0.435290
  C       0.950769     -1.984795      0.371539
  C      -1.642007      1.682960     -1.878599
  C       2.392807     -1.486061     -0.065722
  C      -0.173170      1.357743     -2.176518
  H      -1.896912      2.680445     -2.250127
  H      -2.255220      0.948761     -2.413858
25
Coordinates from ORCA-job FHEA_r2 E -1754.571378250379
  F      -0.797944      0.611376      2.568415
  F       0.502838      1.184434      0.949671
  F      -0.846524     -1.928915      1.880391
  F       1.068650     -1.032143      2.503212
  F      -2.791399      0.266405      1.307995
  F      -1.879735     -0.712844     -0.397322
  F      -3.408123      1.875768     -0.354658
  F      -1.489831      2.722043      0.275180
  F       0.248248     -2.269015     -0.684322
  F       1.149040     -3.212227      1.052095
  F       3.360325     -2.266572      0.599547
  F       2.638086     -0.242189      0.353910
  F       2.603744     -1.638750     -1.319838
  O       0.336812      0.482211     -1.657775
  O       0.232714      2.038384     -3.274343
  C      -0.435320      0.292104      1.285770
  C      -1.768226      0.368316      0.406573
  C       0.189887     -1.152079      1.467496
  C      -2.042798      1.680607     -0.427212
  C       0.976448     -2.020479      0.409393
  C      -1.677905      1.741712     -1.887558
  C       2.425873     -1.511556     -0.004838
  C      -0.227101      1.417118     -2.279655
  H      -1.938227      2.752949     -2.215648
  H      -2.324329      1.035905     -2.421417
25
Coordinates from ORCA-job FHEA_r2 E -1754.572393708679
  F      -0.796001      0.642096      2.568110
  F       0.510548      1.172071      0.937990
  F      -0.852546     -1.923326      1.911693
  F       1.070766     -1.035993      2.521595
  F      -2.783651      0.239183      1.310782
  F      -1.856024     -0.726268     -0.393995
  F      -3.394281      1.851924     -0.366188
  F      -1.486449      2.706428      0.280219
  F       0.202719     -2.242018     -0.669057
  F       1.136172     -3.210724      1.036388
  F       3.339106     -2.234052      0.564555
  F       2.588730     -0.218226      0.324471
  F       2.535038     -1.614977     -1.344933
  O       0.399337      0.497832     -1.661551
  O       0.260498      2.079802     -3.251856
  C      -0.431519      0.293135      1.295969
  C      -1.760168      0.353163      0.414042
  C       0.184309     -1.151215      1.492215
  C      -2.028622      1.660013     -0.425040
  C       0.950854     -2.012210      0.415596
  C      -1.651177      1.716079     -1.884393
  C       2.387368     -1.492436     -0.024370
  C      -0.199415      1.408674     -2.287328
  H      -1.930235      2.722064     -2.213660
  H      -2.290154      1.001544     -2.416193
25
Coordinates from ORCA-job FHEA_r2 E -1754.572719417137
  F      -0.789389      0.670858      2.550376
  F       0.498361      1.173063      0.893153
  F      -0.849173     -1.914254      1.920986
  F       1.075826     -1.020918      2.512179
  F      -2.786131      0.220057      1.317150
  F      -1.858987     -0.726720     -0.399196
  F      -3.403023      1.847150     -0.369969
  F      -1.498789      2.700376      0.291676
  F       0.191003     -2.220743     -0.676498
  F       1.127497     -3.201688      1.018350
  F       3.327253     -2.236763      0.557883
  F       2.592102     -0.217461      0.310762
  F       2.522310     -1.613478     -1.355277
  O       0.411789      0.486111     -1.626361
  O       0.281479      2.065587     -3.222095
  C      -0.435796      0.299793      1.283644
  C      -1.770168      0.347067      0.416076
  C       0.182865     -1.142018      1.490456
  C      -2.037656      1.654186     -0.417816
  C       0.943408     -2.000545      0.407545
  C      -1.637893      1.705545     -1.870131
  C       2.381987     -1.491168     -0.033003
  C      -0.178149      1.406712     -2.247541
  H      -1.920946      2.707313     -2.208450
  H      -2.264579      0.984501     -2.408838
25
Coordinates from ORCA-job FHEA_r2 E -1754.573308949392
  F      -0.765526      0.695745      2.524930
  F       0.509918      1.154057      0.841775
  F      -0.852213     -1.910301      1.917274
  F       1.071543     -1.016198      2.514495
  F      -2.778835      0.196009      1.307944
  F      -1.852316     -0.720467     -0.425652
  F      -3.408352      1.857067     -0.343741
  F      -1.491945      2.698672      0.297499
  F       0.220131     -2.221197     -0.679378
  F       1.115284     -3.217435      1.029816
  F       3.335178     -2.262051      0.627134
  F       2.622446     -0.241027      0.335361
  F       2.574351     -1.657244     -1.312221
  O       0.382633      0.481274     -1.701384
  O       0.244195      2.134080     -3.220759
  C      -0.427166      0.297472      1.262670
  C      -1.768284      0.341931      0.404807
  C       0.185426     -1.144513      1.488386
  C      -2.044959      1.659173     -0.411895
  C       0.955311     -2.012567      0.419097
  C      -1.664090      1.723591     -1.869335
  C       2.407929     -1.518007      0.006056
  C      -0.211602      1.425926     -2.279160
  H      -1.952012      2.728677     -2.193434
  H      -2.301841      1.009893     -2.405225
25
Coordinates from ORCA-job FHEA_r2 E -1754.573850532172
  F      -0.743977      0.726012      2.492060
  F       0.534110      1.123866      0.792997
  F      -0.853234     -1.900154      1.941207
  F       1.073115     -1.006339      2.530120
  F      -2.757975      0.158643      1.288643
  F      -1.826137     -0.727001     -0.457983
  F      -3.411980      1.830295     -0.326462
  F      -1.504699      2.689389      0.312843
  F       0.230449     -2.259265     -0.646551
  F       1.107531     -3.240827      1.082627
  F       3.338442     -2.279445      0.697417
  F       2.629226     -0.270322      0.324512
  F       2.598611     -1.746618     -1.269334
  O       0.390266      0.543088     -1.817615
  O       0.183613      2.268545     -3.242977
  C      -0.410796      0.289737      1.241885
  C      -1.752060      0.325793      0.385543
  C       0.191255     -1.149982      1.502917
  C      -2.047768      1.653414     -0.410177
  C       0.959994     -2.042972      0.454317
  C      -1.685135      1.754699     -1.872495
  C       2.416987     -1.559291      0.041594
  C      -0.234160      1.504808     -2.327484
  H      -2.004641      2.758383     -2.169873
  H      -2.315835      1.038106     -2.412669
25
Coordinates from ORCA-job FHEA_r2 E -1754.574528783752
  F      -0.718793      0.777688      2.443249
  F       0.543983      1.096953      0.711883
  F      -0.848693     -1.881285      1.969779
  F       1.078618     -0.979538      2.541920
  F      -2.739906      0.101746      1.268646
  F      -1.796035     -0.731230     -0.499548
  F      -3.420794      1.806849     -0.309366
  F      -1.515585      2.670938      0.332859
  F       0.239524     -2.273064     -0.620058
  F       1.089619     -3.255161      1.123695
  F       3.338032     -2.313514      0.761186
  F       2.654266     -0.308783      0.320472
  F       2.616514     -1.827251     -1.229168
  O       0.383692      0.579324     -1.927213
  O       0.143717      2.402196     -3.219665
  C      -0.398642      0.288485      1.211170
  C      -1.742637      0.305146      0.364927
  C       0.198871     -1.144861      1.517021
  C      -2.056515      1.643721     -0.405714
  C       0.964131     -2.061283      0.486156
  C      -1.704905      1.778119     -1.869036
  C       2.430623     -1.603804      0.076904
  C      -0.255793      1.569452     -2.356841
  H      -2.049007      2.780725     -2.141631
  H      -2.329085      1.060992     -2.416568
25
Coordinates from ORCA-job FHEA_r2 E -1754.575395602585
  F      -0.675318      0.836845      2.378403
  F       0.548378      1.049125      0.596620
  F      -0.850672     -1.870502      1.980726
  F       1.071131     -0.956034      2.547026
  F      -2.725820      0.053690      1.262696
  F      -1.793319     -0.727287     -0.537815
  F      -3.427484      1.806061     -0.281044
  F      -1.509068      2.651245      0.355370
  F       0.263972     -2.273668     -0.613763
  F       1.075809     -3.265255      1.145769
  F       3.336615     -2.307586      0.856558
  F       2.662972     -0.327580      0.298945
  F       2.663001     -1.918753     -1.175212
  O       0.345710      0.567124     -2.054043
  O       0.132300      2.520480     -3.145017
  C      -0.389692      0.282700      1.167916
  C      -1.744858      0.288244      0.350002
  C       0.199451     -1.143516      1.520467
  C      -2.065574      1.639052     -0.394206
  C       0.972804     -2.072910      0.506819
  C      -1.724790      1.794879     -1.857644
  C       2.448892     -1.634021      0.115944
  C      -0.279103      1.609289     -2.370778
  H      -2.080168      2.799212     -2.108835
  H      -2.349967      1.081729     -2.409843
25
Coordinates from ORCA-job FHEA_r2 E -1754.576657368377
  F      -0.621037      0.914120      2.308806
  F       0.541175      1.008654      0.465343
  F      -0.834387     -1.843964      1.999489
  F       1.086496     -0.914029      2.539058
  F      -2.709064      0.006133      1.270305
  F      -1.787730     -0.728610     -0.558933
  F      -3.450240      1.783092     -0.262800
  F      -1.531284      2.638311      0.366762
  F       0.282804     -2.206694     -0.633431
  F       1.017556     -3.267915      1.124065
  F       3.312161     -2.325195      0.975767
  F       2.711211     -0.371085      0.261381
  F       2.731070     -2.056514     -1.105185
  O       0.298447      0.556630     -2.203476
  O       0.149761      2.659735     -2.982473
  C      -0.379970      0.290764      1.124738
  C      -1.749114      0.272702      0.344940
  C       0.210552     -1.123065      1.521400
  C      -2.088330      1.626807     -0.385151
  C       0.974915     -2.062142      0.509624
  C      -1.750768      1.793915     -1.847186
  C       2.475184     -1.681996      0.156366
  C      -0.297848      1.652468     -2.362648
  H      -2.127913      2.792505     -2.089365
  H      -2.358443      1.067934     -2.402334
25
Coordinates from ORCA-job FHEA_r2 E -1754.578984483825
  F      -0.532017      0.987940      2.219753
  F       0.530022      0.930125      0.303146
  F      -0.824631     -1.833224      2.001172
  F       1.089955     -0.886421      2.523947
  F      -2.692664      0.003221      1.306418
  F      -1.827964     -0.728463     -0.556260
  F      -3.469388      1.781960     -0.236484
  F      -1.537278      2.636905      0.360546
  F       0.323937     -2.132380     -0.671995
  F       0.972049     -3.277596      1.072974
  F       3.280055     -2.282186      1.125910
  F       2.734576     -0.398414      0.200915
  F       2.819281     -2.204619     -1.001982
  O       0.224157      0.548831     -2.403250
  O       0.201133      2.774508     -2.717705
  C      -0.368543      0.286925      1.069097
  C      -1.762855      0.268417      0.351397
  C       0.214756     -1.115663      1.511179
  C      -2.110058      1.622659     -0.376452
  C       0.982166     -2.053102      0.500723
  C      -1.781494      1.780378     -1.839874
  C       2.499161     -1.713167      0.204038
  C      -0.315386      1.685634     -2.338136
  H      -2.178633      2.769936     -2.086341
  H      -2.365135      1.030358     -2.387674
25
Coordinates from ORCA-job FHEA_r2 E -1754.581997875148
  F      -0.439771      1.056542      2.124494
  F       0.514150      0.858413      0.151482
  F      -0.818145     -1.819066      1.980749
  F       1.088951     -0.865297      2.507338
  F      -2.666867      0.011839      1.345355
  F      -1.865588     -0.727840     -0.547817
  F      -3.488472      1.786323     -0.203178
  F      -1.539481      2.640825      0.346599
  F       0.386473     -2.024798     -0.726248
  F       0.915885     -3.280421      0.989143
  F       3.235455     -2.252518      1.275664
  F       2.790910     -0.437356      0.168718
  F       2.916235     -2.337301     -0.877750
  O       0.129615      0.562627     -2.595823
  O       0.250898      2.802437     -2.427816
  C      -0.353386      0.288887      1.011593
  C      -1.772048      0.270728      0.357284
  C       0.221060     -1.104224      1.491284
  C      -2.133177      1.623282     -0.369126
  C       0.994357     -2.033004      0.478482
  C      -1.823286      1.764047     -1.836332
  C       2.530833     -1.744021      0.261779
  C      -0.346301      1.696495     -2.310622
  H      -2.228773      2.748909     -2.088197
  H      -2.394326      0.997056     -2.371993
25
Coordinates from ORCA-job FHEA_r2 E -1754.583429969594
  F      -0.304789      1.079502      2.096793
  F       0.552402      0.851343      0.083972
  F      -0.842037     -1.820579      1.849383
  F       1.057357     -0.931639      2.486345
  F      -2.611656      0.139290      1.416712
  F      -1.900438     -0.712368     -0.471363
  F      -3.498972      1.822100     -0.156188
  F      -1.529021      2.706016      0.247934
  F       0.513336     -1.766824     -0.857289
  F       0.828963     -3.263494      0.720210
  F       3.135965     -2.294881      1.418861
  F       2.884598     -0.449765      0.285753
  F       3.059173     -2.358568     -0.745266
  O      -0.024088      0.469197     -2.635535
  O       0.296296      2.637466     -2.112302
  C      -0.307072      0.314357      0.980024
  C      -1.754521      0.332081      0.382574
  C       0.221648     -1.102940      1.428711
  C      -2.153116      1.655727     -0.382510
  C       1.013397     -1.965921      0.378854
  C      -1.909401      1.699803     -1.864019
  C       2.566772     -1.746455      0.336763
  C      -0.412591      1.607466     -2.242296
  H      -2.292756      2.678778     -2.170075
  H      -2.484247      0.902868     -2.340984
25
Coordinates from ORCA-job FHEA_r2 E -1754.585397274869
  F      -0.255970      1.122223      2.021518
  F       0.574914      0.758202      0.014995
  F      -0.829694     -1.812664      1.903298
  F       1.067970     -0.906206      2.515935
  F      -2.570654      0.099818      1.411555
  F      -1.877310     -0.733539     -0.494298
  F      -3.489457      1.768270     -0.130582
  F      -1.535204      2.678969      0.282224
  F       0.558863     -1.797283     -0.810572
  F       0.802407     -3.301840      0.773021
  F       3.127768     -2.336305      1.522443
  F       2.923444     -0.533172      0.312907
  F       3.069754     -2.478841     -0.644378
  O      -0.047474      0.721291     -2.930972
  O       0.185133      2.828767     -2.176397
  C      -0.278706      0.292507      0.954373
  C      -1.728503      0.302369      0.368502
  C       0.236956     -1.112307      1.462670
  C      -2.143851      1.636060     -0.375447
  C       1.024207     -2.010265      0.437188
  C      -1.937853      1.736781     -1.868199
  C       2.580737     -1.820936      0.414540
  C      -0.465261      1.767782     -2.358412
  H      -2.405824      2.693554     -2.124781
  H      -2.481192      0.919326     -2.346067
25
Coordinates from ORCA-job FHEA_r2 E -1754.585460030217
  F      -0.318184      1.075011      2.116356
  F       0.586378      0.849144      0.140720
  F      -0.829515     -1.835139      1.902791
  F       1.066081     -0.930368      2.515911
  F      -2.601785      0.147443      1.420008
  F      -1.883908     -0.723295     -0.461131
  F      -3.490084      1.776275     -0.169291
  F      -1.548954      2.692710      0.286746
  F       0.511216     -1.833215     -0.818253
  F       0.819166     -3.303466      0.771092
  F       3.157863     -2.340308      1.428107
  F       2.880929     -0.496585      0.302414
  F       3.034716     -2.398304     -0.739176
  O       0.027952      0.631705     -2.790317
  O       0.185990      2.823579     -2.307153
  C      -0.294526      0.302985      1.006164
  C      -1.738125      0.323819      0.388876
  C       0.230225     -1.120851      1.464188
  C      -2.136403      1.645543     -0.378470
  C       1.010379     -2.010603      0.419992
  C      -1.897623      1.718596     -1.870353
  C       2.563893     -1.794256      0.359258
  C      -0.425109      1.724316     -2.350916
  H      -2.366808      2.664457     -2.165034
  H      -2.438563      0.893366     -2.337465
25
Coordinates from ORCA-job FHEA_r2 E -1754.585696304508
  F      -0.280005      1.103615      2.081236
  F       0.540519      0.841434      0.076381
  F      -0.823115     -1.854098      1.864151
  F       1.049480     -0.923238      2.493451
  F      -2.607196      0.206478      1.490548
  F      -1.961606     -0.708500     -0.400092
  F      -3.506085      1.813385     -0.171549
  F      -1.548205      2.704815      0.278433
  F       0.571976     -1.700756     -0.879929
  F       0.784204     -3.268912      0.623898
  F       3.107038     -2.326770      1.477406
  F       2.924714     -0.504819      0.299712
  F       3.071632     -2.434454     -0.696025
  O       0.036171      0.615146     -2.839025
  O       0.223098      2.751765     -2.153603
  C      -0.308575      0.313145      0.987532
  C      -1.772962      0.347083      0.430803
  C       0.223244     -1.114094      1.436936
  C      -2.151398      1.653654     -0.362739
  C       1.017783     -1.964847      0.366183
  C      -1.883733      1.663141     -1.849570
  C       2.575114     -1.793953      0.372549
  C      -0.405345      1.670179     -2.306011
  H      -2.363967      2.584199     -2.201224
  H      -2.407578      0.808960     -2.284391
25
Coordinates from ORCA-job FHEA_r2 E -1754.586212222056
  F      -0.262563      1.115719      2.070153
  F       0.585503      0.822100      0.073840
  F      -0.821994     -1.819039      1.894226
  F       1.071396     -0.910783      2.501412
  F      -2.574794      0.168344      1.451685
  F      -1.898715     -0.727481     -0.433623
  F      -3.502666      1.769635     -0.162710
  F      -1.562617      2.700112      0.269660
  F       0.555316     -1.725906     -0.850942
  F       0.766384     -3.283047      0.673751
  F       3.102543     -2.355965      1.488775
  F       2.919605     -0.528410      0.317170
  F       3.057230     -2.459629     -0.679438
  O       0.008583      0.689087     -2.892292
  O       0.192616      2.799147     -2.129638
  C      -0.280628      0.315088      0.981327
  C      -1.735987      0.332395      0.399836
  C       0.236022     -1.105926      1.452530
  C      -2.148707      1.642702     -0.375896
  C       1.009671     -1.982829      0.392796
  C      -1.910746      1.682756     -1.866216
  C       2.565737     -1.816776      0.388106
  C      -0.434283      1.725444     -2.326137
  H      -2.403140      2.605792     -2.193121
  H      -2.428562      0.830030     -2.310191
25
Coordinates from ORCA-job FHEA_r2 E -1754.586278903027
  F      -0.278300      1.109916      2.085290
  F       0.578404      0.832018      0.090175
  F      -0.818806     -1.821262      1.901987
  F       1.077318     -0.909331      2.498706
  F      -2.582049      0.173109      1.459657
  F      -1.906898     -0.731015     -0.421802
  F      -3.503869      1.765614     -0.174323
  F      -1.569782      2.697693      0.279096
  F       0.546859     -1.723766     -0.850676
  F       0.763731     -3.281280      0.673610
  F       3.107653     -2.361719      1.470625
  F       2.915366     -0.523835      0.316129
  F       3.048171     -2.444589     -0.699423
  O       0.027822      0.677754     -2.878914
  O       0.196074      2.805937     -2.166005
  C      -0.287940      0.315804      0.991282
  C      -1.742067      0.331512      0.407186
  C       0.235652     -1.105404      1.455157
  C      -2.147609      1.640449     -0.374173
  C       1.006050     -1.981337      0.391268
  C      -1.896995      1.680438     -1.863297
  C       2.563194     -1.813460      0.378565
  C      -0.421560      1.720433     -2.330788
  H      -2.389763      2.601012     -2.196471
  H      -2.415454      0.827870     -2.307800
25
Coordinates from ORCA-job FHEA_r2 E -1754.586314857278
  F      -0.282250      1.113965      2.087435
  F       0.574938      0.838987      0.092915
  F      -0.811791     -1.815796      1.914802
  F       1.087034     -0.899311      2.493850
  F      -2.584626      0.178742      1.465052
  F      -1.910630     -0.734438     -0.412500
  F      -3.508001      1.757789     -0.184078
  F      -1.579434      2.696711      0.279216
  F       0.541433     -1.713893     -0.851999
  F       0.753745     -3.276874      0.666849
  F       3.104980     -2.367447      1.461557
  F       2.915706     -0.527886      0.308645
  F       3.038123     -2.448291     -0.708442
  O       0.041123      0.689457     -2.888529
  O       0.201254      2.805538     -2.138431
  C      -0.290231      0.319750      0.993688
  C      -1.744920      0.331956      0.411147
  C       0.238154     -1.099936      1.457320
  C      -2.149933      1.636969     -0.375532
  C       1.001453     -1.977478      0.388625
  C      -1.889700      1.671349     -1.862743
  C       2.559036     -1.816458      0.371891
  C      -0.412664      1.720860     -2.323806
  H      -2.387012      2.585460     -2.207025
  H      -2.400585      0.812838     -2.304846
25
Coordinates from ORCA-job FHEA_r2 E -1754.586335346619
  F      -0.284989      1.115471      2.095585
  F       0.574762      0.846599      0.101192
  F      -0.806633     -1.808010      1.927176
  F       1.098320     -0.892662      2.488362
  F      -2.585121      0.187835      1.472922
  F      -1.913453     -0.739392     -0.397603
  F      -3.510519      1.747369     -0.195440
  F      -1.589378      2.696802      0.276964
  F       0.535834     -1.694540     -0.854634
  F       0.738209     -3.270492      0.652903
  F       3.098384     -2.378161      1.450129
  F       2.915186     -0.531257      0.307166
  F       3.026738     -2.446784     -0.719831
  O       0.056633      0.701360     -2.897517
  O       0.204155      2.807234     -2.116832
  C      -0.290879      0.324170      0.999599
  C      -1.745642      0.333117      0.417197
  C       0.240285     -1.094256      1.459570
  C      -2.150463      1.632481     -0.377759
  C       0.994571     -1.971255      0.383791
  C      -1.881687      1.658473     -1.862984
  C       2.552789     -1.818686      0.364867
  C      -0.403480      1.721756     -2.318716
  H      -2.385592      2.563769     -2.220848
  H      -2.382829      0.791620     -2.300198
25
Coordinates from ORCA-job FHEA_r2 E -1754.586338550978
  F      -0.287145      1.115655      2.099105
  F       0.574278      0.849570      0.104886
  F      -0.804400     -1.804797      1.933341
  F       1.103412     -0.890605      2.486740
  F      -2.585638      0.190677      1.475225
  F      -1.914359     -0.742125     -0.392192
  F      -3.511419      1.742731     -0.200276
  F      -1.593184      2.696244      0.276165
  F       0.532100     -1.691761     -0.854306
  F       0.733701     -3.269088      0.652044
  F       3.097318     -2.381979      1.444996
  F       2.914563     -0.532757      0.305438
  F       3.021355     -2.446432     -0.725024
  O       0.063482      0.707886     -2.900571
  O       0.204000      2.811420     -2.112595
  C      -0.291202      0.325312      1.002294
  C      -1.745864      0.332656      0.419181
  C       0.241343     -1.092382      1.461080
  C      -2.150583      1.630133     -0.379048
  C       0.991878     -1.970292      0.383430
  C      -1.878524      1.654781     -1.863591
  C       2.550432     -1.819715      0.361797
  C      -0.400002      1.724742     -2.318110
  H      -2.385135      2.557419     -2.224384
  H      -2.375206      0.785268     -2.300563
25
Coordinates from ORCA-job FHEA_r2 E -1754.586339775989
  F      -0.287067      1.115500      2.100464
  F       0.573934      0.850132      0.105977
  F      -0.804330     -1.803628      1.935037
  F       1.104778     -0.890734      2.486107
  F      -2.585781      0.192993      1.477230
  F      -1.916219     -0.743230     -0.388865
  F      -3.511676      1.740891     -0.202446
  F      -1.594685      2.696091      0.276014
  F       0.530519     -1.689776     -0.854709
  F       0.731922     -3.268325      0.650495
  F       3.096636     -2.382217      1.442812
  F       2.913644     -0.532297      0.304412
  F       3.019252     -2.445278     -0.727232
  O       0.066767      0.709277     -2.900730
  O       0.204668      2.812426     -2.111471
  C      -0.291241      0.325474      1.003383
  C      -1.746301      0.332591      0.420677
  C       0.241219     -1.091920      1.461331
  C      -2.150484      1.629026     -0.379367
  C       0.990514     -1.969548      0.382738
  C      -1.876680      1.652614     -1.863581
  C       2.549232     -1.819094      0.360293
  C      -0.397962      1.725304     -2.317448
  H      -2.384351      2.554310     -2.225314
  H      -2.371106      0.781981     -2.300745
25
Coordinates from ORCA-job FHEA_r2 E -1754.586340309617
  F      -0.287166      1.115632      2.100740
  F       0.573340      0.850282      0.106104
  F      -0.804255     -1.803230      1.936066
  F       1.105298     -0.890604      2.485976
  F      -2.586032      0.194036      1.478153
  F      -1.917299     -0.743829     -0.387431
  F      -3.512027      1.739719     -0.204006
  F      -1.595819      2.695915      0.275963
  F       0.528530     -1.690914     -0.854397
  F       0.731985     -3.268337      0.651636
  F       3.097154     -2.380732      1.441266
  F       2.912546     -0.531798      0.301597
  F       3.017542     -2.445535     -0.728682
  O       0.069321      0.710325     -2.899689
  O       0.205284      2.813469     -2.110154
  C      -0.291442      0.325456      1.003768
  C      -1.746761      0.332437      0.421349
  C       0.241106     -1.091768      1.461597
  C      -2.150617      1.628324     -0.379623
  C       0.989765     -1.969659      0.382863
  C      -1.875412      1.651838     -1.863586
  C       2.548505     -1.818552      0.358852
  C      -0.396444      1.726086     -2.316492
  H      -2.383636      2.553260     -2.225309
  H      -2.368267      0.780739     -2.301496
25
Coordinates from ORCA-job FHEA_r2 E -1754.586340672896
  F      -0.286825      1.115924      2.100509
  F       0.572803      0.849921      0.105655
  F      -0.804379     -1.803128      1.936564
  F       1.105355     -0.890449      2.485898
  F      -2.586123      0.195153      1.479138
  F      -1.918505     -0.744219     -0.386146
  F      -3.512400      1.738616     -0.205363
  F      -1.596988      2.695850      0.275983
  F       0.526768     -1.692178     -0.854036
  F       0.732325     -3.268542      0.652846
  F       3.097769     -2.378809      1.440134
  F       2.911406     -0.531345      0.298434
  F       3.016122     -2.446282     -0.729667
  O       0.071930      0.711473     -2.898270
  O       0.205688      2.814718     -2.108665
  C      -0.291621      0.325393      1.003819
  C      -1.747222      0.332459      0.421950
  C       0.240898     -1.091767      1.461750
  C      -2.150793      1.627819     -0.379777
  C       0.989197     -1.969902      0.383025
  C      -1.874262      1.651237     -1.863522
  C       2.547881     -1.818098      0.357575
  C      -0.395032      1.726937     -2.315354
  H      -2.383174      2.552202     -2.225466
  H      -2.365615      0.779577     -2.301954
25
Coordinates from ORCA-job FHEA_r2 E -1754.586341007550
  F      -0.286487      1.116373      2.100214
  F       0.572287      0.849568      0.105209
  F      -0.804347     -1.802889      1.937435
  F       1.105647     -0.889986      2.485704
  F      -2.586161      0.196424      1.480220
  F      -1.919743     -0.744717     -0.384649
  F      -3.512950      1.736979     -0.207194
  F      -1.598737      2.695794      0.276062
  F       0.524438     -1.693874     -0.853463
  F       0.732586     -3.268846      0.654574
  F       3.098479     -2.376437      1.438760
  F       2.910017     -0.531140      0.293962
  F       3.014201     -2.447924     -0.730802
  O       0.075675      0.713531     -2.896240
  O       0.205766      2.816959     -2.106540
  C      -0.291833      0.325421      1.003858
  C      -1.747666      0.332532      0.422570
  C       0.240780     -1.091678      1.462029
  C      -2.151048      1.627230     -0.380026
  C       0.988461     -1.970289      0.383293
  C      -1.872839      1.650523     -1.863498
  C       2.547034     -1.817878      0.355888
  C      -0.393268      1.728393     -2.313819
  H      -2.382882      2.550557     -2.226187
  H      -2.362205      0.777937     -2.302296
25
Coordinates from ORCA-job FHEA_r2 E -1754.586341237984
  F      -0.286154      1.116785      2.099885
  F       0.571984      0.849242      0.104763
  F      -0.804207     -1.802560      1.938245
  F       1.106055     -0.889451      2.485427
  F      -2.586064      0.197444      1.481078
  F      -1.920695     -0.745180     -0.383411
  F      -3.513456      1.735537     -0.208674
  F      -1.600312      2.695758      0.276187
  F       0.522837     -1.694994     -0.853044
  F       0.732517     -3.269091      0.655795
  F       3.098858     -2.374749      1.437972
  F       2.909143     -0.531375      0.290262
  F       3.012779     -2.449878     -0.731371
  O       0.078931      0.715730     -2.894529
  O       0.205347      2.819354     -2.104783
  C      -0.291954      0.325484      1.003788
  C      -1.747920      0.332600      0.422985
  C       0.240805     -1.091542      1.462241
  C      -2.151285      1.626801     -0.380262
  C       0.987919     -1.970613      0.383475
  C      -1.871816      1.649971     -1.863529
  C       2.546403     -1.818068      0.354666
  C      -0.391982      1.729910     -2.312589
  H      -2.382977      2.548975     -2.227177
  H      -2.359554      0.776471     -2.302341
25
Coordinates from ORCA-job FHEA_r2 E -1754.586341340231
  F      -0.286099      1.116994      2.099751
  F       0.571959      0.849217      0.104643
  F      -0.803928     -1.802178      1.938954
  F       1.106572     -0.888960      2.485153
  F      -2.585986      0.197754      1.481319
  F      -1.920942     -0.745451     -0.382954
  F      -3.513747      1.734694     -0.209407
  F      -1.601216      2.695701      0.276338
  F       0.522217     -1.695320     -0.852866
  F       0.732138     -3.269153      0.656266
  F       3.098850     -2.374166      1.437799
  F       2.908921     -0.531860      0.288347
  F       3.012106     -2.451396     -0.731409
  O       0.080715      0.717183     -2.893578
  O       0.204732      2.820998     -2.103973
  C      -0.291965      0.325563      1.003729
  C      -1.747928      0.332569      0.423050
  C       0.240970     -1.091352      1.462379
  C      -2.151415      1.626591     -0.380424
  C       0.987647     -1.970751      0.383547
  C      -1.871419      1.649725     -1.863592
  C       2.546108     -1.818497      0.354141
  C      -0.391472      1.730917     -2.312000
  H      -2.383249      2.548058     -2.227922
  H      -2.358366      0.775682     -2.302230
