25
Coordinates from ORCA-job FHEA_r2 E -1754.586341340231
  F          -0.28609879395128      1.11699400426167      2.09975147930739
  F           0.57195949876235      0.84921672770113      0.10464328174839
  F          -0.80392814903840     -1.80217784095919      1.93895433563743
  F           1.10657150567363     -0.88896037661430      2.48515305837718
  F          -2.58598626890879      0.19775443206071      1.48131903750894
  F          -1.92094207860464     -0.74545095581756     -0.38295423980999
  F          -3.51374652915318      1.73469402494345     -0.20940660525616
  F          -1.60121576782337      2.69570083454344      0.27633786023202
  F           0.52221743110776     -1.69531952919011     -0.85286639932127
  F           0.73213757196595     -3.26915305970524      0.65626616549992
  F           3.09885008546974     -2.37416604277619      1.43779946762469
  F           2.90892061671222     -0.53186045527900      0.28834698905357
  F           3.01210573314326     -2.45139621901980     -0.73140925645323
  O           0.08071471611843      0.71718268358660     -2.89357846553944
  O           0.20473192083207      2.82099817851307     -2.10397342662472
  C          -0.29196493416350      0.32556282356264      1.00372853582960
  C          -1.74792789749503      0.33256920411212      0.42305007796326
  C           0.24096989804446     -1.09135227088323      1.46237920353418
  C          -2.15141528970499      1.62659112751850     -0.38042405362200
  C           0.98764709548576     -1.97075086946364      0.38354715680737
  C          -1.87141890582189      1.64972508455335     -1.86359155825787
  C           2.54610775318602     -1.81849748372193      0.35414112301050
  C          -0.39147248635886      1.73091712266627     -2.31199979542267
  H          -2.38324882069741      2.54805785463940     -2.22792178457496
  H          -2.35836590478031      0.77568200076775     -2.30223018715216
