80
Coordinates from ORCA-job PFOA-Ch_wb97xd3_opt E -2865.794324202509
  N           0.71283775208368      1.22589976605313      0.74662685865235
  C          -0.16772394219950     -4.31000694275285     -2.66568835836566
  C           0.93667386557303     -5.19645468709909     -2.07743538274858
  C           2.27834556961017     -4.50443688544823     -1.80505375360483
  C          -0.35151929066330     -3.02869932360297     -1.88372449685437
  C          -1.47717851029798     -5.10129846538777     -2.77882932884122
  C          -0.63009733103007      0.64779966169537      0.34522882489384
  C          -0.55877412714061     -0.62912943205933     -0.43591561161339
  C           2.83499817860070     -3.81429087466631     -3.03260590527272
  C          -0.33596701161493     -1.79798988871723     -2.53132591170841
  C          -0.52271328027120     -3.04089960862317     -0.50078549656636
  C           3.27442677821003     -5.50515539033988     -1.22135381431701
  C           1.48568104578683      0.27158704283250      1.58738131075575
  C           0.44164049672338      2.45820336924812      1.53829408984041
  C           1.52326859592478      1.58945333502805     -0.44697145166369
  C          -0.44493708719449     -0.61280253779502     -1.82137835448964
  C          -0.62080106573135     -1.85928040647813      0.21349966233935
  C          -2.58665247735745     -4.35659422397611     -3.50657347695940
  C           2.99735222033504     -2.43228052942877     -3.05705682440227
  C           3.20271224966786     -4.54106581158542     -4.16449879071881
  C           3.51271797316769     -1.78966714601509     -4.17523804436540
  C           3.71977077364146     -3.90518577776282     -5.28329997650798
  C           3.87760035992925     -2.52463659986680     -5.29319093211413
  H           0.13159078667180     -4.02218053044106     -3.67865774144348
  H           1.09929099365903     -6.03391716047187     -2.76283938676421
  H           0.58636725189256     -5.63536801276976     -1.13818418915552
  H           2.11430861130515     -3.72738497346692     -1.05390939784799
  H          -1.81225354133083     -5.37776109189484     -1.77418349905749
  H          -1.26305348218746     -6.03736534705267     -3.30191445436274
  H          -1.12185765622750      1.43091221311237     -0.22875901789774
  H          -1.17327143175506      0.50174816405618      1.27687575346889
  H          -0.21913531529616     -1.76716351337937     -3.60838478783743
  H          -0.55860835835281     -3.98439968013197      0.03118811951117
  H           3.48032385686460     -6.31625841062927     -1.92315980413079
  H           2.87760579948084     -5.94865260690590     -0.30612974967214
  H           4.22089516425447     -5.02182728414079     -0.97849239441474
  H           0.86850323154359     -0.03543779252857      2.42796640504018
  H           2.37454866761922      0.78556853282570      1.94334453325791
  H           1.76784586571658     -0.58900782865402      0.98750440610896
  H          -0.12949740960243      2.18622844621816      2.42240158198340
  H          -0.12525253893422      3.15106033401732      0.92188136706133
  H           1.39078315574497      2.90158391751395      1.82683707183938
  H           1.77671221292246      0.68876258303229     -0.99846162574649
  H           2.43067808848804      2.07888765455178     -0.10338089489140
  H           0.94570138335658      2.26770218873375     -1.06986711966660
  H          -0.42764317490970      0.33338369940508     -2.34922307879565
  H          -0.73663699225796     -1.89001598455431      1.29063220212505
  H          -2.87851598130128     -3.44877360540733     -2.97477603633015
  H          -3.47651398206931     -4.98000489688060     -3.60612093943487
  H          -2.27078115217180     -4.06462401575660     -4.51089237869491
  H           2.71651361468665     -1.84938450555047     -2.18701142688343
  H           3.08459153784783     -5.61880426356880     -4.17293727735344
  H           3.63155868197498     -0.71298485481732     -4.16881512072879
  H           4.00118662683252     -4.48872980737111     -6.15153806124858
  H           4.28203911445014     -2.02788970632947     -6.16637838447765
  F           4.67439056225835     -1.86925393644709     -0.21042274944473
  F           4.77370950180380      0.30058060179078     -0.15079274773572
  F           4.57164602636253     -0.88416552431363      2.19525774633191
  F           6.32479885231463     -2.11765760251875      1.82706119175205
  F           5.99440395541341     -0.71860806930759     -2.18943683392050
  F           7.36291828244022      0.27480071232160     -0.82699932900818
  F           6.73466452028962     -0.28894370293808      3.60323118760114
  F           7.92813340196703      0.02214281285488      1.81874258734541
  F           8.42037711824506     -1.70733050659923     -2.15582226181269
  F           8.37785592893571     -2.06401609818521     -0.00962521227600
  F           6.51440638799972      2.09831606115859      1.07099254594138
  F           7.18779411240608      2.24163857596514      3.13218017920543
  F           6.21932373970122     -3.44872508537659     -2.39667057608773
  F           6.47186255459310     -3.92791325347580     -0.30235231953425
  F           8.09463243294715     -4.24118242360347     -1.68212084248072
  O           4.60263852243308      1.66481454531509      3.98512432549133
  O           4.13512813244349      2.61448026640400      2.00450962657515
  C           5.47352525276183     -0.82279955635242      0.06404832186855
  C           5.77595985973687     -0.91338272698516      1.59758396785525
  C           6.61776488937256     -0.82409599787761     -1.00481806708029
  C           6.68488705818776      0.12970857981603      2.32598379996154
  C           7.62771815532896     -2.01559359355398     -1.11680733068492
  C           6.28481329588388      1.63402243071013      2.31579014441642
  C           7.07277771055120     -3.44755013804741     -1.38208571793166
  C           4.84329238095300      2.00400312523080      2.81558585472447
