53
Coordinates from ORCA-job R4N+PFOA-_0.15M E -133.643493975080
  C           5.46246152974514     -5.32680227044311     -2.73972532931056
  C           5.89705674669826      0.69894710757606     -0.73904249431449
  F           6.94319086697990     -4.09818331159901     -0.82339791132604
  F           5.39174945687876     -2.74813071844199     -0.20838013599973
  F           8.68629159883417     -2.65646546996001     -0.17573361618127
  F           8.12371426408696     -1.18647533387799     -1.57959580919201
  F           4.65697499941666     -2.52756000335809     -2.48654426431071
  F           6.52306515884215     -1.77184823622488     -3.21298429897709
  F           6.28002250004755     -1.14027558557087      1.37173236187115
  F           8.43235492724602     -0.94343518796884      1.49429425347478
  F           5.88804408313748     -3.85454202227864     -4.53134075800951
  F           7.56453050616401     -4.34142162824799     -3.28002144903200
  F           8.33624704037762      1.03655391162088     -0.45506552868072
  F           7.10457409467805      1.37989705876422      1.28192963366678
  F           4.63793149927976     -5.04786881458769     -1.73649193489168
  F           6.28988195740581     -6.28696342044875     -2.35678183665517
  F           4.71363057183637     -5.81758013571326     -3.72490457566546
  O           5.32926165882359      1.77503543530788     -0.76941732827132
  O           5.61647553200095     -0.37550336693629     -1.27602808181152
  C           6.48076457752411     -2.83078382043943     -0.97277709807813
  C           7.64240286930492     -1.87585479466104     -0.51862954506309
  C           5.98200899334464     -2.74508971400224     -2.46915891610886
  C           7.37959452809829     -0.86554701187044      0.64728768464941
  C           6.24945638876232     -4.07279758923009     -3.25118541386177
  C           7.21270373649751      0.59430513047232      0.17349453300895
  N           1.97691076643255      1.30708449763200     -2.22028677345159
  C           1.98800000351345      1.09838319113758     -0.74229595806952
  C           0.59674257359018      1.29587211695721     -2.73111122655692
  C           2.58694591784611      2.61797738246188     -2.49832152398869
  C           2.74985179478453      0.26057560174396     -2.90366074792384
  C           1.49337130787568     -0.25552626253537     -0.30468325575732
  C           0.14537159911281     -0.47533758451423     -0.03983223600562
  C           2.39448600389231     -1.30026163400852     -0.13039022265171
  C          -0.29369717653992     -1.72260049939264      0.36825082240160
  C           1.95586442813364     -2.54772326556803      0.27869642356476
  C           0.60900088747484     -2.76197200570039      0.52301771675105
  H           1.37175298095135      1.87906970580335     -0.29344372264946
  H           3.01812964592453      1.22421189799906     -0.40200927378883
  H           0.01607080241338      2.07493897753374     -2.24395644806223
  H           0.13989512919845      0.32915074335123     -2.53636490497863
  H           0.60535493844429      1.47508649395020     -3.80314641771808
  H           2.01774464968007      3.40440651335843     -2.00959254311055
  H           2.60484715627552      2.79582540826647     -3.57024982028637
  H           3.60777045393164      2.63678725999206     -2.11824930104685
  H           2.29886078104115     -0.71500019252291     -2.74008660107366
  H           3.76629072032809      0.22329086935737     -2.51567203617842
  H           2.78902200629346      0.46830741954108     -3.96942223015867
  H          -0.56474577598892      0.33140492641206     -0.13412787541624
  H           3.45044871196553     -1.14805913705113     -0.30026514002099
  H          -1.34016518149681     -1.88554548582197      0.57305195066638
  H           2.68028702794678     -3.33894307933863      0.41186133494212
  H           0.27197009122489     -3.73531277437028      0.84507754702656
  Cl          7.09382874963881     -3.88984919625424      2.18397677411165
