53
Coordinates from ORCA-job R4N+PFOA-_0.15M E -133.634080735650
  C           4.54030133858412     -3.53110143487610     -2.23470865797410
  C           9.86693465861406     -0.10114695892150      0.84020907384577
  F           5.45022104558778     -1.44702601235458     -0.35814438107495
  F           6.98783638693282     -0.01497491657316     -0.92364828082886
  F           7.60358798070611     -1.64410623312071      1.13180963780954
  F           7.17433225025264     -3.39761117920372     -0.03282817275769
  F           5.49715513076006     -0.80121789635454     -2.94255336510306
  F           7.53800418828997     -1.43866436959320     -3.17758260434578
  F           9.73989681814181     -3.09470388246551      0.26908740305405
  F           9.16353794687771     -2.85101262168650     -1.78515176727443
  F           5.79330128751382     -3.13049881290608     -4.17182881407638
  F           6.82783702472039     -4.02651867060167     -2.50752380619011
  F           9.45898227056937     -0.15647336168214     -1.63729813965976
  F          11.20511759625238     -1.21594731719781     -0.92851354478457
  F           3.62114082517362     -2.58391527615324     -2.34708486438734
  F           4.64230071165985     -3.88399807520861     -0.96298289047337
  F           4.09719220686862     -4.58875971799116     -2.90820020464550
  O          10.41257305269106     -0.72172911215697      1.73625340741099
  O           9.29129716762982      0.96945773579412      0.77210806764191
  C           6.64755007172376     -1.30839485047678     -0.96883860637269
  C           7.65792450695245     -2.13439582662542     -0.12109856968989
  C           6.41817938025711     -1.66348774582262     -2.46959558135412
  C           9.13611511159321     -2.23097851714774     -0.57162064562414
  C           5.91641012125405     -3.09596411406855     -2.82960969617322
  C           9.91488613304464     -0.91122253798791     -0.59834831444348
  N           0.74471673919995      0.96131970857831     -2.21582525925878
  C           0.53659864978754      0.68161753494948     -0.76377552278816
  C          -0.21840304278362      0.21644745751148     -3.03875732503690
  C           0.55974535560030      2.40469427316644     -2.43353729776046
  C           2.11487334827520      0.59080964111083     -2.60448425866443
  C           0.77945836868486     -0.75036026588583     -0.36280418416183
  C          -0.23725441857817     -1.69750228245411     -0.42802922701271
  C           2.02653976161340     -1.12633177901326      0.12547735960477
  C          -0.00417036875221     -3.00482315493839     -0.03856355064592
  C           2.25263723721303     -2.43126223993006      0.52860848372871
  C           1.24259830832731     -3.37522034845381      0.43702866816551
  H          -0.48681195641626      0.96499818330451     -0.51234491885457
  H           1.23691898816898      1.30846058103593     -0.20725669513406
  H          -1.23225028289948      0.50003959128628     -2.76754435683762
  H          -0.08617358121101     -0.85123103381333     -2.88536911522577
  H          -0.05141329116508      0.44445066535234     -4.08835632118714
  H          -0.43137710674016      2.70887454211996     -2.10619515356390
  H           0.67790690797576      2.63568653108362     -3.48919200548794
  H           1.30821626535778      2.95839993151267     -1.87023333525240
  H           2.25303814763861     -0.48433410054721     -2.52851892202993
  H           2.84435687015849      1.06303646808824     -1.94477248815485
  H           2.31150931239491      0.90542593610246     -3.62542619557479
  H          -1.22209193675694     -1.41567903591496     -0.76686081988606
  H           2.82417764248598     -0.40072182310306      0.20538114032564
  H          -0.79603052728503     -3.73533368135209     -0.09554297184704
  H           3.22490998958510     -2.70235102528255      0.91600484064042
  H           1.43028197151761     -4.39179461582882      0.74861260646498
  Cl          4.64947851585154      1.64492814299697      0.17826659440630

53
Coordinates from ORCA-job R4N+PFOA-_0.15M E -133.635421726360
  C           4.57286140955512     -3.59223369624037     -2.86056601458373
  C           9.29714730406785      0.25200128338016      0.80494255954919
  F           5.14611241572895     -1.18899464555920     -1.38822145645045
  F           6.91344662154323      0.01670067214313     -1.75566373305731
  F           6.76650153869609     -1.00862078661477      0.74809124592672
  F           6.43135757323294     -2.98850264437105     -0.01660065306888
  F           6.08743396284452     -1.22315480362693     -3.86686570426340
  F           7.98783818403280     -2.02493449685502     -3.26209844579612
  F           8.82491653828676     -2.75644485807742      0.97978958723103
  F           8.88757965514815     -3.07950889089016     -1.13934399449632
  F           6.38864428135947     -3.81793871599602     -4.33308340880244
  F           6.74096518379628     -4.28269867192896     -2.25857013247305
  F           9.44998668856437     -0.44313522311583     -1.59705533289335
  F          10.81979376039214     -1.40255659530306     -0.22659146154258
  F           3.86625220059018     -2.57363418367444     -3.32960169713230
  F           4.28127965731371     -3.75099729674575     -1.57913511993658
  F           4.16510444412079     -4.68226818896051     -3.50244293693682
  O           9.34520511760479     -0.18042334147142      1.94411016250603
  O           9.12000733136506      1.35283211344761      0.31786221139321
  C           6.48314675468844     -1.23774812662620     -1.56951498644766
  C           7.09148464150971     -1.82832180346750     -0.26443108894658
  C           6.68950723307657     -1.98175610279426     -2.92659051424771
  C           8.60761927307859     -2.13480104164175     -0.19630681738788
  C           6.11201249965882     -3.42256892101362     -3.07479375400748
  C           9.54114715749498     -0.92747336785603     -0.32648390874888
  N           0.88111482979005      0.97168182834980     -2.00294177178586
  C           0.77320265355955      0.68565176523651     -0.54086537925964
  C          -0.16089012783777      0.26063992798868     -2.75680800090941
  C           0.72171185908399      2.42136922584211     -2.19755395196866
  C           2.20858614723876      0.56763733664154     -2.49410369559112
  C           1.01088394242055     -0.75554114049687     -0.17160367891426
  C          -0.03015668455307     -1.67788077116324     -0.16492153236388
  C           2.28494248336567     -1.16667933904838      0.20760982965584
  C           0.20362375755723     -2.99606706058925      0.18641665592832
  C           2.51418095179313     -2.48371326359824      0.56674432576759
  C           1.47730131821270     -3.40265252824476      0.54693358127755
  H          -0.22182226546334      0.99116530429215     -0.21310308982886
  H           1.52810867998246      1.29049987950782     -0.03328616212625
  H          -1.14334980987944      0.57372981976012     -2.41239190287249
  H          -0.05125056843499     -0.81130978858721     -2.61615202911675
  H          -0.06238787242692      0.48863713739907     -3.81503849673911
  H          -0.23265987566667      2.75056348756105     -1.79410146337173
  H           0.76643435534035      2.65733159108858     -3.25777780118946
  H           1.52625912975982      2.94895936356878     -1.68899871484364
  H           2.32334676453978     -0.51180382552827     -2.43792347669349
  H           2.99634966433960      1.01328593620466     -1.88439840608038
  H           2.33801431073114      0.88641429626400     -3.52450475364594
  H          -1.03244636873641     -1.36825990548544     -0.41748996168577
  H           3.09998068148755     -0.45662523066383      0.23460200465215
  H          -0.60770849778213     -3.70716614976708      0.18691250089988
  H           3.50907959325669     -2.78772934577913      0.86134091571630
  H           1.66748211377278     -4.42830906615480      0.82391333092851
  Cl          4.94931848669827      1.57120494556092      0.12695297027376

53
Coordinates from ORCA-job R4N+PFOA-_0.15M E -133.636536338340
  C           4.53044532365041     -3.74818538218363     -2.99452170849800
  C           8.72401071459085      0.53246877759638      0.67909068874025
  F           4.98299811102607     -1.27988775209760     -1.59410518744413
  F           6.78229308892190     -0.10368598201781     -1.86333602536797
  F           6.27183881255690     -1.26681463901034      0.67223188197551
  F           6.35622023455836     -3.19984981910196     -0.23534964473243
  F           6.11628716876302     -1.36928020550864     -3.99628353069361
  F           7.95726100622417     -2.17599078984227     -3.22282140925306
  F           8.55611430849153     -2.54212539042211      1.12449653733920
  F           8.83824842643372     -2.99465688439714     -0.95509984686232
  F           6.34272618611553     -3.90483871992143     -4.47099612981808
  F           6.71512891577613     -4.44270968586304     -2.42022211596623
  F           9.27421566478027     -0.42240046371352     -1.57716472745716
  F          10.48261315854958     -1.07104998926634      0.09063855906758
  F           3.82655205503883     -2.75437491959679     -3.52063276089325
  F           4.20867538411565     -3.85645793712724     -1.71492204301226
  F           4.14827689543557     -4.86728207872353     -3.60023435871978
  O           8.36917597939000      0.18541409692329      1.79418071148822
  O           8.84590219667534      1.60543012298675      0.11960200905057
  C           6.32736275814806     -1.34956592879317     -1.67729876640210
  C           6.84666105476530     -1.93406814112417     -0.33402510100856
  C           6.63459807014276     -2.12024875586029     -3.00149536804303
  C           8.37496831096697     -2.02834394270606     -0.10846355493709
  C           6.06775272077523     -3.56056601613108     -3.19595851222185
  C           9.19749411934746     -0.74328238682718     -0.25531683925981
  N           1.04358279408851      1.00050516707363     -1.92519778698208
  C           0.94473836210710      0.69922336139533     -0.46549015565110
  C          -0.01207340717038      0.30963135336222     -2.67885748046071
  C           0.89828183123896      2.45404485057829     -2.10155222214965
  C           2.36207240571633      0.58824244620214     -2.43290929142276
  C           1.18688699886286     -0.74540807014131     -0.11319577064828
  C           0.15146900688898     -1.67400879034871     -0.12813315041373
  C           2.46044968899378     -1.15429723401738      0.26994010865622
  C           0.39123991754672     -2.99674252558981      0.20135785835059
  C           2.69530228590772     -2.47630953038723      0.60616620482974
  C           1.66522487768388     -3.40185359613793      0.56204577264298
  H          -0.04866011981536      1.00045657630749     -0.12875842863422
  H           1.70269472234684      1.29914788429280      0.04304593265160
  H          -0.98827776890824      0.62675306243971     -2.32065654596025
  H           0.08979439232567     -0.76506809264714     -2.55496625160244
  H           0.07866853778020      0.55185972065782     -3.73460520175194
  H          -0.04658536074674      2.78958444109951     -1.68126457670893
  H           0.93157761361937      2.70128213027334     -3.15960464202238
  H           1.71633682693683      2.96626479375187     -1.59880434738031
  H           2.46592160914187     -0.49289505860746     -2.38834370273521
  H           3.16124121064507      1.01919498538370     -1.82681952121167
  H           2.48461762923621      0.91621078494224     -3.46126130879343
  H          -0.85138946862111     -1.36614768784619     -0.38041847824282
  H           3.27124269175945     -0.43987378429432      0.31496385286248
  H          -0.41554004650894     -3.71273183639158      0.18433014164072
  H           3.68945117819300     -2.77908900972839      0.90483668821263
  H           1.86114931694635     -4.43117052362133      0.82053074848023
  Cl          5.18736268846509      1.54339909102754      0.06992524887403

53
Coordinates from ORCA-job R4N+PFOA-_0.15M E -133.635783031940
  C           4.41497179061483     -4.06747322341341     -2.32821752537418
  C           8.46779998092892      0.95279173234775      0.30160093386261
  F           4.90267517462362     -1.71733178180557     -0.86808713936554
  F           6.22116575667416     -0.15162972639407     -1.56036593858425
  F           6.76821558462585     -1.60407289122955      0.89351249780925
  F           7.08514731001590     -3.33628182437248     -0.31651206068764
  F           5.27177659391106     -1.39832238054498     -3.53098520815353
  F           7.35207699377963     -1.93573248930702     -3.37426291968522
  F           9.32096704165515     -2.04563576146517      0.55721654919348
  F           9.11331973214437     -2.40907281435621     -1.54940173608423
  F           5.63940540641985     -3.80721172178026     -4.30644497192444
  F           6.74280050477238     -4.42226117953233     -2.56488551935030
  F           8.64711654308955      0.15648172016550     -2.08350203148540
  F          10.37870192256553     -0.08306076647662     -0.81795614827045
  F           3.44640836750131     -3.18199958356013     -2.52495246685319
  F           4.54076956079352     -4.28761277241080     -1.02866609418956
  F           4.02789479101886     -5.20668577984126     -2.89202510555828
  O           8.50459305526864      0.51414792104948      1.44047607750282
  O           8.18733623697146      2.02674135073855     -0.19247968793475
  C           6.12966436353214     -1.47312867804010     -1.36820039998395
  C           7.16628369477280     -1.97644347793675     -0.32726638426364
  C           6.15315967648668     -2.10926557262186     -2.79683012018707
  C           8.65770347992206     -1.61635540133032     -0.53494349288480
  C           5.75973422422930     -3.60956025544828     -2.97659625440341
  C           9.00891407334380     -0.14901622856223     -0.80563186599638
  N           1.45181092141785      1.00015700412717     -1.87382380454259
  C           0.99429816973691      0.60606388499762     -0.50665039597846
  C           0.53620149177358      0.48602021354633     -2.90245502436229
  C           1.48494026717540      2.46959118905765     -1.93891788154706
  C           2.80477515130760      0.47832851765201     -2.11832751111842
  C           1.03341977855467     -0.87734969687947     -0.24674874923082
  C          -0.03670331161551     -1.69884120920439     -0.58560069441618
  C           2.14840400015468     -1.43352292724200      0.37157238624064
  C           0.02155993789683     -3.06027541769259     -0.34405378787601
  C           2.20191765925091     -2.79513530135976      0.61554805003747
  C           1.14481529960272     -3.61215669399881      0.24879351547644
  H          -0.02215040697987      0.98072781348541     -0.37518748745500
  H           1.66064036526542      1.08975071839688      0.21089320226180
  H          -0.46304462717837      0.88029332772232     -2.73569823821516
  H           0.51273783779115     -0.59974851034311     -2.86403973937253
  H           0.88469615407657      0.79451563992512     -3.88469397167822
  H           0.50536685250537      2.87676029122839     -1.70086451646487
  H           1.77699548548420      2.78750230217212     -2.93667579178576
  H           2.21523237831383      2.85083739713419     -1.22761661163316
  H           2.78609244028602     -0.60818483852771     -2.15166859587944
  H           3.48431718488175      0.77830249119030     -1.31817559291013
  H           3.18993516428521      0.85750489907163     -3.06124775526334
  H          -0.92789771135850     -1.27816832114216     -1.02476669257880
  H           2.97795737827148     -0.80521268473932      0.66614373452623
  H          -0.81013383266351     -3.69272495007367     -0.61258573180651
  H           3.07879232719800     -3.21069536978263      1.09174668177692
  H           1.19717286386402     -4.67382666488788      0.43812329443191
  Cl          5.11385000093985      0.96533057859445      0.96068117371528

53
Coordinates from ORCA-job R4N+PFOA-_0.15M E -133.636899863250
  C           4.16998342779289     -4.00588428266346     -2.71530345271174
  C           7.96926828887350      1.36201948122667     -0.53360305550388
  F           5.26384363349287     -2.35053622902429     -0.34594194192379
  F           5.97561782845268     -0.63165531109011     -1.42083449986300
  F           7.21645083472062     -1.57175241705730      1.08874071246416
  F           7.86788780431285     -3.27133510987476     -0.03852368628695
  F           5.91332614641352     -2.03603899784993     -3.40395794292147
  F           7.70656408877799     -2.97148814806181     -2.68333874060399
  F           9.56940482279609     -1.00315417662363      0.58148848409198
  F           9.62894999883879     -2.07819912226419     -1.26887925684032
  F           6.27303706970358     -4.94994851794713     -3.16601396383209
  F           5.77548408338493     -4.67371050897041     -1.09472065691549
  F           8.15861453040423     -0.18201688480941     -2.53693860629834
  F           9.98972283175865      0.51990038685324     -1.63048139164111
  F           3.62016265883605     -2.83738731400095     -2.41467591782005
  F           3.46706566104224     -4.95621256594865     -2.11903857034605
  F           4.04988159405065     -4.17271371504661     -4.02768121458110
  O           8.33622111695793      1.44759725485719      0.62598424399305
  O           7.23793118318147      2.00884745088812     -1.25399876027981
  C           6.30249013184540     -1.87384882819018     -1.06395453597099
  C           7.56069450366552     -1.94948745933532     -0.14850025390794
  C           6.42333657026539     -2.73284079686301     -2.37286029864371
  C           8.86607043358104     -1.20408194052175     -0.55083658050738
  C           5.67742991340500     -4.10540959500798     -2.30465702003692
  C           8.71903288782739      0.10789114610321     -1.32389945367509
  N           1.50548231989317      1.14029596965907     -1.67705156313188
  C           1.09092065695801      0.57729168624376     -0.35598038528596
  C           0.53024847207741      0.80155166104562     -2.72340262803421
  C           1.58980181268233      2.60308707851164     -1.54422885739666
  C           2.82853899347810      0.61632522827036     -2.05028850396905
  C           1.05388721455107     -0.92817433667356     -0.30620555026442
  C          -0.07816734938322     -1.63529793965370     -0.69838130089858
  C           2.15679222052736     -1.62508851064808      0.17642687049071
  C          -0.09501347279905     -3.01809338921311     -0.64335808296898
  C           2.13304752055794     -3.00813569937300      0.23848735287728
  C           1.01368903119756     -3.70787594530636     -0.18211751146415
  H           0.10535296453130      0.98080135853926     -0.11762328789697
  H           1.81644601628835      0.91926015070456      0.38581037368776
  H          -0.44662875825152      1.19739264751018     -2.45729229251486
  H           0.46946278310449     -0.27770955597577     -2.83420816246941
  H           0.84786588946968      1.23516569526082     -3.66820429828868
  H           0.63363727491231      3.00470944960449     -1.21783468029996
  H           1.86277417336416      3.04446813270553     -2.49949840688835
  H           2.35604849266568      2.86124375626385     -0.81554090218822
  H           2.77721740966399     -0.45664009279700     -2.21506788052168
  H           3.55509662133959      0.79515961968942     -1.25613329518405
  H           3.18677504351312      1.10230739821984     -2.95360044395032
  H          -0.95860074576663     -1.10930423476938     -1.03334963203761
  H           3.03330400930895     -1.08884855116041      0.51424045396602
  H          -0.97453345809265     -3.56014501195253     -0.95379374092639
  H           2.99965085981958     -3.53239676074141      0.61663488980373
  H           1.00884991047826     -4.78640908002934     -0.13923773128663
  Cl          5.11418312942898      0.58435757358769      1.17152200910349

53
Coordinates from ORCA-job R4N+PFOA-_0.15M E -133.636946213490
  C           4.36551322825210     -4.30372615688811     -2.58567352485628
  C           7.36887917696877      1.48752549491685     -0.54401360299568
  F           5.36435522307521     -2.84782475594108     -0.31921558252876
  F           5.64551338398317     -0.93435474634601     -1.25209097309310
  F           7.13302923656367     -1.76724031959386      1.14586697157387
  F           8.08566278522676     -3.21069900596261     -0.10720325127577
  F           5.95135898716163     -2.08598176740223     -3.38044818131102
  F           7.82230546856534     -2.87001467430723     -2.66837458213540
  F           9.22873651990592     -0.58831453925483      0.67798926458741
  F           9.60382390039966     -1.64505914075847     -1.14968484365488
  F           6.45564204117958     -4.85280145082629     -3.54004381765884
  F           6.31735743021198     -4.97151955558347     -1.39784430370195
  F           7.69627471732900     -0.12904446179451     -2.46326095494396
  F           9.44296855626724      0.86508538673029     -1.67407309398608
  F           3.78866746652519     -3.11717697410229     -2.43869141599617
  F           3.85547092602274     -5.12638814570733     -1.68352884013370
  F           4.02499144692496     -4.75592746317648     -3.78666599900303
  O           7.88228880647234      1.84345038563854      0.50102480225470
  O           6.41526142525889      1.84382663823170     -1.20309158049324
  C           6.25078647185859     -2.09442136188569     -1.01346135184946
  C           7.51891006562611     -1.97323702898003     -0.11921311102439
  C           6.50986780411624     -2.80156764244911     -2.39076416180513
  C           8.63826007302984     -0.95034024340135     -0.47855579733351
  C           5.93008480053454     -4.24920144249618     -2.45963326135757
  C           8.25865505102392      0.29085392074026     -1.28926459900429
  N           1.70655857533367      1.16143229670510     -1.70899216921964
  C           1.39045339309242      0.61543061075683     -0.35417310901906
  C           0.57897810925047      0.97003081064485     -2.63292177838373
  C           1.98282992618971      2.59990584474034     -1.56965048598598
  C           2.90209319442902      0.50013377113660     -2.25153848814073
  C           1.15875369063361     -0.87303602812033     -0.31864495451408
  C          -0.08358425102200     -1.42373123907176     -0.61677561197014
  C           2.19748176403639     -1.71360140062863      0.06719873063113
  C          -0.27210741963976     -2.79418212413753     -0.56972426912407
  C           2.00254768794505     -3.08291143543653      0.12670378894341
  C           0.77269380570384     -3.62703015111144     -0.20609885956807
  H           0.50614807008981      1.13714220247543      0.01577043852704
  H           2.24017859838778      0.83619272164678      0.29790733212758
  H          -0.31002388972609      1.45038057665259     -2.23218419644722
  H           0.39150132582658     -0.09140574818639     -2.76941481203511
  H           0.82200287296094      1.41272069482358     -3.59549285625440
  H           1.12550521356206      3.10592571315977     -1.13271179230582
  H           2.20345853084941      3.02856199680793     -2.54397176084848
  H           2.85056951405587      2.74661850093180     -0.92796351860056
  H           2.73113500453280     -0.56854193247302     -2.35519527138032
  H           3.75204371859820      0.64169052734994     -1.58386650215140
  H           3.15834353263830      0.92320336930041     -3.21874464236104
  H          -0.91591428226587     -0.78497236518606     -0.86756905298577
  H           3.15162257014957     -1.29064202434223      0.34965052756011
  H          -1.23714701709427     -3.21386556932369     -0.80704023083993
  H           2.81832660913487     -3.71865011293511      0.44061063389238
  H           0.63151345727596     -4.69625325645376     -0.16397214959891
  Cl          5.04397378248788      0.31140489717404      1.38701730327894

53
Coordinates from ORCA-job R4N+PFOA-_0.15M E -133.639044883190
  C           4.75722154324968     -4.69396661794980     -2.64966252078498
  C           6.75732167789804      1.62562368486512     -0.68233394512427
  F           5.38932948960442     -3.14216611986748     -0.44843986235408
  F           5.44630549006221     -1.18480195872933     -1.31440017221518
  F           6.96815550899375     -2.22222437824584      1.17511874274963
  F           8.26354081098581     -3.02641720466725     -0.29343944686001
  F           5.98933190885096     -2.21804957978974     -3.42967694768965
  F           7.94301688711839     -2.70552643397798     -2.68784632169972
  F           8.28834902340541     -0.17240101997860      1.12197029921155
  F           9.50002059885532     -1.05170241763790     -0.40392370095338
  F           6.88806566209862     -4.85164368243254     -3.66337802584799
  F           6.81749988291918     -5.06054176412621     -1.52292152254930
  F           7.47464786368010     -0.16347091445464     -2.30767052519940
  F           8.99280420222804      1.08304537198559     -1.42751203816796
  F           3.99919976749292     -3.60452074117212     -2.65267284159597
  F           4.37308001731340     -5.45845411466891     -1.63839394833309
  F           4.50090087332927     -5.35294286733761     -3.77340817754727
  O           7.21328461209010      2.32846748129452      0.19997628391719
  O           5.76675997249772      1.67025119289082     -1.38361148606101
  C           6.20436298333030     -2.24401062163501     -1.05623688047220
  C           7.39243703578265     -2.00155047024393     -0.07505787473799
  C           6.63200501778999     -2.85922685351718     -2.43935801417467
  C           8.21542262080824     -0.66897326750374     -0.12558115839920
  C           6.29391773143265     -4.37888202761496     -2.55380587635775
  C           7.82555555639340      0.42862546750814     -1.12471912717176
  N           1.88603358025784      1.15279617904142     -1.76421731332348
  C           1.78298787194928      0.61712116526656     -0.37352734527090
  C           0.56462183105551      1.19179783062701     -2.40943247590486
  C           2.43345484451362      2.51694799706333     -1.69345808034640
  C           2.79736684863491      0.32602018764101     -2.56791413382894
  C           1.29477123402757     -0.80591366103698     -0.28980212526156
  C          -0.06166527283657     -1.11464247089432     -0.30704652499106
  C           2.21898502208688     -1.83511008770300     -0.14940383440404
  C          -0.48135406005629     -2.43147810215891     -0.22846333749633
  C           1.79875057760975     -3.15129705652512     -0.06603633036448
  C           0.44741083611766     -3.45260187989006     -0.11884059209552
  H           1.11168901399197      1.27206305571307      0.18470558571184
  H           2.77757822100799      0.66529763579945      0.07992895377946
  H          -0.11922361972343      1.78919226739757     -1.81196702975975
  H           0.17573933916571      0.18230435436582     -2.51066794538190
  H           0.65834834006181      1.63788084977598     -3.39619272483084
  H           1.80586923808413      3.14298689412142     -1.06454249935622
  H           2.49186836392788      2.94100596607084     -2.69246849348980
  H           3.44083681077957      2.48869334083741     -1.27721828676313
  H           2.46365477291020     -0.70849943381283     -2.57669212998529
  H           3.79938117892389      0.36423365943596     -2.14299467674842
  H           2.84098503335839      0.70824695083373     -3.58389741291865
  H          -0.79759446872071     -0.32773016426500     -0.35959591445093
  H           3.26738325821809     -1.59079070012919     -0.06556902034735
  H          -1.53512523162555     -2.66169627786537     -0.24379942388747
  H           2.53362036802864     -3.93489775521926      0.05222540018208
  H           0.12354787150539     -4.47994322417887     -0.05482134728799
  Cl          5.24214253843488      0.04132443299492      1.22699059874033

53
Coordinates from ORCA-job R4N+PFOA-_0.15M E -133.637324948600
  C           6.52245988341127     -6.39564901415920     -1.52183702872892
  C           5.75810357596176      0.96530926687507     -1.28852883657662
  F           5.99313656195000     -3.46117160288845      0.24751460774501
  F           5.45049400657161     -1.95818873415442     -1.20883717845594
  F           8.11770807912456     -2.37998268952325      0.79063267871830
  F           8.73433387453368     -2.62735128931833     -1.24136973252065
  F           5.34055665539844     -4.19318694266946     -2.32626274116781
  F           7.13818978268830     -3.30310577307548     -3.07312382793381
  F           7.90962952442169      0.11995847765159      0.54831096009165
  F           9.31043721187922     -0.38385850094931     -0.96413655992233
  F           8.38635166431040     -5.30721722480477     -2.44694306971627
  F           7.98328082515611     -4.97213231684287     -0.35728826894396
  F           6.97113433484212     -0.66185611281702     -2.75000676050630
  F           7.97041022278598      1.18044683661405     -2.24362178850909
  F           5.49281728713763     -6.27574516451769     -0.69520938820476
  F           7.25845987240739     -7.42087036696516     -1.10962529121350
  F           6.05933474407575     -6.69585586905306     -2.72896689139408
  O           5.92900271978299      1.91832211302811     -0.55117669981376
  O           4.77978668223227      0.52571589399640     -1.86418031851172
  C           6.43399475720913     -2.76918307389209     -0.82025481669891
  C           7.77547676253539     -2.04637298521248     -0.46303788743649
  C           6.58976178581755     -3.82822919385315     -1.96956936052687
  C           7.98370315477533     -0.50224810772423     -0.63369163181185
  C           7.39732648614124     -5.10468244288677     -1.56007279125897
  C           7.16054638671528      0.21057758524126     -1.71275910539813
  N           1.62671784802730      1.89234076790187     -1.34956712798784
  C           1.89256685432356      0.76938409709018     -0.40110093877816
  C           0.20957069934278      2.28751094075565     -1.28804343621169
  C           2.46394732621573      3.03572143111560     -0.95548275657820
  C           1.94989876053075      1.50266347309880     -2.73008120744488
  C           1.24909777581133     -0.53761417827118     -0.78063879782449
  C          -0.04437766297904     -0.85241086073310     -0.37871996182970
  C           1.98030484948518     -1.47301080426323     -1.50553272656858
  C          -0.60554849418974     -2.07188076620079     -0.71766023657294
  C           1.42137849124935     -2.69536003197134     -1.83525345766073
  C           0.12442979720085     -2.99342175911417     -1.44878682794944
  H           1.55307529897337      1.07853041620424      0.58896774500246
  H           2.97298213868162      0.61267969826478     -0.35342309620080
  H          -0.04844496510619      2.58695601217394     -0.27537375990014
  H          -0.41601126177354      1.45083689000122     -1.58774536483891
  H           0.03791586585174      3.12328442787119     -1.96168832164958
  H           2.22212238137588      3.34502149149064      0.05847088699140
  H           2.30254496359870      3.86527729563853     -1.63905930625436
  H           3.51723965217925      2.75637265583604     -0.97857999602465
  H           1.30817882450017      0.68360650558714     -3.04369844370572
  H           2.98473663972836      1.17047322747540     -2.78119953992575
  H           1.81116012742323      2.35453152018474     -3.39033318789270
  H          -0.60977081558947     -0.15640960276315      0.22172569881295
  H           2.99920411218637     -1.24615172122497     -1.78589444958495
  H          -1.60929406057710     -2.30825214233637     -0.40063901680442
  H           2.01020232918054     -3.41597738918989     -2.38391277861178
  H          -0.30701869522229     -3.94859433827826     -1.70546612319813
  Cl          5.41135545760571     -0.83169792814288      1.39105470938741

53
Coordinates from ORCA-job R4N+PFOA-_0.15M E -133.640604620770
  C           5.63426482069624     -5.85200098350141     -1.54339181579475
  C           5.87036769895287      0.50771811753749     -2.22517448758522
  F           5.96982056548247     -3.44892511774039      0.44412499229329
  F           5.14114119277610     -1.70056376721707     -0.49251201922015
  F           7.94263930320696     -2.13787737533348      1.00058472680595
  F           8.49506962043987     -2.29231946523267     -1.04760102502735
  F           4.89271318600653     -3.39945335797364     -2.31340074722609
  F           6.84768177415389     -2.69497073556820     -2.85355714953777
  F           6.57917780194211      0.29631171955722      0.43074553731929
  F           8.71935303086322      0.13697801957013      0.22830425330772
  F           7.38392202679315     -5.08153170073975     -2.89193987882524
  F           7.64727771599243     -4.86099524275476     -0.77048798262023
  F           8.16892515113324     -0.34489098017046     -2.63916574006268
  F           8.01157969667123      1.59259861349941     -1.69731482494955
  F           4.72657179039017     -5.50962755425352     -0.64063883319649
  F           6.19107621593943     -6.99203569854728     -1.15389848630064
  F           5.00140614036802     -6.08529003085896     -2.68825497663628
  O           5.37204726457012      1.58677880252877     -1.95800832358447
  O           5.42549731317281     -0.49289378442742     -2.76715303378348
  C           6.18336891641610     -2.53573749007440     -0.52430443801865
  C           7.52965205684161     -1.80055133755014     -0.23253681895584
  C           6.16408150154528     -3.31711297206474     -1.88586178972229
  C           7.54148412140886     -0.24781958766593     -0.33607023176182
  C           6.73772546902391     -4.76785195324454     -1.75429606054792
  C           7.42351326943029      0.36303922496875     -1.74677888630957
  N           1.89193649514475      1.69365287338732     -1.39024639481911
  C           2.37581025277655      0.54658597686510     -0.56705071612251
  C           0.44814274584440      1.89620215148188     -1.18650081167270
  C           2.61256335689528      2.90677928713260     -0.97198023243450
  C           2.14893776552788      1.45210510212089     -2.81702591968801
  C           1.71899702507811     -0.77011033038252     -0.88890643145453
  C           0.57794671884339     -1.17825260638571     -0.20615914786105
  C           2.26873808197164     -1.61293872157754     -1.84846676402419
  C          -0.01197377719589     -2.39764806656847     -0.48918444147799
  C           1.68106784795720     -2.83515422529722     -2.12681918883416
  C           0.53689723050722     -3.22729267783410     -1.45230553087481
  H           2.20903925666542      0.78631717766731      0.48460566995177
  H           3.45337269745763      0.45126343127188     -0.71582739472951
  H           0.24800231409862      2.08757776761254     -0.13541521402998
  H          -0.09680642589999      1.00879084987404     -1.49798762334081
  H           0.11616945697066      2.74770429222728     -1.77488971108816
  H           2.45364993085196      3.09012859856364      0.08754014159047
  H           2.25904231918932      3.75844540962161     -1.54727346543958
  H           3.67964366048587      2.77765385554557     -1.14555822465735
  H           1.61268707628548      0.56703057317626     -3.14902352737118
  H           3.21449166811280      1.29443042724844     -2.97402579372035
  H           1.82990476574838      2.31479849316763     -3.39582213917583
  H           0.15919840431438     -0.55234858114467      0.56678516877629
  H           3.17624821778486     -1.32720759058244     -2.35976027873210
  H          -0.89389000806909     -2.70553720858505      0.05051458109158
  H           2.13274593433297     -3.48246301462957     -2.86323624182697
  H           0.08483836092123     -4.18283192187304     -1.66835126548393
  Cl          5.36684206308146     -1.41080458854663      2.67925538888930

53
Coordinates from ORCA-job R4N+PFOA-_0.15M E -133.640766722010
  C           5.79625943295587     -5.87013027122973     -1.92220004926361
  C           5.84260615257398      0.52704378628529     -1.82761315714722
  F           6.22797267226994     -3.71672902381744      0.31963380059445
  F           5.29673268483425     -1.89040753634992     -0.33379339021693
  F           8.21263014415387     -2.42607528132622      0.88837311051466
  F           8.60888514251237     -2.31453698338671     -1.19859058914935
  F           4.94279881769328     -3.36528072292434     -2.32012159909168
  F           6.83346978623200     -2.54125216730747     -2.91563824086518
  F           6.77581797959116      0.02293586611704      0.73311771873207
  F           8.89234641803524     -0.05532455616508      0.33158465774904
  F           7.42176470282450     -4.88544253525350     -3.28588927381404
  F           7.83841571709633     -4.91907164588324     -1.17782830385502
  F           8.11705103148292     -0.19660301623486     -2.51067147003349
  F           7.98966541232306      1.60609773942422     -1.32868151834480
  F           4.94469362104000     -5.66609545938752     -0.92735893163797
  F           6.40540705678293     -7.02988665472780     -1.71048068227450
  F           5.09049991881455     -5.98608033369331     -3.04238436888832
  O           5.34068210242332      1.55169325778252     -1.40007132595522
  O           5.37903302531556     -0.40982683757651     -2.46155941293866
  C           6.35003827211521     -2.68596581209468     -0.54055437645750
  C           7.69938878459823     -1.95350507401258     -0.25941180060283
  C           6.24242986873332     -3.29673635033934     -1.98302608386679
  C           7.67499410462502     -0.40002288328358     -0.17315896216989
  C           6.85600892528274     -4.73411062124995     -2.07449209780237
  C           7.42796233253871      0.37300210439191     -1.48352325103587
  N           1.79163646934438      1.73390011283804     -1.57344071863378
  C           2.14395301896137      0.75319536161446     -0.50444287616080
  C           0.33621787809192      1.95138025476560     -1.61018980488134
  C           2.46209802247708      3.00928977894293     -1.27279956025019
  C           2.23974391172560      1.25156159162806     -2.88728899740876
  C           1.53906881752535     -0.61316827586199     -0.69465152620876
  C           0.30819146809983     -0.92877401750659     -0.12858653439754
  C           2.22238998096493     -1.58876097745943     -1.41216651126347
  C          -0.23721745765003     -2.19004759828382     -0.29137925605833
  C           1.67806126735166     -2.85165451452960     -1.57049726950845
  C           0.44541311756836     -3.15297610717256     -1.01523643576508
  H           1.81538000013009      1.16606702961880      0.45069088592943
  H           3.23229148781194      0.66029590038690     -0.47817071731587
  H          -0.00486056801342      2.32632996915714     -0.64868764806737
  H          -0.17184735360647      1.01602735155609     -1.83020400437757
  H           0.09874774905366      2.67880282834086     -2.38212456912975
  H           2.14328499780659      3.37882570420458     -0.30169636900244
  H           2.21753177778125      3.74107193073016     -2.03822925612641
  H           3.54070903597928      2.86103616131117     -1.25200964540929
  H           1.72507368491970      0.32911759847539     -3.14333520770161
  H           3.30940292246063      1.05143827640187     -2.86315653528343
  H           2.03774171547024      2.00600795387831     -3.64294757390944
  H          -0.22038287976507     -0.19426342361929      0.45924915215160
  H           3.19389805596483     -1.37046078953412     -1.83070773977616
  H          -1.19064638146468     -2.42568258563959      0.15494708542711
  H           2.23066446510085     -3.59904009511226     -2.12029379243454
  H           0.02793728432441     -4.14050203128328     -1.13680523947449
  Cl          5.73256448463674     -1.97885427930500      2.80679671435762

53
Coordinates from ORCA-job R4N+PFOA-_0.15M E -133.641038103110
  C           5.82755919954680     -5.73455191973174     -2.37058846586185
  C           5.82849616365400      0.57724491443085     -1.38142800595891
  F           6.47060147828162     -3.97897683145501      0.08951094985054
  F           5.39478035840191     -2.13576146591345     -0.16403860443185
  F           8.40859011099791     -2.67961349180693      0.75131657974588
  F           8.65941474903537     -2.22451482117490     -1.30836610447607
  F           4.95212328946296     -3.19079736583032     -2.36946575481812
  F           6.81171461213271     -2.27647479758423     -2.93442506378301
  F           6.81454940111515     -0.30761084789525      1.03767061253446
  F           8.92766693450594     -0.23436562232069      0.61089249719376
  F           7.29715593781712     -4.53713466529754     -3.73935139548804
  F           7.94271057851942     -4.86672671266972     -1.71753003334233
  F           8.09584028495723      0.05986094874128     -2.21548447726134
  F           7.95286643802984      1.63655964368949     -0.74756137020548
  F           5.02705419472814     -5.64730133740249     -1.31744705011198
  F           6.45478237556275     -6.90216215077072     -2.31524039558705
  F           5.06173853230492     -5.74040849380068     -3.45711714516126
  O           5.32082699301548      1.59271332116697     -0.93993707351625
  O           5.35903514950980     -0.36198046264913     -2.01088332116790
  C           6.46729163357055     -2.80994695540343     -0.58480775739653
  C           7.79997764642330     -2.05868056993470     -0.27256352325676
  C           6.26940412198840     -3.17234018093460     -2.10140219109636
  C           7.71808020750046     -0.54183833231213      0.06764074134109
  C           6.86673183479949     -4.57268603295275     -2.46452089402279
  C           7.42092910209461      0.43031632634693     -1.09161811359609
  N           1.75980977769098      1.67097251307799     -1.80688325893917
  C           1.98283712361514      0.92857112625852     -0.53097349739550
  C           0.32128385257553      1.88379241666515     -2.03332717005347
  C           2.43192567465309      2.97633430917347     -1.70124143655549
  C           2.32045792071605      0.92750340765494     -2.94418709663842
  C           1.41325664975465     -0.46591520020573     -0.51875951751379
  C           0.11888008570918     -0.70391207135952     -0.06842030327768
  C           2.19558617044777     -1.54072774612391     -0.92733584062389
  C          -0.38910949867782     -1.99092598015340     -0.04355410441558
  C           1.68838065418181     -2.82809716361746     -0.89726718910321
  C           0.39351418536587     -3.05471418307682     -0.46011404594448
  H           1.53853584287490      1.51304759697033      0.27618867188953
  H           3.06114273297855      0.87135925959347     -0.36406828462794
  H          -0.10221307257839      2.45084728318948     -1.20843906160423
  H          -0.18600042712904      0.92538126114688     -2.10788032221129
  H           0.17822213943742      2.43714354008616     -2.95789102171447
  H           2.01824482140145      3.54244250530644     -0.87074515557912
  H           2.29740408824929      3.53524331289718     -2.62357429079398
  H           3.49681141869254      2.82952107833118     -1.52403787192490
  H           1.79484151096192     -0.01543872507700     -3.07144835970597
  H           3.37194480303582      0.70580586586056     -2.76831837709534
  H           2.23077399593116      1.52063679774834     -3.85032376147646
  H          -0.49118724062986      0.11363066317118      0.28344409646899
  H           3.21256826284543     -1.37722234901403     -1.25193790888835
  H          -1.39279606104726     -2.16734521021053      0.31029085210481
  H           2.31751404167116     -3.65065552276430     -1.20558946014612
  H           0.00459681548657     -4.06095209458590     -0.43305398865123
  Cl          6.11745348372970     -2.68129669117773      2.88448951579086

53
Coordinates from ORCA-job R4N+PFOA-_0.15M E -133.643493975080
  C           5.46246152974514     -5.32680227044311     -2.73972532931056
  C           5.89705674669826      0.69894710757606     -0.73904249431449
  F           6.94319086697990     -4.09818331159901     -0.82339791132604
  F           5.39174945687876     -2.74813071844199     -0.20838013599973
  F           8.68629159883417     -2.65646546996001     -0.17573361618127
  F           8.12371426408696     -1.18647533387799     -1.57959580919201
  F           4.65697499941666     -2.52756000335809     -2.48654426431071
  F           6.52306515884215     -1.77184823622488     -3.21298429897709
  F           6.28002250004755     -1.14027558557087      1.37173236187115
  F           8.43235492724602     -0.94343518796884      1.49429425347478
  F           5.88804408313748     -3.85454202227864     -4.53134075800951
  F           7.56453050616401     -4.34142162824799     -3.28002144903200
  F           8.33624704037762      1.03655391162088     -0.45506552868072
  F           7.10457409467805      1.37989705876422      1.28192963366678
  F           4.63793149927976     -5.04786881458769     -1.73649193489168
  F           6.28988195740581     -6.28696342044875     -2.35678183665517
  F           4.71363057183637     -5.81758013571326     -3.72490457566546
  O           5.32926165882359      1.77503543530788     -0.76941732827132
  O           5.61647553200095     -0.37550336693629     -1.27602808181152
  C           6.48076457752411     -2.83078382043943     -0.97277709807813
  C           7.64240286930492     -1.87585479466104     -0.51862954506309
  C           5.98200899334464     -2.74508971400224     -2.46915891610886
  C           7.37959452809829     -0.86554701187044      0.64728768464941
  C           6.24945638876232     -4.07279758923009     -3.25118541386177
  C           7.21270373649751      0.59430513047232      0.17349453300895
  N           1.97691076643255      1.30708449763200     -2.22028677345159
  C           1.98800000351345      1.09838319113758     -0.74229595806952
  C           0.59674257359018      1.29587211695721     -2.73111122655692
  C           2.58694591784611      2.61797738246188     -2.49832152398869
  C           2.74985179478453      0.26057560174396     -2.90366074792384
  C           1.49337130787568     -0.25552626253537     -0.30468325575732
  C           0.14537159911281     -0.47533758451423     -0.03983223600562
  C           2.39448600389231     -1.30026163400852     -0.13039022265171
  C          -0.29369717653992     -1.72260049939264      0.36825082240160
  C           1.95586442813364     -2.54772326556803      0.27869642356476
  C           0.60900088747484     -2.76197200570039      0.52301771675105
  H           1.37175298095135      1.87906970580335     -0.29344372264946
  H           3.01812964592453      1.22421189799906     -0.40200927378883
  H           0.01607080241338      2.07493897753374     -2.24395644806223
  H           0.13989512919845      0.32915074335123     -2.53636490497863
  H           0.60535493844429      1.47508649395020     -3.80314641771808
  H           2.01774464968007      3.40440651335843     -2.00959254311055
  H           2.60484715627552      2.79582540826647     -3.57024982028637
  H           3.60777045393164      2.63678725999206     -2.11824930104685
  H           2.29886078104115     -0.71500019252291     -2.74008660107366
  H           3.76629072032809      0.22329086935737     -2.51567203617842
  H           2.78902200629346      0.46830741954108     -3.96942223015867
  H          -0.56474577598892      0.33140492641206     -0.13412787541624
  H           3.45044871196553     -1.14805913705113     -0.30026514002099
  H          -1.34016518149681     -1.88554548582197      0.57305195066638
  H           2.68028702794678     -3.33894307933863      0.41186133494212
  H           0.27197009122489     -3.73531277437028      0.84507754702656
  Cl          7.09382874963881     -3.88984919625424      2.18397677411165

53
Coordinates from ORCA-job R4N+PFOA-_0.15M E -133.643387976960
  C           5.49024174048602     -5.46933659861033     -2.46018317001970
  C           5.80692504665512      0.61462596808802     -0.58749044928869
  F           7.09111585779957     -4.08241819580134     -0.75088993898887
  F           5.59456306173838     -2.75936714102347      0.01608229887757
  F           8.86579910651774     -2.54815264292659     -0.55852550152448
  F           7.96479877684477     -1.09232103417546     -1.79147902801290
  F           4.52482399803723     -2.74486606328551     -2.14720995556635
  F           6.19568832196986     -1.86401784386303     -3.14560928412317
  F           6.76763819876770     -1.24558930153573      1.48072761495325
  F           8.85907430806555     -0.81430324097759      1.12659703063930
  F           5.60702749645913     -4.03135992123657     -4.32530654214724
  F           7.44426650396660     -4.36194305497835     -3.26257411788297
  F           8.21115478738762      1.15265968611257     -0.63007565315855
  F           7.21957470096233      1.34547373123976      1.27812128521510
  F           4.79772678298552     -5.21740535341128     -1.35466805629308
  F           6.41729085329923     -6.37304242741117     -2.18440509327599
  F           4.64166862924033     -6.01924330958576     -3.32557099850574
  O           5.19351379606843      1.66496767167891     -0.54997797538081
  O           5.51722612342399     -0.47121487322247     -1.09313003411291
  C           6.56103685123772     -2.84233475314789     -0.90219290281647
  C           7.73573367391470     -1.82362654546345     -0.67692124002579
  C           5.85247388133133     -2.85428324571013     -2.31261265576310
  C           7.63980270841319     -0.84518659138213      0.53865828811049
  C           6.12502013916513     -4.18311608301976     -3.09049678092426
  C           7.23832274417261      0.59248556338502      0.14290131603985
  N           1.96839720559080      1.41057660940897     -2.18862341541140
  C           1.90012551749031      1.10660711342821     -0.72790441298630
  C           0.61700591947814      1.45348244374462     -2.76946354465557
  C           2.60889876875755      2.72614653297944     -2.35008474464266
  C           2.76212612706088      0.39484102942700     -2.89519329376815
  C           1.38084797478659     -0.27021681365907     -0.40403580381594
  C           0.01951696791069     -0.49876775498026     -0.22997295616214
  C           2.26868029547703     -1.32874078705683     -0.24248794910200
  C          -0.44523873579572     -1.76623684399796      0.07441440880041
  C           1.80365253560980     -2.59649082729653      0.06192302791783
  C           0.44468601083052     -2.81842033215433      0.21488968454132
  H           1.26181483159934      1.85974219399483     -0.26324457049679
  H           2.91127635911416      1.20615402020143     -0.32729938854497
  H           0.02359732522487      2.21409290795645     -2.26862097606645
  H           0.13559839963859      0.48580997112342     -2.65473591514087
  H           0.68400513158455      1.69333376531777     -3.82752621866582
  H           2.02897570078856      3.48806848479977     -1.83569975042231
  H           2.67869052755257      2.97505435555896     -3.40567275889074
  H           3.61096583919770      2.70171153590178     -1.92366572412457
  H           2.28185355477556     -0.57811833247339     -2.82456219774365
  H           3.75270836898182      0.30927956134585     -2.45196318977719
  H           2.86962585432657      0.67219128475743     -3.94030586588788
  H          -0.68241793451305      0.31630938020045     -0.31385472510075
  H           3.33287925575497     -1.17259817747106     -0.34342695681678
  H          -1.50221786928776     -1.93503072683927      0.20853811571534
  H           2.51543088670243     -3.40075195837733      0.18388177432875
  H           0.08687797797719     -3.80789367038278      0.45476194707868
  Cl          8.17373019437492     -3.94936726889381      2.19446339531592

53
Coordinates from ORCA-job R4N+PFOA-_0.15M E -133.642528130560
  C           6.26608685220187     -5.81372141396573     -2.34047323527726
  C           5.64102669347535      0.45029349897874     -0.23107729582979
  F           7.39907261156765     -4.17364261680529     -0.45906432806386
  F           6.08467124589298     -2.93907095751725      0.69677199340940
  F           8.72776219600494     -2.41642396716306     -1.36172823993794
  F           7.08642233335288     -1.24805119852334     -2.01751045777068
  F           4.50806916952987     -4.02061664959201     -0.87195556823327
  F           4.91264777012552     -2.33236081135028     -2.10903040385050
  F           7.59436326680441     -1.17133227352007      1.40496088392423
  F           9.26641542201562     -0.61989387300852      0.14803177472993
  F           5.05961861130517     -4.27778063174502     -3.66322035830007
  F           7.11078354092911     -3.79008077132597     -3.23955254014860
  F           7.78799750956758      1.11969262327149     -1.24388725426861
  F           7.59994626249249      1.42213824226993      0.88809772760869
  F           5.81931951181855     -6.16345036664039     -1.14155977150322
  F           7.55928581104577     -6.08861425844538     -2.41046501391368
  F           5.64553012515790     -6.59158404011182     -3.22471338541115
  O           5.04358338412095      1.50361386255514     -0.34969846301110
  O           5.24898107123961     -0.71361359489655     -0.19591423864769
  C           6.63735031770562     -3.05398757410004     -0.51170651655620
  C           7.58017617942256     -1.86915416936194     -0.91862751275281
  C           5.49503627386672     -3.39209742636242     -1.53575188658459
  C           7.92323117247861     -0.79109097455336      0.15858709194756
  C           5.99658272148889     -4.30966193721014     -2.69656945985890
  C           7.24923863520990      0.57074683638389     -0.11719059747690
  N           2.01511932429224      1.59956922166767     -2.09210425697887
  C           1.77737324209647      1.14703590611311     -0.68901352975218
  C           0.73775544152688      1.76377527552305     -2.80514643577544
  C           2.71014816235819      2.89631106718577     -2.04648914201706
  C           2.84610171200156      0.62734183881960     -2.81587343865746
  C           1.12336936985387     -0.20587933638832     -0.57689427657184
  C          -0.26241954697959     -0.32883124266583     -0.56136192563921
  C           1.90472347540481     -1.35040122043933     -0.45328017029901
  C          -0.85538389575797     -1.57464204325707     -0.45306093844862
  C           1.31035396715435     -2.59614039140597     -0.34337178524388
  C          -0.07041935941895     -2.71096538667984     -0.35126459632051
  H           1.15345526332914      1.89778065393531     -0.20154818059490
  H           2.74840795275996      1.11680867752812     -0.19037880212934
  H           0.11645674817301      2.48941187357213     -2.28661443763510
  H           0.21603021751444      0.81165858155092     -2.85467567445938
  H           0.92864652666917      2.11659788419485     -3.81540067254957
  H           2.10261210252458      3.62569888908952     -1.51727774743860
  H           2.89888733624689      3.24831174969969     -3.05720574019655
  H           3.66070591612858      2.78586194382764     -1.52757107374243
  H           2.33379168334125     -0.32863236440427     -2.88864360901140
  H           3.78495156944910      0.46712565549837     -2.28987927107532
  H           3.06498847634666      0.99845760921022     -3.81339593721879
  H          -0.88542195904190      0.55030742149669     -0.61644062420038
  H           2.98212822541937     -1.27021540462386     -0.42340162335450
  H          -1.93068060868070     -1.66077902064015     -0.44160715155262
  H           1.93374495796434     -3.47313540543634     -0.24352429315737
  H          -0.52844704844286     -3.68424827052370     -0.26449872095457
  Cl          9.79442313884620     -3.63058762340850      1.60146756225172

53
Coordinates from ORCA-job R4N+PFOA-_0.15M E -133.630001307490
  C           7.28136642530768     -6.18851533805736      0.58964265034210
  C           5.15412120107808      1.26224118091596     -2.87267554997515
  F           5.66885259145525     -2.14762343113177      1.17379615074707
  F           4.67287701881633     -2.21987201177072     -0.71774762061610
  F           7.97191986741771     -1.58721890222186      0.22571824157738
  F           7.54471156839841     -2.29781548374014     -1.77414847572445
  F           4.89655988935905     -4.59068584295402      0.37908987162721
  F           6.00166018799475     -4.44862360862037     -1.47146300518077
  F           5.59732866059454      0.16696344303798     -0.24426520497224
  F           7.60141161802123      0.60021437116188     -0.89826060145186
  F           8.34840179646968     -4.18358155736252     -0.11854339940058
  F           7.26664338317432     -4.11673571765108      1.78351800225831
  F           5.43671478097925     -1.22449405097838     -2.95072545382895
  F           7.20435647215041     -0.02560984496544     -3.34883747965630
  F           6.24082410239566     -6.69158680618050     -0.09809350626575
  F           7.15093889608805     -6.64038332260821      1.82323484623879
  F           8.35912493605003     -6.69225612797709      0.02069829619101
  O           5.39577421523787      2.18770891028777     -2.12186103666891
  O           4.45055909748725      1.12217549630065     -3.85276765241733
  C           5.83836696386692     -2.51632685549584     -0.10779329334517
  C           7.00604875516410     -1.67743291281895     -0.70970266611802
  C           6.00248302111707     -4.06514179541975     -0.18457612098700
  C           6.56250377556494     -0.22914388718641     -1.10353514028806
  C           7.26667068905237     -4.62106311724084      0.54165514099462
  C           6.08791752471457     -0.08786806965682     -2.56507368103136
  N           2.21346996528163      1.59685073464907     -1.08664091461521
  C           2.60719987235380      0.17794004490080     -1.30167928027966
  C           0.88715349239381      1.60399738624499     -0.42369908465484
  C           3.15204224215849      2.26358366188512     -0.16948382745263
  C           2.07658176605351      2.36440037497318     -2.33154689875814
  C           1.63366666493235     -0.63144986754657     -2.12149116198561
  C           0.65887293216881     -1.40251639065149     -1.49677376941925
  C           1.72722740243859     -0.65132728040056     -3.50869246629902
  C          -0.22440747052942     -2.15897914431054     -2.24672557680418
  C           0.84158219930712     -1.40823448736490     -4.25706877564600
  C          -0.13931795145571     -2.15740559781045     -3.62893057163291
  H           2.72566771703066     -0.28353628551086     -0.31979296508074
  H           3.57495509428706      0.15822972691372     -1.79320907845785
  H           0.94232999299209      1.06456222722958      0.51808254303680
  H           0.14868155943549      1.12942766153806     -1.06438775713281
  H           0.58282356117972      2.62844522283288     -0.22768405628452
  H           3.26446019896675      1.68172550605300      0.74139978068076
  H           2.77408511095229      3.25267373377143      0.07470336775746
  H           4.13033723880682      2.37457890625977     -0.62671054189559
  H           1.35127058402390      1.88359466969731     -2.98272128849491
  H           3.02238046425451      2.42773843334495     -2.85852430063871
  H           1.74561556584390      3.37204626309478     -2.09548686506175
  H           0.59693751291812     -1.42593363907712     -0.41982418488143
  H           2.50817327505643     -0.09191373247672     -4.00165572519423
  H          -0.97524593866897     -2.75477140910313     -1.75169228326356
  H           0.92670549621127     -1.41707496023257     -5.33279564055604
  H          -0.82591925914629     -2.74819279821693     -4.21522531590729
  Cl          9.91913435269709     -5.31793158205318      2.16926977837319

53
Coordinates from ORCA-job R4N+PFOA-_0.15M E -133.588253996280
  C           9.99588124329394     -4.81105286981869      0.59641458457797
  C           4.16647733535974     -0.34877986056844     -3.34890499478612
  F           5.78971651951005     -5.34053163265757      0.68729281478076
  F           5.38510536049267     -4.15051721342817     -1.03743303614082
  F           5.00757273959938     -3.50463351974478      2.01573575868449
  F           6.90173491168545     -2.55667569582686      1.65469129982577
  F           7.71222676069191     -4.83611721944130     -1.55384527722181
  F           8.19671145788979     -3.05820779656288     -0.44184246726050
  F           3.86281528750756     -2.27690770623288     -0.10991658367132
  F           4.67293274113905     -0.99870869149653      1.41692179696299
  F           8.08634752217471     -4.82795394138702      1.94168365769895
  F           8.20397802561883     -6.42472802562562      0.52663619335892
  F           6.19648710656901     -1.81894552848057     -1.68453830994514
  F           6.92880570448790     -0.48171434278498     -0.06656216847258
  F          10.42088024758454     -4.49767640111596     -0.61289667178525
  F          10.72471669624601     -5.79358715053841      1.09661333421292
  F          10.23118409372251     -3.73655297451270      1.36759915728080
  O           4.84234863903504      0.25242100908829     -4.05381257231398
  O           3.56560676899809     -1.12306466535765     -2.75224899505972
  C           6.13933714593386     -4.18756127262161      0.07445784055339
  C           5.79301037491424     -3.00420843325730      1.02714180055594
  C           7.64461877065727     -4.28090679830610     -0.33534110402028
  C           5.04212600409086     -1.79741166591537      0.37345107571823
  C           8.47187872184616     -5.12752005056683      0.67645420917718
  C           5.71859318041696     -0.91445694648142     -0.68162503451690
  N           2.70197304789819      1.66359862436879     -2.35764283935781
  C           1.97962370567815      0.78787913138812     -1.37221727305728
  C           2.15859878399922      3.04926862050705     -2.15850984306303
  C           4.11768783401082      1.79619677032929     -1.94577564726956
  C           2.34995671225693      1.39102332010144     -3.77026666305450
  C           0.54254823841732      0.50953934184868     -1.73297079661350
  C          -0.48144997317875      1.33994633506017     -1.28922185746899
  C           0.21921741590844     -0.61660630420342     -2.48307750844207
  C          -1.79826313987584      1.06997951191071     -1.62076574483718
  C          -1.09730206604415     -0.88590123514574     -2.81370566431351
  C          -2.10786142937911     -0.03725423852748     -2.39210938056508
  H           2.02652963371580      1.28918385743155     -0.40457731932998
  H           2.50439268183521     -0.15964734992235     -1.26785139701353
  H           2.32303832473652      3.38498210604255     -1.13846405677297
  H           1.09105723919519      3.06899494658288     -2.35832837152180
  H           2.66457695628626      3.73033648585091     -2.83775986709911
  H           4.16563566295225      2.44021145899049     -1.07034599090486
  H           4.70691217289242      2.24914912159367     -2.73876628262528
  H           4.58714621693251      0.86085259871751     -1.63289767857182
  H           2.26778119088784      0.33772765991849     -4.01089833874399
  H           3.07478957390922      1.86109903349279     -4.43018762631459
  H           1.36808667652482      1.81627485980525     -3.96910557904421
  H          -0.25973754779786      2.18798212287222     -0.65999057578205
  H           0.99749673957549     -1.30164281011800     -2.78625250504765
  H          -2.58465734227816      1.72008615209914     -1.26998767179085
  H          -1.33431006597619     -1.76496113940098     -3.39350792707218
  H          -3.13385929423549     -0.24988528662940     -2.65019467626983
  Cl         10.10389977158706     -7.27456220502315     -1.58245077474673

