25
Coordinates from ORCA-job FHEA_0.15M E -1754.588281384838
  F       0.784998      2.396928     -0.541295
  F      -0.543853      1.265934     -1.833459
  F       1.941245      0.435166     -1.819084
  F       0.533936     -1.048641     -1.082441
  F      -1.638276      2.397580      0.334920
  F      -0.293410      1.310322      1.655581
  F      -1.335683     -1.034189      0.918538
  F      -2.766794      0.422392      1.659739
  F       1.410358     -0.841266      1.383291
  F       2.511082      0.994850      0.968702
  F       4.231525     -0.303400     -0.605000
  F       3.041225     -2.107477     -0.562937
  F       3.953269     -1.365296      1.248021
  O      -5.192666     -0.465837     -0.198384
  O      -3.846404     -2.248024     -0.224283
  C       0.105786      1.243250     -0.656940
  C      -0.958431      1.244199      0.486159
  C       1.164076      0.091249     -0.775291
  C      -2.006474      0.093136      0.576155
  C       2.095221     -0.169186      0.450812
  C      -2.876291     -0.106458     -0.638314
  C       3.367540     -1.010301      0.110003
  C      -4.077242     -1.021107     -0.323274
  H      -2.271007     -0.557608     -1.422505
  H      -3.228529      0.866344     -0.973652
25
Coordinates from ORCA-job FHEA_0.15M E -1754.590030691196
  F       0.796172      2.417973     -0.547149
  F      -0.552186      1.283421     -1.846915
  F       1.956275      0.444848     -1.825707
  F       0.518723     -1.042773     -1.103479
  F      -1.650796      2.415604      0.329967
  F      -0.283377      1.329425      1.659221
  F      -1.315070     -1.032954      0.917999
  F      -2.772739      0.422609      1.661694
  F       1.379610     -0.862264      1.376869
  F       2.497848      0.989385      0.987611
  F       4.238375     -0.298922     -0.585511
  F       3.030100     -2.111776     -0.586279
  F       3.931952     -1.398015      1.261295
  O      -5.188307     -0.480436     -0.183759
  O      -3.818554     -2.263362     -0.187229
  C       0.106221      1.260125     -0.665163
  C      -0.957678      1.259859      0.484323
  C       1.161083      0.097518     -0.784666
  C      -1.999507      0.096683      0.574064
  C       2.080615     -0.176930      0.453109
  C      -2.866546     -0.110918     -0.642047
  C       3.358835     -1.020398      0.113060
  C      -4.065975     -1.035404     -0.315498
  H      -2.255135     -0.564284     -1.427408
  H      -3.224738      0.863548     -0.983340
25
Coordinates from ORCA-job FHEA_0.15M E -1754.587640678659
  F       0.782008      2.377460     -0.557444
  F      -0.559599      1.200817     -1.838209
  F       1.947697      0.389994     -1.831674
  F       0.554618     -1.109671     -1.031521
  F      -1.632251      2.387862      0.349478
  F      -0.282045      1.263807      1.676916
  F      -1.376642     -1.080685      0.902908
  F      -2.791987      0.410804      1.678563
  F       1.484940     -0.838547      1.426285
  F       2.539513      1.039627      0.951963
  F       4.281207     -0.238950     -0.626579
  F       3.117140     -2.088382     -0.567575
  F       4.045858     -1.316242      1.251992
  O      -5.263116     -0.385144     -0.240343
  O      -3.964987     -2.224521     -0.315763
  C       0.104391      1.204862     -0.654005
  C      -0.960026      1.213445      0.497177
  C       1.180150      0.057179     -0.759401
  C      -2.033007      0.076181      0.576050
  C       2.140407     -0.157135      0.460983
  C      -2.918326     -0.090519     -0.632816
  C       3.434323     -0.972642      0.107340
  C      -4.148581     -0.975527     -0.292435
  H      -2.331964     -0.561199     -1.429645
  H      -3.244520      0.899688     -0.967181
25
Coordinates from ORCA-job FHEA_0.15M E -1754.589995713507
  F       0.783656      2.382170     -0.546331
  F      -0.549254      1.219088     -1.841178
  F       1.954218      0.406325     -1.825009
  F       0.554864     -1.095140     -1.050750
  F      -1.635100      2.387275      0.344636
  F      -0.292994      1.260582      1.671088
  F      -1.377419     -1.077888      0.887854
  F      -2.798018      0.406223      1.656284
  F       1.466645     -0.852324      1.412710
  F       2.526869      1.025065      0.967739
  F       4.278045     -0.239640     -0.606758
  F       3.110826     -2.083028     -0.579842
  F       4.023684     -1.335987      1.253250
  O      -5.244883     -0.391653     -0.187468
  O      -3.929268     -2.220285     -0.209015
  C       0.106394      1.212641     -0.654472
  C      -0.963505      1.214251      0.489154
  C       1.179772      0.065867     -0.762541
  C      -2.033593      0.076264      0.558189
  C       2.129983     -0.163575      0.460829
  C      -2.911150     -0.092115     -0.655244
  C       3.423291     -0.977469      0.109771
  C      -4.139004     -0.981908     -0.323273
  H      -2.319294     -0.559035     -1.448227
  H      -3.239561      0.896858     -0.986336
25
Coordinates from ORCA-job FHEA_0.15M E -1754.588535791807
  F       0.819015      2.472148     -0.548735
  F      -0.549753      1.377989     -1.860572
  F       1.970649      0.505676     -1.816247
  F       0.465948     -0.958893     -1.192113
  F      -1.674876      2.461030      0.299563
  F      -0.271934      1.434556      1.638672
  F      -1.222165     -0.953709      0.980461
  F      -2.743669      0.467436      1.659339
  F       1.244448     -0.909810      1.306791
  F       2.427727      0.921490      1.042769
  F       4.195621     -0.347185     -0.508331
  F       2.932871     -2.113998     -0.658512
  F       3.774529     -1.529900      1.259493
  O      -5.107019     -0.591286     -0.193219
  O      -3.673339     -2.319706     -0.099100
  C       0.108294      1.328327     -0.679478
  C      -0.950572      1.326438      0.469185
  C       1.133820      0.146826     -0.811965
  C      -1.948981      0.133690      0.587648
  C       1.999654     -0.207093      0.440756
  C      -2.791932     -0.154294     -0.626668
  C       3.263094     -1.072360      0.111863
  C      -3.961479     -1.106478     -0.269883
  H      -2.155376     -0.618989     -1.383819
  H      -3.179373      0.790657     -1.012833
25
Coordinates from ORCA-job FHEA_0.15M E -1754.590133927120
  F       0.796576      2.405347     -0.531862
  F      -0.553343      1.269977     -1.832016
  F       1.939176      0.423128     -1.821412
  F       0.509440     -1.059417     -1.067794
  F      -1.651072      2.413839      0.336932
  F      -0.296845      1.318744      1.676568
  F      -1.349969     -1.032858      0.948523
  F      -2.809518      0.445870      1.648849
  F       1.427015     -0.867769      1.397302
  F       2.516099      0.997127      0.979474
  F       4.248022     -0.271961     -0.609528
  F       3.051940     -2.095321     -0.612295
  F       3.973959     -1.391379      1.231606
  O      -5.203059     -0.446760     -0.237395
  O      -3.855314     -2.248933     -0.171106
  C       0.103347      1.246620     -0.646805
  C      -0.965571      1.251382      0.495481
  C       1.156612      0.084714     -0.764793
  C      -2.018276      0.100063      0.575016
  C       2.101144     -0.177107      0.455625
  C      -2.864452     -0.117242     -0.651773
  C       3.380850     -1.006056      0.094146
  C      -4.083613     -1.018750     -0.322139
  H      -2.246284     -0.596112     -1.416636
  H      -3.201660      0.855415     -1.018906
25
Coordinates from ORCA-job FHEA_0.15M E -1754.590108005122
  F       0.788664      2.396532     -0.562905
  F      -0.545098      1.235881     -1.859005
  F       1.976556      0.429120     -1.823550
  F       0.556018     -1.073890     -1.089898
  F      -1.636655      2.391749      0.329488
  F      -0.277867      1.278272      1.650168
  F      -1.338778     -1.070687      0.868685
  F      -2.763217      0.396144      1.661752
  F       1.417588     -0.862085      1.389408
  F       2.498378      1.011503      0.988014
  F       4.278445     -0.245669     -0.555890
  F       3.094853     -2.077790     -0.590754
  F       3.968946     -1.371859      1.276177
  O      -5.231853     -0.413908     -0.146879
  O      -3.903299     -2.231799     -0.188111
  C       0.111076      1.227723     -0.672717
  C      -0.954761      1.224597      0.472575
  C       1.181607      0.080446     -0.778717
  C      -2.012250      0.076967      0.550675
  C       2.105773     -0.168674      0.459176
  C      -2.908209     -0.096801     -0.648103
  C       3.399827     -0.987582      0.125791
  C      -4.123775     -0.995355     -0.295179
  H      -2.327445     -0.559569     -1.451140
  H      -3.249320      0.889297     -0.974000
25
Coordinates from ORCA-job FHEA_0.15M E -1754.590193066902
  F       0.792882      2.405388     -0.548840
  F      -0.549827      1.258048     -1.846544
  F       1.958500      0.429255     -1.822608
  F       0.529149     -1.061289     -1.083411
  F      -1.645125      2.406418      0.332492
  F      -0.286337      1.304467      1.661931
  F      -1.335930     -1.046762      0.911242
  F      -2.783664      0.422606      1.655916
  F       1.412955     -0.866900      1.389459
  F       2.503801      1.000719      0.987075
  F       4.261548     -0.261569     -0.575301
  F       3.066148     -2.085398     -0.608253
  F       3.959525     -1.393122      1.254134
  O      -5.212803     -0.437241     -0.193827
  O      -3.869024     -2.243702     -0.171089
  C       0.107026      1.241929     -0.661058
  C      -0.959645      1.242608      0.483033
  C       1.167316      0.086125     -0.773467
  C      -2.011315      0.090697      0.563413
  C       2.098315     -0.174237      0.456946
  C      -2.881517     -0.109771     -0.649427
  C       3.383842     -1.000448      0.110237
  C      -4.097093     -1.011631     -0.305890
  H      -2.280544     -0.581550     -1.432195
  H      -3.222979      0.867921     -0.998904
25
Coordinates from ORCA-job FHEA_0.15M E -1754.590195564941
  F       0.792651      2.407112     -0.549175
  F      -0.551443      1.260718     -1.846264
  F       1.959104      0.433342     -1.822194
  F       0.528098     -1.058373     -1.089068
  F      -1.645308      2.408058      0.333099
  F      -0.285222      1.307501      1.662191
  F      -1.333866     -1.043534      0.917704
  F      -2.784875      0.426178      1.655526
  F       1.407684     -0.869686      1.386099
  F       2.500572      0.997905      0.989235
  F       4.260066     -0.261422     -0.571925
  F       3.063514     -2.084273     -0.613520
  F       3.953717     -1.399090      1.252915
  O      -5.210109     -0.438952     -0.200366
  O      -3.865489     -2.244501     -0.162692
  C       0.106379      1.243940     -0.661297
  C      -0.959259      1.244647      0.483712
  C       1.166180      0.087978     -0.775072
  C      -2.009966      0.092154      0.565296
  C       2.095091     -0.175700      0.456086
  C      -2.877225     -0.112637     -0.648729
  C       3.380536     -1.002030      0.109361
  C      -4.093736     -1.013341     -0.304858
  H      -2.274072     -0.587147     -1.428238
  H      -3.217820      0.863715     -1.002763
25
Coordinates from ORCA-job FHEA_0.15M E -1754.590196328470
  F       0.793315      2.407978     -0.548903
  F      -0.550779      1.262315     -1.846710
  F       1.959262      0.433575     -1.821927
  F       0.527212     -1.057317     -1.089210
  F      -1.646474      2.408396      0.331880
  F      -0.285933      1.309557      1.661846
  F      -1.329923     -1.043229      0.914403
  F      -2.782453      0.423263      1.656137
  F       1.405945     -0.868136      1.386568
  F       2.501008      0.998028      0.988768
  F       4.259372     -0.263152     -0.570625
  F       3.061063     -2.084787     -0.613638
  F       3.951141     -1.401488      1.253437
  O      -5.209603     -0.441037     -0.200275
  O      -3.862967     -2.244976     -0.160438
  C       0.106616      1.245146     -0.661520
  C      -0.959378      1.245713      0.483087
  C       1.165822      0.088663     -0.775022
  C      -2.008407      0.091832      0.564389
  C       2.094272     -0.175443      0.456298
  C      -2.877024     -0.112546     -0.648633
  C       3.378860     -1.003244      0.109939
  C      -4.092631     -1.014273     -0.303894
  H      -2.274447     -0.586058     -1.429214
  H      -3.218670      0.863782     -1.001682
25
Coordinates from ORCA-job FHEA_0.15M E -1754.590196705853
  F       0.792979      2.407621     -0.549743
  F      -0.550610      1.261115     -1.847265
  F       1.960937      0.434703     -1.821392
  F       0.529228     -1.057645     -1.091140
  F      -1.646492      2.407769      0.330960
  F      -0.286091      1.309447      1.661320
  F      -1.329626     -1.044016      0.912799
  F      -2.781563      0.422101      1.656507
  F       1.405751     -0.869561      1.385787
  F       2.500049      0.997475      0.989912
  F       4.260432     -0.261138     -0.568385
  F       3.063423     -2.083573     -0.614695
  F       3.951182     -1.401885      1.254027
  O      -5.211018     -0.439503     -0.200502
  O      -3.864864     -2.243732     -0.157177
  C       0.106785      1.244466     -0.662066
  C      -0.959360      1.245159      0.482494
  C       1.166733      0.088510     -0.775435
  C      -2.008369      0.091258      0.563906
  C       2.094359     -0.175920      0.456447
  C      -2.878174     -0.112318     -0.648383
  C       3.379763     -1.002664      0.110477
  C      -4.094181     -1.013209     -0.302701
  H      -2.276633     -0.586150     -1.429579
  H      -3.219437      0.864252     -1.001110
25
Coordinates from ORCA-job FHEA_0.15M E -1754.590196928267
  F       0.792385      2.407387     -0.549918
  F      -0.551327      1.260311     -1.846905
  F       1.960967      0.435239     -1.821545
  F       0.529937     -1.057886     -1.091466
  F      -1.646320      2.407223      0.331892
  F      -0.285724      1.308312      1.661554
  F      -1.329560     -1.044800      0.912192
  F      -2.781426      0.420963      1.656810
  F       1.406162     -0.868539      1.386057
  F       2.500467      0.998162      0.989047
  F       4.260833     -0.261036     -0.568350
  F       3.063832     -2.083500     -0.614462
  F       3.951363     -1.401519      1.254194
  O      -5.211861     -0.438315     -0.203700
  O      -3.865997     -2.242591     -0.154505
  C       0.106527      1.244009     -0.661958
  C      -0.959291      1.244497      0.482903
  C       1.166922      0.088465     -0.775609
  C      -2.008334      0.090639      0.563946
  C       2.094692     -0.175512      0.456250
  C      -2.878272     -0.112247     -0.648357
  C       3.380079     -1.002474      0.110559
  C      -4.094932     -1.012332     -0.302847
  H      -2.277048     -0.586425     -1.429604
  H      -3.218871      0.864530     -1.001115
25
Coordinates from ORCA-job FHEA_0.15M E -1754.590197105940
  F       0.792211      2.407239     -0.549304
  F      -0.551516      1.260286     -1.846430
  F       1.960827      0.435615     -1.821469
  F       0.530099     -1.057897     -1.091522
  F      -1.646582      2.406831      0.332472
  F      -0.285962      1.307909      1.662030
  F      -1.329326     -1.045250      0.912138
  F      -2.781622      0.420034      1.656884
  F       1.406818     -0.868401      1.386219
  F       2.500803      0.998347      0.988636
  F       4.260918     -0.260590     -0.568881
  F       3.064298     -2.083308     -0.614908
  F       3.951998     -1.401307      1.253638
  O      -5.212878     -0.437116     -0.208923
  O      -3.867216     -2.241211     -0.149763
  C       0.106394      1.243846     -0.661505
  C      -0.959450      1.244155      0.483367
  C       1.166937      0.088427     -0.775501
  C      -2.008284      0.090101      0.564049
  C       2.094996     -0.175471      0.456126
  C      -2.878108     -0.112572     -0.648386
  C       3.380432     -1.002296      0.110160
  C      -4.095684     -1.011450     -0.302965
  H      -2.277136     -0.587643     -1.429299
  H      -3.217766      0.864284     -1.001802
25
Coordinates from ORCA-job FHEA_0.15M E -1754.590197201921
  F       0.791959      2.407325     -0.548990
  F      -0.551658      1.260245     -1.846126
  F       1.960604      0.435712     -1.821470
  F       0.530054     -1.057838     -1.091262
  F      -1.646782      2.406522      0.332986
  F      -0.286019      1.307534      1.662341
  F      -1.329058     -1.045571      0.912107
  F      -2.781684      0.419363      1.656944
  F       1.407311     -0.868464      1.386262
  F       2.501065      0.998419      0.988578
  F       4.260935     -0.260381     -0.569425
  F       3.064404     -2.083154     -0.615165
  F       3.952468     -1.401079      1.253198
  O      -5.213628     -0.436432     -0.213172
  O      -3.867903     -2.240159     -0.146081
  C       0.106291      1.243833     -0.661213
  C      -0.959515      1.243903      0.483689
  C       1.166910      0.088481     -0.775358
  C      -2.008170      0.089689      0.564141
  C       2.095217     -0.175412      0.456075
  C      -2.877946     -0.112761     -0.648389
  C       3.380632     -1.002135      0.109828
  C      -4.096128     -1.010825     -0.303125
  H      -2.277210     -0.588437     -1.429139
  H      -3.216946      0.864184     -1.002174
25
Coordinates from ORCA-job FHEA_0.15M E -1754.590197244256
  F       0.791894      2.407351     -0.548819
  F      -0.551617      1.260303     -1.846077
  F       1.960506      0.435676     -1.821499
  F       0.529980     -1.057822     -1.091144
  F      -1.646809      2.406306      0.333306
  F      -0.285912      1.307172      1.662423
  F      -1.328921     -1.045798      0.912086
  F      -2.781641      0.419016      1.656981
  F       1.407495     -0.868842      1.386089
  F       2.500922      0.998343      0.988802
  F       4.260923     -0.260099     -0.569750
  F       3.064624     -2.083022     -0.615215
  F       3.952850     -1.400676      1.253000
  O      -5.214168     -0.436062     -0.215807
  O      -3.868320     -2.239467     -0.143674
  C       0.106289      1.243833     -0.661137
  C      -0.959475      1.243696      0.483792
  C       1.166900      0.088501     -0.775323
  C      -2.008076      0.089417      0.564180
  C       2.095273     -0.175446      0.456048
  C      -2.877923     -0.112835     -0.648347
  C       3.380800     -1.001907      0.109654
  C      -4.096436     -1.010420     -0.303166
  H      -2.277431     -0.588857     -1.429091
  H      -3.216526      0.864202     -1.002250
25
Coordinates from ORCA-job FHEA_0.15M E -1754.590197254154
  F       0.791853      2.407408     -0.548849
  F      -0.551608      1.260333     -1.846112
  F       1.960509      0.435691     -1.821533
  F       0.529999     -1.057795     -1.091151
  F      -1.646803      2.406248      0.333367
  F      -0.285829      1.307078      1.662395
  F      -1.328869     -1.045848      0.912076
  F      -2.781576      0.418956      1.657013
  F       1.407477     -0.868958      1.385988
  F       2.500890      0.998299      0.988934
  F       4.260919     -0.260158     -0.569845
  F       3.064562     -2.083053     -0.615093
  F       3.952898     -1.400541      1.253026
  O      -5.214294     -0.436127     -0.216348
  O      -3.868288     -2.239366     -0.143221
  C       0.106297      1.243869     -0.661177
  C      -0.959438      1.243644      0.483770
  C       1.166923      0.088561     -0.775348
  C      -2.008031      0.089350      0.564190
  C       2.095281     -0.175431      0.456042
  C      -2.877950     -0.112810     -0.648300
  C       3.380807     -1.001866      0.109648
  C      -4.096466     -1.010388     -0.303177
  H      -2.277544     -0.588811     -1.429128
  H      -3.216516      0.864274     -1.002106
