25
Coordinates from ORCA-job FHEA_0.15M E -1754.590197254154
  F           0.79185329784624      2.40740843862871     -0.54884924677294
  F          -0.55160824247878      1.26033311494926     -1.84611167810665
  F           1.96050897951201      0.43569050259983     -1.82153280379868
  F           0.52999914307634     -1.05779475601392     -1.09115064228080
  F          -1.64680275111702      2.40624836459501      0.33336745777208
  F          -0.28582929199206      1.30707823415971      1.66239460604294
  F          -1.32886921350310     -1.04584765949293      0.91207588457261
  F          -2.78157571889692      0.41895628975286      1.65701304645049
  F           1.40747677108681     -0.86895751950339      1.38598774581664
  F           2.50089017508343      0.99829896777920      0.98893445539434
  F           4.26091909288936     -0.26015809990729     -0.56984487893693
  F           3.06456187062755     -2.08305321059172     -0.61509336049778
  F           3.95289832923593     -1.40054096830360      1.25302565840742
  O          -5.21429406706984     -0.43612734465945     -0.21634767423204
  O          -3.86828829634640     -2.23936559019373     -0.14322061144563
  C           0.10629667481658      1.24386911569254     -0.66117689150737
  C          -0.95943784784875      1.24364365068339      0.48377025563637
  C           1.16692255298931      0.08856097011629     -0.77534843302073
  C          -2.00803107036386      0.08935012010266      0.56418967979452
  C           2.09528120432845     -0.17543093870202      0.45604222410966
  C          -2.87795019940637     -0.11281001495332     -0.64830018590920
  C           3.38080716926971     -1.00186567318741      0.10964845421684
  C          -4.09646597791643     -1.01038790748480     -0.30317714769070
  H          -2.27754444419817     -0.58881080910048     -1.42912838711869
  H          -3.21651613962405      0.86427372303462     -1.00210552679574
