29
Coordinates from ORCA-job PFOS_wb E -2626.602379865576
  S           4.33683015110619     -0.81619883749894      0.04148519526123
  F          -0.76087848080559     -1.63331369163802     -0.75263843844160
  F           0.74744508765360     -1.60211487786951      0.80798780785650
  F           0.15306952603786      0.61064296387803     -1.82751535377714
  F           1.57499935990494     -1.01960862080995     -1.66895533616919
  F          -0.23348978520386      0.64147675596681      1.84303222192271
  F          -1.61694272928092     -1.02442100530497      1.68117722911710
  F           2.58097898234037      1.43862008812298     -1.57870032185315
  F           1.34322234129377      1.96868074823997      0.12348246978361
  F          -2.68693337105895      1.38607743931202      1.55140482179492
  F          -1.46705167524492      1.94110892015264     -0.15723793834475
  F           2.58591795245584      0.21058659047737      1.69813468463155
  F           3.86615994248426      1.65482994338209      0.69565428287913
  F          -2.64487772769541      0.09480873280772     -1.69969990792837
  F          -3.98982814906234      1.49036490335886     -0.71243594517136
  F          -4.58608361629526     -0.54798797311682      1.14727400188324
  F          -3.46247159934072     -1.90565166783259     -0.10432850886890
  F          -5.13632487696170     -0.82707246572945     -0.92152284458682
  O           5.35894225618874     -0.65768198438784      1.05235749378264
  O           4.75131251308902     -0.46860789718359     -1.29898946015675
  O           3.57375402294803     -2.03714539678374      0.14896536313855
  C          -0.00886956919202     -0.83046601785876      0.01802612956607
  C           0.93688891937573     -0.06903598949707     -0.97237295617640
  C          -0.97857277313737     -0.06761311118984      0.98510647127345
  C           2.00516392614243      0.95433235717093     -0.46597959850845
  C          -2.07478752842619      0.91496285782283      0.45284340912247
  C           3.14298721637499      0.52832046287357      0.51504519102971
  C          -3.19522727906763      0.42444987951364     -0.52546019310108
  C          -4.11543303662293     -0.75254310627838     -0.07603996975892
