25
Coordinates from ORCA-job FHEA_wb E -1754.944067285978
  F           0.78488347638984      2.39662144731357     -0.54258106030861
  F          -0.54388164205452      1.26473466483560     -1.83403889628491
  F           1.94098432919830      0.43407996587138     -1.81954820060651
  F           0.53405424210259     -1.04935809119107     -1.08149313893443
  F          -1.63828210941096      2.39766808087390      0.33375718369773
  F          -0.29336765768756      1.31119437068502      1.65498485116075
  F          -1.33537302217572     -1.03376524308306      0.91914263306524
  F          -2.76674621769877      0.42289225877229      1.65962679676510
  F           1.41080160551204     -0.83944626805526      1.38422857957618
  F           2.51201581903994      0.99587948701800      0.96714371556408
  F           4.23083855881611     -0.30589685495224     -0.60707059094759
  F           3.04040851197979     -2.10972362394034     -0.55851917408036
  F           3.95442360982734     -1.36236860219603      1.24931960731829
  O          -5.19373339106733     -0.46517325638283     -0.20329693587414
  O          -3.84706811819820     -2.24717443639530     -0.21911214371111
  C           0.10577364093579      1.24277918002866     -0.65750284717368
  C          -0.95842016741950      1.24436953954732      0.48563356796252
  C           1.16415073887310      0.09079283433709     -0.77530690662779
  C          -2.00635981887187      0.09325827903484      0.57619934499900
  C           2.09560545488244     -0.16862906565067      0.45075694695605
  C          -2.87632038202288     -0.10683099596216     -0.63813753573559
  C           3.36753251906646     -1.01062478157997      0.11086425070754
  C          -4.07788899295063     -1.02068516889448     -0.32303439416956
  H          -2.27068383344585     -0.55883135329596     -1.42273896433904
  H          -3.22814515361996      0.86679863326173     -0.97421468887914
