25
Coordinates from ORCA-job FHEA_wb E -1754.942133536628
  F       0.791853      2.407408     -0.548849
  F      -0.551608      1.260333     -1.846112
  F       1.960509      0.435691     -1.821533
  F       0.529999     -1.057795     -1.091151
  F      -1.646803      2.406248      0.333367
  F      -0.285829      1.307078      1.662395
  F      -1.328869     -1.045848      0.912076
  F      -2.781576      0.418956      1.657013
  F       1.407477     -0.868958      1.385988
  F       2.500890      0.998299      0.988934
  F       4.260919     -0.260158     -0.569845
  F       3.064562     -2.083053     -0.615093
  F       3.952898     -1.400541      1.253026
  O      -5.214294     -0.436127     -0.216348
  O      -3.868288     -2.239366     -0.143221
  C       0.106297      1.243869     -0.661177
  C      -0.959438      1.243644      0.483770
  C       1.166923      0.088561     -0.775348
  C      -2.008031      0.089350      0.564190
  C       2.095281     -0.175431      0.456042
  C      -2.877950     -0.112810     -0.648300
  C       3.380807     -1.001866      0.109648
  C      -4.096466     -1.010388     -0.303177
  H      -2.277544     -0.588811     -1.429128
  H      -3.216516      0.864274     -1.002106
25
Coordinates from ORCA-job FHEA_wb E -1754.943912317216
  F       0.780488      2.384090     -0.543963
  F      -0.544275      1.240255     -1.831703
  F       1.943629      0.422496     -1.815239
  F       0.544604     -1.065917     -1.067485
  F      -1.633217      2.387509      0.339643
  F      -0.295516      1.286427      1.659169
  F      -1.351575     -1.047534      0.912799
  F      -2.776086      0.418621      1.655423
  F       1.440470     -0.849321      1.392584
  F       2.512412      1.003814      0.969786
  F       4.254446     -0.260675     -0.590119
  F       3.079804     -2.077543     -0.592561
  F       3.977074     -1.364784      1.239258
  O      -5.218787     -0.418832     -0.232813
  O      -3.897858     -2.222537     -0.182045
  C       0.105482      1.225110     -0.652661
  C      -0.960082      1.227102      0.486547
  C       1.169368      0.080141     -0.765406
  C      -2.015913      0.085733      0.567086
  C       2.110344     -0.168187      0.453829
  C      -2.888414     -0.107292     -0.644406
  C       3.391570     -0.989865      0.106079
  C      -4.108728     -0.994130     -0.312116
  H      -2.293695     -0.581263     -1.424515
  H      -3.220342      0.869144     -0.992112
25
Coordinates from ORCA-job FHEA_wb E -1754.941121653960
  F       0.791113      2.420367     -0.531313
  F      -0.537756      1.316006     -1.837306
  F       1.948943      0.472184     -1.808007
  F       0.511317     -1.003376     -1.130738
  F      -1.652581      2.410547      0.322986
  F      -0.300709      1.344343      1.644487
  F      -1.297979     -1.004056      0.930342
  F      -2.763472      0.427987      1.636286
  F       1.344517     -0.869648      1.346821
  F       2.472765      0.956848      1.001368
  F       4.211559     -0.315790     -0.554615
  F       2.998054     -2.097076     -0.612305
  F       3.870452     -1.439653      1.243148
  O      -5.137667     -0.498391     -0.183409
  O      -3.758693     -2.239442     -0.052575
  C       0.105650      1.275315     -0.660788
  C      -0.960249      1.267998      0.476076
  C       1.150622      0.117273     -0.786989
  C      -1.986732      0.102424      0.565418
  C       2.054405     -0.185873      0.446292
  C      -2.836848     -0.130552     -0.655414
  C       3.320239     -1.033153      0.108759
  C      -4.029225     -1.053547     -0.339604
  H      -2.215629     -0.588959     -1.421856
  H      -3.196896      0.830787     -1.012001
25
Coordinates from ORCA-job FHEA_wb E -1754.943922974211
  F       0.791775      2.415553     -0.541522
  F      -0.546641      1.297946     -1.834463
  F       1.942031      0.453708     -1.815541
  F       0.509881     -1.019996     -1.108142
  F      -1.647574      2.413440      0.328378
  F      -0.289474      1.346953      1.651294
  F      -1.301042     -1.005900      0.945503
  F      -2.759968      0.437109      1.657415
  F       1.367815     -0.855763      1.364136
  F       2.490332      0.973208      0.985172
  F       4.217274     -0.313873     -0.577057
  F       3.005486     -2.102888     -0.600164
  F       3.898087     -1.419465      1.241839
  O      -5.167529     -0.498262     -0.237490
  O      -3.800219     -2.260912     -0.159027
  C       0.104841      1.267366     -0.659498
  C      -0.956269      1.267983      0.484400
  C       1.151522      0.107553     -0.782458
  C      -1.987880      0.104972      0.582408
  C       2.068144     -0.179094      0.447478
  C      -2.845452     -0.125401     -0.634320
  C       3.334278     -1.027869      0.105894
  C      -4.042767     -1.042219     -0.310146
  H      -2.229911     -0.589055     -1.404118
  H      -3.201538      0.837465     -0.994911
25
Coordinates from ORCA-job FHEA_wb E -1754.943179956723
  F       0.760533      2.329847     -0.541336
  F      -0.540883      1.149006     -1.820249
  F       1.931192      0.355291     -1.819165
  F       0.596483     -1.142704     -0.976523
  F      -1.610772      2.340198      0.366098
  F      -0.310027      1.183635      1.675621
  F      -1.438982     -1.119317      0.846583
  F      -2.801767      0.370960      1.654212
  F       1.562954     -0.796121      1.453119
  F       2.567012      1.066334      0.914693
  F       4.286395     -0.219290     -0.659797
  F       3.172003     -2.070519     -0.522015
  F       4.114158     -1.234391      1.235644
  O      -5.286437     -0.315382     -0.214597
  O      -4.026919     -2.163214     -0.261323
  C       0.105402      1.158693     -0.639324
  C      -0.967595      1.161538      0.497910
  C       1.195621      0.031919     -0.736562
  C      -2.062109      0.049806      0.550493
  C       2.181236     -0.137764      0.464131
  C      -2.954516     -0.064914     -0.658606
  C       3.475740     -0.938735      0.107001
  C      -4.200071     -0.924901     -0.353305
  H      -2.384803     -0.523626     -1.466623
  H      -3.258645      0.936212     -0.961018
25
Coordinates from ORCA-job FHEA_wb E -1754.944020001055
  F       0.778977      2.382034     -0.548028
  F      -0.543913      1.236620     -1.833053
  F       1.941068      0.416367     -1.818593
  F       0.546034     -1.068918     -1.061318
  F      -1.630038      2.385931      0.341975
  F      -0.293310      1.281451      1.656261
  F      -1.355256     -1.051830      0.904454
  F      -2.771532      0.412620      1.658078
  F       1.440693     -0.842533      1.394536
  F       2.514490      1.005773      0.965879
  F       4.246889     -0.269525     -0.603057
  F       3.079182     -2.088609     -0.568382
  F       3.984486     -1.344115      1.244765
  O      -5.217305     -0.425022     -0.219961
  O      -3.892805     -2.223231     -0.203122
  C       0.105766      1.224240     -0.656255
  C      -0.958785      1.226577      0.486637
  C       1.170546      0.077531     -0.767730
  C      -2.016392      0.083547      0.570123
  C       2.110987     -0.165775      0.455124
  C      -2.892403     -0.100622     -0.642100
  C       3.392777     -0.990695      0.109664
  C      -4.107679     -0.995480     -0.324100
  H      -2.297778     -0.562174     -1.429450
  H      -3.229496      0.878397     -0.977285
25
Coordinates from ORCA-job FHEA_wb E -1754.943997884571
  F       0.790507      2.409777     -0.535597
  F      -0.546424      1.291218     -1.830491
  F       1.932459      0.440790     -1.819547
  F       0.510333     -1.031124     -1.087494
  F      -1.646524      2.409464      0.333958
  F      -0.293656      1.335954      1.657904
  F      -1.313284     -1.014161      0.940888
  F      -2.767301      0.432406      1.657658
  F       1.388223     -0.839975      1.378123
  F       2.507498      0.986151      0.970095
  F       4.217352     -0.321007     -0.602053
  F       3.007087     -2.111968     -0.579947
  F       3.922197     -1.396954      1.240035
  O      -5.174166     -0.491178     -0.239239
  O      -3.809984     -2.258499     -0.183783
  C       0.104010      1.261066     -0.654664
  C      -0.958667      1.261759      0.489075
  C       1.152067      0.101183     -0.776870
  C      -1.995130      0.101442      0.582859
  C       2.080254     -0.172001      0.448417
  C      -2.852031     -0.119328     -0.636818
  C       3.343746     -1.024899      0.104098
  C      -4.050645     -1.037423     -0.322503
  H      -2.235790     -0.577421     -1.409713
  H      -3.206930      0.847291     -0.989328
25
Coordinates from ORCA-job FHEA_wb E -1754.944064181180
  F       0.784711      2.395540     -0.545029
  F      -0.543789      1.262197     -1.835296
  F       1.943323      0.432954     -1.818336
  F       0.534692     -1.050338     -1.082963
  F      -1.637379      2.396140      0.334164
  F      -0.291836      1.308700      1.653812
  F      -1.333753     -1.035180      0.918569
  F      -2.765317      0.421231      1.659197
  F       1.410298     -0.846863      1.381666
  F       2.505745      0.993574      0.973110
  F       4.234702     -0.291726     -0.596323
  F       3.049322     -2.099468     -0.572458
  F       3.952609     -1.368674      1.247407
  O      -5.198413     -0.456524     -0.218038
  O      -3.855072     -2.240779     -0.195251
  C       0.106108      1.241445     -0.658820
  C      -0.957562      1.242790      0.484779
  C       1.164570      0.089567     -0.775386
  C      -2.005241      0.091407      0.575321
  C       2.094433     -0.170605      0.451858
  C      -2.876518     -0.108704     -0.637988
  C       3.370092     -1.006554      0.110158
  C      -4.082583     -1.015521     -0.319327
  H      -2.274249     -0.567127     -1.421446
  H      -3.223692      0.865079     -0.978317
25
Coordinates from ORCA-job FHEA_wb E -1754.944065578793
  F       0.783694      2.395085     -0.543180
  F      -0.545354      1.261294     -1.832610
  F       1.939161      0.430619     -1.819328
  F       0.533173     -1.051594     -1.077073
  F      -1.637780      2.396232      0.336641
  F      -0.293142      1.307583      1.656384
  F      -1.336343     -1.035340      0.919996
  F      -2.768436      0.421418      1.659219
  F       1.415223     -0.840217      1.386019
  F       2.512199      0.997008      0.967264
  F       4.233482     -0.297535     -0.604001
  F       3.045029     -2.103008     -0.567718
  F       3.956117     -1.365714      1.245532
  O      -5.197747     -0.458240     -0.221926
  O      -3.853103     -2.241517     -0.202194
  C       0.105082      1.240925     -0.656485
  C      -0.958531      1.242504      0.487142
  C       1.163553      0.089047     -0.773521
  C      -2.006838      0.091659      0.576458
  C       2.097156     -0.168251      0.451524
  C      -2.875728     -0.107670     -0.638652
  C       3.370176     -1.007642      0.108756
  C      -4.081398     -1.016146     -0.323600
  H      -2.271200     -0.564251     -1.421554
  H      -3.223244      0.866311     -0.978030
25
Coordinates from ORCA-job FHEA_wb E -1754.944066660073
  F       0.784054      2.395678     -0.543643
  F      -0.544815      1.262303     -1.833670
  F       1.940845      0.432600     -1.819230
  F       0.534274     -1.050633     -1.080101
  F      -1.638009      2.396397      0.335177
  F      -0.292805      1.309028      1.655360
  F      -1.334867     -1.035108      0.918900
  F      -2.766712      0.420994      1.659815
  F       1.412554     -0.840807      1.384539
  F       2.510948      0.996201      0.968158
  F       4.233149     -0.299177     -0.602886
  F       3.044202     -2.104294     -0.565969
  F       3.954295     -1.365775      1.247345
  O      -5.197139     -0.460193     -0.217358
  O      -3.851478     -2.242818     -0.204268
  C       0.105433      1.241536     -0.657445
  C      -0.958241      1.243012      0.486182
  C       1.164108      0.089812     -0.774682
  C      -2.006079      0.091759      0.576289
  C       2.096084     -0.168624      0.451291
  C      -2.876181     -0.107442     -0.638049
  C       3.369160     -1.008474      0.109852
  C      -4.080671     -1.017287     -0.322527
  H      -2.271943     -0.562696     -1.421940
  H      -3.224963      0.866568     -0.976079
25
Coordinates from ORCA-job FHEA_wb E -1754.944067173622
  F       0.784733      2.396214     -0.542934
  F      -0.544095      1.264060     -1.834093
  F       1.941562      0.434207     -1.819199
  F       0.534527     -1.049661     -1.082214
  F      -1.638465      2.397023      0.333751
  F      -0.293219      1.311072      1.654983
  F      -1.334394     -1.034299      0.919117
  F      -2.766262      0.421661      1.660067
  F       1.410811     -0.841052      1.383654
  F       2.510726      0.995389      0.968262
  F       4.231950     -0.302266     -0.604373
  F       3.042599     -2.106984     -0.562787
  F       3.953852     -1.364568      1.248452
  O      -5.195887     -0.463016     -0.212532
  O      -3.848998     -2.244840     -0.208808
  C       0.105717      1.242324     -0.657648
  C      -0.958343      1.243910      0.485683
  C       1.164271      0.090471     -0.775405
  C      -2.005898      0.092397      0.576468
  C       2.095393     -0.169060      0.450927
  C      -2.876257     -0.107285     -0.637675
  C       3.368145     -1.009726      0.110390
  C      -4.079298     -1.019059     -0.322385
  H      -2.271427     -0.560926     -1.422015
  H      -3.226540      0.866578     -0.974624
25
Coordinates from ORCA-job FHEA_wb E -1754.944066901166
  F       0.784676      2.396533     -0.542821
  F      -0.544072      1.264437     -1.834189
  F       1.941541      0.434685     -1.819521
  F       0.534745     -1.049367     -1.082394
  F      -1.638446      2.397116      0.333729
  F      -0.293080      1.311062      1.654818
  F      -1.334278     -1.034392      0.918302
  F      -2.765798      0.421377      1.660269
  F       1.410420     -0.839470      1.383911
  F       2.511620      0.995934      0.967261
  F       4.231353     -0.305014     -0.605822
  F       3.040998     -2.108952     -0.559601
  F       3.953803     -1.363129      1.249486
  O      -5.195078     -0.464466     -0.208440
  O      -3.847776     -2.246007     -0.213643
  C       0.105742      1.242575     -0.657748
  C      -0.958294      1.243979      0.485567
  C       1.164404      0.090842     -0.775667
  C      -2.005848      0.092492      0.576316
  C       2.095473     -0.168569      0.450697
  C      -2.876541     -0.106815     -0.637675
  C       3.367594     -1.010430      0.110974
  C      -4.078629     -1.019930     -0.322700
  H      -2.271518     -0.559055     -1.422653
  H      -3.227809      0.867126     -0.973394
25
Coordinates from ORCA-job FHEA_wb E -1754.944067443512
  F       0.784736      2.396604     -0.542565
  F      -0.544017      1.264663     -1.834022
  F       1.941254      0.434580     -1.819532
  F       0.534456     -1.049307     -1.082125
  F      -1.638407      2.397402      0.333755
  F      -0.293288      1.311216      1.654987
  F      -1.334951     -1.034026      0.919001
  F      -2.766439      0.422278      1.659954
  F       1.410639     -0.839549      1.383999
  F       2.511890      0.995814      0.967180
  F       4.230961     -0.305678     -0.606841
  F       3.040655     -2.109601     -0.558778
  F       3.954316     -1.362476      1.249350
  O      -5.194413     -0.464869     -0.206304
  O      -3.847371     -2.246612     -0.216245
  C       0.105727      1.242685     -0.657539
  C      -0.958403      1.244183      0.485678
  C       1.164287      0.090858     -0.775522
  C      -2.006172      0.092909      0.576372
  C       2.095564     -0.168658      0.450662
  C      -2.876371     -0.106861     -0.637879
  C       3.367569     -1.010596      0.110849
  C      -4.078219     -1.020347     -0.322977
  H      -2.270917     -0.558975     -1.422578
  H      -3.227881      0.866924     -0.973821
25
Coordinates from ORCA-job FHEA_wb E -1754.944067285978
  F       0.784883      2.396621     -0.542581
  F      -0.543882      1.264735     -1.834039
  F       1.940984      0.434080     -1.819548
  F       0.534054     -1.049358     -1.081493
  F      -1.638282      2.397668      0.333757
  F      -0.293368      1.311194      1.654985
  F      -1.335373     -1.033765      0.919143
  F      -2.766746      0.422892      1.659627
  F       1.410802     -0.839446      1.384229
  F       2.512016      0.995879      0.967144
  F       4.230839     -0.305897     -0.607071
  F       3.040409     -2.109724     -0.558519
  F       3.954424     -1.362369      1.249320
  O      -5.193733     -0.465173     -0.203297
  O      -3.847068     -2.247174     -0.219112
  C       0.105774      1.242779     -0.657503
  C      -0.958420      1.244370      0.485634
  C       1.164151      0.090793     -0.775307
  C      -2.006360      0.093258      0.576199
  C       2.095605     -0.168629      0.450757
  C      -2.876320     -0.106831     -0.638138
  C       3.367533     -1.010625      0.110864
  C      -4.077889     -1.020685     -0.323034
  H      -2.270684     -0.558831     -1.422739
  H      -3.228145      0.866799     -0.974215
