84
Coordinates from ORCA-job R4N+PFOS-_wb
  N          -0.56993243403572     -0.47134777814897      5.03538074277240
  C           1.80088265893889     -3.15647241261542     -0.49478813656595
  C           2.10324127630412     -4.59422099027304     -0.05576433514600
  C           2.75578836496578     -4.75643063975409      1.32126261767552
  C           1.04986848050723     -2.36988551116393      0.55636226058444
  C           1.05578413952041     -3.16629508210997     -1.83666649193017
  C          -1.00386386418648     -0.13461730990733      3.61987170190150
  C          -0.29936810540192     -0.90734362304834      2.54449647547777
  C           4.03562739572362     -3.96197413636410      1.48287048728138
  C           1.55480584642155     -1.16137432368972      1.02465947038676
  C          -0.16114861229981     -2.82110047978055      1.07905676550184
  C           2.99776500595811     -6.23739177705048      1.61780528533402
  C          -1.35433718190635      0.39478684664334      5.95888807466937
  C           0.87917451966023     -0.19810039132512      5.23571886686133
  C          -0.85196400335845     -1.89606493810714      5.35797100790678
  C           0.88726856232402     -0.43356921154356      1.99691160656346
  C          -0.82466606616867     -2.10324859400178      2.05998577251637
  C           0.86598421752762     -1.78842179187042     -2.45276276313702
  C           5.10030171868716     -4.10801659064101      0.59439588845225
  C           4.18938603283377     -3.08682658723024      2.55530570369470
  C           6.28332172068911     -3.40694803504837      0.77791146257462
  C           5.37212007826626     -2.38394197801784      2.74499656988127
  C           6.42566794414080     -2.54448771673729      1.85721190451074
  H           2.75512433593016     -2.64264028706851     -0.65040204527828
  H           2.74454778093091     -5.04995772951285     -0.81815118566341
  H           1.17386589579753     -5.17412617350162     -0.05644028742190
  H           2.05492587595713     -4.38054173566223      2.07284832490635
  H           0.08147512239144     -3.64793965998330     -1.69890302985257
  H           1.61660527998191     -3.79975141887437     -2.53104070439412
  H          -0.82599883344280      0.93450084906179      3.50996228852971
  H          -2.07738223677471     -0.31702547998603      3.59433186976932
  H           2.49112007789178     -0.78772282746200      0.62557148995729
  H          -0.58967909579179     -3.75232569620311      0.72410171231373
  H           2.06204735298687     -6.79964186730155      1.56308386709161
  H           3.41682615497171     -6.37680582944917      2.61714414356214
  H           3.69449116849970     -6.67506920159066      0.89748512422975
  H          -1.05840785758776      0.16887008902121      6.98101231386385
  H          -2.41320461532142      0.18711381746557      5.81981261132810
  H          -1.14091368355947      1.43646330321092      5.72816211899334
  H           1.08154106109704      0.83941268896205      4.97742847820149
  H           1.46372582478726     -0.86658947851108      4.60903289797100
  H           1.11618766688857     -0.37603256734948      6.28251891025808
  H          -0.24705171700524     -2.53662181042456      4.72155270250464
  H          -1.91055873856661     -2.08964914173365      5.19709773186884
  H          -0.59457708106600     -2.06588550762016      6.40146005915299
  H           1.29622678152773      0.51095261817606      2.33768396649095
  H          -1.76231338043836     -2.47739489149010      2.45708383890390
  H           0.36470816089620     -1.85905129314281     -3.42080957624418
  H           1.82632490311749     -1.29158772604499     -2.61271142408744
  H           0.25952443886921     -1.13974801526769     -1.81516663873139
  H           5.00742361285354     -4.77945196564696     -0.25301991628165
  H           3.36804897001838     -2.95400526731878      3.25297868866931
  H           7.09807823495466     -3.53348688140836      0.07392331096715
  H           5.46745905523441     -1.70646230958675      3.58637846205156
  H           7.34877877953534     -1.99388253984576      1.99791561928879
  S           5.40201830480553     -3.59668556896838     -3.52302653279221
  F           6.23661878544257     -0.96225964499175     -1.79354748535865
  F           7.15796219536943      0.92464942455175     -2.35824972190318
  F           5.85887851095552      1.20113707460752     -4.50047348037422
  F           4.33165487756052     -0.25286943575879     -4.02754778363370
  F           3.83986106507488      0.15896577884787     -1.50059029408210
  F           4.57418180335577      2.09077896637774     -2.21575393924736
  F           6.74572497792017     -0.56581076799026     -5.88528695861903
  F           7.66782930846941     -1.22719499468710     -4.03774383669225
  F           5.41734300315331      0.19513697588778      0.60062478695862
  F           6.49048505921456      1.96238267316264     -0.08328743799671
  F           6.77905328772144     -3.13458640029896     -5.66814350954046
  F           4.76973597728477     -2.29890049801817     -5.70301069862905
  F           3.01796350494612      1.92851853873375      0.28335774229393
  F           4.48763763326669      3.53045754956030      0.19768651470698
  F           3.94510390479486      1.09980214623462      2.65768264759579
  F           3.61468946586618      3.22881029264693      2.65375065788651
  F           5.62820156334466      2.45261042832393      2.55679252072625
  O           4.93098762348427     -4.76931819987854     -4.22618580544168
  O           4.37857909018279     -2.87436302883829     -2.80586428420285
  O           6.64433269226218     -3.78072298436240     -2.80901308069455
  C           6.01942514451927      0.21657842187510     -2.38574479937766
  C           5.63576086300912      0.02133377192846     -3.90006970536620
  C           4.90968323476830      0.96305777869964     -1.56820889796542
  C           6.48922150767609     -1.07006225791097     -4.66290268747612
  C           5.30866531391691      1.33314353661511     -0.10013158924381
  C           5.85722643627034     -2.47786925152682     -4.92766794790133
  C           4.27128191511681      2.27345261763437      0.60737306023105
  C           4.37398524792811      2.25433367170898      2.16599831484995
