84
Coordinates from ORCA-job R4N+PFOS-_wb
  N          -0.60216906778388     -0.50569721633790      5.06258872838779
  C           1.80163108709652     -3.10562420389762     -0.49725505851143
  C           2.10764846698514     -4.54837077107659     -0.07676472820944
  C           2.75602483476238     -4.72915900198034      1.30001692070763
  C           1.04568885473091     -2.33589301776306      0.56295771514857
  C           1.05622972636560     -3.10236327303088     -1.83932858555162
  C          -1.03591550784689     -0.15816997194387      3.64985984966113
  C          -0.31761692242538     -0.90763055414554      2.56661810480576
  C           4.03752515178325     -3.94021150961730      1.47503709577922
  C           1.54559752398829     -1.13408809645092      1.05323740184600
  C          -0.16714765285678     -2.79787491496682      1.07185541343001
  C           2.99260564946871     -6.21446508940596      1.57894848132758
  C          -1.43111712283292      0.30705913268229      5.99573901177347
  C           0.83153804510038     -0.17449228033930      5.28313292430669
  C          -0.82481615015335     -1.94762590116616      5.35371113085619
  C           0.87138192346467     -0.42259778373515      2.03362468799845
  C          -0.83686881231598     -2.09723067899234      2.06036275149981
  C           0.86613321250631     -1.71919894073611     -2.44323292570405
  C           5.10552673662087     -4.08084467714225      0.58980624204652
  C           4.18990804086982     -3.07643209537254      2.55683929676586
  C           6.28963966731191     -3.38471420646229      0.78454487919016
  C           5.37338629185374     -2.37795899036923      2.75767989933632
  C           6.42982546879415     -2.53236901706500      1.87224527574222
  H           2.75423080196974     -2.58643414833367     -0.64531652649325
  H           2.75254737202114     -4.99131754714760     -0.84360045091754
  H           1.17993430839996     -5.13077948111927     -0.08875503209500
  H           2.05397661891093     -4.36070030575918      2.05427682827898
  H           0.08196160178162     -3.58505624973952     -1.70501747557489
  H           1.61603935727866     -3.72971172908764     -2.53988370223019
  H          -0.87689197067725      0.91526447458786      3.55428724803757
  H          -2.10590438125420     -0.35908501610877      3.61749863040143
  H           2.48266996667696     -0.75189542022780      0.66400411007038
  H          -0.59182871327458     -3.72415864523471      0.69989003543948
  H           2.05494050599753     -6.77261786521568      1.51619600337427
  H           3.40958514412777     -6.36742750151876      2.57717521100432
  H           3.68880600960743     -6.64610941275432      0.85447645245393
  H          -1.12748002422728      0.08053872366115      7.01546319005673
  H          -2.47809547885238      0.04947279754971      5.84974578189157
  H          -1.26878610128206      1.36130147626860      5.78132735904035
  H           0.98931125398953      0.87790775389328      5.05631827715720
  H           1.44908114744461     -0.79825178339634      4.64254516563228
  H           1.06912303305062     -0.37233179942468      6.32623933777106
  H          -0.18314424624523     -2.54853491848095      4.71461183659078
  H          -1.87114032689214     -2.18543767538237      5.17313592577660
  H          -0.57495842433805     -2.12621869450210      6.39753518474541
  H           1.27681923707519      0.51749456712870      2.39090148992739
  H          -1.77542003720752     -2.47993907865290      2.44712220745001
  H           0.36108036603610     -1.78160889128005     -3.40989400358418
  H           1.82649288643940     -1.22252772890582     -2.60322803224526
  H           0.26304349740219     -1.07459891755202     -1.79823738287131
  H           5.01446580960523     -4.74446846810293     -0.26388406045283
  H           3.36706073202627     -2.95027751024851      3.25353611252560
  H           7.10703953025614     -3.50729868289587      0.08285919303872
  H           5.46728382527062     -1.70923882311793      3.60624723979122
  H           7.35368911528185     -1.98530779602122      2.02149673081052
  S           5.40037421064172     -3.63613656020438     -3.51373650587846
  F           6.25808605749304     -0.99200076140663     -1.80017333935525
  F           7.18516183278798      0.88589419955066     -2.38341431704827
  F           5.87509530296699      1.15384964919398     -4.52038085774990
  F           4.34412056281433     -0.29004082746558     -4.02844516775221
  F           3.87091900272665      0.13580674967841     -1.49710460810880
  F           4.59738146918177      2.05883145721897     -2.24372491850677
  F           6.74811830426970     -0.62475302600178     -5.89799832285705
  F           7.67486938395320     -1.28166009394872     -4.05116459183193
  F           5.46173181046129      0.20307905806177      0.59223724953229
  F           6.52792867166339      1.96214927718373     -0.12239226385961
  F           6.76786522960503     -3.19210464750363     -5.66867985053219
  F           4.76283592622634     -2.34601255826344     -5.69697725749545
  F           3.05753851848177      1.93319812770089      0.26225132944753
  F           4.52850699937932      3.53234386459371      0.15214677811597
  F           3.98772235730408      1.13210782450570      2.64186300520275
  F           3.66857649534791      3.26258525887662      2.61496947387875
  F           5.67764751480167      2.47486285492076      2.51974258735340
  O           4.91715870009076     -4.80905885231007     -4.20802459833469
  O           4.38647292755650     -2.90371222557980     -2.79334442322391
  O           6.64620147389088     -3.82468058947527     -2.80693887324806
  C           6.04315698001930      0.18326517537835     -2.39994651565898
  C           5.65028748466660     -0.02094310427184     -3.91080435006266
  C           4.93919070450060      0.94024957586608     -1.58351909997656
  C           6.49435642075060     -1.12116617585268     -4.67186673902685
  C           5.34697612419809      1.33118805060243     -0.12344564747341
  C           5.85349331845392     -2.52685243850983     -4.92655023465390
  C           4.31259741820770      2.28042935636340      0.57722758634961
  C           4.42103264100730      2.27866366080310      2.13562166010763
