84
Coordinates from ORCA-job R4N+PFOS- E -3538.109531346252
  N          -0.62320672397224     -0.49913882330036      5.08945195076083
  C           1.78606356602091     -3.09742534110602     -0.48688351604793
  C           2.09257934994862     -4.54667761239568     -0.07253857382007
  C           2.74502968076429     -4.71737394474788      1.30841356411346
  C           1.03456614988118     -2.33567424187025      0.58189842966766
  C           1.02169590635807     -3.08649141250307     -1.82556671238294
  C          -1.07144203158164     -0.15593227810987      3.66103978595889
  C          -0.34261685647580     -0.90619548372068      2.58765042926712
  C           4.02068001262940     -3.91698299244930      1.47172648657284
  C           1.52095485184812     -1.11620573641680      1.05916416439448
  C          -0.16974405123586     -2.81745411543578      1.10763361029064
  C           3.00303209678011     -6.20461219562493      1.58819348024248
  C          -1.47128595753189      0.30282161781916      6.03433840013950
  C           0.81677378418118     -0.13865822215889      5.30062794149179
  C          -0.81974587805313     -1.95761458577905      5.37577439976334
  C           0.83968465089305     -0.40328861768812      2.04006203701284
  C          -0.84674116746514     -2.11577827967332      2.09697803562247
  C           0.83763142099096     -1.69384545940451     -2.41935877209608
  C           5.09113867932187     -4.06801070715556      0.58242146069965
  C           4.17166522614616     -3.03543461015242      2.54657171687065
  C           6.27870938922736     -3.36523315176011      0.76939308123093
  C           5.35960528030523     -2.33169323875915      2.73841783999706
  C           6.42015231860657     -2.49816499386528      1.85182335839334
  H           2.74162460804614     -2.57663432211319     -0.64247014889582
  H           2.74098869289501     -4.99029787725860     -0.84124219187903
  H           1.16181993474048     -5.13109044366887     -0.08187507709109
  H           2.03703880188051     -4.35115550619570      2.06441085576326
  H           0.04167128164570     -3.56139760635991     -1.67658831241919
  H           1.56983620751816     -3.71872306144515     -2.53709238159329
  H          -0.92175754916838      0.92325157307571      3.56351223607985
  H          -2.14276203594191     -0.37452693401688      3.63515031976910
  H           2.45051352934177     -0.72206682098073      0.65540064899576
  H          -0.58279702718550     -3.75582553139352      0.74499603177122
  H           2.06869598103887     -6.77565400130771      1.53117985810747
  H           3.43161255020236     -6.35107274811025      2.58606787519679
  H           3.70156683611919     -6.62564811742935      0.85516356073151
  H          -1.15603784865103      0.08177813885947      7.05607118702532
  H          -2.51671125415164      0.02063323785990      5.89206550707119
  H          -1.33128324709646      1.36385196523844      5.81695203810699
  H           0.95039220287929      0.92204455815505      5.07675153056586
  H           1.43971815923300     -0.74904541676762      4.64532167549632
  H           1.06841616428336     -0.33956385944321      6.34425163443068
  H          -0.16493712539782     -2.54255154156281      4.72827393860103
  H          -1.86554463249394     -2.21395052096463      5.19276692643217
  H          -0.56439572061600     -2.13656833865218      6.42249613746491
  H           1.22903246112475      0.55179220193940      2.38452977039778
  H          -1.77956538571436     -2.50911653575101      2.49464389323637
  H           0.31448435988632     -1.74425633353402     -3.38101368870095
  H           1.80507076699301     -1.20725503789263     -2.59176115317593
  H           0.25217982190230     -1.04566796815384     -1.75650938708463
  H           5.00015418258926     -4.74643803565446     -0.26313457320316
  H           3.34759168479459     -2.90348413484920      3.24560883814645
  H           7.09998326896201     -3.49737132720380      0.06951177239887
  H           5.45654546819370     -1.65378439405334      3.58317616969506
  H           7.34838972496970     -1.95137511276145      1.99719796931468
  S           5.41042179141297     -3.66131566176640     -3.56465794214718
  F           6.28119215238003     -1.03632177300250     -1.82670100240606
  F           7.24018668616235      0.85989393247222     -2.37608378504801
  F           5.92156121604797      1.17444422806337     -4.52962748274735
  F           4.38924024127881     -0.30572090479403     -4.06191149712541
  F           3.89918975352294      0.10172616135895     -1.51481995498603
  F           4.63397248564671      2.04905896916434     -2.25053878579575
  F           6.84402999391549     -0.58722821428105     -5.92748681384818
  F           7.73413120732037     -1.29664086865386     -4.05929294747164
  F           5.49626812473402      0.16122174978675      0.59039739460967
  F           6.56460693406591      1.94416353046652     -0.12052952420061
  F           6.84168207973437     -3.18505318253330     -5.72159596977491
  F           4.82745662688176     -2.31508224191862     -5.78517930946963
  F           3.07122696104864      1.90751787583205      0.22736781525027
  F           4.56455312473252      3.51445164945416      0.18028143895592
  F           3.93460875331430      1.04784906755261      2.61198019409099
  F           3.67677129188495      3.20526761622886      2.63782687829876
  F           5.68097034431076      2.35470453046121      2.54698936101070
  O           4.93067054692280     -4.85016652067944     -4.31454383840990
  O           4.35068392246625     -2.92272435402095     -2.83584360760157
  O           6.67377144737634     -3.86897621917460     -2.81468475117426
  C           6.08358280314009      0.16134157684138     -2.41424695769654
  C           5.70232819929415     -0.02071973025932     -3.93424192997730
  C           4.97585381861974      0.91500337443790     -1.59307899185666
  C           6.55890667645468     -1.11040335973670     -4.70577963987370
  C           5.37790868772606      1.30190228902334     -0.12744782059659
  C           5.91105298080499     -2.50765897818556     -4.99251900611841
  C           4.33220301349519      2.24496464091113      0.57620616845717
  C           4.41333340265172      2.20432729639155      2.13939705879759
