84
Coordinates from ORCA-job R4N+PFOS-_wb
  N          -0.62177530977080     -0.50090208775872      5.08246831222718
  C           1.78131867037013     -3.09589050543973     -0.48341077537159
  C           2.09345035611542     -4.53934308821295     -0.06871257747313
  C           2.74974700724415     -4.71650348164269      1.30503120509927
  C           1.02817897346962     -2.33093530754837      0.58263869711866
  C           1.02630774726998     -3.08571054133626     -1.82006010768841
  C          -1.06361612620226     -0.16264725875883      3.66982886810654
  C          -0.34014896692429     -0.90897001917182      2.58775375217060
  C           4.02624390494265     -3.91848866767540      1.47113361466499
  C           1.51349716744154     -1.11759792105913      1.05954794621753
  C          -0.17163577436589     -2.80916829417698      1.10759330192239
  C           3.00092137170982     -6.19912717364974      1.58488726144134
  C          -1.46256851135703      0.29539318055310      6.01932263336893
  C           0.80608478748447     -0.14279331755264      5.29895787912276
  C          -0.81705127968192     -1.94643681030516      5.37514489294689
  C           0.83685877423198     -0.40945269601106      2.04122117667823
  C          -0.84376033621272     -2.11161596433654      2.09662511685940
  C           0.84053456634969     -1.69899663720779     -2.41718063900157
  C           5.09342330182767     -4.06589400355992      0.58618411353734
  C           4.17591713427103     -3.04168571721445      2.54240547353392
  C           6.27661274349519     -3.36687600178601      0.77324089622695
  C           5.35868121947154     -2.34020155036868      2.73611121070963
  C           6.41551778063048     -2.50482847636006      1.85325151482910
  H           2.73259077195991     -2.57486031940762     -0.63637971986079
  H           2.73696053619984     -4.97891000997354     -0.83865239092573
  H           1.16825619472501     -5.12580717289898     -0.07798941534173
  H           2.04861172839056     -4.35349370192346      2.06254891817338
  H           0.05017724465508     -3.56262569803409     -1.67913028388334
  H           1.57587129780354     -3.71437513696950     -2.52762382203223
  H          -0.91799853945786      0.91226899834923      3.56970486762942
  H          -2.13141147419441     -0.37520092161919      3.64088975806494
  H           2.44043113080991     -0.72359914230458      0.65761902124593
  H          -0.58433393541861     -3.74549631914695      0.74742280869295
  H           2.06846513849951     -6.76659449274564      1.52898666815117
  H           3.42554678699314     -6.34597937703577      2.58084610987808
  H           3.69694354758300     -6.62588247100099      0.85744892674337
  H          -1.14892507828293      0.07620454469587      7.03764510752586
  H          -2.50486985345211      0.01606491845041      5.88004916516333
  H          -1.32414841107592      1.35282435581067      5.80419275081414
  H           0.94240468075943      0.91366227151837      5.07712763732418
  H           1.43415667636847     -0.75063210087745      4.65284163918210
  H           1.05247884028231     -0.34068058496221      6.33996112449050
  H          -0.16463496293435     -2.53687733601934      4.73736514487517
  H          -1.85854761925484     -2.20503755231364      5.19542101702125
  H          -0.56393109804885     -2.11963042040208      6.41901699877175
  H           1.22977177385089      0.54016421429628      2.38752939242206
  H          -1.77230480450926     -2.50648109454274      2.49520100116890
  H           0.31956988195842     -1.75232878084166     -3.37586079619562
  H           1.80368371255820     -1.21202177175623     -2.59067906543586
  H           0.25484998689529     -1.04985687520532     -1.76088515466631
  H           5.00201815058941     -4.73807589671697     -0.26066161345055
  H           3.35154761656023     -2.90703682607312      3.23593283409070
  H           7.09369609414543     -3.49439207917512      0.07196985477558
  H           5.45135585792076     -1.66053522493838      3.57603000228470
  H           7.33845522587491     -1.95506725065075      1.99705539763827
  S           5.41701867423159     -3.64308972376120     -3.58101980074560
  F           6.28063958543932     -1.02169882771583     -1.82303381251963
  F           7.22775016823865      0.85601757748421     -2.37682428112905
  F           5.93311341465404      1.15402400089783     -4.52457404953060
  F           4.39412632536885     -0.29001321409385     -4.05672161669437
  F           3.90575953299352      0.11230441644491     -1.51855746137800
  F           4.63571075280622      2.04010396334485     -2.25057622855335
  F           6.81849233302997     -0.61130600916950     -5.90804391207334
  F           7.72176529592884     -1.29183636849761     -4.05820733551325
  F           5.49223643429923      0.16940303205840      0.57721199429385
  F           6.55378171909972      1.93709072309033     -0.12197065481383
  F           6.83073583214444     -3.18107113207423     -5.70171260349131
  F           4.83163726779519     -2.32099389515436     -5.75930573252372
  F           3.08201321883109      1.91159956293034      0.22922637401710
  F           4.56483132596720      3.50139814189089      0.17916134208938
  F           3.94878336757872      1.05535024484840      2.60461857158533
  F           3.67825702225319      3.19251786374464      2.62332318811283
  F           5.67051780987536      2.36155817864601      2.54182587669341
  O           4.94840106943632     -4.80423727819041     -4.30468982447308
  O           4.38794442312449     -2.91970866439347     -2.87238172072584
  O           6.64576272530052     -3.84348315255139     -2.84808540788225
  C           6.08080800483612      0.16250590486813     -2.41126736902652
  C           5.70000617853641     -0.02515758151888     -3.92700832077158
  C           4.97436448306540      0.91753257614699     -1.59548775146030
  C           6.54892110314207     -1.12004682460437     -4.69009296638613
  C           5.37542669447363      1.30147056061075     -0.13145708961421
  C           5.90604898481342     -2.51856122944530     -4.97007070421701
  C           4.33410554613025      2.24208363912801      0.57287861818617
  C           4.41620120133070      2.20310548545937      2.13311000219031
