25
Coordinates from ORCA-job PFOA_wb E -1953.448749149795
  F          -0.55889052447520     -2.50922706729631      0.03504038063324
  F          -0.75224394506416     -1.55318369411351      1.97453295398058
  F           1.71398302775101     -1.74078327196420      1.00360169619350
  F           1.16961836069279     -0.66506893481611     -0.81297821110708
  F          -2.84105937922825     -1.26489142132439      0.43939486132394
  F          -1.85568163624575      0.61678927199952      0.91209966802061
  F           0.65858691520953      1.56126527645261      0.54400937795614
  F           0.83196150026317      0.54339658628375      2.46133868599912
  F          -0.98267849556905      0.91119361443659     -1.55569989086932
  F          -1.45006064961129     -1.14912644992746     -2.09173339292264
  F           3.39188324732805      0.06442193230154      2.11909749437347
  F           2.89358504281068      2.14498079372000      1.75224931247800
  F          -4.07255352439016     -0.68646873023907     -1.88128677540567
  F          -3.11591687802478      0.85036345054323     -3.04855721412249
  F          -3.74244282911666      1.27119238528116     -1.02528671476554
  O           4.19503343510988     -0.17707953685968     -0.38462443865210
  O           3.33420353621389      1.83898581035510     -0.88132622815371
  C          -0.53672868749855     -1.32658354888487      0.66990431132215
  C           0.92204538769202     -0.77869666406674      0.50288510015647
  C          -1.77016732364720     -0.49679546638424      0.17322620461465
  C           1.28664865114992      0.56813471804816      1.19435623014056
  C          -1.82357838042292     -0.10659049537560     -1.33773069115241
  C           2.81115592357343      0.89616893359529      1.22896448280034
  C          -3.23772620813791      0.34166766213501     -1.82792861090058
  C           3.53112343363755      0.84593484610023     -0.16374959194125
