52
Coordinates from ORCA-job R4N+FHEA-_0.15M E -2199.703758901097
  N      -2.269364     -0.026398      0.225001
  C      -1.269270     -0.033391     -0.952638
  C      -2.100886      1.227199      1.072153
  C      -3.681403     -0.046394     -0.349378
  C      -2.079228     -1.253768      1.105357
  C       0.184062     -0.017999     -0.585549
  C       0.904511      1.251309     -0.469497
  C       0.923849     -1.273239     -0.441299
  C       2.299475      1.263642     -0.053440
  C       2.318852     -1.254938     -0.025612
  C       3.006505      0.011952      0.162571
  H      -1.515854      0.838606     -1.572017
  H      -1.502544     -0.924122     -1.550133
  H      -2.179971      2.101151      0.418998
  H      -1.127482      1.197342      1.568432
  H      -2.895727      1.243470      1.824455
  H      -3.815485      0.843322     -0.971941
  H      -4.395672     -0.041337      0.479533
  H      -3.799962     -0.954866     -0.947532
  H      -1.106620     -1.193622      1.600477
  H      -2.142860     -2.146118      0.475823
  H      -2.873856     -1.263774      1.857990
  H       0.472391      2.174792     -0.838952
  H       0.505935     -2.211257     -0.789925
  H       2.861851      2.191114     -0.076648
  H       2.895484     -2.173900     -0.028838
  H       4.081707      0.021797      0.305693
  F     -11.138390      0.307030      8.746537
  F      -9.062872     -0.179059      8.378932
  F     -10.664602     -2.289783      8.524317
  F      -9.755410     -2.107863      6.575866
  F      -9.870996      2.129650      7.250890
  F     -11.529274      1.166903      6.245225
  F      -9.819506     -0.469947      4.869971
  F      -9.511120      1.665690      4.582797
  F     -12.136432     -0.997441      5.571969
  F     -12.990044     -1.040593      7.567211
  F     -12.481003     -3.785665      7.746074
  F     -11.580762     -3.768133      5.763274
  F     -13.671474     -3.230201      6.019824
  O      -6.518084      1.427362      4.222122
  O      -7.118689     -0.771243      4.069803
  C     -10.283338     -0.122514      7.756516
  C     -10.248212      0.943857      6.672344
  C     -10.690733     -1.537670      7.373680
  C      -9.343841      0.649392      5.474917
  C     -12.068428     -1.646698      6.762458
  C      -7.896151      0.503725      5.865926
  C     -12.435740     -3.107016      6.573777
  C      -7.128196      0.382646      4.577068
  H      -7.717738     -0.394795      6.464732
  H      -7.544036      1.374708      6.429632
52
Coordinates from ORCA-job R4N+FHEA-_0.15M E -2199.738275027302
  N      -2.147457      0.056026      0.162816
  C      -1.134797      0.081454     -0.995113
  C      -1.964320      1.251947      1.074975
  C      -3.540446      0.105745     -0.436169
  C      -2.007679     -1.214391      0.976676
  C       0.314423      0.035763     -0.618957
  C       1.059741      1.246868     -0.440974
  C       0.996669     -1.220087     -0.534175
  C       2.426093      1.195276     -0.036318
  C       2.360903     -1.267834     -0.127869
  C       3.076462     -0.061571      0.116927
  H      -1.352187      0.990444     -1.568308
  H      -1.390360     -0.772121     -1.633993
  H      -2.007674      2.159789      0.468250
  H      -1.002247      1.169165      1.584652
  H      -2.774046      1.250420      1.813893
  H      -3.635528      1.029937     -1.011785
  H      -4.273497      0.086595      0.377222
  H      -3.669694     -0.764975     -1.083930
  H      -1.043097     -1.206061      1.488332
  H      -2.083255     -2.068917      0.299758
  H      -2.816905     -1.243078      1.715390
  H       0.650194      2.200921     -0.756887
  H       0.540185     -2.126069     -0.919649
  H       3.015509      2.105808     -0.006498
  H       2.902679     -2.207143     -0.167223
  H       4.150095     -0.095671      0.270353
  F     -11.226310      0.460600      8.640425
  F      -9.189310     -0.198287      8.319206
  F     -10.866778     -2.104497      8.774733
  F     -10.000948     -2.277457      6.803762
  F      -9.817299      2.084060      7.161976
  F     -11.525912      1.249873      6.128027
  F      -9.854940     -0.413630      4.682300
  F      -9.480783      1.723007      4.516551
  F     -12.447715     -1.390437      5.688222
  F     -13.218759     -1.066207      7.693466
  F     -12.770587     -3.744297      8.300929
  F     -11.931642     -4.065422      6.317003
  F     -13.994080     -3.420962      6.537807
  O      -6.440298      1.408995      4.145457
  O      -7.097656     -0.754819      3.861263
  C     -10.403903     -0.106362      7.701392
  C     -10.270407      0.939585      6.566802
  C     -10.902630     -1.565138      7.516518
  C      -9.349973      0.653658      5.355738
  C     -12.327578     -1.796334      6.970858
  C      -7.900191      0.443771      5.729669
  C     -12.744985     -3.272217      7.037615
  C      -7.089541      0.367153      4.437303
  H      -7.762894     -0.489922      6.280194
  H      -7.541273      1.269961      6.350331
52
Coordinates from ORCA-job R4N+FHEA-_0.15M E -2199.753026717615
  N      -2.115866      0.041338      0.171365
  C      -1.121158      0.057329     -0.989711
  C      -1.947650      1.246368      1.056769
  C      -3.500260      0.063307     -0.422560
  C      -1.957944     -1.204800      1.000409
  C       0.331964      0.033471     -0.628027
  C       1.054084      1.221770     -0.490779
  C       1.003813     -1.184286     -0.520404
  C       2.399231      1.189775     -0.134627
  C       2.344046     -1.215460     -0.158573
  C       3.043721     -0.029733      0.034276
  H      -1.359140      0.953247     -1.572520
  H      -1.379219     -0.814116     -1.600231
  H      -2.005483      2.141944      0.435338
  H      -0.982513      1.185591      1.561509
  H      -2.755353      1.246335      1.799054
  H      -3.605513      0.975789     -1.012309
  H      -4.233564      0.048037      0.390463
  H      -3.618076     -0.818292     -1.055571
  H      -0.990587     -1.175690      1.503348
  H      -2.026292     -2.070477      0.338887
  H      -2.763146     -1.231197      1.744026
  H       0.612435      2.167770     -0.792037
  H       0.524339     -2.104450     -0.842992
  H       2.976228      2.109245     -0.117597
  H       2.881133     -2.159029     -0.160609
  H       4.117798     -0.056019      0.191810
  F     -11.274350      0.476559      8.698320
  F      -9.208298     -0.178954      8.406643
  F     -10.916598     -2.100329      8.841318
  F      -9.973290     -2.235050      6.878607
  F      -9.835533      2.093412      7.219017
  F     -11.548141      1.210679      6.188783
  F      -9.890872     -0.448200      4.785472
  F      -9.529277      1.701225      4.569182
  F     -12.318725     -1.354225      5.678742
  F     -13.232399     -1.087143      7.645590
  F     -12.927103     -3.795257      8.145873
  F     -11.940824     -4.041773      6.217401
  F     -13.988605     -3.321331      6.311022
  O      -6.422691      1.396343      4.131330
  O      -7.055869     -0.766785      3.880011
  C     -10.420095     -0.087129      7.795160
  C     -10.287149      0.947377      6.636631
  C     -10.903929     -1.562061      7.588535
  C      -9.366000      0.641087      5.421186
  C     -12.310745     -1.796760      6.952600
  C      -7.901969      0.450123      5.754282
  C     -12.788848     -3.277629      6.917281
  C      -7.063939      0.357689      4.450313
  H      -7.768530     -0.474258      6.320826
  H      -7.559878      1.287540      6.366115
52
Coordinates from ORCA-job R4N+FHEA-_0.15M E -2199.757434594997
  N      -2.110427      0.043023      0.144719
  C      -1.122912      0.067853     -1.018188
  C      -1.936832      1.240140      1.033144
  C      -3.493365      0.069434     -0.444007
  C      -1.949556     -1.207355      0.959993
  C       0.326231      0.042245     -0.635600
  C       1.042697      1.231595     -0.477356
  C       0.995019     -1.177549     -0.506069
  C       2.391544      1.201179     -0.133802
  C       2.339711     -1.207609     -0.154448
  C       3.038778     -0.019092      0.038304
  H      -1.361415      0.970659     -1.589795
  H      -1.378747     -0.802164     -1.631495
  H      -1.998822      2.140214      0.418336
  H      -0.967644      1.178364      1.530371
  H      -2.738648      1.234076      1.778024
  H      -3.601304      0.986016     -1.026990
  H      -4.221996      0.048436      0.369921
  H      -3.614420     -0.807186     -1.083342
  H      -0.977957     -1.186719      1.455260
  H      -2.025098     -2.068761      0.293495
  H      -2.748197     -1.235263      1.706686
  H       0.571694      2.184247     -0.708095
  H       0.487521     -2.105720     -0.757861
  H       2.953843      2.128019     -0.063702
  H       2.863984     -2.157723     -0.100528
  H       4.103666     -0.044126      0.252968
  F     -11.261235      0.489201      8.699077
  F      -9.197721     -0.189219      8.397291
  F     -10.938142     -2.095197      8.848788
  F      -9.988940     -2.241669      6.880898
  F      -9.820614      2.080826      7.203059
  F     -11.538033      1.192468      6.171520
  F      -9.882430     -0.468254      4.779942
  F      -9.509190      1.681509      4.565509
  F     -12.303128     -1.359329      5.679457
  F     -13.227752     -1.055574      7.650403
  F     -12.954449     -3.744440      8.186467
  F     -11.961106     -4.039108      6.267601
  F     -14.005868     -3.294131      6.337123
  O      -6.400662      1.365590      4.124619
  O      -7.039987     -0.784499      3.859484
  C     -10.413422     -0.085171      7.802444
  C     -10.280231      0.937384      6.627655
  C     -10.908454     -1.561876      7.598413
  C      -9.350798      0.618694      5.418626
  C     -12.316229     -1.780909      6.961284
  C      -7.891966      0.420963      5.747448
  C     -12.811153     -3.261480      6.947814
  C      -7.042912      0.330200      4.445868
  H      -7.775144     -0.506605      6.314060
  H      -7.554412      1.257308      6.364150
52
Coordinates from ORCA-job R4N+FHEA-_0.15M E -2199.759301592864
  N      -2.105603      0.051960      0.112418
  C      -1.115984      0.097251     -1.052802
  C      -1.920141      1.230269      1.020488
  C      -3.488640      0.099257     -0.472668
  C      -1.953953     -1.214856      0.900345
  C       0.328664      0.057615     -0.649230
  C       1.037894      1.242948     -0.435921
  C       0.994853     -1.166188     -0.529721
  C       2.384062      1.205897     -0.082075
  C       2.339714     -1.204229     -0.174284
  C       3.036004     -0.018284      0.052373
  H      -1.346853      1.018127     -1.596766
  H      -1.369936     -0.758906     -1.685118
  H      -1.982055      2.143341      0.424907
  H      -0.947356      1.157481      1.508991
  H      -2.715879      1.212439      1.768467
  H      -3.594753      1.027381     -1.037689
  H      -4.213975      0.066411      0.342201
  H      -3.618270     -0.763320     -1.129434
  H      -0.977218     -1.221098      1.385357
  H      -2.049772     -2.063894      0.220573
  H      -2.744185     -1.242585      1.653148
  H       0.534936      2.199513     -0.554560
  H       0.460001     -2.092020     -0.725785
  H       2.926632      2.133149      0.077716
  H       2.849128     -2.159567     -0.086428
  H       4.087906     -0.048257      0.322010
  F     -11.235529      0.524577      8.683486
  F      -9.177797     -0.171615      8.371157
  F     -10.943337     -2.056986      8.877575
  F      -9.986103     -2.245971      6.912008
  F      -9.830310      2.081833      7.135567
  F     -11.534267      1.143495      6.118759
  F      -9.878650     -0.503128      4.751390
  F      -9.483551      1.643882      4.532051
  F     -12.262987     -1.424130      5.671684
  F     -13.210708     -0.987135      7.611308
  F     -13.044751     -3.633556      8.300476
  F     -11.990913     -4.081555      6.446006
  F     -14.014245     -3.283728      6.387305
  O      -6.378451      1.318380      4.121615
  O      -7.037103     -0.814113      3.819551
  C     -10.400588     -0.070977      7.795202
  C     -10.278932      0.920851      6.588872
  C     -10.902990     -1.552346      7.618614
  C      -9.338107      0.580370      5.392112
  C     -12.309116     -1.769593      6.975440
  C      -7.887213      0.367943      5.726980
  C     -12.844583     -3.240570      7.039954
  C      -7.026766      0.285028      4.433418
  H      -7.792685     -0.566116      6.287906
  H      -7.552166      1.198240      6.353996
52
Coordinates from ORCA-job R4N+FHEA-_0.15M E -2199.759472579912
  N      -2.085498      0.068661      0.096389
  C      -1.092068      0.126844     -1.067301
  C      -1.903225      1.239019      1.014642
  C      -3.467203      0.117864     -0.490181
  C      -1.932918     -1.204172      0.872873
  C       0.350328      0.077734     -0.656301
  C       1.056999      1.258159     -0.410574
  C       1.015756     -1.147983     -0.557446
  C       2.401746      1.213838     -0.055924
  C       2.359848     -1.192985     -0.201882
  C       3.053671     -0.012259      0.054203
  H      -1.318686      1.057202     -1.596138
  H      -1.345253     -0.721044     -1.710262
  H      -1.970579      2.157701      0.428451
  H      -0.929175      1.166766      1.500338
  H      -2.696936      1.210245      1.763768
  H      -3.576889      1.050411     -1.047104
  H      -4.192501      0.075199      0.324246
  H      -3.593951     -0.739132     -1.154838
  H      -0.952913     -1.218741      1.351111
  H      -2.037160     -2.048130      0.187975
  H      -2.717698     -1.233624      1.631105
  H       0.549304      2.215437     -0.498424
  H       0.476723     -2.069565     -0.762007
  H       2.940751      2.137536      0.133879
  H       2.867057     -2.150528     -0.126437
  H       4.103070     -0.047726      0.332867
  F     -11.203473      0.538294      8.664761
  F      -9.165973     -0.203750      8.327614
  F     -10.945582     -2.054840      8.883294
  F     -10.053192     -2.275437      6.889156
  F      -9.834845      2.056451      7.070987
  F     -11.529879      1.086882      6.066189
  F      -9.862294     -0.570744      4.733090
  F      -9.471468      1.573962      4.484277
  F     -12.338075     -1.468903      5.703848
  F     -13.220264     -0.910799      7.643673
  F     -13.146398     -3.517460      8.450640
  F     -12.129758     -4.099618      6.611993
  F     -14.126689     -3.235666      6.531484
  O      -6.366076      1.283862      4.108536
  O      -7.015683     -0.848613      3.792776
  C     -10.396666     -0.086179      7.771899
  C     -10.276285      0.882143      6.546399
  C     -10.933249     -1.559719      7.620303
  C      -9.326442      0.522487      5.361177
  C     -12.363131     -1.752431      7.022617
  C      -7.875857      0.320045      5.703945
  C     -12.948213     -3.199196      7.168739
  C      -7.009206      0.245666      4.415966
  H      -7.779822     -0.613226      6.265712
  H      -7.550711      1.152974      6.332842
52
Coordinates from ORCA-job R4N+FHEA-_0.15M E -2199.759608564176
  N      -2.093914      0.088239      0.092782
  C      -1.095205      0.155723     -1.068634
  C      -1.903519      1.243166      1.028436
  C      -3.473586      0.156818     -0.495455
  C      -1.953208     -1.196303      0.850976
  C       0.344440      0.082060     -0.651857
  C       1.060089      1.249841     -0.370126
  C       0.998049     -1.152147     -0.578728
  C       2.402019      1.183732     -0.009737
  C       2.339995     -1.218313     -0.217723
  C       3.042168     -0.050778      0.073344
  H      -1.309039      1.099608     -1.577947
  H      -1.355321     -0.678552     -1.725736
  H      -1.968869      2.171674      0.457781
  H      -0.928459      1.159408      1.509860
  H      -2.694531      1.205464      1.779544
  H      -3.577406      1.098135     -1.038510
  H      -4.199186      0.106722      0.318404
  H      -3.605990     -0.689202     -1.173031
  H      -0.969256     -1.232571      1.320034
  H      -2.077050     -2.030224      0.157007
  H      -2.731019     -1.222656      1.616646
  H       0.560057      2.212928     -0.434116
  H       0.449031     -2.063153     -0.803532
  H       2.947183      2.097236      0.209884
  H       2.836782     -2.182578     -0.160723
  H       4.088851     -0.102845      0.359737
  F     -11.218131      0.565724      8.646066
  F      -9.168431     -0.147320      8.330108
  F     -10.942864     -2.020511      8.896356
  F      -9.998580     -2.255640      6.928101
  F      -9.862848      2.078551      7.019910
  F     -11.542737      1.063032      6.035100
  F      -9.879866     -0.584931      4.723633
  F      -9.469411      1.553460      4.458496
  F     -12.238996     -1.583731      5.658067
  F     -13.195354     -0.887591      7.516798
  F     -13.189837     -3.416625      8.506400
  F     -12.060806     -4.142576      6.786547
  F     -14.049555     -3.295586      6.513808
  O      -6.368242      1.269047      4.115150
  O      -7.031266     -0.854898      3.771166
  C     -10.398313     -0.058708      7.766293
  C     -10.288487      0.886074      6.522472
  C     -10.908047     -1.543766      7.626537
  C      -9.335148      0.507155      5.345431
  C     -12.316900     -1.771237      6.991589
  C      -7.886844      0.295284      5.694163
  C     -12.912001     -3.202878      7.217042
  C      -7.016911      0.230320      4.410976
  H      -7.798986     -0.642913      6.248772
  H      -7.561176      1.121745      6.331384
52
Coordinates from ORCA-job R4N+FHEA-_0.15M E -2199.759755657763
  N      -2.087805      0.094242      0.087093
  C      -1.087928      0.168900     -1.074117
  C      -1.899333      1.243954      1.029444
  C      -3.467016      0.164373     -0.501451
  C      -1.945782     -1.193791      0.839098
  C       0.351849      0.095512     -0.658797
  C       1.065961      1.263180     -0.370797
  C       1.007262     -1.138014     -0.592047
  C       2.405182      1.195979     -0.000812
  C       2.347011     -1.204873     -0.222479
  C       3.046718     -0.038193      0.077404
  H      -1.303367      1.115211     -1.578115
  H      -1.347019     -0.663303     -1.734047
  H      -1.971341      2.176084      0.465500
  H      -0.922236      1.161107      1.506810
  H      -2.686969      1.197134      1.783733
  H      -3.572688      1.108587     -1.039054
  H      -4.191830      0.108547      0.312858
  H      -3.598573     -0.677997     -1.183696
  H      -0.958742     -1.235039      1.301241
  H      -2.077354     -2.024702      0.142876
  H      -2.718043     -1.220526      1.610747
  H       0.567556      2.226796     -0.439575
  H       0.461738     -2.047880     -0.829984
  H       2.949365      2.108984      0.223498
  H       2.845188     -2.168748     -0.170990
  H       4.092835     -0.090317      0.365955
  F     -11.199942      0.569110      8.643874
  F      -9.161794     -0.170150      8.324720
  F     -10.960535     -2.024810      8.898535
  F     -10.025303     -2.273702      6.929607
  F      -9.854442      2.060292      6.994768
  F     -11.531051      1.031885      6.017794
  F      -9.870642     -0.624824      4.724327
  F      -9.452680      1.508955      4.442843
  F     -12.241024     -1.626945      5.654849
  F     -13.193591     -0.827092      7.472527
  F     -13.311130     -3.293289      8.559159
  F     -12.117688     -4.136272      6.938012
  F     -14.075678     -3.275442      6.525092
  O      -6.359121      1.240878      4.114882
  O      -7.019682     -0.882657      3.760723
  C     -10.392346     -0.069550      7.763602
  C     -10.277872      0.861662      6.511014
  C     -10.922817     -1.547248      7.628772
  C      -9.322987      0.468931      5.338744
  C     -12.335526     -1.756063      6.994128
  C      -7.874405      0.256661      5.689444
  C     -12.970002     -3.159435      7.273963
  C      -7.005597      0.199294      4.406820
  H      -7.785481     -0.683558      6.240513
  H      -7.549929      1.081078      6.329937
52
Coordinates from ORCA-job R4N+FHEA-_0.15M E -2199.759846825789
  N      -2.085319      0.108039      0.088718
  C      -1.082931      0.186052     -1.069631
  C      -1.893411      1.248651      1.041640
  C      -3.462516      0.190927     -0.502948
  C      -1.952628     -1.187239      0.830626
  C       0.355971      0.100263     -0.655465
  C       1.079087      1.260387     -0.360514
  C       1.002194     -1.138246     -0.599205
  C       2.417217      1.180083      0.011703
  C       2.340764     -1.218369     -0.228066
  C       3.048922     -0.059679      0.082412
  H      -1.292529      1.137105     -1.567396
  H      -1.347265     -0.639395     -1.736251
  H      -1.963763      2.186110      0.486316
  H      -0.916169      1.158228      1.517658
  H      -2.680440      1.196317      1.796752
  H      -3.561204      1.140277     -1.032761
  H      -4.189309      0.132690      0.309495
  H      -3.597449     -0.645084     -1.192227
  H      -0.965900     -1.238698      1.292347
  H      -2.090052     -2.011400      0.127561
  H      -2.724817     -1.215087      1.602488
  H       0.591557      2.229393     -0.432001
  H       0.453939     -2.041133     -0.856546
  H       2.970615      2.087452      0.236118
  H       2.833920     -2.185488     -0.191831
  H       4.095819     -0.121429      0.365931
  F     -11.208410      0.570071      8.626836
  F      -9.168089     -0.163413      8.314532
  F     -10.949438     -2.031031      8.886990
  F     -10.030041     -2.269155      6.911216
  F      -9.873732      2.057854      6.965783
  F     -11.538349      1.006796      5.990913
  F      -9.866038     -0.641035      4.713949
  F      -9.455064      1.492448      4.422301
  F     -12.253530     -1.670914      5.655080
  F     -13.196990     -0.817399      7.451883
  F     -13.352249     -3.227811      8.607156
  F     -12.097044     -4.136825      7.072579
  F     -14.052827     -3.328302      6.553742
  O      -6.356126      1.240764      4.112160
  O      -7.023469     -0.878744      3.744131
  C     -10.397659     -0.069402      7.750198
  C     -10.284926      0.852190      6.491456
  C     -10.924372     -1.546775      7.618817
  C      -9.324807      0.457279      5.323777
  C     -12.343268     -1.762251      6.998127
  C      -7.876016      0.250561      5.678824
  C     -12.972862     -3.155999      7.327985
  C      -7.006844      0.199653      4.396244
  H      -7.783583     -0.690874      6.227572
  H      -7.555198      1.074501      6.321776
52
Coordinates from ORCA-job R4N+FHEA-_0.15M E -2199.759875018607
  N      -2.084450      0.109982      0.088426
  C      -1.080678      0.188324     -1.067635
  C      -1.890743      1.247475      1.044754
  C      -3.460830      0.198897     -0.505097
  C      -1.956922     -1.188091      0.826713
  C       0.357683      0.099419     -0.651921
  C       1.083229      1.257595     -0.356432
  C       1.001199     -1.140629     -0.596295
  C       2.421971      1.174587      0.013766
  C       2.339719     -1.223859     -0.225704
  C       3.050934     -0.066651      0.083976
  H      -1.288034      1.140145     -1.565026
  H      -1.345750     -0.634692     -1.737156
  H      -1.957233      2.186427      0.491475
  H      -0.914485      1.152655      1.522110
  H      -2.679244      1.195608      1.798417
  H      -3.554736      1.149917     -1.032798
  H      -4.189566      0.141562      0.305626
  H      -3.597611     -0.635005     -1.196536
  H      -0.972843     -1.241385      1.293861
  H      -2.090463     -2.009501      0.119719
  H      -2.733686     -1.218621      1.593723
  H       0.597631      2.227735     -0.426103
  H       0.450995     -2.042504     -0.852861
  H       2.977576      2.080607      0.238011
  H       2.830660     -2.192082     -0.188905
  H       4.097769     -0.130825      0.367118
  F     -11.209267      0.570998      8.623162
  F      -9.167635     -0.159423      8.309155
  F     -10.941391     -2.028773      8.890647
  F     -10.030827     -2.268709      6.910555
  F      -9.879969      2.057543      6.961540
  F     -11.544656      1.003763      5.989235
  F      -9.869471     -0.639018      4.707654
  F      -9.465880      1.496503      4.417299
  F     -12.267110     -1.660183      5.666425
  F     -13.201085     -0.828951      7.476826
  F     -13.335272     -3.246102      8.614900
  F     -12.082389     -4.139764      7.069718
  F     -14.046703     -3.343018      6.565387
  O      -6.357609      1.247409      4.104916
  O      -7.029419     -0.869944      3.733563
  C     -10.398167     -0.069212      7.747043
  C     -10.289345      0.851795      6.487194
  C     -10.922927     -1.546810      7.621211
  C      -9.330738      0.461037      5.316997
  C     -12.345906     -1.765123      7.009118
  C      -7.880924      0.258656      5.669913
  C     -12.963880     -3.166223      7.333967
  C      -7.011633      0.207918      4.386027
  H      -7.785308     -0.682160      6.219167
  H      -7.561213      1.083615      6.312099
52
Coordinates from ORCA-job R4N+FHEA-_0.15M E -2199.759892370479
  N      -2.085086      0.118159      0.087507
  C      -1.078969      0.199258     -1.065684
  C      -1.886653      1.247660      1.052253
  C      -3.460117      0.219462     -0.507653
  C      -1.966547     -1.186148      0.816184
  C       0.358143      0.099653     -0.647264
  C       1.089427      1.251636     -0.342741
  C       0.994764     -1.144399     -0.598640
  C       2.427984      1.159276      0.026005
  C       2.332929     -1.237164     -0.229334
  C       3.050302     -0.085713      0.087901
  H      -1.280153      1.155473     -1.557141
  H      -1.347019     -0.616747     -1.742507
  H      -1.948288      2.190803      0.505596
  H      -0.911089      1.144772      1.529365
  H      -2.675818      1.193840      1.804901
  H      -3.546776      1.174401     -1.029487
  H      -4.191059      0.161770      0.300982
  H      -3.601030     -0.609111     -1.204660
  H      -0.985062     -1.246747      1.287946
  H      -2.099312     -2.001373      0.101901
  H      -2.747591     -1.219835      1.578575
  H       0.607565      2.224377     -0.401374
  H       0.438509     -2.042098     -0.856729
  H       2.987597      2.060576      0.259056
  H       2.817927     -2.208497     -0.195741
  H       4.096163     -0.157518      0.372841
  F     -11.217855      0.577898      8.611486
  F      -9.170667     -0.141430      8.304964
  F     -10.933133     -2.019180      8.896699
  F     -10.019202     -2.264018      6.917582
  F      -9.894484      2.060498      6.942821
  F     -11.554089      0.991492      5.977296
  F      -9.871703     -0.646834      4.701965
  F      -9.478824      1.489803      4.402565
  F     -12.258517     -1.682881      5.669549
  F     -13.198511     -0.839516      7.469807
  F     -13.334342     -3.233794      8.633000
  F     -12.054798     -4.148534      7.122108
  F     -14.019374     -3.379428      6.577380
  O      -6.357535      1.253565      4.097410
  O      -7.037066     -0.859520      3.717794
  C     -10.401004     -0.063516      7.741391
  C     -10.297150      0.850198      6.475366
  C     -10.916094     -1.544465      7.624329
  C      -9.337503      0.458712      5.306016
  C     -12.338275     -1.775561      7.012912
  C      -7.886466      0.265488      5.658043
  C     -12.948190     -3.177465      7.355091
  C      -7.016096      0.215949      4.373674
  H      -7.785665     -0.673686      6.209181
  H      -7.570825      1.093375      6.298460
52
Coordinates from ORCA-job R4N+FHEA-_0.15M E -2199.759899202190
  N      -2.087565      0.121616      0.088458
  C      -1.079969      0.203058     -1.063179
  C      -1.885652      1.246730      1.057692
  C      -3.461598      0.230876     -0.507675
  C      -1.974872     -1.185966      0.812252
  C       0.356472      0.097311     -0.643453
  C       1.091480      1.246060     -0.335699
  C       0.988735     -1.149072     -0.596757
  C       2.429249      1.148286      0.034361
  C       2.326216     -1.247167     -0.226520
  C       3.047254     -0.098878      0.093799
  H      -1.277125      1.161479     -1.551970
  H      -1.349803     -0.609397     -1.743504
  H      -1.943319      2.192105      0.514457
  H      -0.910820      1.138478      1.535026
  H      -2.675577      1.192918      1.809455
  H      -3.543232      1.187733     -1.026819
  H      -4.194008      0.174159      0.299686
  H      -3.605478     -0.594913     -1.207382
  H      -0.995155     -1.250845      1.287136
  H      -2.107083     -1.997932      0.094159
  H      -2.758793     -1.220828      1.571636
  H       0.612753      2.220518     -0.391521
  H       0.429448     -2.044488     -0.856242
  H       2.991440      2.047071      0.270938
  H       2.807762     -2.220251     -0.193863
  H       4.092459     -0.174981      0.380095
  F     -11.222004      0.580401      8.605761
  F      -9.170578     -0.127504      8.299265
  F     -10.916621     -2.015969      8.894393
  F     -10.008244     -2.255818      6.911676
  F      -9.903847      2.067160      6.933963
  F     -11.561185      0.990989      5.972194
  F      -9.874898     -0.644504      4.698213
  F      -9.488296      1.492675      4.393698
  F     -12.258154     -1.688565      5.672612
  F     -13.196010     -0.855899      7.479083
  F     -13.307149     -3.250617      8.639339
  F     -12.027745     -4.155680      7.122335
  F     -14.000200     -3.401427      6.586309
  O      -6.358936      1.261886      4.092612
  O      -7.044329     -0.848763      3.709685
  C     -10.401642     -0.057904      7.736272
  C     -10.303038      0.854725      6.468803
  C     -10.907255     -1.542163      7.621584
  C      -9.343388      0.464095      5.299349
  C     -12.330368     -1.783836      7.016068
  C      -7.891753      0.276264      5.651099
  C     -12.927351     -3.191456      7.359421
  C      -7.020718      0.225815      4.366790
  H      -7.787696     -0.661315      6.204497
  H      -7.578448      1.106644      6.289359
52
Coordinates from ORCA-job R4N+FHEA-_0.15M E -2199.759910594616
  N      -2.091310      0.130408      0.089930
  C      -1.080801      0.214645     -1.058773
  C      -1.882768      1.245208      1.069859
  C      -3.463200      0.255857     -0.507778
  C      -1.989654     -1.184576      0.802037
  C       0.354157      0.095602     -0.636935
  C       1.096297      1.237170     -0.319297
  C       0.978006     -1.155307     -0.598001
  C       2.432566      1.127730      0.052747
  C       2.314062     -1.264930     -0.225892
  C       3.042033     -0.123894      0.104399
  H      -1.269837      1.178578     -1.539878
  H      -1.354412     -0.589701     -1.747120
  H      -1.933401      2.195890      0.535221
  H      -0.909158      1.126081      1.546995
  H      -2.673861      1.189575      1.820180
  H      -3.535549      1.217141     -1.020124
  H      -4.198188      0.199538      0.297267
  H      -3.612747     -0.563337     -1.214026
  H      -1.012704     -1.259248      1.281181
  H      -2.122642     -1.989084      0.075733
  H      -2.777798     -1.222125      1.556948
  H       0.624251      2.215222     -0.368922
  H       0.413499     -2.045135     -0.865327
  H       3.000170      2.021008      0.297214
  H       2.789288     -2.241319     -0.199718
  H       4.086144     -0.209131      0.392197
  F     -11.228504      0.590528      8.591747
  F      -9.170708     -0.100259      8.289005
  F     -10.897670     -2.000530      8.900361
  F      -9.988978     -2.247639      6.918483
  F      -9.924335      2.076313      6.906520
  F     -11.573859      0.978595      5.956021
  F      -9.877775     -0.651741      4.691418
  F      -9.503763      1.485170      4.371167
  F     -12.245931     -1.711686      5.677503
  F     -13.189765     -0.876291      7.480021
  F     -13.275140     -3.261114      8.657053
  F     -11.987874     -4.166926      7.147137
  F     -13.967468     -3.437060      6.605128
  O      -6.360095      1.272186      4.084036
  O      -7.055385     -0.833875      3.692662
  C     -10.402851     -0.047136      7.726389
  C     -10.313890      0.856660      6.451627
  C     -10.893868     -1.537029      7.623728
  C      -9.352438      0.464228      5.284467
  C     -12.314912     -1.797926      7.021520
  C      -7.899597      0.288789      5.637080
  C     -12.896621     -3.209599      7.375998
  C      -7.027169      0.238233      4.353511
  H      -7.788000     -0.645360      6.194994
  H      -7.592478      1.124519      6.271253
52
Coordinates from ORCA-job R4N+FHEA-_0.15M E -2199.759940044283
  N      -2.098724      0.152584      0.093224
  C      -1.081073      0.245489     -1.048448
  C      -1.874657      1.240121      1.100594
  C      -3.464849      0.317815     -0.507410
  C      -2.023563     -1.180438      0.774817
  C       0.349867      0.094798     -0.622232
  C       1.107819      1.218638     -0.278875
  C       0.954460     -1.165957     -0.604653
  C       2.440128      1.081517      0.097855
  C       2.286618     -1.303122     -0.227555
  C       3.030088     -0.180049      0.128565
  H      -1.251221      1.222899     -1.508949
  H      -1.363377     -0.538766     -1.756106
  H      -1.909556      2.204212      0.589119
  H      -0.903744      1.094563      1.575797
  H      -2.667998      1.177646      1.847918
  H      -3.515144      1.290011     -1.001581
  H      -4.205534      0.261295      0.292410
  H      -3.628168     -0.483888     -1.230465
  H      -1.052373     -1.280702      1.260989
  H      -2.161324     -1.965652      0.028567
  H      -2.819699     -1.223947      1.521090
  H       0.651330      2.204707     -0.313156
  H       0.378367     -2.041672     -0.893088
  H       3.020016      1.961279      0.361852
  H       2.747113     -2.286855     -0.218489
  H       4.071320     -0.286900      0.419630
  F     -11.241052      0.615296      8.553942
  F      -9.171045     -0.040785      8.260289
  F     -10.855829     -1.962570      8.913788
  F      -9.950578     -2.231671      6.933082
  F      -9.971936      2.091293      6.831587
  F     -11.599899      0.939046      5.909805
  F      -9.877904     -0.683611      4.677975
  F      -9.536162      1.450927      4.310995
  F     -12.220611     -1.775020      5.691261
  F     -13.174739     -0.911931      7.475949
  F     -13.215844     -3.262696      8.712358
  F     -11.911165     -4.187138      7.229071
  F     -13.903093     -3.510601      6.665415
  O      -6.359308      1.290691      4.062963
  O      -7.076807     -0.804114      3.650232
  C     -10.405228     -0.024028      7.699423
  C     -10.337160      0.853609      6.405261
  C     -10.866310     -1.525100      7.628088
  C      -9.369289      0.452463      5.246807
  C     -12.283507     -1.827677      7.036936
  C      -7.913633      0.310524      5.602658
  C     -12.837309     -3.240912      7.429701
  C      -7.038119      0.261308      4.321250
  H      -7.782259     -0.614137      6.172273
  H      -7.623960      1.160125      6.226417
52
Coordinates from ORCA-job R4N+FHEA-_0.15M E -2199.759970498127
  N      -2.114552      0.212124      0.103130
  C      -1.077560      0.329385     -1.019019
  C      -1.856195      1.224742      1.180155
  C      -3.462660      0.476452     -0.501050
  C      -2.105999     -1.162342      0.702260
  C       0.340565      0.096614     -0.585224
  C       1.137261      1.170348     -0.173886
  C       0.895520     -1.185995     -0.627731
  C       2.457250      0.960747      0.212124
  C       2.215650     -1.395345     -0.241078
  C       2.997016     -0.323108      0.183587
  H      -1.199398      1.338746     -1.422337
  H      -1.380077     -0.399724     -1.775437
  H      -1.852161      2.220310      0.731445
  H      -0.894041      1.013314      1.648207
  H      -2.656658      1.141288      1.917548
  H      -3.458421      1.473697     -0.945591
  H      -4.217591      0.417166      0.285307
  H      -3.657499     -0.276899     -1.266943
  H      -1.150609     -1.328885      1.201527
  H      -2.255359     -1.895010     -0.093530
  H      -2.921276     -1.220137      1.427080
  H       0.720919      2.174566     -0.164630
  H       0.291185     -2.021483     -0.972336
  H       3.067325      1.802280      0.527886
  H       2.638123     -2.395278     -0.280223
  H       4.029267     -0.486400      0.480492
  F     -11.276366      0.678471      8.448633
  F      -9.179388      0.107417      8.178314
  F     -10.762457     -1.853410      8.949480
  F      -9.858672     -2.191796      6.978739
  F     -10.096826      2.112505      6.627549
  F     -11.661173      0.820856      5.786201
  F      -9.868483     -0.779906      4.648497
  F      -9.611613      1.340580      4.154820
  F     -12.147607     -1.942307      5.733945
  F     -13.136820     -0.994588      7.456977
  F     -13.079347     -3.241190      8.858712
  F     -11.726348     -4.218566      7.455264
  F     -13.742176     -3.679686      6.834484
  O      -6.357596      1.329792      4.010313
  O      -7.126088     -0.736094      3.541717
  C     -10.415372      0.031773      7.625154
  C     -10.396084      0.832324      6.280863
  C     -10.802567     -1.491379      7.641262
  C      -9.407557      0.406736      5.149932
  C     -12.204991     -1.898151      7.079486
  C      -7.948024      0.354515      5.514443
  C     -12.694045     -3.302677      7.577797
  C      -7.063955      0.311187      4.239478
  H      -7.766163     -0.542642      6.114138
  H      -7.706938      1.237976      6.111012
52
Coordinates from ORCA-job R4N+FHEA-_0.15M E -2199.760011170382
  N      -2.112403      0.198837      0.102043
  C      -1.080256      0.310383     -1.025294
  C      -1.860963      1.228383      1.163495
  C      -3.465056      0.440852     -0.501639
  C      -2.087986     -1.166630      0.720451
  C       0.340890      0.096091     -0.593324
  C       1.129777      1.181820     -0.199344
  C       0.906170     -1.182274     -0.620514
  C       2.452917      0.988455      0.184671
  C       2.229465     -1.375547     -0.236235
  C       3.003392     -0.291256      0.171236
  H      -1.213060      1.312833     -1.442001
  H      -1.379260     -0.432694     -1.769639
  H      -1.866121      2.217406      0.700780
  H      -0.896295      1.031470      1.632875
  H      -2.659254      1.150218      1.904092
  H      -3.473004      1.432714     -0.958054
  H      -4.215965      0.382971      0.288645
  H      -3.653723     -0.324228     -1.257420
  H      -1.127706     -1.318487      1.214979
  H      -2.237174     -1.911479     -0.063943
  H      -2.896957     -1.220959      1.452182
  H       0.705200      2.182607     -0.202845
  H       0.307818     -2.026993     -0.952715
  H       3.057378      1.839338      0.485693
  H       2.660123     -2.372342     -0.264424
  H       4.038252     -0.441801      0.465604
  F     -11.266379      0.670360      8.470433
  F      -9.175961      0.075728      8.198638
  F     -10.792948     -1.867937      8.953727
  F      -9.878560     -2.206751      6.988655
  F     -10.067612      2.107178      6.667555
  F     -11.644966      0.842917      5.810148
  F      -9.861122     -0.769859      4.663060
  F      -9.597048      1.353603      4.184382
  F     -12.158743     -1.897167      5.726051
  F     -13.146508     -0.976358      7.464054
  F     -13.101500     -3.266690      8.819403
  F     -11.773959     -4.215972      7.373107
  F     -13.787682     -3.629442      6.789048
  O      -6.356116      1.323889      4.018265
  O      -7.110193     -0.750642      3.569198
  C     -10.411872      0.021028      7.643039
  C     -10.380804      0.834394      6.306841
  C     -10.819002     -1.497873      7.647536
  C      -9.395399      0.411463      5.172039
  C     -12.222006     -1.881470      7.072321
  C      -7.935444      0.349702      5.534550
  C     -12.727692     -3.291354      7.534639
  C      -7.054608      0.302724      4.258019
  H      -7.758562     -0.549157      6.132963
  H      -7.688141      1.230915      6.131922
52
Coordinates from ORCA-job R4N+FHEA-_0.15M E -2199.760038650888
  N      -2.115626      0.208537      0.102838
  C      -1.078184      0.326766     -1.018882
  C      -1.859050      1.220577      1.179394
  C      -3.463885      0.471124     -0.502467
  C      -2.105383     -1.165419      0.702273
  C       0.339645      0.098409     -0.583741
  C       1.134039      1.174589     -0.175387
  C       0.896579     -1.183278     -0.622646
  C       2.454827      0.968721      0.210419
  C       2.217125     -1.389385     -0.235602
  C       2.996903     -0.314461      0.185465
  H      -1.202747      1.334872     -1.424133
  H      -1.379347     -0.405544     -1.773089
  H      -1.856089      2.216161      0.731117
  H      -0.896828      1.009507      1.647784
  H      -2.659517      1.137848      1.917161
  H      -3.460002      1.468623     -0.946579
  H      -4.217716      0.411497      0.284970
  H      -3.657852     -0.282860     -1.267987
  H      -1.148511     -1.332229      1.198586
  H      -2.257534     -1.897752     -0.093272
  H      -2.917716     -1.223137      1.429906
  H       0.715506      2.177917     -0.168831
  H       0.293721     -2.020584     -0.965183
  H       3.063690      1.812375      0.522630
  H       2.640970     -2.388824     -0.272030
  H       4.029624     -0.474920      0.482032
  F     -11.266144      0.687103      8.448778
  F      -9.172124      0.103340      8.176704
  F     -10.772613     -1.840968      8.966933
  F      -9.863610     -2.200367      7.003215
  F     -10.086442      2.107686      6.623834
  F     -11.655486      0.819341      5.787229
  F      -9.860950     -0.791457      4.654394
  F      -9.614600      1.329363      4.151308
  F     -12.154890     -1.909432      5.745721
  F     -13.139234     -0.990055      7.485813
  F     -13.062333     -3.278283      8.850276
  F     -11.739657     -4.217876      7.393021
  F     -13.763857     -3.648973      6.827205
  O      -6.356375      1.325666      4.000508
  O      -7.120432     -0.742184      3.540394
  C     -10.409932      0.032572      7.627592
  C     -10.389848      0.827975      6.280530
  C     -10.806663     -1.489082      7.655897
  C      -9.403770      0.399168      5.148527
  C     -12.209763     -1.888969      7.092387
  C      -7.942846      0.353308      5.510183
  C     -12.699975     -3.301308      7.562717
  C      -7.061071      0.307590      4.234237
  H      -7.756843     -0.540246      6.113947
  H      -7.703815      1.239868      6.102846
52
Coordinates from ORCA-job R4N+FHEA-_0.15M E -2199.760076307667
  N      -2.115829      0.220428      0.100514
  C      -1.071490      0.352938     -1.013631
  C      -1.857782      1.209099      1.197241
  C      -3.459489      0.504594     -0.506460
  C      -2.118267     -1.164697      0.673192
  C       0.342601      0.111251     -0.574862
  C       1.139611      1.176588     -0.144554
  C       0.893614     -1.172368     -0.632272
  C       2.457848      0.958408      0.243427
  C       2.211395     -1.391071     -0.242817
  C       2.994227     -0.326726      0.199173
  H      -1.190013      1.368039     -1.402555
  H      -1.372715     -0.365566     -1.781081
  H      -1.850470      2.213626      0.769546
  H      -0.897467      0.984216      1.663234
  H      -2.659859      1.115505      1.932022
  H      -3.444697      1.510264     -0.931570
  H      -4.215715      0.437400      0.278131
  H      -3.656497     -0.234236     -1.285789
  H      -1.163751     -1.349429      1.167765
  H      -2.275305     -1.879694     -0.137012
  H      -2.931732     -1.229737      1.398734
  H       0.724459      2.181083     -0.120772
  H       0.287849     -2.001348     -0.989476
  H       3.068719      1.793593      0.573817
  H       2.630024     -2.392130     -0.292394
  H       4.024498     -0.496858      0.498786
  F     -11.251396      0.714129      8.420374
  F      -9.160136      0.117078      8.146953
  F     -10.769217     -1.803912      8.991842
  F      -9.864658     -2.207980      7.035085
  F     -10.084931      2.092970      6.562870
  F     -11.655256      0.786598      5.756313
  F      -9.856189     -0.843600      4.649830
  F      -9.625806      1.269974      4.105025
  F     -12.159543     -1.927682      5.775934
  F     -13.134127     -0.972574      7.501665
  F     -13.062012     -3.240748      8.906759
  F     -11.749670     -4.207018      7.457442
  F     -13.775946     -3.638566      6.894417
  O      -6.351458      1.303085      3.972557
  O      -7.122440     -0.758104      3.499350
  C     -10.401922      0.039665      7.608826
  C     -10.387704      0.806868      6.245708
  C     -10.804571     -1.479681      7.673594
  C      -9.404872      0.359031      5.117844
  C     -12.211359     -1.883731      7.122769
  C      -7.942162      0.329360      5.475851
  C     -12.706774     -3.284330      7.619092
  C      -7.061065      0.287318      4.199555
  H      -7.746427     -0.558934      6.084520
  H      -7.710758      1.220528      6.064433
52
Coordinates from ORCA-job R4N+FHEA-_0.15M E -2199.760101774652
  N      -2.120590      0.239729      0.104388
  C      -1.069380      0.382245     -1.002201
  C      -1.858515      1.205107      1.220989
  C      -3.458681      0.548778     -0.503344
  C      -2.139530     -1.156090      0.650194
  C       0.340013      0.116914     -0.562239
  C       1.147419      1.165153     -0.109964
  C       0.876684     -1.171718     -0.641077
  C       2.461929      0.925140      0.277941
  C       2.190913     -1.412155     -0.252436
  C       2.984135     -0.364860      0.211333
  H      -1.175601      1.405504     -1.372961
  H      -1.375076     -0.318372     -1.784279
  H      -1.844460      2.217938      0.813394
  H      -0.900711      0.964967      1.684473
  H      -2.662638      1.101914      1.952155
  H      -3.430578      1.561449     -0.910714
  H      -4.218138      0.476909      0.277732
  H      -3.660663     -0.174761     -1.295513
  H      -1.189118     -1.359612      1.145463
  H      -2.299548     -1.853646     -0.174419
  H      -2.956810     -1.227191      1.370896
  H       0.743135      2.173487     -0.068032
  H       0.262712     -1.987417     -1.014468
  H       3.080979      1.747030      0.625934
  H       2.598362     -2.416849     -0.318856
  H       4.011428     -0.551930      0.511096
  F     -11.257084      0.737490      8.382777
  F      -9.161400      0.150022      8.120438
  F     -10.759739     -1.761409      9.009372
  F      -9.844630     -2.201968      7.065778
  F     -10.104965      2.086129      6.496433
  F     -11.661519      0.747746      5.715968
  F      -9.838542     -0.891909      4.652314
  F      -9.643628      1.210511      4.053148
  F     -12.137595     -1.974345      5.792807
  F     -13.126678     -0.983581      7.489726
  F     -13.043952     -3.215007      8.952401
  F     -11.713649     -4.205336      7.535973
  F     -13.742527     -3.672408      6.947584
  O      -6.346978      1.304016      3.944492
  O      -7.126506     -0.752660      3.465427
  C     -10.402762      0.052289      7.585195
  C     -10.394550      0.790811      6.206232
  C     -10.793564     -1.468040      7.683828
  C      -9.406528      0.329271      5.088311
  C     -12.195426     -1.896820      7.138264
  C      -7.942778      0.333567      5.444444
  C     -12.681255     -3.288193      7.668604
  C      -7.061778      0.291043      4.168181
  H      -7.729401     -0.542451      6.065026
  H      -7.726867      1.236484      6.020738
52
Coordinates from ORCA-job R4N+FHEA-_0.15M E -2199.760146590249
  N      -2.128935      0.266008      0.113438
  C      -1.069929      0.415215     -0.984675
  C      -1.864409      1.210226      1.247486
  C      -3.460775      0.598593     -0.496241
  C      -2.166007     -1.138870      0.634503
  C       0.333133      0.118265     -0.544767
  C       1.155534      1.143059     -0.066985
  C       0.849971     -1.176538     -0.652075
  C       2.465419      0.873884      0.317449
  C       2.159384     -1.446184     -0.266709
  C       2.967789     -0.422030      0.221879
  H      -1.159500      1.447070     -1.335692
  H      -1.382966     -0.264130     -1.782419
  H      -1.844128      2.230130      0.858030
  H      -0.909437      0.956825      1.709610
  H      -2.670947      1.098470      1.974669
  H      -3.420062      1.617450     -0.886513
  H      -4.223870      0.521887      0.280733
  H      -3.665749     -0.110606     -1.300341
  H      -1.220357     -1.361448      1.130822
  H      -2.329026     -1.820265     -0.202818
  H      -2.987325     -1.214003      1.350023
  H       0.766802      2.156284     -0.001896
  H       0.224191     -1.974005     -1.044776
  H       3.096388      1.677559      0.685944
  H       2.551267     -2.455390     -0.355041
  H       3.991449     -0.631669      0.519199
  F     -11.271078      0.752496      8.339390
  F      -9.166526      0.188744      8.092166
  F     -10.744931     -1.721717      9.018344
  F      -9.808005     -2.190271      7.091974
  F     -10.137373      2.080040      6.427294
  F     -11.669338      0.699458      5.670252
  F      -9.808482     -0.936740      4.656222
  F      -9.667184      1.151780      3.997754
  F     -12.092684     -2.049113      5.800187
  F     -13.111317     -1.008158      7.448193
  F     -13.030734     -3.177210      8.992202
  F     -11.652552     -4.202910      7.648302
  F     -13.678021     -3.734773      6.995603
  O      -6.342506      1.319285      3.908751
  O      -7.128425     -0.735878      3.434046
  C     -10.405203      0.063548      7.556932
  C     -10.404411      0.774537      6.163259
  C     -10.773715     -1.459088      7.686133
  C      -9.406657      0.306472      5.056707
  C     -12.165886     -1.922669      7.141551
  C      -7.942844      0.356509      5.410229
  C     -12.639996     -3.298972      7.720730
  C      -7.061547      0.309632      4.134015
  H      -7.708494     -0.502566      6.046901
  H      -7.746625      1.274694      5.968974
52
Coordinates from ORCA-job R4N+FHEA-_0.15M E -2199.760138669039
  N      -2.142019      0.313599      0.130309
  C      -1.068606      0.475386     -0.951866
  C      -1.871722      1.216256      1.296731
  C      -3.460915      0.691512     -0.481400
  C      -2.212914     -1.106239      0.605273
  C       0.321297      0.119339     -0.513943
  C       1.169408      1.098339      0.012366
  C       0.801400     -1.184155     -0.673951
  C       2.468185      0.774769      0.392660
  C       2.099898     -1.507914     -0.293645
  C       2.933891     -0.529637      0.243501
  H      -1.125774      1.522256     -1.263101
  H      -1.393641     -0.162557     -1.778430
  H      -1.835557      2.248203      0.941605
  H      -0.923454      0.935091      1.756523
  H      -2.684460      1.090820      2.014610
  H      -3.396409      1.720615     -0.840202
  H      -4.232261      0.606670      0.286471
  H      -3.671824      0.010428     -1.307795
  H      -1.277477     -1.363839      1.104101
  H      -2.379654     -1.757538     -0.254840
  H      -3.043396     -1.188061      1.309352
  H       0.810141      2.118984      0.118125
  H       0.155897     -1.945208     -1.105147
  H       3.119707      1.543121      0.798823
  H       2.463544     -2.523103     -0.424243
  H       3.949360     -0.781202      0.536413
  F     -11.298870      0.779612      8.257068
  F      -9.177693      0.270961      8.031210
  F     -10.708084     -1.643545      9.032253
  F      -9.737989     -2.162308      7.135782
  F     -10.213842      2.067670      6.292498
  F     -11.690870      0.601205      5.588201
  F      -9.763460     -1.008114      4.655102
  F      -9.708263      1.051219      3.899592
  F     -12.007306     -2.179345      5.824679
  F     -13.078351     -1.064237      7.388770
  F     -12.983122     -3.123544      9.063507
  F     -11.532667     -4.191920      7.833617
  F     -13.552327     -3.841477      7.094512
  O      -6.340116      1.348195      3.852504
  O      -7.139387     -0.701297      3.373908
  C     -10.411524      0.087687      7.501185
  C     -10.431502      0.743614      6.080855
  C     -10.732535     -1.438906      7.689687
  C      -9.413702      0.267976      4.996683
  C     -12.104631     -1.970627      7.154281
  C      -7.953709      0.395603      5.347478
  C     -12.551434     -3.319813      7.814664
  C      -7.067999      0.343755      4.074541
  H      -7.684645     -0.433036      6.010571
  H      -7.795247      1.337651      5.877500
52
Coordinates from ORCA-job R4N+FHEA-_0.15M E -2199.760182976059
  N      -2.138744      0.296443      0.124957
  C      -1.070759      0.451650     -0.963450
  C      -1.872142      1.219991      1.275107
  C      -3.463083      0.651899     -0.488152
  C      -2.194988     -1.115850      0.623810
  C       0.323905      0.116378     -0.523972
  C       1.162645      1.111318     -0.012721
  C       0.816897     -1.184352     -0.665603
  C       2.464756      0.806156      0.371391
  C       2.118823     -1.489674     -0.281721
  C       2.943206     -0.495699      0.241210
  H      -1.139087      1.493109     -1.290252
  H      -1.391603     -0.202322     -1.779088
  H      -1.840792      2.245747      0.902139
  H      -0.921960      0.951472      1.738636
  H      -2.683368      1.104001      1.996428
  H      -3.410720      1.676142     -0.862513
  H      -4.231928      0.570094      0.282527
  H      -3.669003     -0.043069     -1.304283
  H      -1.255744     -1.356941      1.123537
  H      -2.358928     -1.782964     -0.224750
  H      -3.022584     -1.193217      1.331760
  H       0.793342      2.129772      0.078488
  H       0.178475     -1.957844     -1.085040
  H       3.108757      1.586832      0.765894
  H       2.492465     -2.502981     -0.397830
  H       3.961187     -0.733071      0.537181
  F     -11.281547      0.763508      8.292275
  F      -9.166637      0.238018      8.049419
  F     -10.708317     -1.680540      9.021494
  F      -9.759498     -2.175896      7.107701
  F     -10.189775      2.076113      6.348768
  F     -11.685799      0.639751      5.623293
  F      -9.782458     -0.971215      4.648565
  F      -9.700466      1.103394      3.936739
  F     -12.041500     -2.128616      5.813255
  F     -13.085237     -1.048644      7.420528
  F     -12.979594     -3.156094      9.038433
  F     -11.570496     -4.206595      7.746493
  F     -13.598417     -3.802298      7.059579
  O      -6.344610      1.345031      3.866671
  O      -7.135103     -0.709336      3.397275
  C     -10.404282      0.076443      7.520717
  C     -10.423148      0.758721      6.112797
  C     -10.740502     -1.450647      7.683178
  C      -9.414408      0.293043      5.016064
  C     -12.122272     -1.956406      7.148924
  C      -7.952460      0.392593      5.366695
  C     -12.575236     -3.319473      7.775562
  C      -7.067500      0.338577      4.093287
  H      -7.696627     -0.446534      6.021637
  H      -7.779765      1.326998      5.905906
52
Coordinates from ORCA-job R4N+FHEA-_0.15M E -2199.760202559622
  N      -2.143824      0.296462      0.125686
  C      -1.074140      0.450421     -0.960862
  C      -1.876442      1.219402      1.276063
  C      -3.466820      0.654310     -0.489046
  C      -2.203257     -1.115631      0.624868
  C       0.319071      0.112880     -0.518598
  C       1.158098      1.106054     -0.004582
  C       0.809814     -1.188859     -0.658771
  C       2.458660      0.798421      0.383004
  C       2.109804     -1.496936     -0.270476
  C       2.934857     -0.504469      0.254401
  H      -1.140099      1.492115     -1.287276
  H      -1.394229     -0.202564     -1.777634
  H      -1.840252      2.244884      0.902814
  H      -0.928135      0.947534      1.741551
  H      -2.689446      1.106915      1.995940
  H      -3.412365      1.678618     -0.863040
  H      -4.237260      0.573264      0.280208
  H      -3.672656     -0.039808     -1.305970
  H      -1.266032     -1.357813      1.127807
  H      -2.365107     -1.782848     -0.224064
  H      -3.033656     -1.191775      1.329733
  H       0.790624      2.125250      0.085741
  H       0.170779     -1.961147     -1.079448
  H       3.102950      1.577836      0.779486
  H       2.481622     -2.511105     -0.384846
  H       3.951332     -0.744023      0.553714
  F     -11.278777      0.760534      8.291279
  F      -9.161946      0.244077      8.046050
  F     -10.690077     -1.681895      9.018593
  F      -9.748912     -2.172440      7.100000
  F     -10.192274      2.080147      6.348590
  F     -11.686746      0.641672      5.625086
  F      -9.779224     -0.965813      4.646600
  F      -9.710821      1.108653      3.931589
  F     -12.042509     -2.114588      5.814660
  F     -13.078103     -1.061718      7.444922
  F     -12.936605     -3.189210      9.037544
  F     -11.545797     -4.217639      7.708421
  F     -13.584795     -3.807365      7.059162
  O      -6.345685      1.356126      3.852020
  O      -7.137299     -0.699140      3.388873
  C     -10.399317      0.078187      7.518188
  C     -10.423022      0.762536      6.111042
  C     -10.729308     -1.450631      7.680601
  C      -9.416270      0.301320      5.010523
  C     -12.112001     -1.959873      7.152880
  C      -7.953726      0.409952      5.355183
  C     -12.551356     -3.333385      7.766267
  C      -7.069639      0.351130      4.081106
  H      -7.691598     -0.423503      6.014938
  H      -7.784712      1.348392      5.888428
52
Coordinates from ORCA-job R4N+FHEA-_0.15M E -2199.760226995274
  N      -2.154191      0.310539      0.131793
  C      -1.077916      0.467527     -0.947753
  C      -1.885857      1.221383      1.291303
  C      -3.471779      0.682353     -0.486129
  C      -2.225929     -1.105362      0.618476
  C       0.309441      0.110449     -0.502508
  C       1.154797      1.087470      0.031661
  C       0.788056     -1.193971     -0.658732
  C       2.449336      0.760786      0.423951
  C       2.082125     -1.521002     -0.266109
  C       2.913262     -0.544911      0.279519
  H      -1.132144      1.513834     -1.261246
  H      -1.399811     -0.172290     -1.774207
  H      -1.839383      2.249698      0.927166
  H      -0.942108      0.938180      1.759320
  H      -2.703099      1.109631      2.006526
  H      -3.409891      1.709906     -0.849920
  H      -4.246677      0.597812      0.278281
  H      -3.677145     -0.002506     -1.310979
  H      -1.293424     -1.358846      1.124478
  H      -2.387640     -1.764325     -0.236952
  H      -3.061070     -1.181731      1.317659
  H       0.797414      2.109114      0.133957
  H       0.143976     -1.953188     -1.095203
  H       3.098635      1.527703      0.836307
  H       2.444571     -2.537073     -0.392992
  H       3.925062     -0.799268      0.582397
  F     -11.271646      0.764928      8.269085
  F      -9.150562      0.270290      8.015789
  F     -10.651648     -1.662611      9.016435
  F      -9.715466     -2.162935      7.098366
  F     -10.216112      2.079823      6.308490
  F     -11.693949      0.613957      5.605911
  F      -9.768149     -0.976542      4.634651
  F      -9.733530      1.091486      3.897093
  F     -12.017927     -2.138647      5.824191
  F     -13.055175     -1.086790      7.454253
  F     -12.875335     -3.200190      9.061340
  F     -11.486328     -4.223876      7.726810
  F     -13.534635     -3.837649      7.092610
  O      -6.347528      1.371531      3.817565
  O      -7.143682     -0.682565      3.357973
  C     -10.389140      0.085681      7.496887
  C     -10.429627      0.756920      6.083850
  C     -10.700553     -1.445601      7.676196
  C      -9.421856      0.300077      4.982713
  C     -12.080110     -1.975366      7.161527
  C      -7.959983      0.434202      5.320238
  C     -12.499613     -3.349212      7.787534
  C      -7.075081      0.369404      4.047270
  H      -7.684509     -0.386694      5.990534
  H      -7.803097      1.381383      5.841571
52
Coordinates from ORCA-job R4N+FHEA-_0.15M E -2199.760259094136
  N      -2.170541      0.326290      0.141301
  C      -1.086434      0.487301     -0.930011
  C      -1.900557      1.221269      1.312565
  C      -3.481311      0.716133     -0.479659
  C      -2.257498     -1.094364      0.611333
  C       0.293764      0.107653     -0.481245
  C       1.145195      1.064946      0.078488
  C       0.758914     -1.199111     -0.657380
  C       2.431966      0.715817      0.477031
  C       2.045490     -1.548370     -0.259176
  C       2.882311     -0.592345      0.312738
  H      -1.127281      1.538769     -1.227782
  H      -1.409988     -0.136991     -1.767648
  H      -1.840127      2.252939      0.960234
  H      -0.963041      0.922613      1.783523
  H      -2.723256      1.110971      2.021809
  H      -3.410503      1.748218     -0.828716
  H      -4.261718      0.625611      0.278448
  H      -3.685747      0.044489     -1.315579
  H      -1.330400     -1.362803      1.119377
  H      -2.420632     -1.742098     -0.252423
  H      -3.097549     -1.170809      1.304620
  H       0.799129      2.088882      0.195621
  H       0.109896     -1.942302     -1.113684
  H       3.086110      1.467443      0.909412
  H       2.397612     -2.565983     -0.401799
  H       3.888151     -0.864066      0.620318
  F     -11.263511      0.771718      8.239151
  F      -9.136677      0.306270      7.980915
  F     -10.603327     -1.637797      9.010617
  F      -9.669203     -2.145876      7.093871
  F     -10.240215      2.080778      6.258646
  F     -11.697730      0.583171      5.580964
  F      -9.754835     -0.986189      4.615543
  F      -9.753264      1.074657      3.856286
  F     -11.977822     -2.168956      5.830999
  F     -13.023148     -1.116731      7.455728
  F     -12.804237     -3.207620      9.083231
  F     -11.404038     -4.225175      7.756399
  F     -13.459884     -3.878547      7.124116
  O      -6.345530      1.385130      3.775652
  O      -7.149988     -0.665903      3.317451
  C     -10.374764      0.097474      7.470026
  C     -10.433309      0.751964      6.049947
  C     -10.662002     -1.436550      7.668037
  C      -9.424616      0.299159      4.948033
  C     -12.035458     -1.992855      7.166639
  C      -7.963593      0.458330      5.276796
  C     -12.430226     -3.365887      7.809690
  C      -7.078543      0.386906      4.004917
  H      -7.673756     -0.348907      5.957986
  H      -7.818910      1.414248      5.785589
52
Coordinates from ORCA-job R4N+FHEA-_0.15M E -2199.760289321235
  N      -2.183080      0.331253      0.148005
  C      -1.095663      0.494551     -0.920137
  C      -1.912733      1.219278      1.324515
  C      -3.491018      0.728391     -0.473925
  C      -2.275735     -1.091529      0.610160
  C       0.281714      0.107428     -0.469100
  C       1.133247      1.056982      0.103654
  C       0.743701     -1.199154     -0.654665
  C       2.416428      0.699869      0.506405
  C       2.027006     -1.556198     -0.252794
  C       2.863445     -0.608267      0.332935
  H      -1.132339      1.547849     -1.211854
  H      -1.419139     -0.124653     -1.761562
  H      -1.844706      2.252161      0.977129
  H      -0.978860      0.912805      1.797620
  H      -2.738595      1.110686      2.030393
  H      -3.417702      1.763311     -0.813963
  H      -4.273911      0.632252      0.280906
  H      -3.693569      0.064325     -1.316353
  H      -1.349912     -1.366969      1.116700
  H      -2.441724     -1.733657     -0.257260
  H      -3.116282     -1.168029      1.302868
  H       0.790133      2.081103      0.227510
  H       0.094591     -1.935825     -1.121319
  H       3.070593      1.445432      0.949160
  H       2.376752     -2.573529     -0.403048
  H       3.866607     -0.886085      0.643792
  F     -11.248543      0.777456      8.225313
  F      -9.120851      0.319655      7.961083
  F     -10.575820     -1.627191      9.003946
  F      -9.645226     -2.137300      7.085858
  F     -10.239397      2.081435      6.234788
  F     -11.692125      0.573632      5.569468
  F      -9.749071     -0.988740      4.599919
  F      -9.752693      1.070780      3.837336
  F     -11.955618     -2.178672      5.830673
  F     -13.002941     -1.123118      7.451968
  F     -12.774124     -3.204208      9.088825
  F     -11.367180     -4.220926      7.768980
  F     -13.424565     -3.890236      7.133135
  O      -6.338833      1.382648      3.753190
  O      -7.149025     -0.665912      3.294101
  C     -10.360001      0.103531      7.455895
  C     -10.426810      0.750639      6.033125
  C     -10.639784     -1.430972      7.660793
  C      -9.419944      0.297561      4.929482
  C     -12.011515     -1.995978      7.165455
  C      -7.958568      0.460443      5.253981
  C     -12.398225     -3.367399      7.816317
  C      -7.074878      0.386398      3.981994
  H      -7.664465     -0.342899      5.938151
  H      -7.815676      1.418508      5.759400
52
Coordinates from ORCA-job R4N+FHEA-_0.15M E -2199.760330422209
  N      -2.195697      0.325844      0.154354
  C      -1.109921      0.488195     -0.916280
  C      -1.925027      1.216388      1.329280
  C      -3.504871      0.720272     -0.466322
  C      -2.285309     -1.096490      0.618192
  C       0.269170      0.108432     -0.464236
  C       1.116821      1.063208      0.105727
  C       0.736242     -1.196999     -0.644932
  C       2.400737      0.712164      0.510906
  C       2.020612     -1.547823     -0.241048
  C       2.852868     -0.594818      0.342237
  H      -1.151119      1.539871     -1.213187
  H      -1.432355     -0.137146     -1.753489
  H      -1.853822      2.248109      0.979042
  H      -0.992792      0.908490      1.804554
  H      -2.752406      1.111391      2.033913
  H      -3.435155      1.756672     -0.802629
  H      -4.287428      0.618625      0.288087
  H      -3.704928      0.058616     -1.311237
  H      -1.356636     -1.371143      1.119918
  H      -2.455971     -1.739009     -0.248042
  H      -3.122002     -1.172514      1.315635
  H       0.769887      2.086527      0.225278
  H       0.090096     -1.937690     -1.109376
  H       3.051816      1.461740      0.951470
  H       2.374338     -2.564295     -0.387747
  H       3.856846     -0.867724      0.654833
  F     -11.228093      0.780202      8.224359
  F      -9.102764      0.312583      7.959061
  F     -10.567995     -1.632475      8.994154
  F      -9.637848     -2.136878      7.073619
  F     -10.210260      2.083295      6.236697
  F     -11.672740      0.586322      5.568393
  F      -9.743583     -0.983009      4.588131
  F      -9.727856      1.080752      3.838943
  F     -11.944467     -2.169659      5.817887
  F     -12.991038     -1.109515      7.436703
  F     -12.781695     -3.192951      9.071676
  F     -11.368983     -4.213583      7.761434
  F     -13.421454     -3.877815      7.112070
  O      -6.322948      1.367674      3.746770
  O      -7.137474     -0.679272      3.287278
  C     -10.342876      0.103800      7.453369
  C     -10.406072      0.754117      6.032241
  C     -10.630196     -1.429727      7.652031
  C      -9.402645      0.297419      4.926542
  C     -12.003342     -1.987204      7.152710
  C      -7.939744      0.445874      5.250627
  C     -12.398016     -3.357229      7.801626
  C      -7.059785      0.371904      3.976630
  H      -7.649312     -0.361605      5.931382
  H      -7.789438      1.401002      5.759711
52
Coordinates from ORCA-job R4N+FHEA-_0.15M E -2199.760376028154
  N      -2.209157      0.315358      0.161146
  C      -1.126366      0.474630     -0.913332
  C      -1.938803      1.213400      1.330827
  C      -3.521008      0.702665     -0.458382
  C      -2.292763     -1.105021      0.632194
  C       0.256102      0.108682     -0.460286
  C       1.097956      1.074541      0.099459
  C       0.732421     -1.194785     -0.630656
  C       2.385206      0.736463      0.504831
  C       2.020206     -1.532635     -0.226665
  C       2.846581     -0.568551      0.346555
  H      -1.175417      1.522987     -1.220636
  H      -1.446634     -0.161149     -1.743395
  H      -1.865916      2.242572      0.973547
  H      -1.007700      0.907222      1.809380
  H      -2.767646      1.113657      2.034439
  H      -3.456925      1.739631     -0.794065
  H      -4.302467      0.596552      0.296565
  H      -3.718131      0.040423     -1.303503
  H      -1.360355     -1.374791      1.129648
  H      -2.467118     -1.751721     -0.230150
  H      -3.124865     -1.179876      1.335253
  H       0.743445      2.096124      0.211390
  H       0.090988     -1.944224     -1.087562
  H       3.031614      1.494495      0.937755
  H       2.381145     -2.547679     -0.365477
  H       3.853181     -0.831301      0.659457
  F     -11.201854      0.778431      8.230021
  F      -9.080972      0.292123      7.962269
  F     -10.565409     -1.647512      8.981105
  F      -9.638367     -2.143676      7.056381
  F     -10.167162      2.085135      6.252253
  F     -11.646596      0.609744      5.572791
  F      -9.734992     -0.972894      4.579109
  F      -9.695805      1.096565      3.847755
  F     -11.943874     -2.149973      5.800499
  F     -12.981879     -1.087939      7.423540
  F     -12.798717     -3.181663      9.046751
  F     -11.388839     -4.208108      7.737859
  F     -13.436039     -3.853193      7.081772
  O      -6.302923      1.351487      3.742645
  O      -7.121460     -0.694707      3.285784
  C     -10.322679      0.098840      7.454722
  C     -10.378097      0.759811      6.038229
  C     -10.624873     -1.432850      7.640963
  C      -9.379704      0.299991      4.928940
  C     -12.002815     -1.973849      7.136363
  C      -7.914996      0.429957      5.252757
  C     -12.411335     -3.343621      7.777633
  C      -7.039797      0.356096      3.975414
  H      -7.630770     -0.383801      5.928332
  H      -7.754250      1.380851      5.766722
52
Coordinates from ORCA-job R4N+FHEA-_0.15M E -2199.760441723932
  N      -2.229365      0.300263      0.172234
  C      -1.151188      0.453703     -0.907701
  C      -1.960324      1.211487      1.332455
  C      -3.545420      0.674849     -0.446323
  C      -2.303032     -1.116140      0.656941
  C       0.236226      0.108144     -0.453986
  C       1.071251      1.091194      0.085638
  C       0.724229     -1.193400     -0.604573
  C       2.363746      0.772452      0.489930
  C       2.017065     -1.512087     -0.201160
  C       2.837024     -0.530491      0.351068
  H      -1.211393      1.496597     -1.231290
  H      -1.468159     -0.197519     -1.726899
  H      -1.885778      2.236275      0.963217
  H      -1.030729      0.909759      1.816731
  H      -2.791618      1.120082      2.034304
  H      -3.490446      1.711842     -0.783527
  H      -4.325141      0.563510      0.309720
  H      -3.737931      0.009598     -1.290113
  H      -1.365173     -1.376502      1.149246
  H      -2.481342     -1.771420     -0.198026
  H      -3.128632     -1.188704      1.367861
  H       0.707147      2.110929      0.182570
  H       0.088028     -1.956827     -1.045386
  H       3.004939      1.543792      0.906797
  H       2.387006     -2.525901     -0.324420
  H       3.847716     -0.778134      0.663132
  F     -11.162859      0.771766      8.238873
  F      -9.048668      0.259272      7.966968
  F     -10.559673     -1.672327      8.959568
  F      -9.639509     -2.156364      7.028244
  F     -10.102971      2.087627      6.278099
  F     -11.606455      0.645485      5.579836
  F      -9.718639     -0.956818      4.568695
  F      -9.648700      1.119590      3.860763
  F     -11.946206     -2.117268      5.773796
  F     -12.967416     -1.057285      7.408668
  F     -12.816408     -3.171891      9.008407
  F     -11.420953     -4.204463      7.688393
  F     -13.462567     -3.812744      7.036172
  O      -6.273021      1.331467      3.736262
  O      -7.096586     -0.714299      3.285313
  C     -10.292291      0.089387      7.456023
  C     -10.335929      0.768787      6.047699
  C     -10.616212     -1.439619      7.622670
  C      -9.344587      0.305853      4.933289
  C     -12.002143     -1.954681      7.111675
  C      -7.877712      0.410616      5.256777
  C     -12.431079     -3.325626      7.737818
  C      -7.009178      0.336565      3.974385
  H      -7.603684     -0.412630      5.924573
  H      -7.701891      1.355164      5.777542
52
Coordinates from ORCA-job R4N+FHEA-_0.15M E -2199.760531542649
  N      -2.258412      0.290570      0.189465
  C      -1.181475      0.441323     -0.891830
  C      -1.990533      1.207132      1.345964
  C      -3.575680      0.660592     -0.429299
  C      -2.328890     -1.124095      0.679697
  C       0.208246      0.107518     -0.436520
  C       1.038399      1.100247      0.092622
  C       0.703959     -1.192235     -0.577190
  C       2.334026      0.793132      0.495968
  C       1.999686     -1.499464     -0.174214
  C       2.815061     -0.507982      0.366993
  H      -1.247817      1.481131     -1.224086
  H      -1.495216     -0.217857     -1.705883
  H      -1.909246      2.229313      0.971052
  H      -1.065001      0.903690      1.836958
  H      -2.826614      1.123427      2.043204
  H      -3.525819      1.699626     -0.760996
  H      -4.355923      0.541243      0.325131
  H      -3.763288     -0.001534     -1.276625
  H      -1.388056     -1.381781      1.167745
  H      -2.511530     -1.782630     -0.171820
  H      -3.150154     -1.194843      1.395847
  H       0.667851      2.118305      0.182501
  H       0.071760     -1.963396     -1.010217
  H       2.971431      1.571897      0.904741
  H       2.375553     -2.512022     -0.289636
  H       3.828118     -0.746560      0.678465
  F     -11.115922      0.771003      8.231840
  F      -9.007111      0.239598      7.954170
  F     -10.535470     -1.683126      8.936439
  F      -9.623187     -2.164231      7.000759
  F     -10.042315      2.088662      6.278211
  F     -11.563078      0.668277      5.572773
  F      -9.692727     -0.950393      4.551781
  F      -9.605246      1.128276      3.852775
  F     -11.932556     -2.094517      5.750454
  F     -12.939227     -1.033541      7.393531
  F     -12.807830     -3.159965      8.979948
  F     -11.424710     -4.198260      7.651049
  F     -13.463470     -3.782357      7.005039
  O      -6.237710      1.312366      3.710821
  O      -7.071452     -0.730290      3.264718
  C     -10.252849      0.085023      7.443651
  C     -10.290679      0.774193      6.039714
  C     -10.591814     -1.441493      7.601291
  C      -9.306233      0.306701      4.921219
  C     -11.984172     -1.939278      7.089435
  C      -7.837431      0.396305      5.241028
  C     -12.426283     -3.309808      7.707959
  C      -6.975805      0.320010      3.953582
  H      -7.569118     -0.432265      5.904313
  H      -7.650676      1.337279      5.764409
52
Coordinates from ORCA-job R4N+FHEA-_0.15M E -2199.760657055808
  N      -2.295713      0.282125      0.212754
  C      -1.218994      0.430946     -0.868007
  C      -2.029878      1.202835      1.366370
  C      -3.613401      0.648447     -0.407491
  C      -2.364535     -1.130823      0.708006
  C       0.172563      0.106477     -0.411422
  C       0.999946      1.107858      0.105504
  C       0.673561     -1.192407     -0.541206
  C       2.298838      0.810731      0.506359
  C       1.972076     -1.489899     -0.139869
  C       2.785311     -0.489369      0.387862
  H      -1.289594      1.468385     -1.206833
  H      -1.529055     -0.233425     -1.679317
  H      -1.940879      2.222700      0.986995
  H      -1.109196      0.897356      1.865282
  H      -2.871632      1.127109      2.057748
  H      -3.568320      1.689660     -0.733015
  H      -4.395214      0.520784      0.344045
  H      -3.795411     -0.010012     -1.258879
  H      -1.421659     -1.386470      1.193257
  H      -2.550312     -1.792634     -0.140284
  H      -3.182600     -1.199575      1.427984
  H       0.624873      2.124913      0.187628
  H       0.043697     -1.970737     -0.964669
  H       2.934294      1.596264      0.905045
  H       2.351964     -2.501905     -0.246634
  H       3.800770     -0.720248      0.697304
  F     -11.058298      0.771084      8.216955
  F      -8.955121      0.221830      7.931416
  F     -10.499059     -1.690060      8.908450
  F      -9.597585     -2.173314      6.968958
  F      -9.975067      2.090072      6.268366
  F     -11.511847      0.689670      5.558361
  F      -9.658144     -0.945908      4.530106
  F      -9.556404      1.133445      3.834435
  F     -11.911501     -2.070204      5.724280
  F     -12.901055     -1.009995      7.378018
  F     -12.782151     -3.149981      8.950336
  F     -11.418313     -4.192287      7.604164
  F     -13.456511     -3.749580      6.974851
  O      -6.194350      1.292433      3.676176
  O      -7.042270     -0.744890      3.233653
  C     -10.203436      0.081530      7.422743
  C     -10.237578      0.779861      6.022851
  C     -10.556719     -1.442556      7.574428
  C      -9.260552      0.307480      4.900510
  C     -11.956348     -1.923363      7.064339
  C      -7.789770      0.382716      5.216291
  C     -12.410307     -3.293860      7.674992
  C      -6.935476      0.303819      3.923161
  H      -7.529431     -0.453183      5.873412
  H      -7.590834      1.319069      5.743178
52
Coordinates from ORCA-job R4N+FHEA-_0.15M E -2199.760800058059
  N      -2.335886      0.278997      0.237166
  C      -1.256627      0.428608     -0.839791
  C      -2.072069      1.197912      1.392370
  C      -3.651638      0.647490     -0.385827
  C      -2.408050     -1.134085      0.731282
  C       0.134532      0.105419     -0.380705
  C       0.961392      1.108937      0.132783
  C       0.636505     -1.193450     -0.507134
  C       2.261286      0.814339      0.532849
  C       1.935575     -1.488628     -0.105855
  C       2.748692     -0.485731      0.417722
  H      -1.326665      1.466148     -1.178489
  H      -1.563365     -0.234656     -1.653381
  H      -1.974236      2.217271      1.013831
  H      -1.156706      0.887393      1.898047
  H      -2.919460      1.127876      2.077585
  H      -3.607642      1.691414     -0.702737
  H      -4.436846      0.512033      0.360976
  H      -3.828783     -0.004620     -1.243123
  H      -1.465689     -1.392284      1.216189
  H      -2.595412     -1.795214     -0.117224
  H      -3.226031     -1.201551      1.451525
  H       0.585291      2.125774      0.212967
  H       0.007393     -1.973610     -0.928290
  H       2.896414      1.601590      0.928612
  H       2.316154     -2.500664     -0.209825
  H       3.764726     -0.714830      0.726579
  F     -11.000577      0.775376      8.192364
  F      -8.901139      0.216041      7.898834
  F     -10.451836     -1.686334      8.882659
  F      -9.560456     -2.178018      6.941371
  F      -9.918083      2.091308      6.241170
  F     -11.464392      0.699512      5.535795
  F      -9.621048     -0.948095      4.505270
  F      -9.516579      1.129338      3.802861
  F     -11.879438     -2.056210      5.703009
  F     -12.856065     -0.995197      7.363708
  F     -12.737543     -3.140985      8.931014
  F     -11.390058     -4.186493      7.570668
  F     -13.430097     -3.728854      6.958427
  O      -6.151720      1.276397      3.631376
  O      -7.016717     -0.753522      3.189891
  C     -10.152020      0.082356      7.394348
  C     -10.188058      0.782908      5.995267
  C     -10.512646     -1.440239      7.548296
  C      -9.217889      0.305738      4.869648
  C     -11.917441     -1.912728      7.043452
  C      -7.745134      0.375031      5.179087
  C     -12.376159     -3.282420      7.652501
  C      -6.897796      0.292704      3.880807
  H      -7.488748     -0.465396      5.832073
  H      -7.537849      1.308821      5.706950
52
Coordinates from ORCA-job R4N+FHEA-_0.15M E -2199.760986671185
  N      -2.379526      0.286958      0.262166
  C      -1.292629      0.441055     -0.805024
  C      -2.118489      1.195407      1.425323
  C      -3.689296      0.665702     -0.367195
  C      -2.462709     -1.128797      0.746502
  C       0.093926      0.103573     -0.341361
  C       0.926108      1.097398      0.182376
  C       0.586584     -1.198228     -0.474310
  C       2.222468      0.790560      0.585535
  C       1.881774     -1.505736     -0.069620
  C       2.700444     -0.512455      0.463836
  H      -1.352556      1.482989     -1.131985
  H      -1.596958     -0.209966     -1.629496
  H      -2.012696      2.217279      1.055719
  H      -1.207741      0.877268      1.934709
  H      -2.969527      1.127160      2.105856
  H      -3.640283      1.711999     -0.675426
  H      -4.481204      0.526112      0.371580
  H      -3.862695      0.021252     -1.231095
  H      -1.525799     -1.395599      1.237205
  H      -2.646669     -1.783964     -0.107448
  H      -3.286937     -1.196245      1.459336
  H       0.557444      2.116536      0.267818
  H      -0.046374     -1.970820     -0.903521
  H       2.861854      1.570532      0.988740
  H       2.255151     -2.519913     -0.178701
  H       3.713500     -0.751436      0.774933
  F     -10.944726      0.784813      8.153247
  F      -8.845125      0.231694      7.849358
  F     -10.383562     -1.666423      8.859910
  F      -9.502641     -2.175108      6.919253
  F      -9.884714      2.093563      6.186670
  F     -11.427602      0.688633      5.501300
  F      -9.581643     -0.959055      4.475038
  F      -9.496303      1.112502      3.750337
  F     -11.829837     -2.061188      5.690612
  F     -12.800002     -0.999251      7.354401
  F     -12.655326     -3.139489      8.929896
  F     -11.321464     -4.184752      7.556235
  F     -13.369175     -3.732156      6.966384
  O      -6.113546      1.271713      3.572128
  O      -6.999444     -0.747694      3.126166
  C     -10.098947      0.090199      7.353837
  C     -10.148650      0.782251      5.950768
  C     -10.452645     -1.433398      7.522975
  C      -9.183858      0.302670      4.822372
  C     -11.859138     -1.913727      7.030471
  C      -7.709212      0.381053      5.122176
  C     -12.308216     -3.282594      7.647445
  C      -6.867456      0.294533      3.820137
  H      -7.450068     -0.460059      5.773698
  H      -7.500494      1.315565      5.647683
52
Coordinates from ORCA-job R4N+FHEA-_0.15M E -2199.761196044644
  N      -2.422950      0.283018      0.287635
  C      -1.333440      0.437894     -0.776034
  C      -2.164793      1.189784      1.452689
  C      -3.730337      0.664031     -0.343959
  C      -2.508889     -1.133120      0.770105
  C       0.052593      0.102949     -0.308937
  C       0.882844      1.099427      0.212554
  C       0.547601     -1.198279     -0.438941
  C       2.179996      0.796058      0.616025
  C       1.843215     -1.502542     -0.033204
  C       2.660283     -0.506402      0.497419
  H      -1.393750      1.479547     -1.103853
  H      -1.634172     -0.213334     -1.601717
  H      -2.050214      2.211029      1.083943
  H      -1.259823      0.866556      1.969236
  H      -3.022774      1.125976      2.126134
  H      -3.682277      1.713272     -0.642189
  H      -4.525987      0.515814      0.389930
  H      -3.898692      0.027108     -1.214417
  H      -1.572212     -1.402383      1.259901
  H      -2.694698     -1.787054     -0.084395
  H      -3.332969     -1.199553      1.483819
  H       0.511997      2.117910      0.296425
  H      -0.083555     -1.973028     -0.866879
  H       2.817905      1.578086      1.017550
  H       2.218329     -2.516349     -0.139720
  H       3.673820     -0.742793      0.808926
  F     -10.881104      0.789596      8.127748
  F      -8.786183      0.223416      7.815518
  F     -10.334008     -1.664215      8.831453
  F      -9.463215     -2.179685      6.888491
  F      -9.819169      2.093939      6.158807
  F     -11.374300      0.700626      5.477838
  F      -9.541664     -0.961184      4.447259
  F      -9.450346      1.108897      3.718408
  F     -11.794905     -2.046994      5.666823
  F     -12.751009     -0.980520      7.335679
  F     -12.613888     -3.124486      8.908016
  F     -11.293928     -4.176593      7.525932
  F     -13.341312     -3.708691      6.947072
  O      -6.066454      1.251730      3.523807
  O      -6.971594     -0.758665      3.079208
  C     -10.042695      0.090427      7.324435
  C     -10.093069      0.784932      5.922381
  C     -10.405872     -1.431010      7.494629
  C      -9.136232      0.299417      4.790168
  C     -11.817845     -1.901166      7.006926
  C      -7.659510      0.369979      5.082680
  C     -12.274145     -3.267832      7.623776
  C      -6.826294      0.280167      3.774819
  H      -7.403211     -0.474879      5.730473
  H      -7.441729      1.302087      5.608551
52
Coordinates from ORCA-job R4N+FHEA-_0.15M E -2199.761299061052
  N      -2.450874      0.284206      0.299673
  C      -1.355473      0.450666     -0.758976
  C      -2.200870      1.179754      1.478167
  C      -3.749828      0.675941     -0.334021
  C      -2.539024     -1.139672      0.759689
  C       0.026268      0.111490     -0.285251
  C       0.848136      1.101212      0.259351
  C       0.529965     -1.183352     -0.443142
  C       2.143549      0.796059      0.664025
  C       1.823314     -1.490408     -0.033406
  C       2.631393     -0.501232      0.522347
  H      -1.415891      1.495234     -1.076701
  H      -1.654253     -0.195100     -1.589273
  H      -2.095940      2.206496      1.120754
  H      -1.291672      0.856272      1.987477
  H      -3.066143      1.095179      2.153153
  H      -3.689092      1.726653     -0.624386
  H      -4.550605      0.529542      0.399216
  H      -3.918799      0.045454     -1.208906
  H      -1.607143     -1.413325      1.255749
  H      -2.713468     -1.779519     -0.107554
  H      -3.373679     -1.218501      1.465039
  H       0.468698      2.114402      0.366888
  H      -0.093437     -1.950871     -0.894757
  H       2.773396      1.571927      1.089585
  H       2.204354     -2.499845     -0.158892
  H       3.643523     -0.739053      0.837465
  F     -10.846008      0.810386      8.095353
  F      -8.753932      0.225627      7.798253
  F     -10.326546     -1.645006      8.825132
  F      -9.437377     -2.175913      6.893208
  F      -9.760563      2.079534      6.114416
  F     -11.328444      0.692632      5.446094
  F      -9.506432     -0.993797      4.431490
  F      -9.403759      1.069345      3.689679
  F     -11.756115     -2.074522      5.656774
  F     -12.720389     -0.949009      7.281632
  F     -12.654173     -3.039617      8.909358
  F     -11.288532     -4.144052      7.616076
  F     -13.315006     -3.700828      6.949093
  O      -6.018290      1.213125      3.492158
  O      -6.960910     -0.778836      3.029541
  C     -10.008649      0.094510      7.305466
  C     -10.046955      0.769973      5.894831
  C     -10.384627     -1.420772      7.487072
  C      -9.093773      0.264351      4.767036
  C     -11.794602     -1.888908      6.992709
  C      -7.616514      0.334018      5.052188
  C     -12.271429     -3.232540      7.644431
  C      -6.795315      0.249127      3.738036
  H      -7.345914     -0.504477      5.702026
  H      -7.398783      1.268953      5.573580
52
Coordinates from ORCA-job R4N+FHEA-_0.15M E -2199.761600449654
  N      -2.486837      0.288087      0.320217
  C      -1.386575      0.452498     -0.731890
  C      -2.238449      1.180795      1.499057
  C      -3.783424      0.682939     -0.318004
  C      -2.581678     -1.134415      0.781938
  C      -0.007001      0.105985     -0.255253
  C       0.820963      1.092358      0.287412
  C       0.486609     -1.193899     -0.402874
  C       2.113926      0.779934      0.696146
  C       1.777800     -1.507631      0.009188
  C       2.592458     -0.521572      0.561474
  H      -1.440038      1.498370     -1.046885
  H      -1.682883     -0.187910     -1.567431
  H      -2.122974      2.206680      1.143031
  H      -1.335936      0.852113      2.016663
  H      -3.106050      1.105097      2.166430
  H      -3.723602      1.734960     -0.603918
  H      -4.589209      0.532739      0.407826
  H      -3.948558      0.056718     -1.196764
  H      -1.652318     -1.411677      1.280918
  H      -2.756468     -1.775731     -0.084277
  H      -3.417595     -1.208317      1.484241
  H       0.450265      2.109598      0.386313
  H      -0.142226     -1.959983     -0.849379
  H       2.749615      1.553950      1.116307
  H       2.151608     -2.520502     -0.110137
  H       3.602739     -0.765098      0.878075
  F     -10.797167      0.808864      8.073533
  F      -8.705537      0.232096      7.758499
  F     -10.260569     -1.640931      8.798831
  F      -9.390830     -2.175084      6.860097
  F      -9.736207      2.088008      6.086740
  F     -11.301485      0.694711      5.427826
  F      -9.478839     -0.985399      4.404771
  F      -9.391309      1.076832      3.654886
  F     -11.723304     -2.062990      5.642033
  F     -12.674324     -0.959395      7.289413
  F     -12.563531     -3.068732      8.899235
  F     -11.227669     -4.154124      7.559231
  F     -13.268346     -3.701389      6.945020
  O      -5.993077      1.218155      3.445268
  O      -6.945079     -0.767400      2.987600
  C      -9.964048      0.098139      7.274626
  C     -10.017309      0.777736      5.865835
  C     -10.332481     -1.419676      7.460236
  C      -9.069607      0.277510      4.732057
  C     -11.746331     -1.891185      6.979495
  C      -7.590474      0.350763      5.010152
  C     -12.209207     -3.243444      7.623101
  C      -6.772345      0.259321      3.693597
  H      -7.323135     -0.490612      5.658011
  H      -7.368585      1.285058      5.530429
52
Coordinates from ORCA-job R4N+FHEA-_0.15M E -2199.761806386712
  N      -2.517564      0.291803      0.336542
  C      -1.411994      0.457122     -0.709358
  C      -2.273224      1.180776      1.518134
  C      -3.811350      0.689729     -0.306658
  C      -2.617154     -1.130993      0.795861
  C      -0.035321      0.103435     -0.228952
  C       0.794782      1.084537      0.320528
  C       0.452836     -1.198386     -0.377509
  C       2.084832      0.765123      0.733846
  C       1.741109     -1.518924      0.038671
  C       2.558015     -0.538147      0.597268
  H      -1.460037      1.504741     -1.019511
  H      -1.706216     -0.177809     -1.549907
  H      -2.154540      2.207391      1.165482
  H      -1.373892      0.850182      2.039952
  H      -3.142698      1.105167      2.180109
  H      -3.749965      1.742159     -0.590929
  H      -4.620796      0.539385      0.414410
  H      -3.973943      0.065397     -1.187324
  H      -1.691152     -1.410864      1.299646
  H      -2.788366     -1.771231     -0.071914
  H      -3.456660     -1.203888      1.492878
  H       0.428826      2.103447      0.419703
  H      -0.177805     -1.960562     -0.828138
  H       2.722529      1.535227      1.158114
  H       2.110821     -2.533144     -0.081917
  H       3.565988     -0.787164      0.916898
  F     -10.753242      0.811277      8.053275
  F      -8.662884      0.237857      7.723965
  F     -10.207231     -1.634961      8.778001
  F      -9.350792     -2.172797      6.834877
  F      -9.710566      2.092282      6.058837
  F     -11.276060      0.694385      5.410869
  F      -9.456103     -0.982600      4.379574
  F      -9.377529      1.078771      3.624558
  F     -11.692503     -2.059994      5.631232
  F     -12.633580     -0.962573      7.288350
  F     -12.500013     -3.076358      8.893872
  F     -11.178657     -4.155384      7.534384
  F     -13.226568     -3.701963      6.945433
  O      -5.968023      1.214456      3.403890
  O      -6.934090     -0.763187      2.946732
  C      -9.924671      0.101876      7.248547
  C      -9.989397      0.781230      5.839939
  C     -10.288847     -1.416891      7.439116
  C      -9.047465      0.282581      4.701072
  C     -11.705307     -1.891254      6.968941
  C      -7.566750      0.357690      4.971931
  C     -12.160022     -3.245937      7.613010
  C      -6.752674      0.261160      3.652989
  H      -7.298997     -0.483710      5.619791
  H      -7.341716      1.292451      5.489835
52
Coordinates from ORCA-job R4N+FHEA-_0.15M E -2199.762065548473
  N      -2.554630      0.300344      0.354051
  C      -1.440294      0.468385     -0.682142
  C      -2.318789      1.183652      1.540876
  C      -3.845207      0.700741     -0.298636
  C      -2.659559     -1.123425      0.808871
  C      -0.069178      0.101139     -0.195431
  C       0.762862      1.070160      0.373345
  C       0.409895     -1.203221     -0.350687
  C       2.046000      0.736139      0.797395
  C       1.691883     -1.537702      0.074225
  C       2.510407     -0.569348      0.652097
  H      -1.479504      1.519247     -0.982584
  H      -1.732130     -0.157085     -1.530663
  H      -2.202956      2.212706      1.194773
  H      -1.420745      0.854299      2.065424
  H      -3.187863      1.100998      2.196868
  H      -3.780549      1.751660     -0.588010
  H      -4.657332      0.556514      0.418393
  H      -4.005185      0.073164     -1.177590
  H      -1.739923     -1.405279      1.323198
  H      -2.820606     -1.761731     -0.062327
  H      -3.506596     -1.197441      1.494220
  H       0.405162      2.091575      0.476371
  H      -0.222932     -1.956156     -0.813671
  H       2.685841      1.497145      1.234661
  H       2.054984     -2.553489     -0.053043
  H       3.513213     -0.829559      0.978929
  F     -10.697009      0.816149      8.028033
  F      -8.608202      0.251186      7.675293
  F     -10.130280     -1.625006      8.751672
  F      -9.295865     -2.164985      6.799688
  F      -9.685769      2.098977      6.019732
  F     -11.250646      0.691497      5.391806
  F      -9.436938     -0.976540      4.341699
  F      -9.368958      1.084941      3.584211
  F     -11.653328     -2.058850      5.623402
  F     -12.578752     -0.971697      7.296250
  F     -12.403348     -3.091066      8.895593
  F     -11.104446     -4.158367      7.505679
  F     -13.164476     -3.708682      6.957884
  O      -5.941143      1.208665      3.348690
  O      -6.927030     -0.758337      2.888922
  C      -9.875135      0.109310      7.214433
  C      -9.959893      0.786005      5.805625
  C     -10.229488     -1.411320      7.412943
  C      -9.027435      0.290268      4.657824
  C     -11.648786     -1.893722      6.961319
  C      -7.544507      0.367537      4.917267
  C     -12.086694     -3.252741      7.607440
  C      -6.734744      0.263279      3.596590
  H      -7.273603     -0.471174      5.567562
  H      -7.316423      1.304156      5.430477
52
Coordinates from ORCA-job R4N+FHEA-_0.15M E -2199.762306580913
  N      -2.589618      0.306605      0.370625
  C      -1.468109      0.479254     -0.657533
  C      -2.362022      1.183179      1.564013
  C      -3.875881      0.710716     -0.289073
  C      -2.698624     -1.119569      0.817061
  C      -0.102101      0.101817     -0.164519
  C       0.728032      1.060133      0.424974
  C       0.373543     -1.202260     -0.331967
  C       2.005250      0.715310      0.857856
  C       1.649872     -1.547381      0.101331
  C       2.466031     -0.590028      0.700376
  H      -1.501573      1.532858     -0.948935
  H      -1.757583     -0.138540     -1.512406
  H      -2.250921      2.215208      1.225264
  H      -1.463836      0.854681      2.088746
  H      -3.232243      1.090405      2.216601
  H      -3.805933      1.760619     -0.580852
  H      -4.691000      0.571868      0.425485
  H      -4.033903      0.081712     -1.167317
  H      -1.784524     -1.403862      1.339848
  H      -2.850062     -1.753226     -0.059230
  H      -3.553129     -1.197205      1.492532
  H       0.373592      2.081749      0.536871
  H      -0.257957     -1.946502     -0.810588
  H       2.643577      1.467964      1.311516
  H       2.010369     -2.562839     -0.035615
  H       3.464354     -0.858539      1.034156
  F     -10.643617      0.825747      8.000856
  F      -8.557489      0.260129      7.633648
  F     -10.068671     -1.613348      8.729267
  F      -9.249801     -2.158395      6.771556
  F      -9.649402      2.099969      5.979195
  F     -11.218662      0.689046      5.369882
  F      -9.414287     -0.980201      4.307966
  F      -9.349062      1.079764      3.546615
  F     -11.617530     -2.059508      5.615684
  F     -12.529604     -0.969257      7.294295
  F     -12.334025     -3.084519      8.898020
  F     -11.049760     -4.154152      7.496638
  F     -13.115654     -3.706323      6.969713
  O      -5.909233      1.193761      3.298532
  O      -6.916404     -0.761275      2.833262
  C      -9.828065      0.115692      7.183791
  C      -9.924591      0.785793      5.772834
  C     -10.179443     -1.404350      7.390802
  C      -9.000936      0.286406      4.619086
  C     -11.601234     -1.890623      6.953148
  C      -7.516364      0.364287      4.867543
  C     -12.030959     -3.248596      7.606804
  C      -6.712693      0.255956      3.544345
  H      -7.238485     -0.470335      5.520238
  H      -7.286261      1.303120      5.376006
52
Coordinates from ORCA-job R4N+FHEA-_0.15M E -2199.762431290079
  N      -2.623776      0.336589      0.381153
  C      -1.484275      0.521098     -0.627713
  C      -2.416473      1.195783      1.593585
  C      -3.905017      0.746620     -0.300588
  C      -2.741187     -1.096354      0.805863
  C      -0.134140      0.105993     -0.121978
  C       0.691169      1.021151      0.539721
  C       0.326348     -1.196816     -0.334777
  C       1.945534      0.632748      1.000516
  C       1.581740     -1.584246      0.123251
  C       2.390617     -0.671589      0.796936
  H      -1.498677      1.582976     -0.889162
  H      -1.773005     -0.071740     -1.500059
  H      -2.339830      2.238137      1.277661
  H      -1.505572      0.879920      2.103440
  H      -3.274373      1.058939      2.248644
  H      -3.816814      1.785986     -0.623483
  H      -4.714094      0.643489      0.421886
  H      -4.064857      0.092972     -1.160174
  H      -1.844923     -1.384244      1.356916
  H      -2.858840     -1.717803     -0.084212
  H      -3.617793     -1.187550      1.447242
  H       0.351803      2.043814      0.683821
  H      -0.302831     -1.906570     -0.866125
  H       2.580009      1.351742      1.510812
  H       1.930921     -2.598077     -0.050279
  H       3.371811     -0.973370      1.152435
  F     -10.580923      0.848454      7.956936
  F      -8.496395      0.303663      7.551450
  F      -9.948503     -1.579626      8.702751
  F      -9.172806     -2.128780      6.725837
  F      -9.652679      2.101004      5.894397
  F     -11.213493      0.657138      5.340989
  F      -9.418456     -0.987951      4.240912
  F      -9.370734      1.070957      3.478164
  F     -11.569126     -2.085462      5.637005
  F     -12.455154     -0.994506      7.330925
  F     -12.171069     -3.089964      8.950000
  F     -10.919136     -4.154753      7.517159
  F     -13.006409     -3.737858      7.052293
  O      -5.892922      1.183113      3.221075
  O      -6.928814     -0.758750      2.732543
  C      -9.774996      0.135533      7.133348
  C      -9.912373      0.778941      5.714355
  C     -10.098560     -1.385745      7.366387
  C      -9.004596      0.279033      4.546060
  C     -11.520001     -1.902148      6.972202
  C      -7.518538      0.372271      4.771993
  C     -11.906907     -3.260481      7.650429
  C      -6.716095      0.256783      3.452459
  H      -7.212243     -0.440468      5.439633
  H      -7.299177      1.322923      5.264316
52
Coordinates from ORCA-job R4N+FHEA-_0.15M E -2199.762694010426
  N      -2.658380      0.322850      0.406041
  C      -1.523996      0.505022     -0.607329
  C      -2.444573      1.181952      1.614900
  C      -3.934480      0.738946     -0.265229
  C      -2.777514     -1.110048      0.829316
  C      -0.168741      0.105332     -0.103331
  C       0.656690      1.038947      0.530298
  C       0.300938     -1.196645     -0.301215
  C       1.921033      0.670410      0.979439
  C       1.565083     -1.565344      0.147694
  C       2.375156     -0.633370      0.792749
  H      -1.545967      1.563953     -0.879728
  H      -1.810748     -0.096429     -1.474465
  H      -2.348600      2.221368      1.294139
  H      -1.541916      0.855272      2.133062
  H      -3.313810      1.063317      2.267617
  H      -3.847994      1.785871     -0.562972
  H      -4.755118      0.616058      0.446821
  H      -4.092054      0.105853     -1.140374
  H      -1.874987     -1.402278      1.367597
  H      -2.910016     -1.729814     -0.059790
  H      -3.647247     -1.197213      1.485014
  H       0.307837      2.059687      0.665475
  H      -0.326925     -1.920777     -0.814276
  H       2.555076      1.403524      1.469717
  H       1.920877     -2.579069     -0.012530
  H       3.363724     -0.920092      1.140240
  F     -10.539074      0.848188      7.938098
  F      -8.458471      0.277479      7.548103
  F      -9.949992     -1.587409      8.685084
  F      -9.160654     -2.146096      6.717200
  F      -9.575443      2.093681      5.885890
  F     -11.152106      0.673319      5.317098
  F      -9.362786     -1.000719      4.238244
  F      -9.303933      1.054207      3.466031
  F     -11.544485     -2.074180      5.602789
  F     -12.432658     -0.958706      7.278606
  F     -12.214521     -3.046245      8.910977
  F     -10.947087     -4.139261      7.512829
  F     -13.019644     -3.701776      7.003062
  O      -5.841685      1.163498      3.200830
  O      -6.887931     -0.767413      2.718367
  C      -9.735294      0.126483      7.119611
  C      -9.852180      0.776234      5.701174
  C     -10.082599     -1.390057      7.347532
  C      -8.944031      0.265511      4.538688
  C     -11.509015     -1.884210      6.937648
  C      -7.457527      0.350455      4.766098
  C     -11.927299     -3.232113      7.619022
  C      -6.664769      0.240047      3.438657
  H      -7.157094     -0.471429      5.424912
  H      -7.229703      1.296141      5.263517
52
Coordinates from ORCA-job R4N+FHEA-_0.15M E -2199.762815454777
  N      -2.685924      0.324924      0.422895
  C      -1.549573      0.503503     -0.588928
  C      -2.473239      1.185232      1.631192
  C      -3.961458      0.741024     -0.251373
  C      -2.808400     -1.107212      0.848410
  C      -0.195754      0.101930     -0.082419
  C       0.630359      1.034344      0.552385
  C       0.271751     -1.201156     -0.278284
  C       1.893054      0.663491      1.004467
  C       1.534153     -1.572186      0.173747
  C       2.344871     -0.641399      0.819757
  H      -1.569151      1.562070     -0.863025
  H      -1.836079     -0.098629     -1.455682
  H      -2.377359      2.224547      1.309996
  H      -1.571166      0.859127      2.150764
  H      -3.342551      1.066713      2.282679
  H      -3.874371      1.787205     -0.551742
  H      -4.781942      0.620205      0.460436
  H      -4.118226      0.105720     -1.125152
  H      -1.907377     -1.400237      1.388819
  H      -2.940584     -1.728160     -0.039924
  H      -3.679288     -1.191625      1.502601
  H       0.283650      2.056045      0.685713
  H      -0.356565     -1.924459     -0.791980
  H       2.527667      1.395659      1.495430
  H       1.888189     -2.586776      0.015131
  H       3.332087     -0.929900      1.169610
  F     -10.500662      0.849757      7.921134
  F      -8.421833      0.279360      7.521928
  F      -9.906345     -1.587480      8.662332
  F      -9.128912     -2.143449      6.688915
  F      -9.544301      2.096902      5.865937
  F     -11.124737      0.678577      5.302635
  F      -9.344285     -0.994600      4.211758
  F      -9.280475      1.062086      3.444826
  F     -11.518622     -2.068273      5.588237
  F     -12.397425     -0.957000      7.271954
  F     -12.168344     -3.049364      8.897756
  F     -10.910476     -4.138301      7.487839
  F     -12.986079     -3.698590      6.992953
  O      -5.817091      1.158629      3.172033
  O      -6.868917     -0.768209      2.687592
  C      -9.700526      0.128728      7.098472
  C      -9.823131      0.779873      5.681104
  C     -10.046796     -1.387965      7.325994
  C      -8.920180      0.269221      4.514481
  C     -11.475465     -1.881383      6.923239
  C      -7.432872      0.348748      4.738133
  C     -11.889588     -3.231188      7.603274
  C      -6.642362      0.237778      3.409286
  H      -7.132784     -0.474282      5.395620
  H      -7.201197      1.293338      5.235994
52
Coordinates from ORCA-job R4N+FHEA-_0.15M E -2199.762560542559
  N      -2.715922      0.330822      0.477663
  C      -1.599319      0.443640     -0.563333
  C      -2.448867      1.235983      1.646608
  C      -4.009810      0.735563     -0.191122
  C      -2.860853     -1.080187      0.968272
  C      -0.231329      0.056359     -0.078633
  C       0.634693      1.021097      0.449258
  C       0.210045     -1.265855     -0.189847
  C       1.912831      0.665323      0.874677
  C       1.485792     -1.621956      0.238255
  C       2.338285     -0.657672      0.772956
  H      -1.612500      1.486772     -0.892530
  H      -1.908061     -0.194727     -1.396417
  H      -2.332225      2.259512      1.284168
  H      -1.543194      0.907082      2.158514
  H      -3.293231      1.179461      2.318919
  H      -3.933396      1.773104     -0.524080
  H      -4.813764      0.625669      0.528200
  H      -4.178695      0.072411     -1.042737
  H      -1.950990     -1.373060      1.494240
  H      -3.035077     -1.734408      0.111422
  H      -3.708984     -1.120559      1.647498
  H       0.310683      2.056642      0.514483
  H      -0.447283     -2.017458     -0.619830
  H       2.579315      1.423137      1.276338
  H       1.818817     -2.651648      0.145432
  H       3.336338     -0.934892      1.100263
  F     -10.534709      0.812408      7.911350
  F      -8.437462      0.305773      7.529241
  F      -9.874429     -1.620806      8.609728
  F      -9.085827     -2.128995      6.630666
  F      -9.577582      2.127516      5.891262
  F     -11.121933      0.690079      5.283329
  F      -9.313616     -0.927044      4.180176
  F      -9.242956      1.145608      3.455954
  F     -11.465464     -2.061257      5.514912
  F     -12.383527     -1.025078      7.224878
  F     -12.099393     -3.168212      8.786291
  F     -10.822143     -4.175538      7.333396
  F     -12.906666     -3.761906      6.858793
  O      -5.814089      1.255115      3.221820
  O      -6.776273     -0.717646      2.744092
  C      -9.706814      0.130566      7.082593
  C      -9.828043      0.809685      5.676653
  C     -10.016964     -1.399192      7.276931
  C      -8.899772      0.332896      4.517384
  C     -11.434158     -1.913967      6.853490
  C      -7.417226      0.404177      4.776717
  C     -11.819520     -3.295078      7.484529
  C      -6.597380      0.308876      3.458865
  H      -7.143544     -0.435264      5.424495
  H      -7.190435      1.340042      5.292760
52
Coordinates from ORCA-job R4N+FHEA-_0.15M E -2199.763030331277
  N      -2.727492      0.323505      0.465572
  C      -1.604480      0.463662     -0.565577
  C      -2.484525      1.213151      1.648146
  C      -4.012008      0.731328     -0.202578
  C      -2.859295     -1.095388      0.932274
  C      -0.242410      0.078310     -0.067125
  C       0.601202      1.036245      0.504284
  C       0.215492     -1.235166     -0.208615
  C       1.873217      0.682013      0.944784
  C       1.486864     -1.589581      0.231992
  C       2.316102     -0.632371      0.812922
  H      -1.624870      1.512055     -0.876571
  H      -1.902112     -0.165950     -1.408915
  H      -2.376620      2.242221      1.299025
  H      -1.580383      0.886833      2.164105
  H      -3.344848      1.129633      2.312437
  H      -3.931763      1.773992     -0.516821
  H      -4.825069      0.612766      0.515465
  H      -4.174652      0.083602     -1.066430
  H      -1.950600     -1.385737      1.461398
  H      -3.018599     -1.737925      0.063895
  H      -3.716212     -1.152299      1.606220
  H       0.261995      2.065058      0.595250
  H      -0.425897     -1.980054     -0.672950
  H       2.522098      1.434571      1.383457
  H       1.833633     -2.612249      0.114673
  H       3.310601     -0.907924      1.152360
  F     -10.472238      0.830244      7.905213
  F      -8.389939      0.268795      7.513127
  F      -9.876773     -1.615282      8.618190
  F      -9.093198     -2.148444      6.642034
  F      -9.501752      2.105811      5.871935
  F     -11.077816      0.694939      5.280322
  F      -9.294264     -0.964385      4.179736
  F      -9.214742      1.102125      3.440635
  F     -11.473537     -2.051567      5.528366
  F     -12.364547     -0.966618      7.222612
  F     -12.139391     -3.087435      8.817765
  F     -10.879731     -4.151622      7.390615
  F     -12.953373     -3.699763      6.899246
  O      -5.778948      1.194922      3.175547
  O      -6.787245     -0.754480      2.697377
  C      -9.665630      0.121578      7.078134
  C      -9.779213      0.791512      5.668204
  C     -10.011880     -1.398384      7.284132
  C      -8.867414      0.293581      4.503573
  C     -11.439279     -1.885056      6.865868
  C      -7.381831      0.360276      4.742756
  C     -11.857823     -3.245599      7.520616
  C      -6.582248      0.260277      3.416142
  H      -7.096012     -0.474455      5.391489
  H      -7.147176      1.297645      5.252631
52
Coordinates from ORCA-job R4N+FHEA-_0.15M E -2199.763151238116
  N      -2.752459      0.329930      0.480903
  C      -1.629348      0.464000     -0.551275
  C      -2.509397      1.224071      1.659005
  C      -4.034844      0.737585     -0.187987
  C      -2.886550     -1.085712      0.955331
  C      -0.269344      0.075135     -0.050479
  C       0.574548      1.029865      0.525251
  C       0.186331     -1.238820     -0.194451
  C       1.844019      0.671714      0.969255
  C       1.455394     -1.597170      0.249328
  C       2.284422     -0.643322      0.835873
  H      -1.646868      1.511768     -0.864468
  H      -1.929211     -0.167568     -1.392271
  H      -2.404913      2.251916      1.305321
  H      -1.602900      0.901396      2.173019
  H      -3.369936      1.139666      2.325980
  H      -3.951687      1.779074     -0.504894
  H      -4.848193      0.622993      0.532402
  H      -4.198538      0.087793     -1.049920
  H      -1.978701     -1.374834      1.486443
  H      -3.047142     -1.733069      0.090775
  H      -3.744615     -1.135569      1.629852
  H       0.236485      2.058862      0.618780
  H      -0.455334     -1.980867     -0.662947
  H       2.492549      1.421521      1.413148
  H       1.800256     -2.620325      0.130531
  H       3.276908     -0.922031      1.178646
  F     -10.437948      0.832153      7.883493
  F      -8.357471      0.263247      7.491336
  F      -9.851031     -1.613909      8.601822
  F      -9.065665     -2.151483      6.627072
  F      -9.467475      2.099919      5.847098
  F     -11.045233      0.689215      5.258465
  F      -9.260307     -0.974001      4.161231
  F      -9.185915      1.091062      3.417840
  F     -11.444686     -2.058450      5.512568
  F     -12.334720     -0.960450      7.199039
  F     -12.120567     -3.069750      8.807958
  F     -10.859455     -4.148298      7.392985
  F     -12.930762     -3.694858      6.892053
  O      -5.749996      1.193853      3.147746
  O      -6.759362     -0.756124      2.671223
  C      -9.633746      0.119070      7.058017
  C      -9.746381      0.785369      5.646575
  C      -9.984189     -1.399296      7.267253
  C      -8.835524      0.285340      4.481764
  C     -11.412130     -1.883977      6.849459
  C      -7.349898      0.356713      4.717430
  C     -11.835651     -3.238670      7.513024
  C      -6.553544      0.258203      3.389749
  H      -7.058432     -0.475520      5.366905
  H      -7.117475      1.295556      5.225690
52
Coordinates from ORCA-job R4N+FHEA-_0.15M E -2199.762970506877
  N      -2.729057      0.336241      0.479122
  C      -1.633717      0.420382     -0.590795
  C      -2.460589      1.295059      1.599297
  C      -4.023819      0.705644     -0.176880
  C      -2.841527     -1.048186      1.038716
  C      -0.264279      0.055265     -0.100146
  C       0.581586      1.030163      0.435294
  C       0.197406     -1.259346     -0.216249
  C       1.856292      0.690423      0.876057
  C       1.472027     -1.599774      0.224762
  C       2.301391     -0.626018      0.776485
  H      -1.663414      1.452093     -0.952366
  H      -1.954969     -0.255646     -1.387621
  H      -2.376679      2.301396      1.184182
  H      -1.533592      1.004009      2.094487
  H      -3.303895      1.232819      2.298559
  H      -3.951032      1.735156     -0.531231
  H      -4.822097      0.612474      0.568226
  H      -4.195601      0.024144     -1.011563
  H      -1.917267     -1.304091      1.557799
  H      -3.027687     -1.746461      0.220028
  H      -3.681595     -1.055532      1.742209
  H       0.235870      2.058439      0.508153
  H      -0.446347     -2.015889     -0.658055
  H       2.503247      1.454444      1.297550
  H       1.820086     -2.624534      0.131318
  H       3.297270     -0.891173      1.120354
  F     -10.487636      0.799550      7.910201
  F      -8.405366      0.207488      7.561292
  F      -9.954984     -1.668689      8.603620
  F      -9.111296     -2.172469      6.641354
  F      -9.453884      2.081244      5.917536
  F     -11.029664      0.693011      5.267561
  F      -9.223611     -0.967776      4.188509
  F      -9.135958      1.108225      3.481652
  F     -11.457392     -2.071097      5.468010
  F     -12.383586     -0.956342      7.123750
  F     -12.267212     -3.050369      8.743717
  F     -10.953299     -4.157514      7.400527
  F     -12.997513     -3.694856      6.802471
  O      -5.754501      1.249370      3.219118
  O      -6.686247     -0.762844      2.774752
  C      -9.671320      0.087426      7.096458
  C      -9.739847      0.771739      5.692609
  C     -10.045803     -1.428632      7.270066
  C      -8.806388      0.285189      4.538325
  C     -11.464993     -1.893754      6.806490
  C      -7.325627      0.357306      4.795337
  C     -11.926497     -3.238538      7.465324
  C      -6.522628      0.274559      3.475537
  H      -7.033615     -0.475163      5.443991
  H      -7.105772      1.294350      5.313050
52
Coordinates from ORCA-job R4N+FHEA-_0.15M E -2199.763293186122
  N      -2.753864      0.336576      0.497362
  C      -1.652669      0.421142     -0.564370
  C      -2.478478      1.279057      1.631597
  C      -4.046579      0.724270     -0.161655
  C      -2.883258     -1.056076      1.036172
  C      -0.284253      0.050099     -0.073570
  C       0.572850      1.025770      0.444049
  C       0.164548     -1.270633     -0.168381
  C       1.848770      0.682521      0.880394
  C       1.440222     -1.614241      0.267848
  C       2.282628     -0.638790      0.796870
  H      -1.675004      1.454121     -0.922941
  H      -1.971516     -0.247519     -1.368686
  H      -2.379395      2.290275      1.231551
  H      -1.558751      0.972508      2.131536
  H      -3.322501      1.225176      2.324261
  H      -3.967288      1.756232     -0.508717
  H      -4.849042      0.630142      0.574842
  H      -4.222492      0.050369     -1.002257
  H      -1.963876     -1.327652      1.556563
  H      -3.069922     -1.739935      0.205504
  H      -3.725069     -1.069758      1.733487
  H       0.238915      2.058928      0.499025
  H      -0.488182     -2.029754     -0.592169
  H       2.507084      1.448493      1.280087
  H       1.779572     -2.642994      0.187731
  H       3.280056     -0.906282      1.134237
  F     -10.467588      0.804489      7.891107
  F      -8.380970      0.236841      7.530333
  F      -9.898048     -1.653955      8.586494
  F      -9.073322     -2.160730      6.618675
  F      -9.456551      2.095741      5.889461
  F     -11.025725      0.695023      5.253894
  F      -9.221552     -0.956231      4.166757
  F      -9.137562      1.118150      3.452919
  F     -11.430289     -2.061253      5.462755
  F     -12.352448     -0.975149      7.139061
  F     -12.183406     -3.092361      8.735113
  F     -10.883175     -4.164096      7.350655
  F     -12.941010     -3.711787      6.795890
  O      -5.743428      1.253114      3.199222
  O      -6.683683     -0.740438      2.736476
  C      -9.648749      0.100749      7.072166
  C      -9.733800      0.784084      5.667698
  C     -10.005186     -1.419408      7.252988
  C      -8.803601      0.298630      4.511423
  C     -11.424914     -1.897647      6.801853
  C      -7.321709      0.369235      4.768029
  C     -11.863510     -3.256147      7.447740
  C      -6.515108      0.288484      3.446771
  H      -7.034775     -0.468261      5.412511
  H      -7.099028      1.303791      5.288585
52
Coordinates from ORCA-job R4N+FHEA-_0.15M E -2199.763405383430
  N      -2.781845      0.340581      0.526023
  C      -1.691671      0.387411     -0.549148
  C      -2.480912      1.305871      1.635732
  C      -4.077785      0.728540     -0.128187
  C      -2.921299     -1.038329      1.097600
  C      -0.318885      0.025064     -0.063499
  C       0.552568      1.014108      0.402487
  C       0.119506     -1.301645     -0.112426
  C       1.832938      0.679191      0.832495
  C       1.399382     -1.636980      0.318053
  C       2.256645     -0.647494      0.794631
  H      -1.712557      1.409239     -0.938436
  H      -2.022054     -0.302753     -1.330353
  H      -2.374668      2.306543      1.211671
  H      -1.558088      0.999717      2.130264
  H      -3.315990      1.279968      2.339356
  H      -3.993342      1.754066     -0.492914
  H      -4.875311      0.652836      0.615013
  H      -4.266781      0.042628     -0.956307
  H      -1.998570     -1.309066      1.612583
  H      -3.126437     -1.738163      0.284738
  H      -3.754118     -1.026711      1.804954
  H       0.226555      2.051079      0.421353
  H      -0.544200     -2.072328     -0.496380
  H       2.502669      1.455731      1.190639
  H       1.730675     -2.670496      0.273617
  H       3.257552     -0.908699      1.126558
  F     -10.463516      0.786724      7.878118
  F      -8.369834      0.237448      7.530709
  F      -9.881218     -1.673700      8.555831
  F      -9.038015     -2.157159      6.589969
  F      -9.440675      2.103154      5.896807
  F     -10.998459      0.701077      5.237046
  F      -9.180437     -0.932374      4.148617
  F      -9.097034      1.148308      3.453933
  F     -11.386426     -2.059318      5.415638
  F     -12.329697     -1.000035      7.096863
  F     -12.159207     -3.134090      8.668744
  F     -10.835972     -4.179007      7.285739
  F     -12.891847     -3.739069      6.715249
  O      -5.721656      1.300234      3.210707
  O      -6.625470     -0.707945      2.747592
  C      -9.632432      0.096483      7.059850
  C      -9.710043      0.792330      5.661061
  C      -9.979538     -1.427668      7.223648
  C      -8.769037      0.320594      4.508025
  C     -11.392363     -1.911411      6.756335
  C      -7.289067      0.392271      4.776509
  C     -11.825199     -3.280944      7.382794
  C      -6.475886      0.324054      3.457821
  H      -7.005566     -0.450339      5.415742
  H      -7.072012      1.323388      5.305481
52
Coordinates from ORCA-job R4N+FHEA-_0.15M E -2199.763512981688
  N      -2.808090      0.342407      0.562102
  C      -1.740237      0.322493     -0.536393
  C      -2.462595      1.344933      1.624065
  C      -4.109215      0.730605     -0.081622
  C      -2.964468     -1.009950      1.190255
  C      -0.357521     -0.017255     -0.062255
  C       0.532133      0.995864      0.308295
  C       0.071891     -1.347396     -0.028014
  C       1.822335      0.682975      0.725494
  C       1.361198     -1.660719      0.391096
  C       2.237087     -0.646249      0.771789
  H      -1.764965      1.321356     -0.981174
  H      -2.090387     -0.407427     -1.271730
  H      -2.343143      2.324566      1.156516
  H      -1.535572      1.038249      2.110233
  H      -3.279679      1.370543      2.346870
  H      -4.016338      1.744168     -0.476926
  H      -4.896416      0.687179      0.673447
  H      -4.322444      0.024910     -0.887156
  H      -2.034913     -1.282832      1.691739
  H      -3.206900     -1.734468      0.409897
  H      -3.777665     -0.951578      1.916927
  H       0.212446      2.033932      0.261924
  H      -0.605669     -2.138705     -0.338589
  H       2.506387      1.478188      1.007451
  H       1.685317     -2.697221      0.412047
  H       3.245441     -0.890700      1.093759
  F     -10.474515      0.749778      7.876130
  F      -8.371219      0.225939      7.547966
  F      -9.879611     -1.718511      8.513807
  F      -9.006362     -2.156950      6.550650
  F      -9.430632      2.112972      5.934709
  F     -10.971394      0.715054      5.227753
  F      -9.132706     -0.886950      4.132042
  F      -9.045082      1.207103      3.479805
  F     -11.339177     -2.050610      5.345765
  F     -12.314434     -1.036842      7.036154
  F     -12.152991     -3.203675      8.560671
  F     -10.790325     -4.203515      7.182718
  F     -12.839877     -3.777131      6.581233
  O      -5.705438      1.386377      3.257614
  O      -6.540031     -0.651157      2.791377
  C      -9.625748      0.083093      7.056362
  C      -9.689293      0.805519      5.670471
  C      -9.961880     -1.446959      7.185375
  C      -8.730215      0.359675      4.522409
  C     -11.364271     -1.932434      6.688893
  C      -7.253794      0.427447      4.813881
  C     -11.792497     -3.319731      7.278748
  C      -6.427434      0.385160      3.501293
  H      -6.980748     -0.427653      5.440661
  H      -7.044972      1.349048      5.362412
52
Coordinates from ORCA-job R4N+FHEA-_0.15M E -2199.763564298654
  N      -2.814181      0.351355      0.574308
  C      -1.755315      0.303725     -0.533135
  C      -2.454861      1.371054      1.614432
  C      -4.118310      0.737173     -0.066774
  C      -2.974813     -0.988060      1.228565
  C      -0.370563     -0.032003     -0.063103
  C       0.525080      0.985272      0.280556
  C       0.054931     -1.362623     -0.006076
  C       1.816730      0.676314      0.695554
  C       1.346155     -1.671897      0.410175
  C       2.227557     -0.653102      0.765356
  H      -1.779892      1.293759     -0.997481
  H      -2.116173     -0.440234     -1.249155
  H      -2.336245      2.341460      1.127632
  H      -1.524400      1.069941      2.097479
  H      -3.264042      1.413626      2.345127
  H      -4.021115      1.742665     -0.481184
  H      -4.896995      0.714380      0.698094
  H      -4.343061      0.018707     -0.857762
  H      -2.042795     -1.259512      1.726293
  H      -3.230227     -1.724371      0.463551
  H      -3.780797     -0.909329      1.961573
  H       0.208059      2.023178      0.215743
  H      -0.627383     -2.157422     -0.296666
  H       2.505079      1.474669      0.957521
  H       1.667055     -2.708878      0.449339
  H       3.237119     -0.894507      1.085873
  F     -10.468759      0.737863      7.870875
  F      -8.365109      0.214789      7.542571
  F      -9.879079     -1.733147      8.500532
  F      -8.999739     -2.165445      6.538488
  F      -9.426039      2.107064      5.935088
  F     -10.961195      0.707783      5.218398
  F      -9.115213     -0.884538      4.120843
  F      -9.025933      1.213268      3.481358
  F     -11.327321     -2.057205      5.327209
  F     -12.306947     -1.041779      7.014611
  F     -12.155823     -3.211063      8.538461
  F     -10.791983     -4.212992      7.163158
  F     -12.838708     -3.778993      6.556285
  O      -5.703304      1.420909      3.277649
  O      -6.496480     -0.631810      2.800228
  C      -9.619571      0.073569      7.049869
  C      -9.681086      0.799667      5.666277
  C      -9.956859     -1.457134      7.172758
  C      -8.716097      0.360194      4.520724
  C     -11.357602     -1.939541      6.670452
  C      -7.241394      0.427749      4.821665
  C     -11.791682     -3.326014      7.257570
  C      -6.407260      0.404018      3.514361
  H      -6.970893     -0.433192      5.441374
  H      -7.039151      1.343555      5.382308
52
Coordinates from ORCA-job R4N+FHEA-_0.15M E -2199.763623481989
  N      -2.807918      0.364784      0.583066
  C      -1.761947      0.285483     -0.535798
  C      -2.433962      1.405981      1.593144
  C      -4.115302      0.742877     -0.052997
  C      -2.968386     -0.958166      1.269604
  C      -0.375040     -0.049721     -0.073379
  C       0.527928      0.969277      0.245298
  C       0.045738     -1.381002      0.000677
  C       1.821427      0.661574      0.654832
  C       1.339409     -1.688869      0.410380
  C       2.227552     -0.668262      0.742389
  H      -1.785389      1.265552     -1.021074
  H      -2.138224     -0.471865     -1.229715
  H      -2.315211      2.363184      1.080675
  H      -1.500796      1.113722      2.076592
  H      -3.233030      1.470131      2.334066
  H      -4.013938      1.736005     -0.495382
  H      -4.886624      0.748150      0.720009
  H      -4.354625      0.006322     -0.822719
  H      -2.032798     -1.223619      1.763909
  H      -3.235236     -1.710207      0.524081
  H      -3.767115     -0.856766      2.008604
  H       0.213939      2.007184      0.166913
  H      -0.642374     -2.177267     -0.271721
  H       2.514978      1.461085      0.899086
  H       1.656615     -2.726399      0.463132
  H       3.238682     -0.908695      1.058703
  F     -10.490754      0.725303      7.865486
  F      -8.382880      0.212680      7.549581
  F      -9.897284     -1.744455      8.495440
  F      -9.002761     -2.172002      6.539079
  F      -9.445166      2.101077      5.937106
  F     -10.965017      0.692667      5.206814
  F      -9.101601     -0.884666      4.118286
  F      -9.014537      1.215785      3.489053
  F     -11.320441     -2.073673      5.311885
  F     -12.315311     -1.056986      6.990580
  F     -12.172246     -3.223039      8.518540
  F     -10.796530     -4.225688      7.155657
  F     -12.839197     -3.794624      6.532029
  O      -5.715891      1.473838      3.320918
  O      -6.447840     -0.601244      2.831193
  C      -9.633951      0.065502      7.049027
  C      -9.689694      0.792040      5.665669
  C      -9.966223     -1.467257      7.167307
  C      -8.711816      0.360420      4.528035
  C     -11.361413     -1.953347      6.654624
  C      -7.240372      0.431982      4.845192
  C     -11.797897     -3.339581      7.240654
  C      -6.393158      0.432866      3.546981
  H      -6.973378     -0.435990      5.456450
  H      -7.049622      1.340830      5.420987
52
Coordinates from ORCA-job R4N+FHEA-_0.15M E -2199.763644075359
  N      -2.806267      0.384980      0.594647
  C      -1.779790      0.257316     -0.538844
  C      -2.416992      1.467575      1.559568
  C      -4.126095      0.743307     -0.034614
  C      -2.955862     -0.908784      1.337143
  C      -0.390603     -0.077218     -0.085302
  C       0.521496      0.942093      0.205163
  C       0.022108     -1.409408      0.012184
  C       1.815736      0.633969      0.611062
  C       1.317249     -1.717598      0.416709
  C       2.214159     -0.696487      0.721853
  H      -1.802143      1.220384     -1.056972
  H      -2.177144     -0.520410     -1.197553
  H      -2.304156      2.403199      1.007427
  H      -1.479741      1.196073      2.047491
  H      -3.211510      1.553894      2.303539
  H      -4.024777      1.714892     -0.522498
  H      -4.875284      0.793097      0.760421
  H      -4.385159     -0.024559     -0.766173
  H      -2.012713     -1.154512      1.827329
  H      -3.233995     -1.690645      0.627404
  H      -3.744578     -0.775358      2.084114
  H       0.213064      1.980100      0.108238
  H      -0.674219     -2.206075     -0.237499
  H       2.516252      1.433477      0.834765
  H       1.628327     -2.755946      0.487257
  H       3.226172     -0.937113      1.035234
  F     -10.514573      0.704736      7.857413
  F      -8.400834      0.204480      7.564134
  F      -9.918999     -1.766660      8.482120
  F      -8.997344     -2.179366      6.534818
  F      -9.456900      2.093152      5.946214
  F     -10.955835      0.676533      5.190082
  F      -9.065695     -0.880266      4.115181
  F      -8.986489      1.224428      3.503050
  F     -11.297386     -2.094135      5.279739
  F     -12.319437     -1.080152      6.944626
  F     -12.192168     -3.243392      8.474799
  F     -10.794249     -4.244274      7.133530
  F     -12.828714     -3.818272      6.479155
  O      -5.726320      1.541831      3.365782
  O      -6.375591     -0.561833      2.868828
  C      -9.645378      0.052358      7.048524
  C      -9.688032      0.783044      5.667201
  C      -9.972089     -1.482756      7.154722
  C      -8.691378      0.364892      4.540283
  C     -11.357818     -1.973121      6.621858
  C      -7.224669      0.445545      4.876782
  C     -11.798650     -3.360342      7.202562
  C      -6.365096      0.475201      3.588424
  H      -6.956506     -0.427480      5.480198
  H      -7.050011      1.348520      5.466828
52
Coordinates from ORCA-job R4N+FHEA-_0.15M E -2199.763713896034
  N      -2.800255      0.384794      0.589945
  C      -1.770742      0.270521     -0.541122
  C      -2.416689      1.457606      1.563977
  C      -4.118227      0.743267     -0.038843
  C      -2.945496     -0.916049      1.320250
  C      -0.383070     -0.071016     -0.087535
  C       0.528775      0.942963      0.221792
  C       0.028107     -1.404866     -0.008570
  C       1.821668      0.627596      0.626951
  C       1.321426     -1.720380      0.396009
  C       2.218503     -0.704768      0.718916
  H      -1.790422      1.239253     -1.048399
  H      -2.165619     -0.498287     -1.211534
  H      -2.302493      2.398234      1.021196
  H      -1.481156      1.182426      2.053179
  H      -3.212198      1.539737      2.308388
  H      -4.018140      1.716387     -0.524040
  H      -4.873006      0.787578      0.749594
  H      -4.374799     -0.022899     -0.772984
  H      -2.002568     -1.160286      1.811531
  H      -3.216301     -1.693401      0.602857
  H      -3.736292     -0.795256      2.064955
  H       0.222144      1.982702      0.139015
  H      -0.668184     -2.197170     -0.271871
  H       2.522367      1.422871      0.864621
  H       1.631250     -2.759963      0.452306
  H       3.229359     -0.950998      1.031628
  F     -10.531148      0.711871      7.853948
  F      -8.414475      0.219602      7.566144
  F      -9.924514     -1.752254      8.493626
  F      -8.998084     -2.172175      6.550717
  F      -9.477482      2.096014      5.938140
  F     -10.968773      0.668621      5.186924
  F      -9.067198     -0.886117      4.125606
  F      -9.003621      1.214801      3.497381
  F     -11.297161     -2.100093      5.290181
  F     -12.327455     -1.088527      6.950841
  F     -12.186842     -3.247552      8.487501
  F     -10.783117     -4.242753      7.148144
  F     -12.819982     -3.830498      6.493163
  O      -5.730826      1.536508      3.361224
  O      -6.392254     -0.560420      2.875248
  C      -9.657574      0.059580      7.049670
  C      -9.701852      0.783817      5.664623
  C      -9.977011     -1.476267      7.164531
  C      -8.702026      0.365136      4.540880
  C     -11.359948     -1.976388      6.631817
  C      -7.236001      0.457739      4.877051
  C     -11.792875     -3.364850      7.215511
  C      -6.375904      0.477202      3.587965
  H      -6.963605     -0.408348      5.488697
  H      -7.064847      1.367670      5.457201
52
Coordinates from ORCA-job R4N+FHEA-_0.15M E -2199.763744844861
  N      -2.798244      0.383787      0.594712
  C      -1.776224      0.258619     -0.541154
  C      -2.409871      1.466644      1.554953
  C      -4.120441      0.732884     -0.027656
  C      -2.935616     -0.909664      1.339411
  C      -0.385197     -0.078220     -0.093715
  C       0.528958      0.938321      0.200226
  C       0.025883     -1.411420     -0.004281
  C       1.824470      0.626261      0.599987
  C       1.321894     -1.723673      0.394288
  C       2.221565     -0.705369      0.701490
  H      -1.799002      1.221531     -1.059188
  H      -2.174160     -0.516564     -1.202301
  H      -2.294307      2.401219      1.002416
  H      -1.474588      1.193899      2.045911
  H      -3.203857      1.558542      2.299619
  H      -4.024706      1.698730     -0.528203
  H      -4.871254      0.787681      0.763170
  H      -4.382784     -0.044292     -0.748134
  H      -1.988107     -1.146379      1.825532
  H      -3.210419     -1.695132      0.632431
  H      -3.720265     -0.783960      2.089028
  H       0.222884      1.977463      0.108770
  H      -0.672523     -2.206111     -0.254415
  H       2.527347      1.423353      0.824652
  H       1.631712     -2.762784      0.458498
  H       3.234537     -0.948956      1.009328
  F     -10.549955      0.704538      7.855342
  F      -8.429495      0.221415      7.578035
  F      -9.936830     -1.758899      8.490020
  F      -8.998935     -2.169208      6.551055
  F      -9.488745      2.100094      5.951411
  F     -10.971278      0.671149      5.185789
  F      -9.058465     -0.874332      4.131237
  F      -8.996691      1.229013      3.509965
  F     -11.291736     -2.094887      5.276930
  F     -12.335161     -1.099190      6.938167
  F     -12.190425     -3.269974      8.461885
  F     -10.778138     -4.248404      7.119039
  F     -12.814281     -3.839510      6.460784
  O      -5.733984      1.556319      3.381858
  O      -6.376685     -0.547158      2.903335
  C      -9.668977      0.058798      7.053791
  C      -9.707461      0.788506      5.671275
  C      -9.983401     -1.478258      7.161781
  C      -8.699434      0.376485      4.552739
  C     -11.362128     -1.980823      6.618927
  C      -7.235703      0.470277      4.898615
  C     -11.791791     -3.375315      7.190342
  C      -6.370591      0.493248      3.611614
  H      -6.966175     -0.397181      5.509379
  H      -7.067851      1.379802      5.480255
52
Coordinates from ORCA-job R4N+FHEA-_0.15M E -2199.763767384796
  N      -2.793664      0.388177      0.598035
  C      -1.777885      0.258989     -0.541479
  C      -2.403199      1.476258      1.551741
  C      -4.121563      0.730607     -0.017987
  C      -2.922053     -0.901738      1.350484
  C      -0.385907     -0.081822     -0.099218
  C       0.531450      0.930894      0.197210
  C       0.021713     -1.416545     -0.016625
  C       1.827110      0.613490      0.592409
  C       1.317840     -1.734231      0.377215
  C       2.220974     -0.719636      0.686839
  H      -1.799611      1.220680     -1.061737
  H      -2.179386     -0.515462     -1.201243
  H      -2.291287      2.409206      0.996046
  H      -1.466273      1.205995      2.040849
  H      -3.196351      1.571023      2.296585
  H      -4.027239      1.684865     -0.540582
  H      -4.862313      0.805336      0.781280
  H      -4.394870     -0.061744     -0.717654
  H      -1.971323     -1.130006      1.834278
  H      -3.195134     -1.692891      0.649163
  H      -3.703523     -0.777806      2.102139
  H       0.228625      1.971427      0.111117
  H      -0.679708     -2.208265     -0.267685
  H       2.532759      1.407570      0.818948
  H       1.625028     -2.774436      0.436032
  H       3.234037     -0.967183      0.991167
  F     -10.576302      0.705095      7.845096
  F      -8.450312      0.235746      7.584120
  F      -9.949714     -1.750992      8.493752
  F      -8.996387     -2.162330      6.562706
  F      -9.511642      2.101811      5.944616
  F     -10.978822      0.660174      5.173157
  F      -9.047085     -0.875822      4.138665
  F      -8.997338      1.225946      3.508989
  F     -11.281783     -2.102192      5.272027
  F     -12.343407     -1.115157      6.926269
  F     -12.183759     -3.286326      8.453469
  F     -10.763670     -4.253142      7.110342
  F     -12.801626     -3.856501      6.450670
  O      -5.734228      1.572828      3.399447
  O      -6.364208     -0.532519      2.922454
  C      -9.685005      0.062924      7.052105
  C      -9.719062      0.788061      5.666888
  C      -9.989553     -1.475496      7.164319
  C      -8.700451      0.379431      4.556926
  C     -11.361563     -1.989094      6.613643
  C      -7.239826      0.485038      4.912346
  C     -11.783123     -3.386891      7.182259
  C      -6.367279      0.510336      3.629309
  H      -6.967386     -0.378733      5.526818
  H      -7.081345      1.397965      5.491226
52
Coordinates from ORCA-job R4N+FHEA-_0.15M E -2199.763783900566
  N      -2.794407      0.385384      0.609488
  C      -1.790667      0.237305     -0.538035
  C      -2.396987      1.492243      1.538053
  C      -4.129168      0.712320      0.002616
  C      -2.911916     -0.891075      1.386559
  C      -0.392630     -0.092544     -0.105758
  C       0.525750      0.926987      0.162997
  C       0.019008     -1.424813     -0.005120
  C       1.826764      0.618995      0.548299
  C       1.320353     -1.733100      0.378998
  C       2.224733     -0.711499      0.660785
  H      -1.820133      1.189042     -1.076009
  H      -2.197226     -0.549880     -1.179413
  H      -2.289434      2.414270      0.963490
  H      -1.456408      1.231042      2.025061
  H      -3.185004      1.601874      2.286618
  H      -4.041895      1.652539     -0.545949
  H      -4.860282      0.806810      0.808804
  H      -4.411859     -0.097969     -0.672443
  H      -1.955219     -1.109346      1.863176
  H      -3.192153     -1.694936      0.702746
  H      -3.685450     -0.754809      2.145137
  H       0.219854      1.965361      0.062941
  H      -0.683513     -2.222163     -0.234327
  H       2.533207      1.418272      0.753081
  H       1.630566     -2.771512      0.451885
  H       3.241829     -0.951682      0.957477
  F     -10.587913      0.693216      7.847766
  F      -8.460313      0.225331      7.597874
  F      -9.966655     -1.768395      8.481765
  F      -9.001272     -2.165834      6.553778
  F      -9.509582      2.103498      5.964842
  F     -10.971572      0.668246      5.172216
  F      -9.033946     -0.860837      4.140179
  F      -8.976653      1.245667      3.527213
  F     -11.276818     -2.094558      5.248451
  F     -12.349644     -1.117746      6.901629
  F     -12.201294     -3.300531      8.415182
  F     -10.774754     -4.258915      7.072718
  F     -12.808410     -3.854229      6.404528
  O      -5.731312      1.597531      3.430121
  O      -6.330359     -0.519612      2.957060
  C      -9.691433      0.056588      7.056082
  C      -9.715474      0.791967      5.676048
  C      -9.997629     -1.482466      7.154433
  C      -8.688905      0.390501      4.570907
  C     -11.366434     -1.990530      6.590253
  C      -7.230665      0.491043      4.937944
  C     -11.793476     -3.391852      7.145600
  C      -6.350949      0.525512      3.659615
  H      -6.963801     -0.377693      5.547531
  H      -7.075081      1.399896      5.524054
52
Coordinates from ORCA-job R4N+FHEA-_0.15M E -2199.763797638661
  N      -2.792660      0.373287      0.614283
  C      -1.794434      0.226257     -0.537739
  C      -2.397997      1.489656      1.534683
  C      -4.132784      0.686146      0.013035
  C      -2.897436     -0.899638      1.399366
  C      -0.391527     -0.090546     -0.111187
  C       0.520676      0.937223      0.146362
  C       0.030741     -1.419181     -0.005989
  C       1.826189      0.640988      0.525480
  C       1.336744     -1.715698      0.371454
  C       2.234990     -0.685818      0.642418
  H      -1.834217      1.174825     -1.080776
  H      -2.198177     -0.567707     -1.172491
  H      -2.297893      2.408439      0.953328
  H      -1.454123      1.236801      2.019622
  H      -3.185915      1.598146      2.283546
  H      -4.055209      1.619758     -0.547839
  H      -4.859123      0.787050      0.822464
  H      -4.416862     -0.133742     -0.649769
  H      -1.936442     -1.110074      1.870839
  H      -3.177774     -1.708519      0.721531
  H      -3.667459     -0.763493      2.162608
  H       0.206416      1.972794      0.043226
  H      -0.667230     -2.222867     -0.226866
  H       2.527629      1.446712      0.722096
  H       1.655160     -2.751370      0.447971
  H       3.255648     -0.916720      0.934253
  F     -10.584629      0.690224      7.857749
  F      -8.459997      0.210256      7.607491
  F      -9.978624     -1.780796      8.474349
  F      -9.016107     -2.169921      6.543001
  F      -9.493448      2.105919      5.985524
  F     -10.964807      0.686704      5.181490
  F      -9.038648     -0.848933      4.140459
  F      -8.962231      1.261299      3.543181
  F     -11.290813     -2.076326      5.239058
  F     -12.356982     -1.101279      6.897912
  F     -12.224267     -3.294423      8.398446
  F     -10.805519     -4.255145      7.049214
  F     -12.836422     -3.830765      6.384679
  O      -5.721682      1.584366      3.443661
  O      -6.321837     -0.534358      2.973917
  C      -9.691391      0.053060      7.062752
  C      -9.708553      0.797928      5.687697
  C     -10.007863     -1.484632      7.149387
  C      -8.683647      0.395884      4.581126
  C     -11.380119     -1.979307      6.581531
  C      -7.225232      0.481798      4.950580
  C     -11.817647     -3.380872      7.128164
  C      -6.343091      0.513016      3.673918
  H      -6.966534     -0.390998      5.557714
  H      -7.063472      1.387508      5.540041
52
Coordinates from ORCA-job R4N+FHEA-_0.15M E -2199.763813593326
  N      -2.793084      0.362174      0.624089
  C      -1.801099      0.216516     -0.533670
  C      -2.400601      1.486758      1.535290
  C      -4.139512      0.662687      0.030041
  C      -2.885072     -0.907463      1.416273
  C      -0.393009     -0.088949     -0.115454
  C       0.514664      0.946082      0.128505
  C       0.038701     -1.414281     -0.005929
  C       1.825084      0.660388      0.498953
  C       1.349449     -1.700198      0.363106
  C       2.243221     -0.663016      0.620747
  H      -1.851081      1.162743     -1.079959
  H      -2.203898     -0.583274     -1.161825
  H      -2.314566      2.402770      0.947087
  H      -1.449295      1.245373      2.011242
  H      -3.182954      1.595048      2.290286
  H      -4.070322      1.586689     -0.547391
  H      -4.857004      0.775781      0.846091
  H      -4.429575     -0.168724     -0.615599
  H      -1.920579     -1.109730      1.884130
  H      -3.163513     -1.720961      0.743204
  H      -3.652531     -0.772363      2.182200
  H       0.192842      1.979059      0.022564
  H      -0.656025     -2.223493     -0.216685
  H       2.522576      1.471861      0.685810
  H       1.674897     -2.733387      0.443677
  H       3.267512     -0.885730      0.906192
  F     -10.583695      0.689659      7.861237
  F      -8.461367      0.198896      7.615617
  F      -9.991060     -1.789447      8.465928
  F      -9.027984     -2.171685      6.533159
  F      -9.477321      2.108098      5.999290
  F     -10.956011      0.702787      5.184474
  F      -9.039206     -0.839584      4.138383
  F      -8.945536      1.273236      3.554068
  F     -11.300885     -2.059892      5.227673
  F     -12.363273     -1.087410      6.890803
  F     -12.244187     -3.289054      8.379808
  F     -10.830173     -4.250800      7.026173
  F     -12.858319     -3.810827      6.362864
  O      -5.703709      1.569127      3.460248
  O      -6.308752     -0.548624      2.989381
  C      -9.691666      0.051346      7.065800
  C      -9.700334      0.803111      5.694398
  C     -10.016930     -1.485220      7.142765
  C      -8.675895      0.399743      4.587468
  C     -11.391107     -1.969130      6.570668
  C      -7.217756      0.473342      4.960019
  C     -11.837305     -3.371049      7.109399
  C      -6.330396      0.499738      3.687492
  H      -6.967014     -0.402315      5.566474
  H      -7.051973      1.376512      5.552384
52
Coordinates from ORCA-job R4N+FHEA-_0.15M E -2199.763824924652
  N      -2.793791      0.351155      0.629543
  C      -1.804084      0.212691     -0.531444
  C      -2.404317      1.476448      1.541608
  C      -4.142831      0.646793      0.039848
  C      -2.877487     -0.920006      1.420101
  C      -0.392927     -0.083924     -0.117648
  C       0.509189      0.957310      0.120489
  C       0.047619     -1.406310     -0.007305
  C       1.823112      0.680747      0.485462
  C       1.361585     -1.683060      0.357163
  C       2.250044     -0.639716      0.608316
  H      -1.861797      1.159272     -1.076202
  H      -2.204122     -0.589244     -1.158701
  H      -2.326286      2.393607      0.954014
  H      -1.449238      1.240706      2.012793
  H      -3.184538      1.578741      2.299573
  H      -4.079386      1.571443     -0.537338
  H      -4.859011      0.757589      0.857058
  H      -4.433192     -0.184789     -0.605444
  H      -1.911024     -1.118038      1.885689
  H      -3.153044     -1.733829      0.746253
  H      -3.644044     -0.789621      2.187621
  H       0.180126      1.987965      0.014079
  H      -0.642732     -2.220283     -0.214078
  H       2.516169      1.497087      0.667557
  H       1.693878     -2.714015      0.438448
  H       3.276977     -0.855432      0.889612
  F     -10.578515      0.694793      7.863266
  F      -8.459100      0.191750      7.619108
  F      -9.999458     -1.789760      8.462985
  F      -9.038738     -2.172444      6.529024
  F      -9.459808      2.110121      6.005325
  F     -10.948585      0.717393      5.187264
  F      -9.044200     -0.835780      4.136437
  F      -8.933175      1.277821      3.558657
  F     -11.312306     -2.043834      5.224510
  F     -12.367890     -1.071352      6.891950
  F     -12.258330     -3.279371      8.373399
  F     -10.851404     -4.243340      7.013819
  F     -12.878220     -3.790098      6.355399
  O      -5.686678      1.541588      3.465011
  O      -6.309628     -0.570219      2.992719
  C      -9.689533      0.052770      7.067421
  C      -9.692273      0.807475      5.697581
  C     -10.023741     -1.482202      7.140523
  C      -8.670835      0.399123      4.589509
  C     -11.400712     -1.957056      6.567875
  C      -7.212261      0.459830      4.962355
  C     -11.853826     -3.358603      7.102122
  C      -6.323250      0.477934      3.691138
  H      -6.969685     -0.418072      5.569007
  H      -7.039327      1.361163      5.555475
52
Coordinates from ORCA-job R4N+FHEA-_0.15M E -2199.763839701043
  N      -2.794904      0.338423      0.640542
  C      -1.812814      0.201510     -0.527727
  C      -2.407799      1.471303      1.543772
  C      -4.150559      0.621575      0.060401
  C      -2.862048     -0.928861      1.438539
  C      -0.396371     -0.081352     -0.123362
  C       0.499137      0.969157      0.099210
  C       0.055974     -1.399166     -0.006194
  C       1.818372      0.706463      0.455331
  C       1.375219     -1.662010      0.349320
  C       2.257124     -0.609457      0.584860
  H      -1.882493      1.144688     -1.076708
  H      -2.212255     -0.607145     -1.146703
  H      -2.344647      2.386077      0.950850
  H      -1.445636      1.248378      2.006750
  H      -3.181278      1.569190      2.309215
  H      -4.097755      1.543198     -0.522947
  H      -4.860453      0.733995      0.882768
  H      -4.442494     -0.215339     -0.577245
  H      -1.890871     -1.115095      1.899144
  H      -3.133914     -1.749074      0.770979
  H      -3.624884     -0.801032      2.209795
  H       0.160465      1.996077     -0.012982
  H      -0.629167     -2.220423     -0.201162
  H       2.506212      1.529907      0.624720
  H       1.716772     -2.689516      0.435699
  H       3.288190     -0.814623      0.858795
  F     -10.575322      0.699616      7.864309
  F      -8.459250      0.180024      7.626414
  F     -10.016771     -1.792814      8.456279
  F      -9.054100     -2.174441      6.523026
  F      -9.436113      2.112466      6.016358
  F     -10.935825      0.737321      5.188481
  F      -9.044999     -0.827593      4.133105
  F      -8.908129      1.288081      3.568983
  F     -11.324670     -2.018842      5.213320
  F     -12.376154     -1.051522      6.886049
  F     -12.280918     -3.272891      8.352004
  F     -10.880533     -4.234431      6.983917
  F     -12.904441     -3.762278      6.329916
  O      -5.660839      1.508877      3.482648
  O      -6.299358     -0.597371      3.008410
  C      -9.688672      0.053375      7.069407
  C      -9.680045      0.813371      5.702551
  C     -10.035233     -1.479354      7.134965
  C      -8.659337      0.400316      4.595294
  C     -11.414300     -1.941202      6.557061
  C      -7.201596      0.441336      4.973945
  C     -11.877169     -3.343842      7.080107
  C      -6.307158      0.450790      3.706775
  H      -6.973397     -0.441365      5.579313
  H      -7.019424      1.338441      5.570651
52
Coordinates from ORCA-job R4N+FHEA-_0.15M E -2199.763853407337
  N      -2.794189      0.328705      0.649951
  C      -1.821246      0.187207     -0.525811
  C      -2.406871      1.471898      1.539199
  C      -4.156579      0.598685      0.079741
  C      -2.845435     -0.931399      1.460276
  C      -0.399742     -0.082274     -0.130916
  C       0.489964      0.976853      0.074013
  C       0.063144     -1.395537     -0.004525
  C       1.813968      0.727415      0.421798
  C       1.387102     -1.645147      0.342918
  C       2.263228     -0.583995      0.560774
  H      -1.901973      1.124742     -1.082806
  H      -2.221371     -0.629694     -1.133356
  H      -2.357038      2.382195      0.938340
  H      -1.438268      1.261289      1.994555
  H      -3.171867      1.569441      2.312891
  H      -4.114531      1.517456     -0.509127
  H      -4.860414      0.711346      0.907072
  H      -4.448361     -0.243724     -0.550720
  H      -1.869280     -1.104976      1.915249
  H      -3.115264     -1.760523      0.802930
  H      -3.603245     -0.802464      2.235882
  H       0.142700      2.000009     -0.045986
  H      -0.617371     -2.223722     -0.185870
  H       2.497230      1.557401      0.577134
  H       1.736956     -2.669220      0.436507
  H       3.297961     -0.779091      0.828132
  F     -10.578992      0.701353      7.865849
  F      -8.464866      0.169762      7.637738
  F     -10.036230     -1.797812      8.449566
  F      -9.068939     -2.175694      6.517668
  F      -9.418041      2.115057      6.030812
  F     -10.925535      0.756094      5.190499
  F      -9.044933     -0.817589      4.132551
  F      -8.883918      1.300284      3.583016
  F     -11.334755     -1.995103      5.200487
  F     -12.386192     -1.037352      6.878408
  F     -12.301848     -3.272979      8.326500
  F     -10.905256     -4.228097      6.950123
  F     -12.926429     -3.740022      6.299505
  O      -5.639840      1.483595      3.505665
  O      -6.287211     -0.619630      3.030734
  C      -9.691932      0.053304      7.073097
  C      -9.671145      0.819440      5.709775
  C     -10.047896     -1.477651      7.129636
  C      -8.649161      0.403579      4.604612
  C     -11.427438     -1.928574      6.544460
  C      -7.193074      0.425951      4.991087
  C     -11.897666     -3.333673      7.054241
  C      -6.292415      0.429109      3.728264
  H      -6.979358     -0.461780      5.594329
  H      -7.002767      1.318465      5.592081
52
Coordinates from ORCA-job R4N+FHEA-_0.15M E -2199.763868690486
  N      -2.791641      0.323311      0.661805
  C      -1.832139      0.167234     -0.523257
  C      -2.400092      1.482773      1.526860
  C      -4.162527      0.576923      0.104090
  C      -2.825290     -0.923445      1.493470
  C      -0.404793     -0.089113     -0.141111
  C       0.481629      0.977599      0.037623
  C       0.066314     -1.397832      0.000565
  C       1.810524      0.740474      0.375098
  C       1.395363     -1.635205      0.337170
  C       2.268106     -0.566371      0.529383
  H      -1.924046      1.095135     -1.094506
  H      -2.235920     -0.660980     -1.112627
  H      -2.365442      2.384536      0.912351
  H      -1.423697      1.286432      1.971974
  H      -3.152702      1.586676      2.311593
  H      -4.132743      1.489711     -0.494766
  H      -4.857488      0.692872      0.938570
  H      -4.454345     -0.274575     -0.514054
  H      -1.842993     -1.081725      1.940732
  H      -3.095416     -1.765928      0.853388
  H      -3.575578     -0.787594      2.275006
  H       0.127683      1.996888     -0.095030
  H      -0.611644     -2.232335     -0.160206
  H       2.491196      1.576146      0.509925
  H       1.751783     -2.655853      0.442639
  H       3.306646     -0.752094      0.788515
  F     -10.594603      0.697683      7.866247
  F      -8.480024      0.161639      7.654781
  F     -10.058594     -1.807711      8.438806
  F      -9.082071     -2.174523      6.509020
  F      -9.409018      2.119100      6.050746
  F     -10.918164      0.774091      5.191320
  F      -9.041559     -0.801864      4.133628
  F      -8.858271      1.319071      3.602969
  F     -11.341119     -1.973452      5.181100
  F     -12.399152     -1.033375      6.864536
  F     -12.319374     -3.285050      8.289898
  F     -10.921943     -4.226674      6.905202
  F     -12.940908     -3.727585      6.256427
  O      -5.619753      1.468254      3.540993
  O      -6.268298     -0.634816      3.066689
  C      -9.702095      0.052214      7.077695
  C      -9.666933      0.826916      5.719414
  C     -10.062223     -1.478064      7.121089
  C      -8.639435      0.412361      4.618808
  C     -11.439519     -1.921641      6.525144
  C      -7.186559      0.417645      5.017630
  C     -11.912875     -3.331802      7.017709
  C      -6.276057      0.415893      3.761593
  H      -6.987994     -0.474815      5.618937
  H      -6.990832      1.305764      5.623366
52
Coordinates from ORCA-job R4N+FHEA-_0.15M E -2199.763879844142
  N      -2.787686      0.326738      0.667545
  C      -1.836834      0.158739     -0.522595
  C      -2.388331      1.493583      1.518367
  C      -4.162522      0.576087      0.116915
  C      -2.816069     -0.912134      1.511094
  C      -0.407184     -0.095503     -0.147558
  C       0.481454      0.971718      0.015932
  C       0.063196     -1.403407      0.003444
  C       1.811972      0.736128      0.347696
  C       1.393930     -1.639312      0.334556
  C       2.268982     -0.569779      0.511571
  H      -1.931627      1.081324     -1.102022
  H      -2.245045     -0.674225     -1.101944
  H      -2.360020      2.390739      0.896780
  H      -1.407723      1.300907      1.955865
  H      -3.132059      1.604474      2.310325
  H      -4.136827      1.486587     -0.485424
  H      -4.852649      0.692929      0.955442
  H      -4.455205     -0.278657     -0.496354
  H      -1.830857     -1.066087      1.953446
  H      -3.090154     -1.760861      0.880957
  H      -3.561174     -0.769151      2.296505
  H       0.127954      1.990157     -0.124265
  H      -0.616700     -2.238599     -0.145070
  H       2.494463      1.572148      0.470685
  H       1.749861     -2.659319      0.447613
  H       3.308788     -0.754281      0.766485
  F     -10.615978      0.693717      7.861719
  F      -8.498133      0.165689      7.666145
  F     -10.069866     -1.811335      8.433992
  F      -9.084336     -2.170118      6.506891
  F      -9.418619      2.121847      6.056854
  F     -10.921003      0.776040      5.186976
  F      -9.038097     -0.795602      4.137062
  F      -8.851244      1.326233      3.611308
  F     -11.339095     -1.973496      5.170762
  F     -12.407393     -1.043443      6.853224
  F     -12.321180     -3.298124      8.272884
  F     -10.918284     -4.231379      6.888092
  F     -12.937292     -3.736343      6.236691
  O      -5.610574      1.467658      3.564944
  O      -6.259879     -0.635013      3.090577
  C      -9.715100      0.052796      7.078980
  C      -9.672776      0.829740      5.722029
  C     -10.069509     -1.478729      7.117107
  C      -8.638646      0.417814      4.626659
  C     -11.442613     -1.926422      6.514534
  C      -7.188208      0.421992      5.034056
  C     -11.911961     -3.339916      7.001277
  C      -6.270111      0.417123      3.783224
  H      -6.994062     -0.469765      5.637776
  H      -6.994603      1.311005      5.639194
52
Coordinates from ORCA-job R4N+FHEA-_0.15M E -2199.763890089710
  N      -2.782772      0.333413      0.673161
  C      -1.839848      0.153448     -0.521136
  C      -2.372398      1.504966      1.512748
  C      -4.160060      0.583546      0.128287
  C      -2.811719     -0.899343      1.525735
  C      -0.408427     -0.101548     -0.152791
  C       0.484663      0.964104     -0.005252
  C       0.058547     -1.409599      0.007445
  C       1.816479      0.727017      0.320002
  C       1.390560     -1.647009      0.332423
  C       2.270282     -0.578777      0.493427
  H      -1.935671      1.071544     -1.107566
  H      -2.252876     -0.682865     -1.092064
  H      -2.346096      2.398219      0.885368
  H      -1.389095      1.310858      1.943463
  H      -3.109482      1.624626      2.309514
  H      -4.135431      1.491892     -0.477080
  H      -4.845889      0.702783      0.970198
  H      -4.455871     -0.273146     -0.480761
  H      -1.824336     -1.055732      1.962392
  H      -3.094870     -1.750868      0.903425
  H      -3.550579     -0.746892      2.315744
  H       0.133762      1.982477     -0.152335
  H      -0.625083     -2.243850     -0.128697
  H       2.502520      1.561842      0.430858
  H       1.743778     -2.667083      0.453129
  H       3.311078     -0.764212      0.743604
  F     -10.638135      0.688993      7.855225
  F      -8.516876      0.170515      7.674555
  F     -10.081303     -1.813960      8.431691
  F      -9.084890     -2.167759      6.509234
  F      -9.434249      2.121486      6.057087
  F     -10.926080      0.769153      5.179099
  F      -9.031262     -0.796229      4.142486
  F      -8.849748      1.325496      3.614812
  F     -11.333698     -1.984141      5.162535
  F     -12.414748     -1.055607      6.837766
  F     -12.326516     -3.306700      8.261985
  F     -10.914213     -4.237871      6.885259
  F     -12.931714     -3.750442      6.223608
  O      -5.604271      1.474710      3.586685
  O      -6.250446     -0.628885      3.111596
  C      -9.728991      0.051793      7.078790
  C      -9.681295      0.828222      5.721579
  C     -10.076420     -1.481169      7.115095
  C      -8.639353      0.419198      4.632563
  C     -11.444586     -1.935195      6.505744
  C      -7.191225      0.430716      5.047755
  C     -11.911221     -3.349506      6.992360
  C      -6.265627      0.424826      3.802111
  H      -6.996032     -0.457739      5.655964
  H      -7.004897      1.323201      5.650123
52
Coordinates from ORCA-job R4N+FHEA-_0.15M E -2199.763897475868
  N      -2.777187      0.344927      0.673188
  C      -1.835787      0.163067     -0.521647
  C      -2.356897      1.510066      1.517352
  C      -4.152292      0.607041      0.128261
  C      -2.816432     -0.890757      1.520989
  C      -0.405891     -0.101827     -0.154040
  C       0.494467      0.957431     -0.006035
  C       0.052114     -1.413296      0.004448
  C       1.824797      0.710640      0.317891
  C       1.382649     -1.660380      0.328207
  C       2.269834     -0.598378      0.489535
  H      -1.926065      1.083522     -1.105271
  H      -2.253200     -0.668910     -1.095649
  H      -2.325012      2.405569      0.893327
  H      -1.374552      1.306195      1.945602
  H      -3.092631      1.632151      2.315158
  H      -4.121672      1.518732     -0.471619
  H      -4.838733      0.724349      0.969946
  H      -4.451606     -0.244339     -0.486492
  H      -1.830107     -1.058786      1.955767
  H      -3.108964     -1.736823      0.895610
  H      -3.552817     -0.733620      2.312873
  H       0.150572      1.978485     -0.151097
  H      -0.637411     -2.242595     -0.132237
  H       2.516623      1.540617      0.429334
  H       1.728827     -2.683012      0.447671
  H       3.309540     -0.791077      0.738772
  F     -10.654085      0.691004      7.843942
  F      -8.529706      0.183130      7.670967
  F     -10.084199     -1.804886      8.438857
  F      -9.081485     -2.165908      6.521244
  F      -9.456852      2.117549      6.037527
  F     -10.936809      0.748295      5.165530
  F      -9.027350     -0.811897      4.146883
  F      -8.862593      1.306662      3.601512
  F     -11.327657     -2.009363      5.168705
  F     -12.418178     -1.069154      6.831486
  F     -12.325198     -3.304662      8.277951
  F     -10.902567     -4.243286      6.916909
  F     -12.919757     -3.772987      6.241899
  O      -5.604693      1.481876      3.591172
  O      -6.252722     -0.619723      3.111818
  C      -9.739779      0.053322      7.073683
  C      -9.693940      0.820243      5.710924
  C     -10.078588     -1.481173      7.120198
  C      -8.646560      0.410527      4.627352
  C     -11.442887     -1.947375      6.511162
  C      -7.199431      0.439755      5.044936
  C     -11.904440     -3.358844      7.010570
  C      -6.269529      0.433362      3.802448
  H      -6.995559     -0.441518      5.660788
  H      -7.024231      1.338973      5.640639
52
Coordinates from ORCA-job R4N+FHEA-_0.15M E -2199.763904092546
  N      -2.772489      0.349670      0.684833
  C      -1.840616      0.160129     -0.516070
  C      -2.341875      1.518424      1.520242
  C      -4.150812      0.612715      0.148547
  C      -2.810122     -0.881807      1.538923
  C      -0.407723     -0.103845     -0.159075
  C       0.495682      0.955175     -0.029200
  C       0.049974     -1.414715      0.005671
  C       1.829042      0.708851      0.282843
  C       1.383279     -1.661228      0.318221
  C       2.273823     -0.599328      0.461079
  H      -1.934975      1.077314     -1.104129
  H      -2.262908     -0.674887     -1.082022
  H      -2.312766      2.410326      0.890929
  H      -1.356558      1.313424      1.940836
  H      -3.072261      1.646433      2.322261
  H      -4.122899      1.520849     -0.456787
  H      -4.830464      0.735869      0.995076
  H      -4.457120     -0.241274     -0.459093
  H      -1.820781     -1.053552      1.965374
  H      -3.113357     -1.728740      0.919884
  H      -3.538535     -0.716672      2.336845
  H       0.151938      1.975651     -0.178603
  H      -0.642114     -2.243989     -0.117606
  H       2.523184      1.538671      0.380314
  H       1.728975     -2.683409      0.442851
  H       3.315778     -0.791491      0.701176
  F     -10.671450      0.693121      7.830867
  F      -8.545676      0.186171      7.673383
  F     -10.103524     -1.800959      8.438350
  F      -9.088272     -2.167326      6.528600
  F      -9.465362      2.113362      6.026318
  F     -10.936431      0.737752      5.149210
  F      -9.016629     -0.822576      4.150436
  F      -8.853058      1.294022      3.597550
  F     -11.325197     -2.021116      5.161365
  F     -12.427351     -1.070181      6.810469
  F     -12.346164     -3.297851      8.270697
  F     -10.912623     -4.243744      6.926043
  F     -12.924849     -3.778200      6.232971
  O      -5.588610      1.477303      3.615789
  O      -6.236015     -0.623431      3.130765
  C      -9.751734      0.052982      7.068919
  C      -9.697667      0.814450      5.703374
  C     -10.089892     -1.481574      7.118841
  C      -8.641987      0.402220      4.628656
  C     -11.450153     -1.950697      6.502708
  C      -7.197933      0.438235      5.055890
  C     -11.915645     -3.359110      7.007019
  C      -6.257907      0.430047      3.821100
  H      -6.994339     -0.439322      5.677177
  H      -7.031461      1.340773      5.649132
52
Coordinates from ORCA-job R4N+FHEA-_0.15M E -2199.763912649806
  N      -2.767643      0.357223      0.690197
  C      -1.839501      0.169967     -0.513919
  C      -2.331036      1.520815      1.529749
  C      -4.146040      0.627574      0.158450
  C      -2.807457     -0.877467      1.539364
  C      -0.406639     -0.100479     -0.161952
  C       0.501008      0.954918     -0.032073
  C       0.046926     -1.413439     -0.002519
  C       1.834634      0.702923      0.274459
  C       1.380390     -1.665595      0.304591
  C       2.275314     -0.607345      0.447296
  H      -1.932322      1.090142     -1.097459
  H      -2.266166     -0.661161     -1.082330
  H      -2.300583      2.414772      0.903474
  H      -1.345176      1.310890      1.946614
  H      -3.059169      1.647211      2.334195
  H      -4.116655      1.537616     -0.444036
  H      -4.823336      0.750733      1.006726
  H      -4.457733     -0.222893     -0.451404
  H      -1.817454     -1.055039      1.961864
  H      -3.116333     -1.720589      0.917914
  H      -3.532622     -0.712118      2.339983
  H       0.160380      1.977062     -0.177139
  H      -0.648546     -2.239835     -0.126091
  H       2.532076      1.529987      0.371764
  H       1.722775     -2.689399      0.424971
  H       3.317451     -0.803964      0.682927
  F     -10.683910      0.702377      7.813675
  F      -8.556710      0.197392      7.666972
  F     -10.115893     -1.784811      8.446088
  F      -9.092019     -2.167772      6.544385
  F      -9.477378      2.108129      5.999708
  F     -10.940092      0.719332      5.129449
  F      -9.010202     -0.843613      4.153387
  F      -8.852875      1.268433      3.581131
  F     -11.322869     -2.040032      5.166417
  F     -12.433442     -1.071478      6.799582
  F     -12.358949     -3.283265      8.284384
  F     -10.915443     -4.241596      6.959317
  F     -12.924399     -3.787925      6.248950
  O      -5.577482      1.467072      3.626602
  O      -6.232094     -0.628899      3.133112
  C      -9.760907      0.056700      7.060446
  C      -9.703907      0.805521      5.688064
  C     -10.097053     -1.477915      7.123583
  C      -8.642307      0.387023      4.621531
  C     -11.454210     -1.954687      6.506317
  C      -7.200381      0.433762      5.054655
  C     -11.920699     -3.357941      7.024120
  C      -6.253367      0.422770      3.825473
  H      -6.994646     -0.438747      5.682459
  H      -7.041941      1.340575      5.643521
52
Coordinates from ORCA-job R4N+FHEA-_0.15M E -2199.763935714129
  N      -2.747135      0.386162      0.710329
  C      -1.835696      0.206105     -0.507484
  C      -2.287622      1.533000      1.560895
  C      -4.128254      0.680239      0.199702
  C      -2.790397     -0.858799      1.543935
  C      -0.402353     -0.086559     -0.177002
  C       0.519860      0.956300     -0.048057
  C       0.037238     -1.406489     -0.037638
  C       1.854591      0.685037      0.236938
  C       1.371493     -1.677895      0.248343
  C       2.281422     -0.632287      0.389560
  H      -1.924243      1.136189     -1.075579
  H      -2.279432     -0.611291     -1.082689
  H      -2.255698      2.434317      0.945539
  H      -1.298158      1.307511      1.960920
  H      -3.004158      1.653546      2.376445
  H      -4.095834      1.597000     -0.392676
  H      -4.793094      0.802908      1.057754
  H      -4.460227     -0.158216     -0.416122
  H      -1.796840     -1.053355      1.950215
  H      -3.118133     -1.690256      0.916405
  H      -3.502378     -0.694605      2.355754
  H       0.189657      1.983965     -0.177417
  H      -0.669862     -2.222993     -0.160951
  H       2.563350      1.502556      0.332875
  H       1.702738     -2.707081      0.352930
  H       3.324285     -0.844234      0.607966
  F     -10.734364      0.739754      7.743589
  F      -8.602843      0.237973      7.644530
  F     -10.175383     -1.717726      8.476463
  F      -9.113415     -2.170369      6.612004
  F      -9.517140      2.084264      5.896302
  F     -10.949373      0.648242      5.052402
  F      -8.983101     -0.929581      4.172533
  F      -8.842615      1.161369      3.521459
  F     -11.315670     -2.108805      5.186706
  F     -12.461072     -1.072467      6.752840
  F     -12.421744     -3.219791      8.330563
  F     -10.939111     -4.226970      7.087526
  F     -12.931165     -3.817438      6.305952
  O      -5.530096      1.418677      3.678137
  O      -6.213691     -0.658213      3.147477
  C      -9.798543      0.070753      7.027725
  C      -9.724510      0.768681      5.629656
  C     -10.131140     -1.461908      7.143211
  C      -8.638983      0.322945      4.598705
  C     -11.475292     -1.966137      6.518638
  C      -7.206620      0.407645      5.056747
  C     -11.950323     -3.347087      7.086646
  C      -6.231830      0.386628      3.850281
  H      -6.997266     -0.447008      5.708024
  H      -7.076456      1.328706      5.629939
52
Coordinates from ORCA-job R4N+FHEA-_0.15M E -2199.763948885528
  N      -2.734051      0.400192      0.734808
  C      -1.844051      0.217061     -0.498522
  C      -2.256409      1.545803      1.575682
  C      -4.122983      0.698006      0.249120
  C      -2.766227     -0.843936      1.569902
  C      -0.406053     -0.080177     -0.193249
  C       0.521685      0.960061     -0.082522
  C       0.031961     -1.401107     -0.059140
  C       1.860508      0.685436      0.179611
  C       1.370282     -1.675942      0.203526
  C       2.285810     -0.632984      0.327025
  H      -1.939031      1.147677     -1.064655
  H      -2.300786     -0.598695     -1.065724
  H      -2.232895      2.446421      0.958990
  H      -1.259834      1.318227      1.956674
  H      -2.955823      1.669965      2.405253
  H      -4.098590      1.613438     -0.345806
  H      -4.771391      0.823983      1.119280
  H      -4.469775     -0.140403     -0.358648
  H      -1.766330     -1.040049      1.959489
  H      -3.106272     -1.675439      0.948970
  H      -3.464354     -0.677633      2.392841
  H       0.192211      1.988419     -0.208197
  H      -0.679557     -2.215730     -0.168722
  H       2.573286      1.500984      0.261339
  H       1.700195     -2.705973      0.303926
  H       3.331688     -0.848007      0.527217
  F     -10.775719      0.766887      7.689946
  F      -8.643090      0.260873      7.639376
  F     -10.239560     -1.670164      8.490297
  F      -9.136672     -2.170785      6.662250
  F      -9.530529      2.068900      5.833826
  F     -10.942984      0.609777      4.996607
  F      -8.954407     -0.983921      4.193969
  F      -8.810933      1.091008      3.492969
  F     -11.305372     -2.141883      5.185627
  F     -12.485359     -1.068176      6.699873
  F     -12.482393     -3.178387      8.329444
  F     -10.972662     -4.213697      7.143526
  F     -12.946904     -3.823298      6.308725
  O      -5.477673      1.369718      3.739249
  O      -6.184845     -0.691335      3.185240
  C      -9.828441      0.081096      7.006052
  C      -9.729515      0.746786      5.593873
  C     -10.164919     -1.448323      7.151948
  C      -8.623375      0.280672      4.594371
  C     -11.495038     -1.967391      6.509662
  C      -7.200471      0.384027      5.077187
  C     -11.983474     -3.334412      7.099576
  C      -6.200935      0.349624      3.891896
  H      -6.997932     -0.458602      5.746324
  H      -7.086643      1.314321      5.638667
52
Coordinates from ORCA-job R4N+FHEA-_0.15M E -2199.763967918067
  N      -2.736547      0.391693      0.743990
  C      -1.855897      0.205639     -0.495672
  C      -2.258854      1.546112      1.574442
  C      -4.131359      0.677585      0.268536
  C      -2.753062     -0.847914      1.586926
  C      -0.413695     -0.079169     -0.198981
  C       0.506944      0.968558     -0.101544
  C       0.034603     -1.395771     -0.057126
  C       1.848837      0.705968      0.155917
  C       1.376342     -1.658702      0.200348
  C       2.284601     -0.608144      0.311424
  H      -1.961546      1.131635     -1.067608
  H      -2.311870     -0.616981     -1.053497
  H      -2.244682      2.444349      0.953889
  H      -1.258046      1.326055      1.948846
  H      -2.951727      1.669182      2.409441
  H      -4.118120      1.590823     -0.330091
  H      -4.773599      0.804960      1.142897
  H      -4.477250     -0.165897     -0.332746
  H      -1.749159     -1.032079      1.971994
  H      -3.088521     -1.686502      0.972995
  H      -3.448194     -0.684913      2.413101
  H       0.169044      1.993331     -0.233977
  H      -0.671401     -2.216520     -0.156045
  H       2.555967      1.527355      0.227470
  H       1.714571     -2.685400      0.306983
  H       3.332974     -0.814125      0.508085
  F     -10.771219      0.774826      7.686059
  F      -8.642159      0.253460      7.645076
  F     -10.258690     -1.664313      8.486065
  F      -9.146307     -2.172908      6.665454
  F      -9.506171      2.072368      5.839935
  F     -10.928157      0.627727      4.993670
  F      -8.950366     -0.982488      4.197099
  F      -8.785815      1.092082      3.498803
  F     -11.303816     -2.123358      5.172205
  F     -12.488710     -1.052246      6.683843
  F     -12.501826     -3.168407      8.305344
  F     -10.995322     -4.208045      7.119203
  F     -12.963728     -3.799830      6.279623
  O      -5.444914      1.330837      3.760122
  O      -6.179532     -0.721525      3.199511
  C      -9.825626      0.083727      7.005361
  C      -9.715721      0.752349      5.595485
  C     -10.173022     -1.443493      7.147976
  C      -8.609908      0.279313      4.599606
  C     -11.500910     -1.954686      6.495585
  C      -7.188090      0.367810      5.088787
  C     -11.999599     -3.321888      7.076297
  C      -6.183674      0.320668      3.908136
  H      -6.998830     -0.476889      5.759142
  H      -7.064871      1.296696      5.650562
52
Coordinates from ORCA-job R4N+FHEA-_0.15M E -2199.763980534002
  N      -2.739479      0.390024      0.747966
  C      -1.863702      0.196801     -0.494138
  C      -2.262291      1.552185      1.566443
  C      -4.137560      0.665788      0.276246
  C      -2.747155     -0.843945      1.599252
  C      -0.419410     -0.081936     -0.200682
  C       0.498448      0.968725     -0.108347
  C       0.032714     -1.396793     -0.054631
  C       1.841345      0.710708      0.148211
  C       1.375566     -1.655168      0.202303
  C       2.280972     -0.601610      0.308334
  H      -1.974287      1.117805     -1.073261
  H      -2.319630     -0.631201     -1.043817
  H      -2.254216      2.445861      0.939174
  H      -1.259117      1.338344      1.938077
  H      -2.949287      1.681185      2.405512
  H      -4.130885      1.574316     -0.329423
  H      -4.777371      0.796959      1.151718
  H      -4.479900     -0.184661     -0.317082
  H      -1.741507     -1.020167      1.983552
  H      -3.079231     -1.688295      0.991475
  H      -3.441734     -0.679995      2.426072
  H       0.157608      1.992036     -0.244462
  H      -0.671180     -2.219912     -0.148822
  H       2.546388      1.534232      0.215967
  H       1.716992     -2.680447      0.312414
  H       3.330094     -0.803931      0.504905
  F     -10.769578      0.771494      7.687565
  F      -8.641363      0.246886      7.649885
  F     -10.259429     -1.672142      8.477373
  F      -9.146160     -2.172970      6.655051
  F      -9.493515      2.075920      5.852432
  F     -10.920599      0.642070      4.995787
  F      -8.948865     -0.973032      4.195685
  F      -8.773934      1.103639      3.506430
  F     -11.301253     -2.115831      5.160775
  F     -12.487440     -1.049341      6.674669
  F     -12.506780     -3.166989      8.288637
  F     -11.000524     -4.208747      7.103981
  F     -12.965590     -3.794015      6.260496
  O      -5.428392      1.317330      3.773803
  O      -6.175435     -0.728859      3.210651
  C      -9.823151      0.082069      7.005981
  C      -9.708623      0.758075      5.600070
  C     -10.172806     -1.444903      7.140612
  C      -8.603610      0.285776      4.603654
  C     -11.500205     -1.952072      6.484482
  C      -7.182107      0.365507      5.095702
  C     -12.002034     -3.320142      7.060327
  C      -6.174489      0.312864      3.917718
  H      -6.999118     -0.480154      5.766452
  H      -7.053818      1.293574      5.657769
52
Coordinates from ORCA-job R4N+FHEA-_0.15M E -2199.764004203626
  N      -2.729840      0.409979      0.765959
  C      -1.869340      0.215314     -0.486480
  C      -2.235576      1.567928      1.582551
  C      -4.132805      0.693469      0.310452
  C      -2.735762     -0.827999      1.612053
  C      -0.423147     -0.072051     -0.209473
  C       0.501737      0.972711     -0.122072
  C       0.022371     -1.390251     -0.073055
  C       1.845314      0.705431      0.120711
  C       1.365959     -1.657850      0.170919
  C       2.278612     -0.610046      0.272144
  H      -1.981433      1.137991     -1.062724
  H      -2.335285     -0.608717     -1.033468
  H      -2.231489      2.464568      0.959401
  H      -1.228795      1.346536      1.939513
  H      -2.910371      1.697819      2.431229
  H      -4.128798      1.604271     -0.291636
  H      -4.760357      0.824633      1.195288
  H      -4.483129     -0.154381     -0.281736
  H      -1.727800     -1.011517      1.986786
  H      -3.077848     -1.667395      1.003038
  H      -3.422573     -0.665459      2.446618
  H       0.165837      1.998598     -0.250915
  H      -0.687257     -2.208855     -0.163397
  H       2.555983      1.524405      0.185235
  H       1.702364     -2.685490      0.274355
  H       3.328217     -0.819305      0.458728
  F     -10.794415      0.793527      7.636971
  F      -8.665979      0.266771      7.633536
  F     -10.293325     -1.631282      8.484910
  F      -9.160380     -2.172140      6.686852
  F      -9.496542      2.059372      5.790713
  F     -10.915445      0.609323      4.946892
  F      -8.935229     -1.025651      4.209169
  F      -8.754837      1.033790      3.470644
  F     -11.296619     -2.154937      5.169134
  F     -12.500870     -1.046698      6.638340
  F     -12.550622     -3.113882      8.306916
  F     -11.025243     -4.193337      7.181777
  F     -12.974251     -3.804238      6.291284
  O      -5.369335      1.249056      3.819265
  O      -6.169963     -0.765753      3.214533
  C      -9.840588      0.089305      6.980371
  C      -9.710359      0.736727      5.562435
  C     -10.192673     -1.433665      7.144613
  C      -8.595267      0.243294      4.588716
  C     -11.512608     -1.955619      6.485414
  C      -7.179269      0.338623      5.094462
  C     -12.024450     -3.306156      7.092851
  C      -6.152164      0.268799      3.933973
  H      -7.000019     -0.493349      5.783285
  H      -7.060967      1.276695      5.641867
52
Coordinates from ORCA-job R4N+FHEA-_0.15M E -2199.764039152914
  N      -2.723777      0.420955      0.774473
  C      -1.868701      0.234676     -0.482932
  C      -2.220356      1.568268      1.601393
  C      -4.127185      0.714638      0.325566
  C      -2.732342     -0.826852      1.606181
  C      -0.422014     -0.056274     -0.211938
  C       0.504257      0.986546     -0.118831
  C       0.021967     -1.376174     -0.087443
  C       1.847571      0.715390      0.119731
  C       1.365616     -1.647615      0.152200
  C       2.279598     -0.601692      0.260239
  H      -1.981735      1.161324     -1.052614
  H      -2.337191     -0.585008     -1.034148
  H      -2.215642      2.471662      0.988047
  H      -1.213162      1.338232      1.951398
  H      -2.888663      1.692259      2.455928
  H      -4.121672      1.632068     -0.266329
  H      -4.752202      0.841430      1.212600
  H      -4.480507     -0.125726     -0.275256
  H      -1.724716     -1.018740      1.977640
  H      -3.078466     -1.657175      0.987199
  H      -3.417598     -0.672638      2.443714
  H       0.169285      2.013835     -0.238541
  H      -0.688746     -2.193187     -0.183354
  H       2.559428      1.532899      0.189951
  H       1.701001     -2.676407      0.247145
  H       3.329219     -0.813555      0.443843
  F     -10.790759      0.817126      7.603804
  F      -8.665528      0.275780      7.608848
  F     -10.304675     -1.595148      8.495088
  F      -9.177169     -2.176296      6.707130
  F      -9.485323      2.042469      5.737056
  F     -10.911822      0.586813      4.915906
  F      -8.939477     -1.073955      4.212845
  F      -8.746974      0.969489      3.434106
  F     -11.313259     -2.172104      5.190663
  F     -12.509441     -1.026920      6.638544
  F     -12.577250     -3.058642      8.345521
  F     -11.057332     -4.172400      7.246878
  F     -13.001213     -3.788841      6.343461
  O      -5.316639      1.161799      3.841449
  O      -6.188015     -0.808475      3.186101
  C      -9.841425      0.094867      6.959433
  C      -9.706887      0.717316      5.530575
  C     -10.204250     -1.422168      7.151762
  C      -8.593558      0.200518      4.567432
  C     -11.527959     -1.946197      6.503109
  C      -7.178178      0.300191      5.074935
  C     -12.049774     -3.280548      7.136873
  C      -6.141013      0.212275      3.924441
  H      -7.002184     -0.522094      5.776399
  H      -7.059794      1.244919      5.610724
52
Coordinates from ORCA-job R4N+FHEA-_0.15M E -2199.764094112610
  N      -2.720031      0.445738      0.767897
  C      -1.852885      0.269058     -0.482530
  C      -2.210643      1.569623      1.621847
  C      -4.111855      0.769082      0.304573
  C      -2.756620     -0.816969      1.575675
  C      -0.413563     -0.045242     -0.198588
  C       0.524722      0.983354     -0.076332
  C       0.011915     -1.373095     -0.096123
  C       1.861114      0.689421      0.172411
  C       1.349051     -1.667149      0.152666
  C       2.274865     -0.635479      0.291576
  H      -1.947617      1.205293     -1.039671
  H      -2.324172     -0.536732     -1.051681
  H      -2.187346      2.482366      1.022986
  H      -1.212010      1.319965      1.982298
  H      -2.887007      1.687332      2.471905
  H      -4.081894      1.694383     -0.274397
  H      -4.748361      0.899077      1.182985
  H      -4.469784     -0.056450     -0.313545
  H      -1.757365     -1.030848      1.957461
  H      -3.106160     -1.629688      0.935759
  H      -3.451258     -0.667365      2.406871
  H       0.204398      2.017162     -0.178503
  H      -0.708055     -2.178531     -0.217445
  H       2.582626      1.495940      0.267420
  H       1.670010     -2.701916      0.230980
  H       3.319592     -0.864059      0.482852
  F     -10.777803      0.827135      7.583620
  F      -8.649920      0.295373      7.564932
  F     -10.265260     -1.568943      8.510786
  F      -9.169000     -2.177983      6.714306
  F      -9.509819      2.024381      5.675419
  F     -10.934582      0.544032      4.898189
  F      -8.956921     -1.116253      4.202507
  F      -8.788362      0.913036      3.382670
  F     -11.333357     -2.197528      5.235276
  F     -12.504698     -1.034063      6.690274
  F     -12.533683     -3.043423      8.426429
  F     -11.033350     -4.168340      7.312911
  F     -12.995414     -3.801061      6.442340
  O      -5.294770      1.112453      3.832208
  O      -6.241914     -0.797966      3.102704
  C      -9.834652      0.096988      6.937747
  C      -9.723723      0.694179      5.495338
  C     -10.189808     -1.417802      7.164044
  C      -8.617241      0.167579      4.528875
  C     -11.523885     -1.953450      6.548801
  C      -7.197974      0.290151      5.021106
  C     -12.029748     -3.280160      7.210571
  C      -6.159312      0.197207      3.872044
  H      -7.005773     -0.520094      5.732762
  H      -7.087327      1.243189      5.543739
52
Coordinates from ORCA-job R4N+FHEA-_0.15M E -2199.764160508645
  N      -2.715642      0.456485      0.766205
  C      -1.846901      0.270263     -0.481976
  C      -2.203388      1.583410      1.612432
  C      -4.105661      0.783431      0.300879
  C      -2.758602     -0.800110      1.582600
  C      -0.409573     -0.052646     -0.197560
  C       0.535864      0.970338     -0.080824
  C       0.007553     -1.382726     -0.090769
  C       1.871634      0.668468      0.163669
  C       1.343532     -1.684616      0.154231
  C       2.276926     -0.658746      0.285597
  H      -1.935207      1.205407     -1.041788
  H      -2.322598     -0.534819     -1.048604
  H      -2.174167      2.490505      1.005511
  H      -1.206916      1.332438      1.978286
  H      -2.883164      1.712580      2.458319
  H      -4.069408      1.702936     -0.287226
  H      -4.740243      0.922352      1.178822
  H      -4.471604     -0.044738     -0.309101
  H      -1.759913     -1.017172      1.963975
  H      -3.114152     -1.615642      0.949498
  H      -3.450822     -0.638778      2.413416
  H       0.222149      2.005868     -0.185866
  H      -0.718422     -2.183553     -0.206855
  H       2.598886      1.470509      0.252476
  H       1.657590     -2.721315      0.234738
  H       3.321009     -0.893505      0.472686
  F     -10.788806      0.817098      7.586185
  F      -8.658444      0.298050      7.566262
  F     -10.267581     -1.575450      8.514974
  F      -9.165892     -2.182121      6.720930
  F      -9.537232      2.019876      5.673512
  F     -10.945600      0.523353      4.898959
  F      -8.948502     -1.118011      4.207027
  F      -8.804983      0.912491      3.383463
  F     -11.327490     -2.210950      5.237479
  F     -12.505290     -1.050693      6.689789
  F     -12.522022     -3.065685      8.429207
  F     -11.026617     -4.183668      7.301909
  F     -12.994313     -3.812562      6.444165
  O      -5.296969      1.135410      3.849009
  O      -6.242846     -0.768713      3.103564
  C      -9.842518      0.091795      6.940162
  C      -9.736812      0.687314      5.496216
  C     -10.190130     -1.425513      7.168190
  C      -8.623696      0.170571      4.531097
  C     -11.521233     -1.966647      6.550509
  C      -7.206526      0.310885      5.023742
  C     -12.024545     -3.295408      7.209810
  C      -6.163152      0.221190      3.878839
  H      -7.006963     -0.494034      5.739472
  H      -7.107228      1.267711      5.541704
52
Coordinates from ORCA-job R4N+FHEA-_0.15M E -2199.764247300924
  N      -2.717560      0.476676      0.770358
  C      -1.850736      0.265296     -0.475490
  C      -2.196385      1.615162      1.596529
  C      -4.106524      0.808051      0.304609
  C      -2.768143     -0.765301      1.608765
  C      -0.415972     -0.070716     -0.192752
  C       0.542557      0.942973     -0.095747
  C      -0.013640     -1.403578     -0.065903
  C       1.877320      0.629443      0.143524
  C       1.320492     -1.717124      0.174429
  C       2.267330     -0.700735      0.283026
  H      -1.929260      1.195253     -1.045198
  H      -2.336707     -0.540881     -1.031910
  H      -2.157183      2.511303      0.974187
  H      -1.202357      1.361944      1.968142
  H      -2.879182      1.766405      2.436110
  H      -4.062139      1.715311     -0.301864
  H      -4.734099      0.967517      1.185218
  H      -4.487201     -0.026995     -0.287108
  H      -1.769492     -0.981061      1.991092
  H      -3.129599     -1.590764      0.991833
  H      -3.457103     -0.585410      2.436741
  H       0.240546      1.980306     -0.216165
  H      -0.750330     -2.197135     -0.163109
  H       2.614698      1.423999      0.213547
  H       1.622454     -2.756218      0.268986
  H       3.310021     -0.945211      0.465225
  F     -10.801668      0.799499      7.587746
  F      -8.667108      0.304205      7.569100
  F     -10.260182     -1.589489      8.509525
  F      -9.147475     -2.181220      6.716056
  F      -9.567630      2.021177      5.676439
  F     -10.955240      0.507087      4.899692
  F      -8.935844     -1.105968      4.204759
  F      -8.823143      0.930221      3.385749
  F     -11.304520     -2.226931      5.225603
  F     -12.498162     -1.086505      6.679614
  F     -12.487679     -3.113114      8.413271
  F     -10.989315     -4.209571      7.267964
  F     -12.965086     -3.844670      6.424843
  O      -5.266189      1.134308      3.888787
  O      -6.257798     -0.722960      3.089362
  C      -9.847951      0.086474      6.940396
  C      -9.748768      0.686343      5.497230
  C     -10.179566     -1.435968      7.162877
  C      -8.628061      0.186935      4.530797
  C     -11.503583     -1.990032      6.538714
  C      -7.214087      0.345689      5.023946
  C     -11.994876     -3.327760      7.189602
  C      -6.161414      0.246308      3.888792
  H      -7.009460     -0.448750      5.749803
  H      -7.123631      1.309094      5.531206
52
Coordinates from ORCA-job R4N+FHEA-_0.15M E -2199.764243175680
  N      -2.731067      0.479712      0.740303
  C      -1.850155      0.243269     -0.489424
  C      -2.215250      1.624456      1.558702
  C      -4.105861      0.818019      0.249027
  C      -2.800865     -0.745907      1.600404
  C      -0.424784     -0.101357     -0.177754
  C       0.539913      0.905833     -0.078109
  C      -0.035683     -1.435641     -0.026061
  C       1.867893      0.585391      0.186470
  C       1.291677     -1.756323      0.239901
  C       2.244869     -0.746082      0.349787
  H      -1.911203      1.166613     -1.071907
  H      -2.335680     -0.565164     -1.043320
  H      -2.148690      2.507112      0.919800
  H      -1.234447      1.366734      1.961394
  H      -2.916500      1.790449      2.379975
  H      -4.038714      1.708988     -0.379048
  H      -4.748212      1.007565      1.110308
  H      -4.494068     -0.023659     -0.328501
  H      -1.807176     -0.960511      1.996485
  H      -3.161094     -1.581283      0.996184
  H      -3.497524     -0.543439      2.417160
  H       0.248433      1.943777     -0.217908
  H      -0.777826     -2.224100     -0.123368
  H       2.610367      1.374978      0.257589
  H       1.583171     -2.796497      0.353574
  H       3.282639     -0.996129      0.551443
  F     -10.793123      0.753923      7.642489
  F      -8.652065      0.292253      7.594523
  F     -10.215298     -1.647005      8.500088
  F      -9.099578     -2.178311      6.688890
  F      -9.596906      2.039441      5.748184
  F     -10.967145      0.520595      4.950412
  F      -8.926539     -1.042635      4.200391
  F      -8.865059      1.014258      3.425983
  F     -11.262486     -2.223192      5.204070
  F     -12.468142     -1.139477      6.690365
  F     -12.410025     -3.213974      8.373998
  F     -10.905721     -4.252702      7.182644
  F     -12.895546     -3.893146      6.370042
  O      -5.294850      1.237866      3.888826
  O      -6.290769     -0.600787      3.059125
  C      -9.834941      0.071870      6.970297
  C      -9.757738      0.706297      5.540746
  C     -10.141301     -1.460708      7.156761
  C      -8.638757      0.248223      4.551040
  C     -11.459494     -2.021843      6.523018
  C      -7.222057      0.422965      5.028080
  C     -11.926061     -3.384234      7.140444
  C      -6.183560      0.347201      3.878712
  H      -6.995430     -0.374026      5.744374
  H      -7.138202      1.383259      5.542339
52
Coordinates from ORCA-job R4N+FHEA-_0.15M E -2199.764324165112
  N      -2.728133      0.481376      0.750519
  C      -1.858484      0.237383     -0.486009
  C      -2.203289      1.632638      1.556159
  C      -4.112201      0.815017      0.273049
  C      -2.790247     -0.741361      1.615619
  C      -0.428076     -0.097707     -0.185375
  C       0.533002      0.914697     -0.106664
  C      -0.031335     -1.428492     -0.022579
  C       1.864387      0.603570      0.151468
  C       1.299612     -1.739884      0.236993
  C       2.248806     -0.724048      0.327693
  H      -1.929069      1.155032     -1.076394
  H      -2.346440     -0.577639     -1.027667
  H      -2.146104      2.513221      0.913435
  H      -1.216651      1.377233      1.945573
  H      -2.894360      1.806812      2.383141
  H      -4.054680      1.700899     -0.362907
  H      -4.737389      1.009897      1.147601
  H      -4.504658     -0.033928     -0.290583
  H      -1.793429     -0.954954      2.004269
  H      -3.155291     -1.577930      1.016029
  H      -3.480380     -0.538847      2.437730
  H       0.235302      1.949690     -0.255110
  H      -0.769921     -2.221811     -0.106107
  H       2.603597      1.397402      0.208076
  H       1.597171     -2.777245      0.360366
  H       3.289109     -0.967036      0.524974
  F     -10.795323      0.765958      7.626443
  F      -8.657559      0.283843      7.594038
  F     -10.239706     -1.635931      8.497730
  F      -9.119511     -2.182672      6.694315
  F      -9.571553      2.034044      5.737862
  F     -10.954803      0.528333      4.936211
  F      -8.928885     -1.059864      4.202893
  F      -8.837523      0.992560      3.420943
  F     -11.276425     -2.215353      5.199819
  F     -12.480888     -1.119183      6.678446
  F     -12.444220     -3.187310      8.368621
  F     -10.941074     -4.240850      7.189396
  F     -12.923884     -3.872489      6.364723
  O      -5.249529      1.172745      3.929021
  O      -6.278027     -0.632225      3.062843
  C      -9.838472      0.072909      6.963080
  C      -9.746312      0.702136      5.532553
  C     -10.158460     -1.455573      7.154067
  C      -8.627858      0.228502      4.549857
  C     -11.477674     -2.009305      6.517552
  C      -7.211954      0.389553      5.035089
  C     -11.955259     -3.366164      7.138082
  C      -6.162184      0.303860      3.896684
  H      -6.998016     -0.407640      5.755497
  H      -7.122383      1.349047      5.549881
52
Coordinates from ORCA-job R4N+FHEA-_0.15M E -2199.764334576739
  N      -2.734610      0.491333      0.768063
  C      -1.870864      0.239598     -0.472362
  C      -2.202972      1.642170      1.569065
  C      -4.119051      0.827455      0.294890
  C      -2.798499     -0.730505      1.634248
  C      -0.437148     -0.096538     -0.182851
  C       0.526871      0.914705     -0.117451
  C      -0.040620     -1.427061     -0.017314
  C       1.860240      0.602941      0.132247
  C       1.292176     -1.739032      0.233439
  C       2.243642     -0.724287      0.312679
  H      -1.943434      1.154614     -1.066768
  H      -2.364140     -0.576721     -1.007028
  H      -2.142552      2.521637      0.924876
  H      -1.216154      1.382765      1.955070
  H      -2.892758      1.826100      2.396419
  H      -4.065937      1.714019     -0.340200
  H      -4.744836      1.026835      1.169278
  H      -4.510493     -0.021737     -0.268900
  H      -1.801307     -0.949791      2.018491
  H      -3.171168     -1.564765      1.036113
  H      -3.482486     -0.526243      2.459053
  H       0.229452      1.949471     -0.268035
  H      -0.780076     -2.220392     -0.092222
  H       2.601048      1.395945      0.179520
  H       1.589483     -2.776179      0.359255
  H       3.284800     -0.968318      0.504180
  F     -10.791105      0.775262      7.599831
  F      -8.654358      0.283960      7.580822
  F     -10.248602     -1.619490      8.493386
  F      -9.119440     -2.185765      6.701977
  F      -9.552983      2.025647      5.709644
  F     -10.939045      0.520054      4.911697
  F      -8.915980     -1.083488      4.203663
  F      -8.814121      0.959750      3.400854
  F     -11.267345     -2.228715      5.196192
  F     -12.477031     -1.110962      6.654747
  F     -12.465122     -3.156426      8.366780
  F     -10.952181     -4.230714      7.219590
  F     -12.924289     -3.869854      6.367374
  O      -5.215115      1.133645      3.943365
  O      -6.266135     -0.643594      3.049530
  C      -9.833450      0.073548      6.946057
  C      -9.732377      0.692846      5.512386
  C     -10.159404     -1.451688      7.148401
  C      -8.612435      0.207228      4.538216
  C     -11.476296     -2.007278      6.510314
  C      -7.197626      0.369456      5.027673
  C     -11.963019     -3.354447      7.144137
  C      -6.141874      0.280424      3.895189
  H      -6.987305     -0.424587      5.752882
  H      -7.108599      1.330084      5.540483
52
Coordinates from ORCA-job R4N+FHEA-_0.15M E -2199.764355874883
  N      -2.741500      0.478234      0.764126
  C      -1.879472      0.220059     -0.475473
  C      -2.213170      1.638656      1.554932
  C      -4.129532      0.803151      0.290848
  C      -2.799212     -0.736195      1.641552
  C      -0.444561     -0.104737     -0.181484
  C       0.512030      0.913376     -0.121473
  C      -0.039749     -1.431287     -0.004624
  C       1.846504      0.612595      0.133460
  C       1.294596     -1.732378      0.250688
  C       2.238768     -0.710545      0.324405
  H      -1.957663      1.129078     -1.078294
  H      -2.368934     -0.603656     -1.002181
  H      -2.156217      2.512594      0.902820
  H      -1.225376      1.386849      1.943342
  H      -2.903301      1.824693      2.380168
  H      -4.081142      1.680913     -0.356777
  H      -4.750255      1.010405      1.165067
  H      -4.520997     -0.055236     -0.258761
  H      -1.800395     -0.949123      2.025188
  H      -3.170788     -1.576866      1.051761
  H      -3.482664     -0.525740      2.467697
  H       0.207934      1.944921     -0.280607
  H      -0.773711     -2.230165     -0.074553
  H       2.581781      1.410989      0.176187
  H       1.598838     -2.766477      0.384773
  H       3.281160     -0.946048      0.519859
  F     -10.781390      0.763714      7.619196
  F      -8.645150      0.269817      7.593293
  F     -10.236991     -1.645428      8.479374
  F      -9.113691     -2.185833      6.676076
  F      -9.539391      2.037717      5.746361
  F     -10.930695      0.547263      4.928968
  F      -8.915674     -1.050503      4.192652
  F      -8.803086      1.004682      3.423755
  F     -11.267729     -2.204809      5.177331
  F     -12.471098     -1.108746      6.657555
  F     -12.456487     -3.178702      8.337116
  F     -10.943295     -4.235469      7.174250
  F     -12.916587     -3.866047      6.328650
  O      -5.215538      1.157155      3.950478
  O      -6.256950     -0.625372      3.057237
  C      -9.824741      0.069671      6.955780
  C      -9.722778      0.708318      5.530956
  C     -10.151754     -1.457792      7.136599
  C      -8.605590      0.232803      4.548591
  C     -11.471254     -2.003158      6.495472
  C      -7.189564      0.379011      5.039952
  C     -11.955357     -3.359630      7.111358
  C      -6.136270      0.298080      3.904926
  H      -6.984598     -0.424667      5.755953
  H      -7.093940      1.332779      5.564420
52
Coordinates from ORCA-job R4N+FHEA-_0.15M E -2199.764363300939
  N      -2.740399      0.484737      0.762954
  C      -1.882547      0.219595     -0.477505
  C      -2.206059      1.643490      1.548687
  C      -4.127715      0.815046      0.292000
  C      -2.800422     -0.726269      1.644457
  C      -0.449327     -0.110008     -0.182552
  C       0.510666      0.904816     -0.124223
  C      -0.049681     -1.437530     -0.002109
  C       1.843757      0.599806      0.131796
  C       1.283273     -1.742838      0.254911
  C       2.231211     -0.724330      0.325848
  H      -1.957516      1.127063     -1.082920
  H      -2.376179     -0.603835     -1.000781
  H      -2.145506      2.513771      0.892034
  H      -1.219297      1.389552      1.938332
  H      -2.894490      1.836392      2.373671
  H      -4.074412      1.685801     -0.364832
  H      -4.743906      1.034334      1.166912
  H      -4.527519     -0.045847     -0.247589
  H      -1.800842     -0.942847      2.024294
  H      -3.178867     -1.567292      1.059589
  H      -3.478602     -0.507545      2.472985
  H       0.210417      1.936998     -0.286456
  H      -0.786836     -2.233719     -0.069475
  H       2.581856      1.395667      0.172819
  H       1.583561     -2.777686      0.392077
  H       3.272715     -0.963204      0.521921
  F     -10.791385      0.759809      7.612424
  F      -8.653161      0.275256      7.593887
  F     -10.240958     -1.645147      8.479431
  F      -9.108049     -2.184687      6.681751
  F      -9.552062      2.034932      5.739620
  F     -10.931412      0.534205      4.921164
  F      -8.903226     -1.053595      4.196661
  F      -8.802446      1.000546      3.422575
  F     -11.255915     -2.216582      5.174350
  F     -12.469609     -1.122183      6.647186
  F     -12.452557     -3.189154      8.331534
  F     -10.932208     -4.242303      7.174757
  F     -12.904233     -3.880526      6.322688
  O      -5.206471      1.171699      3.975666
  O      -6.251917     -0.598007      3.057800
  C      -9.830012      0.068431      6.953349
  C      -9.726681      0.703989      5.527212
  C     -10.151062     -1.460294      7.136521
  C      -8.603007      0.232823      4.550030
  C     -11.465507     -2.012796      6.491204
  C      -7.189744      0.390534      5.045738
  C     -11.947009     -3.369963      7.107650
  C      -6.131356      0.316094      3.915517
  H      -6.980736     -0.409999      5.764153
  H      -7.103244      1.345718      5.569232
52
Coordinates from ORCA-job R4N+FHEA-_0.15M E -2199.764371194180
  N      -2.743785      0.487053      0.766479
  C      -1.887246      0.216587     -0.474061
  C      -2.206374      1.647038      1.549213
  C      -4.130060      0.818911      0.294880
  C      -2.806231     -0.721954      1.651096
  C      -0.453852     -0.113877     -0.180180
  C       0.507830      0.899763     -0.127829
  C      -0.055770     -1.441232      0.004566
  C       1.840830      0.593818      0.127871
  C       1.277076     -1.747437      0.261205
  C       2.226557     -0.730041      0.327070
  H      -1.961823      1.121995     -1.082593
  H      -2.382381     -0.608175     -0.993792
  H      -2.143166      2.515939      0.890909
  H      -1.220478      1.391239      1.939770
  H      -2.895416      1.843881      2.372920
  H      -4.076246      1.690813     -0.360375
  H      -4.749111      1.037414      1.167111
  H      -4.530504     -0.040193     -0.247116
  H      -1.806099     -0.942936      2.026924
  H      -3.191797     -1.562308      1.069932
  H      -3.478445     -0.497870      2.482598
  H       0.208849      1.931738     -0.293625
  H      -0.793963     -2.236780     -0.058867
  H       2.580083      1.388811      0.164999
  H       1.576058     -2.782133      0.402298
  H       3.267893     -0.969690      0.523078
  F     -10.791011      0.755914      7.609699
  F      -8.651880      0.275641      7.592527
  F     -10.236081     -1.649187      8.474971
  F      -9.101734     -2.184695      6.677025
  F      -9.552611      2.034860      5.738698
  F     -10.928448      0.532133      4.918099
  F      -8.896650     -1.051177      4.193965
  F      -8.799155      1.003859      3.421754
  F     -11.249336     -2.219168      5.169304
  F     -12.464658     -1.126884      6.642388
  F     -12.447437     -3.194275      8.324955
  F     -10.923616     -4.245032      7.170711
  F     -12.894925     -3.886461      6.315494
  O      -5.206677      1.184466      3.976417
  O      -6.244689     -0.586886      3.056975
  C      -9.827788      0.066960      6.950788
  C      -9.724496      0.703823      5.525227
  C     -10.146148     -1.462618      7.132325
  C      -8.599177      0.235480      4.548680
  C     -11.459490     -2.016373      6.486246
  C      -7.186546      0.395602      5.045902
  C     -11.939642     -3.374381      7.101874
  C      -6.127598      0.326288      3.916059
  H      -6.976277     -0.405487      5.763289
  H      -7.102991      1.350138      5.571093
52
Coordinates from ORCA-job R4N+FHEA-_0.15M E -2199.764375181602
  N      -2.744156      0.485207      0.771976
  C      -1.890538      0.214422     -0.471086
  C      -2.208328      1.647970      1.551341
  C      -4.132844      0.811329      0.302698
  C      -2.799730     -0.722020      1.659485
  C      -0.455460     -0.113571     -0.181844
  C       0.504731      0.901715     -0.131051
  C      -0.054573     -1.440372      0.000827
  C       1.838884      0.597796      0.121438
  C       1.279560     -1.744577      0.253417
  C       2.227360     -0.725567      0.318540
  H      -1.968732      1.118859     -1.080594
  H      -2.385997     -0.612044     -0.987764
  H      -2.149392      2.516451      0.892074
  H      -1.220652      1.395645      1.939629
  H      -2.894719      1.844771      2.377235
  H      -4.084118      1.682322     -0.354159
  H      -4.751620      1.029329      1.175160
  H      -4.531022     -0.050031     -0.237419
  H      -1.797147     -0.940306      2.030237
  H      -3.187085     -1.564321      1.082388
  H      -3.466705     -0.497051      2.494439
  H       0.203680      1.933285     -0.295536
  H      -0.791424     -2.237238     -0.061650
  H       2.576911      1.393998      0.157304
  H       1.580811     -2.778895      0.392416
  H       3.269532     -0.963671      0.511962
  F     -10.792340      0.758320      7.606014
  F      -8.653659      0.276558      7.592513
  F     -10.239667     -1.647526      8.472375
  F      -9.103984     -2.183711      6.675392
  F      -9.549347      2.035896      5.736922
  F     -10.926028      0.534794      4.914758
  F      -8.895838     -1.050519      4.191973
  F      -8.793190      1.004954      3.421651
  F     -11.250183     -2.216356      5.165720
  F     -12.466005     -1.123378      6.637819
  F     -12.452272     -3.190234      8.320182
  F     -10.928024     -4.242654      7.168111
  F     -12.897949     -3.882605      6.310365
  O      -5.200752      1.176764      3.981982
  O      -6.239274     -0.594116      3.062604
  C      -9.828590      0.068500      6.948773
  C      -9.722569      0.705032      5.523275
  C     -10.148334     -1.460873      7.129862
  C      -8.596541      0.235395      4.548153
  C     -11.461272     -2.013591      6.482506
  C      -7.184434      0.392178      5.048163
  C     -11.943041     -3.371201      7.097714
  C      -6.123222      0.319935      3.920998
  H      -6.977536     -0.408869      5.766532
  H      -7.099807      1.346787      5.573125
52
Coordinates from ORCA-job R4N+FHEA-_0.15M E -2199.764377280803
  N      -2.743129      0.489765      0.776866
  C      -1.893226      0.218379     -0.468726
  C      -2.203996      1.652898      1.555557
  C      -4.133643      0.816982      0.311252
  C      -2.796294     -0.717774      1.664433
  C      -0.458375     -0.112798     -0.182525
  C       0.503510      0.900604     -0.128642
  C      -0.059750     -1.441004     -0.005250
  C       1.837231      0.593166      0.121241
  C       1.274097     -1.748709      0.244497
  C       2.223689     -0.731609      0.312737
  H      -1.971281      1.123350     -1.077429
  H      -2.391235     -0.607055     -0.984590
  H      -2.146239      2.522408      0.897544
  H      -1.215626      1.398909      1.941054
  H      -2.888121      1.849356      2.383341
  H      -4.085377      1.687855     -0.345823
  H      -4.748363      1.035736      1.186821
  H      -4.534524     -0.044055     -0.227393
  H      -1.791795     -0.938462      2.028530
  H      -3.189497     -1.558877      1.089615
  H      -3.456546     -0.491153      2.504422
  H       0.204277      1.933326     -0.289076
  H      -0.798139     -2.236268     -0.070025
  H       2.576756      1.387889      0.159246
  H       1.573730     -2.784101      0.378886
  H       3.265648     -0.972262      0.504119
  F     -10.796045      0.762371      7.594031
  F      -8.656850      0.283052      7.585343
  F     -10.243136     -1.638275      8.473235
  F      -9.103424     -2.182958      6.681459
  F      -9.553920      2.031967      5.719946
  F     -10.925809      0.523620      4.903123
  F      -8.889542     -1.061156      4.192899
  F      -8.791392      0.990410      3.411267
  F     -11.246254     -2.225109      5.167458
  F     -12.466190     -1.125789      6.631413
  F     -12.453946     -3.183438      8.324674
  F     -10.927386     -4.241344      7.180814
  F     -12.895805     -3.886283      6.317613
  O      -5.190855      1.166928      3.991472
  O      -6.235014     -0.593180      3.059703
  C      -9.830752      0.070249      6.941448
  C      -9.723823      0.699623      5.512756
  C     -10.149336     -1.458607      7.130040
  C      -8.594691      0.227806      4.542272
  C     -11.460258     -2.015840      6.482773
  C      -7.184283      0.391717      5.044820
  C     -11.942325     -3.370610      7.103998
  C      -6.118582      0.316949      3.922577
  H      -6.976413     -0.404895      5.767859
  H      -7.104378      1.349211      5.565277
52
Coordinates from ORCA-job R4N+FHEA-_0.15M E -2199.764380986948
  N      -2.743530      0.488086      0.780789
  C      -1.896181      0.216149     -0.466306
  C      -2.202294      1.650627      1.557318
  C      -4.134355      0.816206      0.317856
  C      -2.794695     -0.718850      1.668923
  C      -0.460744     -0.114495     -0.182694
  C       0.501191      0.898964     -0.131716
  C      -0.061758     -1.442557     -0.005024
  C       1.835437      0.591706      0.115504
  C       1.272539     -1.750047      0.242516
  C       2.222350     -0.732888      0.307353
  H      -1.975804      1.120711     -1.075404
  H      -2.394820     -0.609823     -0.980678
  H      -2.146762      2.519890      0.898822
  H      -1.212609      1.396606      1.939487
  H      -2.883255      1.848491      2.387785
  H      -4.086565      1.687878     -0.338163
  H      -4.748906      1.033096      1.193759
  H      -4.536135     -0.043844     -0.221705
  H      -1.788675     -0.941030      2.027973
  H      -3.192337     -1.559499      1.096502
  H      -3.449636     -0.489925      2.512167
  H       0.201706      1.931568     -0.292455
  H      -0.800426     -2.237788     -0.067110
  H       2.575025      1.386477      0.151221
  H       1.572379     -2.785282      0.377645
  H       3.264738     -0.973299      0.496685
  F     -10.801269      0.761427      7.591225
  F      -8.661027      0.286989      7.585586
  F     -10.243523     -1.638438      8.470600
  F      -9.100917     -2.179751      6.679614
  F      -9.558543      2.034074      5.719228
  F     -10.926634      0.523393      4.900230
  F      -8.886606     -1.057202      4.191741
  F      -8.790698      0.995000      3.411474
  F     -11.242289     -2.225419      5.163481
  F     -12.466285     -1.130689      6.627430
  F     -12.449760     -3.189592      8.319114
  F     -10.919637     -4.242614      7.175504
  F     -12.888348     -3.892091      6.311195
  O      -5.192280      1.176459      3.995361
  O      -6.230218     -0.590092      3.066449
  C      -9.833383      0.071644      6.939982
  C      -9.725772      0.701495      5.511456
  C     -10.148841     -1.457932      7.127663
  C      -8.594407      0.232074      4.542307
  C     -11.457916     -2.017880      6.478804
  C      -7.185083      0.397977      5.046962
  C     -11.936801     -3.374507      7.098619
  C      -6.117414      0.323132      3.926556
  H      -6.977310     -0.397858      5.770850
  H      -7.107549      1.356184      5.566464
52
Coordinates from ORCA-job R4N+FHEA-_0.15M E -2199.764383051343
  N      -2.742872      0.486769      0.783794
  C      -1.897471      0.214962     -0.464523
  C      -2.200374      1.649305      1.559573
  C      -4.134193      0.815318      0.323236
  C      -2.792822     -0.720013      1.671990
  C      -0.461374     -0.114842     -0.183495
  C       0.500230      0.899071     -0.135572
  C      -0.061304     -1.442603     -0.005787
  C       1.835107      0.592722      0.109365
  C       1.273600     -1.749202      0.239495
  C       2.223017     -0.731504      0.301720
  H      -1.978622      1.119359     -1.073675
  H      -2.396656     -0.611250     -0.977995
  H      -2.145959      2.518349      0.900725
  H      -1.210054      1.395225      1.940010
  H      -2.879899      1.846624      2.391132
  H      -4.086894      1.687271     -0.332429
  H      -4.747052      1.031773      1.200440
  H      -4.536922     -0.044504     -0.215973
  H      -1.786115     -0.942634      2.028852
  H      -3.192012     -1.560410      1.100280
  H      -3.446212     -0.490879      2.516512
  H       0.199935      1.931428     -0.296421
  H      -0.799783     -2.238177     -0.065757
  H       2.574345      1.387902      0.143132
  H       1.574148     -2.784180      0.375047
  H       3.265901     -0.971162      0.489285
  F     -10.804463      0.761963      7.589136
  F      -8.663872      0.288748      7.585656
  F     -10.246257     -1.636849      8.469948
  F      -9.101339     -2.178362      6.680505
  F      -9.560746      2.034904      5.717864
  F     -10.927256      0.523184      4.898186
  F      -8.885856     -1.056780      4.192567
  F      -8.790729      0.994862      3.410784
  F     -11.241082     -2.225940      5.161967
  F     -12.467466     -1.131828      6.624462
  F     -12.449358     -3.191032      8.317184
  F     -10.918916     -4.242823      7.172821
  F     -12.887977     -3.892810      6.309032
  O      -5.189890      1.175123      3.999706
  O      -6.229336     -0.590175      3.068781
  C      -9.835497      0.072624      6.939037
  C      -9.727051      0.702108      5.510417
  C     -10.150179     -1.456976      7.127021
  C      -8.594639      0.232881      4.542347
  C     -11.458274     -2.018179      6.476986
  C      -7.185807      0.400241      5.047670
  C     -11.936592     -3.375113      7.096535
  C      -6.116447      0.323030      3.928804
  H      -6.978345     -0.394110      5.773304
  H      -7.108948      1.359509      5.565266
52
Coordinates from ORCA-job R4N+FHEA-_0.15M E -2199.764385592542
  N      -2.740990      0.484829      0.790343
  C      -1.899656      0.215251     -0.460957
  C      -2.195443      1.645402      1.567070
  C      -4.133562      0.815429      0.335024
  C      -2.788815     -0.723559      1.676268
  C      -0.462481     -0.114078     -0.185179
  C       0.498748      0.900283     -0.140003
  C      -0.061055     -1.441737     -0.009455
  C       1.834657      0.594540      0.099940
  C       1.274870     -1.747757      0.230854
  C       2.223962     -0.729579      0.290201
  H      -1.983307      1.120412     -1.068653
  H      -2.400179     -0.610290     -0.974248
  H      -2.143568      2.515694      0.909707
  H      -1.203654      1.390195      1.942830
  H      -2.871492      1.839823      2.401969
  H      -4.087362      1.689461     -0.317952
  H      -4.742947      1.029279      1.215332
  H      -4.537976     -0.042820     -0.205412
  H      -1.780936     -0.948033      2.028611
  H      -3.191167     -1.562280      1.104278
  H      -3.438997     -0.495780      2.523689
  H       0.197387      1.932620     -0.299032
  H      -0.799444     -2.237560     -0.067274
  H       2.573596      1.390084      0.131550
  H       1.576389     -2.782669      0.364755
  H       3.267661     -0.968652      0.473958
  F     -10.810809      0.764747      7.582025
  F      -8.669394      0.294632      7.582554
  F     -10.250456     -1.630637      8.469444
  F      -9.101910     -2.175142      6.683295
  F      -9.566847      2.035541      5.709733
  F     -10.929430      0.519583      4.891390
  F      -8.884307     -1.059004      4.193717
  F      -8.791820      0.990347      3.405587
  F     -11.239229     -2.229483      5.161367
  F     -12.469635     -1.133964      6.619533
  F     -12.448780     -3.190212      8.317608
  F     -10.917127     -4.241874      7.174704
  F     -12.886577     -3.895145      6.310379
  O      -5.185302      1.169726      4.006265
  O      -6.228382     -0.591290      3.071107
  C      -9.839824      0.075380      6.934862
  C      -9.730497      0.701898      5.505048
  C     -10.152474     -1.454088      7.126175
  C      -8.595858      0.232214      4.539825
  C     -11.458857     -2.018960      6.475541
  C      -7.188178      0.404048      5.046475
  C     -11.935863     -3.375295      7.097251
  C      -6.115090      0.321582      3.931047
  H      -6.980983     -0.386264      5.776643
  H      -7.113243      1.366068      5.559158
52
Coordinates from ORCA-job R4N+FHEA-_0.15M E -2199.764387023819
  N      -2.739480      0.484856      0.796223
  C      -1.902704      0.212975     -0.457561
  C      -2.190479      1.646411      1.569626
  C      -4.133575      0.816047      0.345757
  C      -2.785277     -0.722465      1.683780
  C      -0.464462     -0.115780     -0.186552
  C       0.496810      0.898803     -0.147123
  C      -0.062082     -1.443038     -0.009882
  C       1.833731      0.593788      0.088227
  C       1.274811     -1.748336      0.225951
  C       2.223964     -0.729902      0.279621
  H      -1.988527      1.116999     -1.066637
  H      -2.405198     -0.613366     -0.967633
  H      -2.140327      2.515688      0.910791
  H      -1.197529      1.391171      1.942283
  H      -2.864233      1.841675      2.406303
  H      -4.089204      1.690485     -0.306803
  H      -4.739648      1.029778      1.228428
  H      -4.540035     -0.041831     -0.193706
  H      -1.776352     -0.947911      2.032456
  H      -3.190895     -1.561358      1.114319
  H      -3.432011     -0.493341      2.533379
  H       0.194623      1.930795     -0.306866
  H      -0.800554     -2.239084     -0.063455
  H       2.572646      1.389513      0.115506
  H       1.576988     -2.782937      0.360779
  H       3.268398     -0.968415      0.459904
  F     -10.817024      0.764790      7.576413
  F      -8.674890      0.297996      7.581320
  F     -10.254188     -1.628903      8.467208
  F      -9.102147     -2.173465      6.683419
  F      -9.571998      2.035892      5.705309
  F     -10.930293      0.516765      4.885722
  F      -8.881095     -1.059148      4.194181
  F      -8.790930      0.989359      3.403325
  F     -11.237238     -2.232352      5.158327
  F     -12.471262     -1.137074      6.613742
  F     -12.449258     -3.191995      8.313968
  F     -10.915447     -4.242602      7.172949
  F     -12.884595     -3.898503      6.306762
  O      -5.178016      1.165335      4.018528
  O      -6.225850     -0.588200      3.074310
  C      -9.843786      0.076300      6.931632
  C      -9.732858      0.701770      5.501515
  C     -10.154386     -1.453465      7.123880
  C      -8.595608      0.233102      4.538921
  C     -11.459070     -2.020813      6.471987
  C      -7.189338      0.408313      5.048055
  C     -11.935143     -3.377178      7.094189
  C      -6.111965      0.322220      3.936821
  H      -6.983224     -0.378766      5.782038
  H      -7.116419      1.372319      5.557308
52
Coordinates from ORCA-job R4N+FHEA-_0.15M E -2199.764388304196
  N      -2.736585      0.484509      0.800420
  C      -1.903176      0.214242     -0.455939
  C      -2.185987      1.644834      1.574322
  C      -4.132025      0.816082      0.353932
  C      -2.780084     -0.724092      1.686413
  C      -0.464235     -0.114863     -0.188902
  C       0.497057      0.899759     -0.150603
  C      -0.061339     -1.442280     -0.014807
  C       1.834505      0.594610      0.081460
  C       1.276115     -1.747721      0.217672
  C       2.225260     -0.729265      0.270540
  H      -1.990505      1.118975     -1.063739
  H      -2.407039     -0.611477     -0.965671
  H      -2.138188      2.515237      0.916782
  H      -1.191831      1.389722      1.943796
  H      -2.857502      1.837822      2.413363
  H      -4.089794      1.691968     -0.296859
  H      -4.735913      1.027984      1.238461
  H      -4.539218     -0.040914     -0.186354
  H      -1.770549     -0.949477      2.033303
  H      -3.186092     -1.562570      1.116595
  H      -3.425670     -0.496622      2.537341
  H       0.194360      1.931879     -0.308552
  H      -0.799864     -2.238330     -0.067579
  H       2.573418      1.390363      0.107965
  H       1.578676     -2.782446      0.350664
  H       3.270102     -0.967917      0.448257
  F     -10.823331      0.767210      7.570551
  F      -8.680719      0.303097      7.579455
  F     -10.258576     -1.623832      8.467741
  F      -9.103979     -2.171255      6.686548
  F      -9.577471      2.035480      5.698197
  F     -10.932685      0.512751      4.880237
  F      -8.880379     -1.062340      4.195718
  F      -8.792089      0.984328      3.399557
  F     -11.237561     -2.235455      5.159159
  F     -12.474036     -1.138420      6.611244
  F     -12.451227     -3.190124      8.315648
  F     -10.916059     -4.241610      7.177297
  F     -12.884992     -3.900294      6.309414
  O      -5.174264      1.158969      4.026070
  O      -6.226071     -0.588392      3.076077
  C      -9.848444      0.078377      6.928619
  C      -9.736316      0.700723      5.497229
  C     -10.157481     -1.451389      7.124095
  C      -8.597156      0.231274      4.537329
  C     -11.460828     -2.021490      6.472225
  C      -7.191936      0.409856      5.048052
  C     -11.936291     -3.377032      7.096529
  C      -6.111456      0.320365      3.940081
  H      -6.986416     -0.373798      5.785862
  H      -7.120763      1.375902      5.553732
52
Coordinates from ORCA-job R4N+FHEA-_0.15M E -2199.764389096637
  N      -2.735420      0.484187      0.802835
  C      -1.904212      0.213746     -0.454960
  C      -2.184093      1.644851      1.575253
  C      -4.131888      0.814923      0.358967
  C      -2.777049     -0.724350      1.689086
  C      -0.464747     -0.114994     -0.190066
  C       0.496313      0.899935     -0.153312
  C      -0.061322     -1.442213     -0.015920
  C       1.834228      0.595194      0.076618
  C       1.276617     -1.747243      0.214395
  C       2.225620     -0.728558      0.265301
  H      -1.992648      1.118336     -1.062796
  H      -2.408771     -0.612280     -0.963476
  H      -2.138111      2.515209      0.917488
  H      -1.189024      1.390724      1.942949
  H      -2.854370      1.838044      2.415356
  H      -4.091871      1.690537     -0.292350
  H      -4.734176      1.027350      1.244599
  H      -4.539615     -0.042569     -0.180125
  H      -1.767184     -0.948431      2.035860
  H      -3.182150     -1.563528      1.119655
  H      -3.422632     -0.497529      2.540110
  H       0.193007      1.931892     -0.311159
  H      -0.799657     -2.238526     -0.067298
  H       2.572981      1.391143      0.101596
  H       1.579698     -2.781857      0.347064
  H       3.270800     -0.966999      0.441298
  F     -10.826404      0.768048      7.567834
  F      -8.683672      0.305057      7.579129
  F     -10.260959     -1.622394      8.467057
  F      -9.104915     -2.170189      6.686927
  F      -9.579129      2.035600      5.695859
  F     -10.933086      0.511866      4.877621
  F      -8.879517     -1.062750      4.195697
  F      -8.791169      0.983719      3.398791
  F     -11.237715     -2.235809      5.158124
  F     -12.475386     -1.138907      6.609261
  F     -12.453093     -3.189854      8.314073
  F     -10.916346     -4.241103      7.177650
  F     -12.884666     -3.901281      6.307824
  O      -5.170135      1.154399      4.033504
  O      -6.225482     -0.587199      3.077403
  C      -9.850634      0.079256      6.927257
  C      -9.737298      0.700717      5.495559
  C     -10.159071     -1.450643      7.123374
  C      -8.597075      0.231158      4.536961
  C     -11.461671     -2.021593      6.471058
  C      -7.192501      0.410327      5.049240
  C     -11.936905     -3.377139      7.095532
  C      -6.110005      0.319385      3.943641
  H      -6.988042     -0.371857      5.788891
  H      -7.122078      1.377109      5.553709
52
Coordinates from ORCA-job R4N+FHEA-_0.15M E -2199.764389401084
  N      -2.734234      0.484164      0.802769
  C      -1.903153      0.214791     -0.455386
  C      -2.183398      1.644735      1.575585
  C      -4.130888      0.814322      0.359407
  C      -2.775107     -0.724812      1.688479
  C      -0.463711     -0.114345     -0.190834
  C       0.497518      0.900393     -0.153345
  C      -0.060529     -1.441782     -0.017874
  C       1.835378      0.595204      0.076295
  C       1.277350     -1.747235      0.212231
  C       2.226530     -0.728757      0.263949
  H      -1.991587      1.119956     -1.062350
  H      -2.407712     -0.610871     -0.964482
  H      -2.138180      2.515603      0.918434
  H      -1.188118      1.391099      1.943041
  H      -2.853682      1.837280      2.415869
  H      -4.091775      1.690015     -0.291881
  H      -4.733034      1.026616      1.245054
  H      -4.538612     -0.043168     -0.179697
  H      -1.765273     -0.947666      2.036150
  H      -3.178573     -1.564300      1.118370
  H      -3.421749     -0.498957      2.539027
  H       0.194350      1.932513     -0.310370
  H      -0.798973     -2.237953     -0.069840
  H       2.574267      1.391008      0.101899
  H       1.580254     -2.781999      0.344121
  H       3.271663     -0.967565      0.439726
  F     -10.827804      0.768618      7.567651
  F      -8.685042      0.306040      7.579104
  F     -10.261961     -1.621466      8.467857
  F      -9.105926     -2.169756      6.687865
  F      -9.580658      2.035452      5.694993
  F     -10.934550      0.511214      4.877583
  F      -8.880666     -1.063412      4.196024
  F      -8.792783      0.982856      3.398463
  F     -11.238941     -2.236013      5.159166
  F     -12.476572     -1.139066      6.610272
  F     -12.453693     -3.189547      8.315519
  F     -10.916816     -4.240792      7.179267
  F     -12.885309     -3.901672      6.309545
  O      -5.169583      1.151695      4.035792
  O      -6.227473     -0.586830      3.076897
  C      -9.851963      0.079709      6.927372
  C      -9.738718      0.700490      5.495316
  C     -10.160174     -1.450222      7.124139
  C      -8.598450      0.230690      4.536807
  C     -11.462688     -2.021577      6.472103
  C      -7.193929      0.410294      5.049134
  C     -11.937551     -3.377104      7.096980
  C      -6.111009      0.318627      3.944262
  H      -6.989509     -0.371111      5.789614
  H      -7.123881      1.377509      5.552869
52
Coordinates from ORCA-job R4N+FHEA-_0.15M E -2199.764389522765
  N      -2.734280      0.483501      0.802945
  C      -1.903160      0.214995     -0.455376
  C      -2.183890      1.644153      1.575848
  C      -4.131097      0.812994      0.360015
  C      -2.774449     -0.725696      1.688375
  C      -0.463640     -0.113909     -0.190997
  C       0.497379      0.901003     -0.153071
  C      -0.060197     -1.441345     -0.018615
  C       1.835300      0.595978      0.076430
  C       1.277745     -1.746633      0.211325
  C       2.226726     -0.727981      0.263484
  H      -1.991865      1.120497     -1.061791
  H      -2.407473     -0.610571     -0.964868
  H      -2.139416      2.515270      0.918976
  H      -1.188383      1.390982      1.942998
  H      -2.854007      1.836372      2.416309
  H      -4.092671      1.688366     -0.291757
  H      -4.732919      1.025582      1.245867
  H      -4.538846     -0.044880     -0.178464
  H      -1.764547     -0.947641      2.036442
  H      -3.176876     -1.565385      1.117846
  H      -3.421720     -0.500503      2.538660
  H       0.193996      1.933130     -0.309633
  H      -0.798467     -2.237656     -0.070886
  H       2.574023      1.391926      0.102379
  H       1.580867     -2.781390      0.342773
  H       3.271908     -0.966668      0.439131
  F     -10.827721      0.769111      7.567567
  F      -8.685017      0.306168      7.579098
  F     -10.262418     -1.620967      8.467857
  F      -9.106170     -2.169478      6.688037
  F      -9.580228      2.035694      5.694928
  F     -10.934462      0.511726      4.877565
  F      -8.880944     -1.063271      4.195820
  F      -8.792530      0.983021      3.398474
  F     -11.238961     -2.235643      5.159053
  F     -12.476735     -1.138566      6.609905
  F     -12.454273     -3.188862      8.315312
  F     -10.917137     -4.240263      7.179556
  F     -12.885428     -3.901309      6.309348
  O      -5.168778      1.150318      4.036817
  O      -6.227719     -0.586920      3.076685
  C      -9.851961      0.080042      6.927368
  C      -9.738583      0.700745      5.495284
  C     -10.160417     -1.449817      7.124160
  C      -8.598408      0.230716      4.536724
  C     -11.462879     -2.021118      6.471930
  C      -7.193846      0.409950      5.049143
  C     -11.937852     -3.376600      7.096891
  C      -6.110816      0.318005      3.944526
  H      -6.989653     -0.371439      5.789704
  H      -7.123736      1.377180      5.552850
52
Coordinates from ORCA-job R4N+FHEA-_0.15M E -2199.764389580309
  N      -2.734339      0.483095      0.802690
  C      -1.902824      0.215310     -0.455530
  C      -2.184395      1.643748      1.576014
  C      -4.131111      0.812277      0.359649
  C      -2.774275     -0.726349      1.687805
  C      -0.463338     -0.113536     -0.190958
  C       0.497601      0.901423     -0.152434
  C      -0.059837     -1.441014     -0.018960
  C       1.835507      0.596392      0.077187
  C       1.278077     -1.746305      0.211110
  C       2.226989     -0.727607      0.263803
  H      -1.991544      1.121109     -1.061499
  H      -2.406869     -0.610085     -0.965568
  H      -2.140255      2.515125      0.919473
  H      -1.188861      1.390758      1.943198
  H      -2.854626      1.835456      2.416485
  H      -4.092852      1.687694     -0.292080
  H      -4.733060      1.024703      1.245423
  H      -4.538740     -0.045618     -0.178892
  H      -1.764388     -0.947875      2.036184
  H      -3.176069     -1.566039      1.116832
  H      -3.422026     -0.501664      2.537862
  H       0.194193      1.933598     -0.308638
  H      -0.798045     -2.237353     -0.071682
  H       2.574175      1.392377      0.103581
  H       1.581244     -2.781093      0.342203
  H       3.272159     -0.966276      0.439545
  F     -10.827281      0.769236      7.568032
  F      -8.684609      0.306012      7.579062
  F     -10.262115     -1.620961      8.467995
  F      -9.106248     -2.169449      6.687907
  F      -9.580046      2.035839      5.695243
  F     -10.934650      0.512111      4.878059
  F      -8.881530     -1.063075      4.195649
  F      -8.792992      0.983270      3.398510
  F     -11.239280     -2.235408      5.159343
  F     -12.476722     -1.138172      6.610343
  F     -12.454275     -3.188457      8.315791
  F     -10.917357     -4.240013      7.179880
  F     -12.885723     -3.900918      6.309894
  O      -5.168676      1.149528      4.036584
  O      -6.228572     -0.586902      3.075873
  C      -9.851720      0.080104      6.927583
  C      -9.738614      0.700904      5.495525
  C     -10.160341     -1.449697      7.124307
  C      -8.598720      0.230820      4.536627
  C     -11.463002     -2.020833      6.472233
  C      -7.194005      0.409845      5.048753
  C     -11.938022     -3.376257      7.097302
  C      -6.111143      0.317690      3.943983
  H      -6.989763     -0.371619      5.789227
  H      -7.123711      1.377069      5.552436
